NAME          25FV47
ROWS
 N  R0000   
 E  F1X.0   
 E  2SF145  
 E  2SF089  
 E  2SF129  
 E  30M00   
 E  30M94   
 E  30M91   
 E  30ATK   
 E  30PGK   
 E  30G30   
 E  30G17   
 E  30G44   
 E  30G22   
 E  30D22   
 E  30D30   
 E  30121   
 E  30F52   
 E  30F48   
 E  30128   
 E  RB017   
 E  2RB018  
 E  1RB019  
 E  2RB020  
 E  RC0ST   
 E  RCRFT   
 E  RMSEX   
 E  RLDEX   
 E  RPKEX   
 E  RRKEX   
 E  RG0EX   
 E  RF0EX   
 E  KW1RC   
 E  RA001   
 E  RA002   
 E  1RA002  
 E  RA004   
 E  RA005   
 E  2RA005  
 E  RA006   
 E  RA007   
 E  RA008   
 E  RA009   
 E  RA010   
 E  RA011   
 E  RA012   
 E  RA013   
 E  RA014   
 E  RA015   
 E  RA016   
 E  RA017   
 E  RA018   
 E  RA019   
 E  RA020   
 E  1RA020  
 E  RA022   
 E  RA023   
 E  RA024   
 E  RA026   
 E  RA027   
 E  RA028   
 E  RA029   
 E  1RA029  
 E  RA031   
 E  RA032   
 E  RA033   
 E  RA034   
 E  1RA034  
 E  2RA034  
 E  RA035   
 E  RA036   
 E  RA037   
 E  RA038   
 E  RA039   
 E  RA040   
 E  RA041   
 E  RA043   
 E  1RA043  
 E  RA044   
 E  RA045   
 E  RA046   
 E  RA047   
 E  1RA047  
 E  RA048   
 E  RA049   
 E  RA051   
 E  RA052   
 E  1RA052  
 E  1RA053  
 E  RA054   
 E  RA055   
 E  1RA055  
 E  RA056   
 E  RA057   
 E  RA058   
 E  1RA058  
 E  RA059   
 E  RA060   
 E  2RA060  
 E  3RA060  
 E  RA061   
 E  RA062   
 E  RA063   
 E  RA064   
 E  RA065   
 E  RA066   
 E  RA067   
 E  RA068   
 E  RA069   
 E  RA070   
 E  RA072   
 E  RA075   
 E  1RA075  
 E  RA076   
 E  1RA076  
 E  RA077   
 E  RA078   
 E  1RA078  
 E  RA079   
 E  1RA079  
 E  RA081   
 E  1RA081  
 E  RA082   
 E  RA083   
 E  RA084   
 E  RA085   
 E  RA086   
 E  RA087   
 E  RA088   
 E  RA089   
 E  RA090   
 E  RA091   
 E  RA092   
 E  RA093   
 E  RA094   
 E  RA095   
 E  RA096   
 E  RA097   
 E  1RA099  
 E  RA100   
 E  RB001   
 E  1RB001  
 E  RB002   
 E  RB003   
 E  1RB003  
 E  RB004   
 E  1RB004  
 E  RB005   
 E  1RB005  
 E  2RB005  
 E  RB006   
 E  1RB006  
 E  RB007   
 E  1RB007  
 E  2RB007  
 E  RB008   
 E  1RB008  
 E  2RB008  
 E  3RB008  
 E  RB009   
 E  RB010   
 E  RB011   
 E  RB012   
 E  RB013   
 E  1RB013  
 E  RB014   
 E  RB015   
 E  1RB015  
 E  2RB015  
 E  RB016   
 E  1RB016  
 E  RB018   
 E  1RB018  
 E  RB019   
 E  RB020   
 E  1RB020  
 E  1RB021  
 E  RB022   
 E  1RB022  
 E  1RB023  
 E  RB024   
 E  1RB024  
 E  RB025   
 E  1RB025  
 E  2RB025  
 E  RB026   
 E  RB027   
 E  RB028   
 E  RB029   
 E  RB030   
 E  1RB030  
 E  2RB030  
 E  RB031   
 E  1RB031  
 E  RB033   
 E  RB034   
 E  RB035   
 E  RB036   
 E  RB037   
 E  RB038   
 E  1RB038  
 E  RB039   
 E  RB040   
 E  1RB040  
 E  2RB040  
 E  RB041   
 E  RB042   
 E  1RB043  
 E  1RB044  
 E  RB045   
 E  1RB045  
 E  4RB045  
 E  RB046   
 E  RB047   
 E  2RB047  
 E  3RB047  
 E  RB048   
 E  2RB049  
 E  RB050   
 E  1RB050  
 E  RB051   
 E  1RB051  
 E  2RB051  
 E  RB052   
 E  RB053   
 E  1RB053  
 E  RB054   
 E  1RB054  
 E  RB055   
 E  RB057   
 E  RB058   
 E  1RB058  
 E  RB059   
 E  RB060   
 E  RB061   
 E  RB062   
 E  RB063   
 E  RB064   
 E  RB065   
 E  RB066   
 E  RB067   
 E  RB068   
 E  RB069   
 E  RB070   
 E  RB071   
 E  RB072   
 E  RB073   
 E  RB074   
 E  RB075   
 E  RB076   
 E  RB077   
 E  RB078   
 E  RB079   
 E  RB080   
 E  RB081   
 E  RB082   
 E  RB083   
 E  RB084   
 E  RB085   
 E  RB086   
 E  RB087   
 E  1RB087  
 E  RB088   
 E  RB089   
 E  RB090   
 E  1RB090  
 E  RB091   
 E  RB092   
 E  1RB092  
 E  RB093   
 E  1RB093  
 E  RB094   
 E  RB095   
 E  RB096   
 E  RB097   
 E  RB098   
 E  RB099   
 E  RB100   
 E  RB101   
 E  RB102   
 E  RB103   
 E  RB104   
 E  RB105   
 E  RB106   
 E  RCLD4   
 E  RCF35   
 E  RCF80   
 E  RDBMS   
 E  RDLD4   
 E  RDK19   
 E  RDG55   
 E  RDF35   
 E  RE001   
 E  RE002   
 E  RE004   
 E  RE005   
 E  RE008   
 E  RE009   
 E  RE010   
 E  RE011   
 E  RE012   
 E  RE013   
 E  RE014   
 E  RE015   
 E  RE016   
 E  RE017   
 E  RE018   
 E  RE019   
 E  RE021   
 E  RE022   
 E  RE024   
 E  RE025   
 E  RE026   
 E  RE028   
 E  RE030   
 E  RE035   
 E  RE036   
 E  RE037   
 E  RE039   
 E  RE040   
 E  RE044   
 E  RE045   
 E  RE046   
 E  RE047   
 E  RE048   
 E  RE049   
 E  RE050   
 E  RE051   
 E  RE055   
 E  1RE056  
 E  RE057   
 E  RE058   
 E  RE060   
 E  RE061   
 E  1RE061  
 E  2RE061  
 E  RE062   
 E  RE063   
 E  RE064   
 E  RE066   
 E  RE068   
 E  RE069   
 E  RE070   
 E  RE071   
 E  RE072   
 E  RE073   
 E  RE074   
 E  RE075   
 E  RE084   
 E  RE085   
 E  RE086   
 E  RE087   
 E  RE088   
 E  RE089   
 E  RE090   
 E  RE091   
 E  RE092   
 E  RE098   
 E  RE099   
 E  RE100   
 E  RE101   
 E  RE102   
 E  RE103   
 E  RE104   
 E  RH001   
 E  1RH001  
 E  2RH001  
 E  RH002   
 E  RH003   
 E  RH004   
 E  RH005   
 E  1RH005  
 E  RH006   
 E  1RH006  
 E  RH007   
 E  RH008   
 E  1RH008  
 E  RH009   
 E  RH010   
 E  RH011   
 E  RH012   
 E  RH013   
 E  RH014   
 E  RH015   
 E  RH016   
 E  RH017   
 E  1RH017  
 E  2RH017  
 E  RH018   
 E  1RH018  
 E  2RH018  
 E  3RH018  
 E  RH019   
 E  1RH019  
 E  RH020   
 E  RH021   
 E  1RH021  
 E  RH022   
 E  1RH022  
 E  2RH022  
 E  3RH022  
 E  4RH022  
 E  RH023   
 E  2RH023  
 E  RH024   
 E  1RH024  
 E  RH025   
 E  1RH025  
 E  2RH025  
 E  RH026   
 E  1RH026  
 E  2RH026  
 E  RH027   
 E  1RH027  
 E  RH028   
 E  1RH028  
 E  2RH028  
 E  RH029   
 E  1RH029  
 E  RH030   
 E  1RH030  
 E  2RH030  
 E  3RH030  
 E  4RH030  
 E  RH031   
 E  RH032   
 E  1RH033  
 E  2RH033  
 E  RH034   
 E  1RH034  
 E  RH035   
 E  1RH035  
 E  RH036   
 E  1RH036  
 E  RH038   
 E  1RH038  
 E  2RH038  
 E  RH039   
 E  2RH039  
 E  RH041   
 E  RH042   
 E  2RH042  
 E  RH043   
 E  2RH043  
 E  RH046   
 E  RH048   
 E  2RH048  
 E  3RH048  
 E  RH050   
 E  RH051   
 E  1RH051  
 E  2RH051  
 E  RH052   
 E  2RH052  
 E  3RH052  
 E  4RH052  
 E  RH053   
 E  2RH053  
 E  3RH053  
 E  RH054   
 E  1RH054  
 E  RH055   
 E  RH056   
 E  RH057   
 E  RH058   
 E  RH059   
 E  RH060   
 E  1RH060  
 E  RH061   
 E  RH062   
 E  RH063   
 E  RH064   
 E  RH065   
 E  RH066   
 E  1RH066  
 E  RH067   
 E  RH068   
 E  RH069   
 E  RH070   
 E  RH071   
 E  RH072   
 E  RH073   
 E  RH074   
 E  RH075   
 E  RH080   
 E  RH081   
 E  RH082   
 E  RH083   
 E  RH084   
 E  RH085   
 E  RH086   
 E  RH087   
 E  RH088   
 E  RH089   
 E  1RH089  
 E  2RH089  
 E  3RH089  
 E  RH090   
 E  1RH090  
 E  2RH090  
 E  RH091   
 E  RH093   
 E  1RH093  
 E  RH094   
 E  RH095   
 E  RH096   
 E  RH099   
 E  RH103   
 E  RH105   
 E  RH106   
 E  1RH106  
 E  2RH106  
 E  RH107   
 E  1RH107  
 E  2RH107  
 E  RH108   
 E  RH109   
 E  1RH109  
 E  2RH109  
 E  RH110   
 E  RH113   
 E  RH114   
 E  RH115   
 E  RH116   
 E  RH117   
 E  RH118   
 E  1RH118  
 E  R1002   
 E  R1003   
 E  R1004   
 E  1R1004  
 E  R1005   
 E  1R1006  
 E  2R1006  
 E  R1007   
 E  1R1007  
 E  R1008   
 E  R1009   
 E  1R1009  
 E  R1010   
 E  R1012   
 E  R1013   
 E  R1014   
 E  R1015   
 E  R1016   
 E  R1017   
 E  R1018   
 E  R1019   
 E  1R1019  
 E  R1020   
 E  1R1020  
 E  R1021   
 E  1R1021  
 E  2R1021  
 E  3R1021  
 E  R1022   
 E  R1023   
 E  R1024   
 E  R1025   
 E  R1026   
 E  R1027   
 E  1R1027  
 E  R1028   
 E  1R1028  
 E  2R1028  
 E  3R1028  
 E  R1029   
 E  R1030   
 E  R1031   
 E  R1032   
 E  R1033   
 E  1R1033  
 E  2R1033  
 E  3R1033  
 E  R1034   
 E  R1035   
 E  R1036   
 E  R1037   
 E  R1038   
 E  1R1038  
 E  2R1038  
 E  R1039   
 E  1R1039  
 E  R1040   
 E  R1041   
 E  R1042   
 E  R1043   
 E  R1045   
 E  R1046   
 E  R1047   
 E  R1050   
 E  R1051   
 E  R1054   
 E  R1055   
 E  R1057   
 E  1R1057  
 E  R1058   
 E  R1060   
 E  R1061   
 E  R1062   
 E  2R1062  
 E  R1063   
 E  1R1063  
 E  2R1063  
 E  R1064   
 E  1R1064  
 E  R1065   
 E  R1066   
 E  R1068   
 E  1R1068  
 E  R1069   
 E  R1070   
 E  R1071   
 E  1R1071  
 E  2R1071  
 E  R1072   
 E  R1073   
 E  R1074   
 E  R1075   
 E  R1076   
 E  R1077   
 E  R1078   
 E  R1079   
 E  R1080   
 E  R1081   
 E  R1082   
 E  R1086   
 E  R1087   
 E  R1088   
 E  R1089   
 E  R1090   
 E  R1091   
 E  R1092   
 E  R1093   
 E  R1094   
 E  R1095   
 E  R1096   
 E  R1097   
 E  R1098   
 E  R1099   
 E  R1100   
 E  R1101   
 E  R1102   
 E  1R1102  
 E  R1103   
 E  R1104   
 E  R1105   
 E  R1106   
 E  R1107   
 E  R1108   
 E  R1109   
 E  R1110   
 E  R1111   
 E  R1112   
 E  R1113   
 E  R1114   
 E  R1115   
 E  RJ001   
 E  1RJ001  
 E  RJ002   
 E  RJ003   
 E  RJ004   
 E  RJ005   
 E  RJ006   
 E  1RJ006  
 E  RJ007   
 E  1RJ007  
 E  RJ008   
 E  1RJ008  
 E  RJ009   
 E  RJ010   
 E  RJ011   
 E  1RJ011  
 E  RJ012   
 E  RJ013   
 E  RJ014   
 E  RJ015   
 E  RJ016   
 E  RJ018   
 E  RJ019   
 E  RJ020   
 E  RJ021   
 E  RJ024   
 E  RJ025   
 E  RJ026   
 E  RJ027   
 E  RJ028   
 E  RJ029   
 E  RJ030   
 E  RJ031   
 E  RJ032   
 E  RJ033   
 E  RJ034   
 E  RJ035   
 E  RJ036   
 E  1RJ036  
 E  1RJ037  
 E  2RJ037  
 E  RJ038   
 E  RJ039   
 E  RJ040   
 E  1RJ041  
 E  RJ042   
 E  RJ043   
 E  RJ045   
 E  2RJ045  
 E  RJ046   
 E  2RJ046  
 E  RJ047   
 E  RJ048   
 E  RJ049   
 E  RJ050   
 E  1RJ050  
 E  RJ051   
 E  RJ052   
 E  RJ053   
 E  RJ054   
 E  RJ055   
 E  RJ056   
 E  RJ057   
 E  RJ061   
 E  RJ062   
 E  RJ063   
 E  RJ064   
 E  RJ065   
 E  RJ066   
 E  RJ067   
 E  RJ068   
 E  RJ069   
 E  RJ070   
 E  RJ071   
 E  RJ072   
 E  RJ073   
 E  1RJ073  
 E  RJ074   
 E  1RJ074  
 E  RJ075   
 E  RJ076   
 E  1RJ076  
 E  RJ077   
 E  RJ078   
 E  RJ079   
 E  RJ080   
 E  RJ081   
 E  RJ082   
 E  RJ083   
 E  RJ084   
 E  1RJ084  
 E  RJ089   
 E  RJ091   
 E  RJ092   
 E  RJ095   
 E  RJ096   
 E  RJ097   
 E  1RJ097  
 E  RJ098   
 E  1RJ098  
 E  RJ099   
 E  RJ100   
 E  RJ102   
 E  RJ103   
 E  RJ104   
 E  RJ105   
 E  RJ106   
 E  1RM001  
 E  RM002   
 E  1RM003  
 E  2RM003  
 E  RM004   
 E  RM005   
 E  RM006   
 E  1RM006  
 E  2RM006  
 E  RM011   
 E  RM012   
 E  RN009   
 E  1RN014  
 E  RR010   
 E  RR021   
 E  RRG29   
 E  UKLDF   
 E  HSPMS   
 E  HSRMS   
 E  HSLDF   
 E  HSATK   
 E  NSG17   
 E  HSG58   
 E  HSF80   
 E  RT005   
 E  RT006   
 E  3RT006  
 E  4RT006  
 E  RV001   
 E  RV002   
 E  RV003   
 E  RXATG   
 E  RXF72   
 E  RY001   
 E  1RY001  
 E  RY002   
 E  RY004   
 E  RY005   
 E  RZ001   
 E  RZ002   
 E  RZ004   
 E  RZ005   
 E  RZ006   
 E  RZ012   
 E  RZ016   
 E  RZ019   
 E  RZ020   
 E  RABDH   
 E  RAGJA   
 E  RGACH   
 E  RHN1G   
 E  RK1RK   
 E  RKUWT   
 E  RL1BY   
 E  RMN1G   
 E  RMURB   
 E  RQATR   
 E  RT1JA   
COLUMNS
    MSEXP    R0000    -0.100000   RMSEX    -1.000000
    MS1MP    R0000    0.101000   RMSEX    1.000000
    LDEXP    R0000    -0.075000   RLDEX    -1.000000
    LD1MP    R0000    0.076000   RLDEX    1.000000
    PKEXP    R0000    -0.100000   RPKEX    -1.000000
    PK1MP    R0000    0.101000   RPKEX    1.000000
    RKEXP    R0000    -0.087500   RRKEX    -1.000000
    RK1MP    R0000    0.088500   RRKEX    1.000000
    1G0EXP   RG0EX    -1.000000
    1G01MP   RG0EX    1.000000
    1F0EXP   RF0EX    -1.000000
    1F01MP   RF0EX    1.000000
    5C0ST    R0000    0.200000   RC0ST    -1.000000
    6C0ST    R0000    0.250000   RC0ST    -1.000000
    CCRFT    R0000    0.001000   RCRFT    -1.000000
    CRUDE    R0000    2.275000   RKUWT    -1.000000
    AABDH    R0000    -1.530300   1RA002   -1.000000
    AABDH    RABDH    1.000000
    HABDH    R0000    0.963200   RH006    -1.000000
    HABDH    RABDH    1.000000
    JABDH    R0000    0.368700   RJ006    -1.000000
    JABDH    RABDH    1.000000
    1AAGJA   R0000    -1.425400   RA001    -1.000000
    1AAGJA   RAGJA    1.000000
    1BAGJA   R0000    1.007000   RB001    -1.000000
    1BAGJA   RAGJA    1.000000
    EAGJA    R0000    -1.138700   RE002    -1.000000
    EAGJA    RAGJA    1.000000
    1HAGJA   R0000    0.983900   RH002    -1.000000
    1HAGJA   RAGJA    1.000000
    11AGJA   R0000    1.010900   R1004    -1.000000
    11AGJA   RAGJA    1.000000
    1JAGJA   R0000    0.396900   RJ002    -1.000000
    1JAGJA   RAGJA    1.000000
    AGACH    R0000    -1.246400   RA004    -1.000000
    AGACH    RGACH    1.000000
    BGACH    R0000    1.007000   RB003    -1.000000
    BGACH    RGACH    1.000000
    EGACH    R0000    -1.012200   RE004    -1.000000
    EGACH    RGACH    1.000000
    1GACH    R0000    1.010900   R1005    -1.000000
    1GACH    RGACH    1.000000
    JGACH    R0000    0.396900   RJ005    -1.000000
    JGACH    RGACH    1.000000
    BHN1G    R0000    0.862500   RB004    -1.000000
    BHN1G    RHN1G    1.000000
    HHN1G    R0000    0.667400   RH005    -1.000000
    HHN1G    RHN1G    1.000000
    1HN1G    R0000    0.694300   R1007    -1.000000
    1HN1G    RHN1G    1.000000
    BK1RK    R0000    0.307500   1RB001   -1.000000
    BK1RK    1RB038   -0.020000   RB042    -0.020000
    BK1RK    RB047    -0.020000   RB052    0.060000
    BK1RK    RK1RK    1.000000
    HK1RK    R0000    0.424900   RH003    -1.000000
    HK1RK    RH039    -0.020000   RH042    -0.020000
    HK1RK    RH048    -0.020000   3RH052   0.060000
    HK1RK    RK1RK    1.000000
    1K1RK    R0000    0.305900   R1002    -1.000000
    1K1RK    R1055    -0.020000   R1057    -0.020000
    1K1RK    1R1057   -0.020000   R1062    -0.020000
    1K1RK    R1068    0.060000   RK1RK    1.000000
    AKUWT    R0000    -1.206300   RA005    -1.000000
    AKUWT    RKUWT    1.000000
    BKUWT    R0000    1.011400   RB002    -1.000000
    BKUWT    RKUWT    1.000000
    EKUWT    R0000    -0.979100   RE001    -1.000000
    EKUWT    RKUWT    1.000000
    HKUWT    R0000    0.988600   1RH001   -1.000000
    HKUWT    RKUWT    1.000000
    1KUWT    R0000    1.015400   R1003    -1.000000
    1KUWT    RKUWT    1.000000
    JKUWT    R0000    0.403300   RJ001    -1.000000
    JKUWT    RKUWT    1.000000
    BL1BY    R0000    0.365700   1RB003   -1.000000
    BL1BY    RL1BY    1.000000
    HL1BY    R0000    0.345000   1RH006   -1.000000
    HL1BY    RL1BY    1.000000
    1L1BY    R0000    0.683200   1R1006   -1.000000
    1L1BY    RL1BY    1.000000
    BMN1G    R0000    0.862500   1RB004   -1.000000
    BMN1G    RMN1G    1.000000
    HMN1G    R0000    0.667400   1RH005   -1.000000
    HMN1G    RMN1G    1.000000
    1MN1G    R0000    0.694300   1R1004   -1.000000
    1MN1G    RMN1G    1.000000
    1MURB    R0000    1.019900   1R1007   -1.000000
    1MURB    RMURB    1.000000
    JMURB    R0000    0.409400   1RJ006   -1.000000
    JMURB    RMURB    1.000000
    AQATR    R0000    -1.651900   RA002    -1.000000
    AQATR    RQATR    1.000000
    JQATR    R0000    0.400100   RJ004    -1.000000
    JQATR    RQATR    1.000000
    ASPKU    R0000    -1.382300   2RA005   -1.000000
    ASPKU    RY001    0.150000   RKUWT    0.850000
    HSPKU    R0000    0.988600   2RH001   -1.000000
    HSPKU    RY001    0.100000   RKUWT    0.900000
    JSPKU    R0000    0.403300   1RJ001   -1.000000
    JSPKU    RY001    0.100000   RKUWT    0.900000
    BT1JA    R0000    0.418300   RB005    -1.000000
    BT1JA    RT1JA    1.000000
    HT1JA    R0000    0.402200   RH004    -1.000000
    HT1JA    RT1JA    1.000000
    HC3      R0000    100.000000   1RH008   1.000000
    AVGAS    R0000    20.824800   RC0ST    1.658000
    AVGAS    RMSEX    -1.000000   RH031    1.000000
    KWPMS    R0000    20.000000   RA039    1.000000
    PMS      R0000    13.974800   RC0ST    1.658000
    PMS      RMSEX    -1.000000   1RH035   1.000000
    RMS      R0000    11.596800   RC0ST    1.658000
    RMS      RMSEX    -1.000000   1RH036   1.000000
    PGB0     R0000    12.084800   RC0ST    1.658000
    PGB0     RPKEX    -1.000000   RH041    1.000000
    ATK      R0000    11.146700   RC0ST    1.658000
    ATK      RRKEX    -1.000000   RH042    1.000000
    KWG20    R0000    15.000000   RA044    1.000000
    G29      R0000    7.906700   RC0ST    1.646000
    G29      RRG29    1.000000
    G44      R0000    9.582800   RC0ST    1.658000
    G44      RG0EX    -1.000000   RH043    1.000000
    G44      RH082    -5.000000
    G58      R0000    8.019800   RC0ST    1.658000
    G58      RG0EX    -1.000000   2RH048   1.000000
    F28      R0000    5.941700   RC0ST    1.658000
    F28      RF0EX    -1.000000   1RH051   1.000000
    F80      R0000    4.605900   RC0ST    1.658000
    F80      RF0EX    -1.000000   2RH052   1.000000
    F81      R0000    5.535000   RC0ST    1.562000
    F81      RF0EX    -1.000000   RB054    1.000000
    ADDAE    R0000    0.637400   KW1RC    1.000000
    CA001    R0000    0.017400   1RA002   1.012500
    CA001    RA009    0.167000   RA011    0.060000
    CA001    RA012    0.045000   RA013    0.100000
    CA001    RA014    0.090000   RA016    0.116000
    CA001    1RA020   0.404000   RA035    0.018000
    CA001    RA036    -0.022300   RA055    1.130000
    CA001    1RA055   1.130000
    CA002    R0000    0.011100   RA001    1.011500
    CA002    RA008    0.037000   RA009    0.151000
    CA002    RA010    0.053000   RA013    0.088000
    CA002    RA014    0.080000   RA016    0.104000
    CA002    RA018    0.467000   RA035    0.020000
    CA002    RA036    -0.021700   RA055    1.020000
    CA002    1RA055   1.020000
    CA003    R0000    0.008800   RA005    1.008500
    CA003    RA009    0.131000   RA011    0.042000
    CA003    RA012    0.033000   RA013    0.076000
    CA003    RA015    0.091000   RA017    0.060000
    CA003    RA019    0.546000   RA035    0.021000
    CA003    RA036    -0.022300   RA055    1.000000
    CA003    RA072    -0.101000
    CA004    R0000    0.017400   RA002    1.012500
    CA004    RA009    0.192000   RA011    0.070000
    CA004    RA012    0.048000   RA013    0.115000
    CA004    RA014    0.113000   RA016    0.074000
    CA004    RA020    0.355000   RA035    0.033000
    CA004    RA036    -0.022300   RA055    1.250000
    CA006    R0000    0.011400   RA004    1.011500
    CA006    RA006    0.533000   RA008    0.037000
    CA006    RA009    0.147000   RA010    0.037000
    CA006    RA013    0.080000   RA014    0.074000
    CA006    RA016    0.073000   RA035    0.019000
    CA006    RA036    -0.022300   RA055    1.000000
    CA006    1RA055   1.000000
    CA008    R0000    0.256400   RA061    -10.520000
    CA008    RA062    1.000000
    CA009    R0000    0.256400   RA066    -15.270000
    CA009    RA067    1.000000
    CA010    R0000    0.081900   RA035    -1.000000
    CA010    RA039    1.000000   RA061    5.170000
    CA010    RA062    -0.541000   RA063    -155.159897
    CA010    RA064    218.259996   RA065    95.509999
    CA011    R0000    0.049500   RA035    -1.000000
    CA011    RA040    1.000000   RA066    -18.960000
    CA011    RA067    -0.734000   RA068    -155.159897
    CA011    RA069    218.259996   RA070    95.509999
    CA012    R0000    0.040400   RA009    -1.000000
    CA012    RA040    1.000000   RA066    33.790000
    CA012    RA067    -0.599000   RA068    -14.080000
    CA012    RA069    -14.780000   RA070    -6.899000
    CA013    R0000    0.159300   RA009    -1.000000
    CA013    RA013    0.020000   RA022    0.149000
    CA013    RA035    0.241000   RA036    -0.115000
    CA013    RA039    0.590000   RA056    1.405000
    CA013    RA061    0.390000   RA062    -0.242000
    CA013    RA063    -3.855000   RA064    -4.700000
    CA013    RA065    -3.550000
    CA014    R0000    0.054300   RA009    -1.000000
    CA014    RA013    0.020000   RA022    0.149000
    CA014    RA035    0.112000   RA036    -0.082000
    CA014    RA040    0.719000   RA056    1.117000
    CA014    RA066    -0.780000   RA067    -0.414000
    CA014    RA068    0.972000   RA069    -13.220000
    CA014    RA070    -4.471000
    CA015    R0000    0.100100   RA009    -1.000000
    CA015    RA013    0.020000   RA023    0.446000
    CA015    RA035    0.153000   RA036    -0.074000
    CA015    RA039    0.381000   RA056    0.801000
    CA015    RA061    0.240000   RA062    -0.153000
    CA015    RA063    7.320000   RA064    -4.000000
    CA015    RA065    -2.240000
    CA016    R0000    0.038200   RA009    -1.000000
    CA016    RA013    0.020000   RA023    0.446000
    CA016    RA035    0.043000   RA036    -0.052700
    CA016    RA040    0.491000   RA056    0.879000
    CA016    RA066    -0.520000   RA067    -0.277000
    CA016    RA068    16.250000   RA069    -10.400000
    CA016    RA070    -2.990000
    CA017    R0000    0.108700   RA009    -1.000000
    CA017    RA013    0.020000   RA022    0.149000
    CA017    RA035    0.191000   RA036    -0.109900
    CA017    RA039    0.640000   RA056    1.245000
    CA017    RA061    3.730000   RA062    -0.266000
    CA017    RA063    -1.696000   RA064    -8.060000
    CA017    RA065    -3.900000
    CA018    R0000    0.092800   RA009    -1.000000
    CA018    RA013    0.020000   RA022    0.149000
    CA018    RA035    0.191000   RA036    -0.109900
    CA018    RA040    0.640000   RA056    1.245000
    CA018    RA066    -7.970000   RA067    -0.361000
    CA018    RA068    -1.696000   RA069    -8.060000
    CA018    RA070    -3.900000
    CA019    R0000    0.071000   RA009    -1.000000
    CA019    RA013    0.020000   RA023    0.446000
    CA019    RA035    0.083000   RA036    -0.070600
    CA019    RA039    0.451000   RA056    0.939000
    CA019    RA061    2.580000   RA062    -0.184000
    CA019    RA063    11.720000   RA064    -6.910000
    CA019    RA065    -2.695000
    CA020    R0000    0.060000   RA009    -1.000000
    CA020    RA013    0.020000   RA023    0.446000
    CA020    RA035    0.083000   RA036    -0.070600
    CA020    RA040    0.451000   RA056    0.939000
    CA020    RA066    -5.510000   RA067    -0.249000
    CA020    RA068    11.720000   RA069    -6.910000
    CA020    RA070    -2.695000
    CA021    R0000    0.172400   RA009    -0.745000
    CA021    RA010    -0.255000   RA013    0.020000
    CA021    RA022    0.083000   RA035    0.207000
    CA021    RA036    -0.124000   RA039    0.690000
    CA021    RA056    1.447000   RA061    0.450000
    CA021    RA062    -0.279000   RA063    3.560000
    CA021    RA064    -8.720000   RA065    -4.090000
    CA022    R0000    0.065000   RA009    -0.745000
    CA022    RA010    -0.255000   RA013    0.020000
    CA022    RA022    0.083000   RA035    0.069000
    CA022    RA036    -0.088000   RA040    0.828000
    CA022    RA056    1.068000   RA066    -0.880000
    CA022    RA067    -0.470000   RA068    8.832000
    CA022    RA069    -20.200000   RA070    -5.078000
    CA024    R0000    0.141700   RA009    -0.745000
    CA024    RA010    -0.255000   RA013    0.020000
    CA024    RA023    0.250000   RA035    0.125000
    CA024    RA036    -0.101000   RA039    0.605000
    CA024    RA056    1.162000   RA061    0.380000
    CA024    RA062    -0.240000   RA063    20.682000
    CA024    RA064    -9.120000   RA065    -3.520000
    CA025    R0000    0.053000   RA009    -0.745000
    CA025    RA010    -0.255000   RA013    0.020000
    CA025    RA023    0.250000   RA035    0.039000
    CA025    RA036    -0.072000   RA040    0.691000
    CA025    RA056    0.858000   RA066    -0.720000
    CA025    RA067    -0.384000   RA068    29.800000
    CA025    RA069    -18.690000   RA070    -4.153000
    CA027    R0000    0.113800   RA009    -0.747000
    CA027    RA011    -0.253000   RA013    0.020000
    CA027    RA022    0.100000   RA035    0.185000
    CA027    RA036    -0.116000   RA039    0.695000
    CA027    RA056    1.239000   RA061    4.000000
    CA027    RA062    -0.285000   RA063    3.632000
    CA027    RA064    -11.260000   RA065    -4.177000
    CA028    R0000    0.096800   RA009    -0.747000
    CA028    RA011    -0.253000   RA013    0.020000
    CA028    RA022    0.100000   RA035    0.185000
    CA028    RA036    -0.116000   RA040    0.695000
    CA028    RA056    1.239000   RA066    -8.540000
    CA028    RA067    -0.386000   RA068    3.632000
    CA028    RA069    -11.260000   RA070    -4.177000
    CA029    R0000    0.103300   RA009    -0.747000
    CA029    RA011    -0.253000   RA013    0.020000
    CA029    RA022    0.100000   RA035    0.185000
    CA029    RA036    -0.131000   RA039    0.347000
    CA029    RA040    0.348000   RA056    1.239000
    CA029    RA061    -2.070000   RA062    -0.129000
    CA029    RA063    18.585000   RA064    -12.060000
    CA029    RA065    -3.965000   RA066    2.960000
    CA029    RA067    -0.210000   RA068    -7.260000
    CA029    RA069    -1.630000   RA070    -0.790000
    CA030    R0000    0.097700   RA009    -0.745000
    CA030    RA010    -0.255000   RA013    0.020000
    CA030    RA023    0.250000   RA035    0.088000
    CA030    RA036    -0.096600   RA039    0.642000
    CA030    RA056    1.000000   RA061    3.620000
    CA030    RA062    -0.258000   RA063    23.860000
    CA030    RA064    -12.670000   RA065    -3.786000
    CA031    R0000    0.082300   RA009    -0.745000
    CA031    RA010    -0.255000   RA013    0.020000
    CA031    RA023    0.250000   RA035    0.088000
    CA031    RA036    -0.096600   RA040    0.642000
    CA031    RA056    1.000000   RA066    -7.740000
    CA031    RA067    -0.350000   RA068    23.860000
    CA031    RA069    -12.670000   RA070    -3.786000
    CA032    R0000    0.097600   RA009    -0.745000
    CA032    RA010    -0.255000   RA013    0.020000
    CA032    RA023    0.250000   RA035    0.088000
    CA032    RA036    -0.108600   RA039    0.321000
    CA032    RA040    0.321000   RA056    1.000000
    CA032    RA061    -1.880000   RA062    -0.118000
    CA032    RA063    20.625000   RA064    -10.950000
    CA032    RA065    -3.600000   RA066    2.230000
    CA032    RA067    -0.190000   RA068    -2.230000
    CA032    RA069    -3.080000   RA070    -0.714000
    CA033    R0000    0.165500   RA009    -0.747000
    CA033    RA011    -0.253000   RA013    0.020000
    CA033    RA022    0.100000   RA035    0.249000
    CA033    RA036    -0.122000   RA039    0.631000
    CA033    RA056    1.438000   RA061    0.410000
    CA033    RA062    -0.255000   RA063    2.442000
    CA033    RA064    -5.700000   RA065    -3.740000
    CA034    R0000    0.062100   RA009    -0.747000
    CA034    RA011    -0.253000   RA013    0.020000
    CA034    RA022    0.100000   RA035    0.099000
    CA034    RA036    -0.087000   RA040    0.781000
    CA034    RA056    1.062000   RA066    -0.830000
    CA034    RA067    -0.443000   RA068    7.287000
    CA034    RA069    -18.430000   RA070    -4.789000
    CA035    R0000    0.129100   RA009    -0.747000
    CA035    RA011    -0.253000   RA013    0.020000
    CA035    RA023    0.300000   RA035    0.139000
    CA035    RA036    -0.094000   RA039    0.541000
    CA035    RA056    1.172000   RA061    0.340000
    CA035    RA062    -0.215000   RA063    17.125000
    CA035    RA064    -7.540000   RA065    -3.150000
    CA036    R0000    0.049100   RA009    -0.747000
    CA036    RA011    -0.253000   RA013    0.020000
    CA036    RA023    0.300000   RA035    0.045000
    CA036    RA036    -0.067100   RA040    0.635000
    CA036    RA056    0.872000   RA066    -0.660000
    CA036    RA067    -0.353000   RA068    25.730000
    CA036    RA069    -16.680000   RA070    -3.818000
    CA037    R0000    0.118100   RA009    -0.745000
    CA037    RA010    -0.255000   RA013    0.020000
    CA037    RA022    0.083000   RA035    0.162000
    CA037    RA036    -0.119000   RA039    0.735000
    CA037    RA056    1.246000   RA061    4.230000
    CA037    RA062    -0.301000   RA063    4.805000
    CA037    RA064    -12.490000   RA065    -4.421000
    CA038    R0000    0.100000   RA009    -0.745000
    CA038    RA010    -0.255000   RA013    0.020000
    CA038    RA022    0.083000   RA035    0.162000
    CA038    RA036    -0.119000   RA040    0.735000
    CA038    RA056    1.246000   RA066    -9.030000
    CA038    RA067    -0.409000   RA068    4.805000
    CA038    RA069    -12.590000   RA070    -4.421000
    CA039    R0000    0.118000   RA009    -0.745000
    CA039    RA010    -0.255000   RA013    0.020000
    CA039    RA022    0.083000   RA035    0.162000
    CA039    RA036    -0.133000   RA039    0.367000
    CA039    RA040    0.368000   RA056    1.246000
    CA039    RA061    -2.180000   RA062    -0.137000
    CA039    RA063    19.620000   RA064    -12.730000
    CA039    RA065    -4.186000   RA066    3.130000
    CA039    RA067    -0.222000   RA068    -7.830000
    CA039    RA069    -2.350000   RA070    -0.835000
    CA040    R0000    0.090600   RA009    -0.747000
    CA040    RA011    -0.253000   RA013    0.020000
    CA040    RA023    0.300000   RA035    0.090000
    CA040    RA036    -0.090000   RA039    0.590000
    CA040    RA056    1.000000   RA061    3.330000
    CA040    RA062    -0.237000   RA063    20.412000
    CA040    RA064    -11.190000   RA065    -3.478000
    CA041    R0000    0.076400   RA009    -0.747000
    CA041    RA011    -0.253000   RA013    0.020000
    CA041    RA023    0.300000   RA035    0.090000
    CA041    RA036    -0.090000   RA040    0.590000
    CA041    RA056    1.000000   RA066    -7.110000
    CA041    RA067    -0.322000   RA068    20.412000
    CA041    RA069    -11.190000   RA070    -3.478000
    CA042    R0000    0.090500   RA009    -0.747000
    CA042    RA011    -0.253000   RA013    0.020000
    CA042    RA023    0.300000   RA035    0.090000
    CA042    RA036    -0.101100   RA039    0.295000
    CA042    RA040    0.295000   RA056    1.000000
    CA042    RA061    -1.730000   RA062    -0.108000
    CA042    RA063    18.975000   RA064    -10.070000
    CA042    RA065    -3.312000   RA066    2.050000
    CA042    RA067    -0.174000   RA068    -2.050000
    CA042    RA069    -2.340000   RA070    -0.656000
    CA043    RA010    -1.000000   RA043    1.000000
    CA043    RA075    -9.270000   RA076    7.820000
    CA043    RA077    -3.500000   RA078    33.890000
    CA043    RA079    -16.000000
    1CA043   RA010    -1.000000   RA044    1.000000
    1CA043   1RA075   -9.270000   1RA076   7.820000
    1CA043   1RA078   33.890000   1RA079   -16.000000
    CA044    RA010    -1.000000   RA046    1.000000
    CA044    RA082    -13.980000   RA083    10.150000
    CA044    RA084    33.890000   RA085    -13.500000
    CA044    RA086    -20.000000   RA087    -14.000000
    CA044    RA088    -21.500000
    CA045    R0000    0.009500   RA009    0.270000
    CA045    RA011    -0.420000   RA012    -0.330000
    CA045    RA013    -0.520000   RA041    1.000000
    CA045    RA072    0.500000
    1CA045   R0000    0.009500   RA009    -0.070000
    1CA045   RA011    -0.290000   RA012    -0.230000
    1CA045   RA013    -0.410000   RA041    1.000000
    1CA045   RA055    0.600000   RA072    0.500000
    CA046    RA011    -1.000000   RA043    1.000000
    CA046    RA075    -9.270000   RA076    7.820000
    CA046    RA077    -3.500000   RA078    33.890000
    CA046    RA079    -16.000000
    1CA046   RA011    -1.000000   RA044    1.000000
    1CA046   1RA075   -9.270000   1RA076   7.820000
    1CA046   1RA078   33.890000   1RA079   -16.000000
    CA048    RA011    -1.000000   RA046    1.000000
    CA048    RA082    -13.980000   RA083    10.150000
    CA048    RA084    33.890000   RA085    -13.500000
    CA048    RA086    -20.000000   RA087    -14.000000
    CA048    RA088    -21.500000
    CA049    RA012    -1.000000   RA013    1.000000
    1CA050   R0000    0.010400   RA012    -0.440000
    1CA050   RA013    -0.650000   RA015    0.090000
    1CA050   1RA043   1.000000
    CA051    R0000    0.021800   RA013    -1.000000
    CA051    RA036    -0.040900   RA044    0.997000
    CA051    RA059    0.933000   1RA075   -4.760000
    CA051    1RA076   3.310000   1RA078   2.300000
    CA051    1RA079   -11.960000
    CA052    RA013    -1.000000   RA043    1.000000
    CA052    RA075    -4.460000   RA076    3.010000
    CA052    RA077    -2.000000   RA078    2.300000
    CA052    RA079    -12.000000
    CA053    RA013    -1.000000   RA046    1.000000
    CA053    RA082    -9.150000   RA083    5.320000
    CA053    RA084    2.300000   RA085    -12.000000
    CA053    RA086    -16.000000   RA087    -14.000000
    CA053    RA088    -19.000000
    CA054    RA013    -1.000000   RA048    1.000000
    CA054    RA089    -26.960000   RA090    26.150000
    CA054    RA091    -22.000000   RA092    -69.000000
    CA055    RA013    -1.000000   RA051    1.000000
    CA055    RA093    -26.960000   RA094    26.150000
    CA055    RA095    -30.500000   RA096    -60.000000
    CA056    R0000    0.021800   RA014    -1.000000
    CA056    RA036    -0.040900   RA044    0.987000
    CA056    RA059    1.000000   1RA075   -0.286000
    CA056    1RA076   -1.140000   1RA078   -3.130000
    CA056    1RA079   -0.987000
    CA057    RA014    -1.000000   RA043    1.000000
    CA057    RA075    0.710000   RA076    -2.160000
    CA057    RA077    2.750000   RA078    -3.170000
    CA057    RA079    -1.000000
    CA058    RA014    -1.000000   RA046    1.000000
    CA058    RA082    -3.980000   RA083    0.150000
    CA058    RA084    -3.170000   RA085    -7.250000
    CA058    RA086    -5.000000   RA087    -14.000000
    CA058    RA088    -15.000000
    CA059    RA014    -1.000000   RA048    1.000000
    CA059    RA089    -19.060000   RA090    18.250000
    CA059    RA091    -17.250000   RA092    -53.000000
    CA060    RA014    -1.000000   RA051    1.000000
    CA060    RA093    -19.060000   RA094    18.250000
    CA060    RA095    -25.750000   RA096    -44.000000
    CA061    R0000    0.021800   RA015    -1.000000
    CA061    RA036    -0.040900   RA044    0.980000
    CA061    RA059    1.005000   1RA075   -1.570000
    CA061    1RA076   0.140000   1RA078   -3.190000
    CA061    1RA079   -1.470000
    CA062    RA015    -1.000000   RA043    1.000000
    CA062    RA076    -1.450000   RA077    6.500000
    CA062    RA078    -3.260000   RA079    -1.500000
    CA063    RA015    -1.000000   RA046    1.000000
    CA063    RA082    -4.690000   RA083    0.860000
    CA063    RA084    -3.260000   RA085    -3.500000
    CA063    RA086    -5.500000   RA087    -14.000000
    CA063    RA088    -16.000000
    CA064    RA015    -1.000000   RA048    1.000000
    CA064    RA089    -18.960000   RA090    18.150000
    CA064    RA091    -13.500000   RA092    -54.000000
    CA065    RA015    -1.000000   RA051    1.000000
    CA065    RA093    -18.960000   RA094    18.150000
    CA065    RA095    -22.000000   RA096    -45.000000
    CA066    R0000    -0.002700   RA016    -1.000000
    CA066    RA026    1.000000   RA032    -0.054000
    CA066    RA034    0.023000   RA035    0.031000
    CA068    R0000    0.021800   RA016    -1.000000
    CA068    RA036    -0.040900   RA044    0.976000
    CA068    RA059    1.835000   1RA075   2.330000
    CA068    1RA076   -3.750000   1RA078   -3.510000
    CA068    1RA079   20.500000
    CA069    RA016    -1.000000   RA043    1.000000
    CA069    RA075    4.150000   RA076    -5.600000
    CA069    RA077    8.500000   RA078    -3.600000
    CA069    RA079    21.000000
    CA070    RA016    -1.000000   RA046    1.000000
    CA070    RA082    -0.540000   RA083    -3.290000
    CA070    RA084    -3.600000   RA085    -1.500000
    CA070    RA086    17.000000   RA087    -14.000000
    CA070    RA088    -9.000000
    CA071    RA016    -1.000000   RA048    1.000000
    CA071    RA089    -12.360000   RA090    11.550000
    CA071    RA091    -11.500000   RA092    -30.000000
    CA072    RA016    -1.000000   RA051    1.000000
    CA072    RA093    -12.360000   RA094    11.550000
    CA072    RA095    -20.000000   RA096    -21.000000
    CA073    R0000    -0.002700   RA017    -1.000000
    CA073    RA026    1.000000   RA032    -0.054000
    CA073    RA034    0.023000   RA035    0.031000
    CA075    R0000    0.021800   RA017    -1.000000
    CA075    RA036    -0.040900   RA044    0.964000
    CA075    RA059    1.835000   1RA075   6.630000
    CA075    1RA076   -2.770000   1RA078   -3.460000
    CA075    1RA079   25.060000
    CA076    RA017    -1.000000   RA043    1.000000
    CA076    RA075    4.150000   RA076    -5.600000
    CA076    RA077    14.500000   RA078    -3.590000
    CA076    RA079    26.000000
    CA077    RA017    -1.000000   RA046    1.000000
    CA077    RA082    -0.540000   RA083    -3.290000
    CA077    RA084    -3.590000   RA085    4.500000
    CA077    RA086    22.000000   RA087    -14.000000
    CA077    RA088    -6.000000
    CA078    RA017    -1.000000   RA048    1.000000
    CA078    RA089    -11.560000   RA090    10.750000
    CA078    RA091    -5.500000   RA092    -25.000000
    CA079    RA017    -1.000000   RA051    1.000000
    CA079    RA093    -11.560000   RA094    10.750000
    CA079    RA095    -14.000000   RA096    -16.000000
    CA080    R0000    0.007500   RA018    -1.000000
    CA080    RA024    0.081000   RA026    0.508000
    CA080    RA027    0.401000   RA034    0.010000
    CA080    RA036    -0.002900   RA057    1.000000
    CA081    RA018    -1.000000   RA048    1.000000
    CA081    RA089    3.440000   RA090    -4.250000
    CA081    RA091    0.500000   RA092    15.000000
    CA082    RA018    -1.000000   RA051    1.000000
    CA082    RA093    3.440000   RA094    -4.250000
    CA082    RA095    -8.000000   RA096    24.000000
    CA083    R0000    0.007500   RA019    -1.000000
    CA083    RA024    0.068000   RA026    0.427000
    CA083    RA028    0.495000   RA034    0.010000
    CA083    RA036    -0.002900   RA057    0.949000
    CA084    RA019    -1.000000   RA051    1.000000
    CA084    RA093    5.640000   RA094    -6.450000
    CA084    RA095    8.500000   RA096    4.000000
    CA085    R0000    0.007500   RA020    -1.000000
    CA085    RA024    0.113000   RA026    0.545000
    CA085    RA029    0.332000   RA034    0.010000
    CA085    RA036    -0.003200   RA057    1.074000
    1CA085   R0000    0.007500   1RA020   -1.000000
    1CA085   RA024    0.109000   RA026    0.510000
    1CA085   1RA029   0.371000   RA034    0.010000
    1CA085   RA036    -0.003200   RA057    1.008000
    CA086    RA020    -1.000000   RA048    1.000000
    CA086    RA089    -0.560000   RA090    -0.250000
    CA086    RA091    0.500000   RA092    22.000000
    1CA086   1RA020   -1.000000   RA048    1.000000
    1CA086   RA089    1.340000   RA090    -2.150000
    1CA086   RA091    3.500000   RA092    8.000000
    CA087    RA020    -1.000000   RA051    1.000000
    CA087    RA093    -0.560000   RA094    -0.250000
    CA087    RA095    -8.000000   RA096    31.000000
    1CA087   1RA020   -1.000000   RA051    1.000000
    1CA087   RA093    1.340000   RA094    -2.150000
    1CA087   RA095    -5.000000   RA096    17.000000
    CA091    R0000    0.074800   RA022    -1.000000
    CA091    RA039    1.000000   RA061    29.910000
    CA091    RA062    -0.494000   RA063    -102.310100
    CA091    RA064    83.580099   RA065    10.074000
    CA092    R0000    0.045300   RA022    -1.000000
    CA092    RA040    1.000000   RA066    7.870000
    CA092    RA067    -0.670000   RA068    -102.310100
    CA092    RA069    83.580099   RA070    10.074000
    CA093    R0000    0.070900   RA023    -1.000000
    CA093    RA039    1.000000   RA061    45.540000
    CA093    RA062    -0.468000   RA063    -74.649899
    CA093    RA064    41.800000   RA065    -1.642000
    CA094    R0000    0.042900   RA023    -1.000000
    CA094    RA040    1.000000   RA066    24.630000
    CA094    RA067    -0.635000   RA068    -74.649899
    CA094    RA069    41.800000   RA070    -1.642000
    1CA095   R0000    -0.001700   RA024    -1.000000
    1CA095   RA026    1.000000   RA032    -0.034000
    1CA095   RA034    0.015000   RA035    0.019000
    CA096    RA024    -1.000000   RA043    1.000000
    CA096    RA075    6.130000   RA076    -7.580000
    CA096    RA077    16.500000   RA078    -3.520000
    CA096    RA079    17.000000
    CA097    RA024    -1.000000   RA046    1.000000
    CA097    RA082    1.430000   RA083    -5.260000
    CA097    RA084    -3.520000   RA085    6.500000
    CA097    RA086    13.000000   RA087    -14.000000
    CA097    RA088    1.000000
    CA098    RA024    -1.000000   RA048    1.000000
    CA098    RA089    -12.560000   RA090    11.750000
    CA098    RA091    -3.500000   RA092    -35.000000
    CA099    RA024    -1.000000   RA051    1.000000
    CA099    RA093    -12.560000   RA094    11.750000
    CA099    RA095    -12.000000   RA096    -26.000000
    CA100    R0000    0.053400   RA026    -1.000000
    CA100    RA031    0.255000   RA032    0.058000
    CA100    RA033    0.240000   RA034    0.082000
    CA100    1RA034   0.065000   2RA034   0.076000
    CA100    RA035    0.154000   RA058    1.170000
    CA100    1RA058   1.000000
    CA101    R0000    0.052100   RA026    -1.000000
    CA101    RA031    0.182000   RA032    0.059000
    CA101    RA033    0.240000   RA034    0.253000
    CA101    1RA034   0.070000   2RA034   0.076000
    CA101    RA035    0.065000   RA058    0.920000
    CA102    R0000    0.006700   RA031    0.370000
    CA102    1RA034   -1.000000   RA035    0.480000
    CA102    RA058    2.500000
    1CA102   RA034    1.000000   1RA034   -1.000000
    CA103    R0000    0.015500   RA031    0.550000
    CA103    RA032    0.110000   2RA034   -1.000000
    CA103    RA035    0.170000   RA058    2.830000
    1CA103   RA034    1.000000   2RA034   -1.000000
    CA104    R0000    0.036000   RA019    -1.000000
    CA104    RA024    0.077000   RA026    0.193000
    CA104    RA028    0.328000   RA034    0.008000
    CA104    RA035    0.001000   RA036    -0.006000
    CA104    RA051    0.276000   RA054    0.117000
    CA104    RA093    2.880000   RA094    -3.100000
    CA104    RA095    6.350000   RA096    1.100000
    CA106    RA027    -1.000000   RA048    1.000000
    CA106    RA089    14.230000   RA090    -15.040000
    CA106    RA091    8.700000   RA092    -34.000000
    1CA106   RA026    -0.154000   RA027    -0.846000
    1CA106   RA036    0.000200   RA048    1.000000
    1CA106   RA057    -0.078000   RA089    12.390000
    1CA106   RA090    -13.200000   RA091    7.000000
    1CA106   RA092    -21.000000
    CA107    RA027    -1.000000   RA051    1.000000
    CA107    RA093    14.230000   RA094    -15.040000
    CA107    RA095    0.200000   RA096    -25.000000
    1CA107   RA026    -0.154000   RA027    -0.846000
    1CA107   RA036    0.000200   RA051    1.000000
    1CA107   RA057    -0.078000   RA093    12.390000
    1CA107   RA094    -13.200000   RA095    -1.500000
    1CA107   RA096    -12.000000
    CA108    RA028    -1.000000   RA051    1.000000
    CA108    RA093    14.470000   RA094    -15.280000
    CA108    RA095    19.500000   RA096    -31.000000
    1CA108   RA026    -0.130000   RA028    -0.870000
    1CA108   RA036    0.000200   RA051    1.000000
    1CA108   RA057    -0.132000   RA093    12.730000
    1CA108   RA094    -13.540000   RA095    17.200000
    1CA108   RA096    -17.000000
    CA109    RA029    -1.000000   RA048    1.000000
    CA109    RA089    9.130000   RA090    -9.940000
    CA109    RA091    6.800000   RA092    -38.000000
    1CA109   RA026    -0.186000   RA029    -0.814000
    1CA109   RA036    0.000400   RA048    1.000000
    1CA109   RA057    -0.050000   RA089    7.800000
    1CA109   RA090    -8.610000   RA091    5.200000
    1CA109   RA092    -28.000000
    2CA109   1RA029   -1.000000   RA048    1.000000
    2CA109   RA089    9.040000   RA090    -9.850000
    2CA109   RA091    10.500000   RA092    -40.000000
    3CA109   RA026    -0.176000   1RA029   -0.824000
    3CA109   RA036    0.000400   RA048    1.000000
    3CA109   RA057    -0.090000   RA089    7.940000
    3CA109   RA090    -8.750000   RA091    9.300000
    3CA109   RA092    -30.000000
    CA110    RA029    -1.000000   RA051    1.000000
    CA110    RA093    9.130000   RA094    -9.940000
    CA110    RA095    -1.700000   RA096    -29.000000
    1CA110   RA026    -0.186000   RA029    -0.814000
    1CA110   RA036    0.000400   RA051    1.000000
    1CA110   RA057    -0.050000   RA093    7.800000
    1CA110   RA094    -8.610000   RA095    -3.300000
    1CA110   RA096    -19.000000
    2CA110   1RA029   -1.000000   RA051    1.000000
    2CA110   RA093    9.040000   RA094    -9.850000
    2CA110   RA095    2.000000   RA096    -31.000000
    3CA110   RA026    -0.176000   1RA029   -0.824000
    3CA110   RA036    0.000400   RA051    1.000000
    3CA110   RA057    -0.090000   RA093    7.940000
    3CA110   RA094    -8.750000   RA095    0.800000
    3CA110   RA096    -21.000000
    CA113    R0000    0.067400   RA031    -1.000000
    CA113    RA039    1.000000   RA061    -0.280000
    CA113    RA062    -0.445000   RA063    -34.030000
    CA113    RA064    18.000000   RA065    4.112000
    CA114    R0000    0.040700   RA031    -1.000000
    CA114    RA040    1.000000   RA066    -20.140000
    CA114    RA067    -0.604000   RA068    -34.032000
    CA114    RA069    18.000000   RA070    4.112000
    CA115    R0000    0.057600   RA032    -1.000000
    CA115    RA039    1.000000   RA061    -0.240000
    CA115    RA062    -0.380000   RA063    90.899899
    CA115    RA064    -32.800000   RA065    -9.938000
    1CA115   R0000    0.060100   RA032    -1.000000
    1CA115   RA033    0.250000   RA039    0.750000
    1CA115   RA061    -0.190000   RA062    -0.298000
    1CA115   RA063    42.700000   RA064    -24.500000
    1CA115   RA065    -8.160000
    CA116    R0000    0.034800   RA032    -1.000000
    CA116    RA040    1.000000   RA066    -17.210000
    CA116    RA067    -0.516000   RA068    90.899899
    CA116    RA069    -32.800000   RA070    -9.938000
    1CA116   R0000    0.036300   RA032    -1.000000
    1CA116   RA033    0.250000   RA040    0.750000
    1CA116   RA066    -13.480000   RA067    -0.404000
    1CA116   RA068    42.700000   RA069    -24.500000
    1CA116   RA070    -8.160000
    CA117    R0000    0.021800   RA033    -1.000000
    CA117    RA036    -0.040900   RA044    0.970000
    CA117    RA059    1.970000   1RA075   6.930000
    CA117    1RA076   -8.300000   1RA078   -2.960000
    CA117    1RA079   3.880000   1RA081   100.000000
    CA118    RA033    -1.000000   RA043    1.000000
    CA118    RA075    9.260000   RA076    -10.710000
    CA118    RA077    14.500000   RA078    -3.050000
    CA118    RA079    4.000000   RA081    100.000000
    CA120    RA033    -1.000000   RA046    1.000000
    CA120    RA082    4.570000   RA083    -8.400000
    CA120    RA084    -3.050000   RA085    4.500000
    CA120    RA087    -13.700000   RA088    22.000000
    CA121    RA033    -1.000000   RA048    1.000000
    CA121    RA089    -18.060000   RA090    17.250000
    CA121    RA091    -5.500000   RA092    -48.000000
    CA122    RA033    -1.000000   RA051    1.000000
    CA122    RA093    -18.060000   RA094    17.250000
    CA122    RA095    -14.000000   RA096    -39.000000
    CA123    RA046    1.000000   RA048    -1.000000
    CA123    RA082    9.810000   RA083    -13.640000
    CA123    RA085    10.000000   RA086    -2.000000
    CA123    RA087    71.000000   RA088    16.000000
    CA124    RA035    -1.000000   RA037    1.000000
    CA125    RA035    -1.000000   RA036    1.175000
    CA126    RA036    1.000000   RA052    -1.000000
    CA127    RA043    1.000000   RA044    -1.000000
    CA127    RA077    -3.700000
    CA128    R0000    4.176700   RA044    -1.000000
    CA128    RA045    1.000000   1RA081   -15.000000
    CA129    RA044    -1.000000   RA046    1.000000
    CA129    RA082    -4.690000   RA083    2.310000
    CA129    RA085    -13.500000   RA086    -4.000000
    CA129    RA087    -14.000000   RA088    -14.000000
    CA130    RA046    -1.000000   RA047    1.000000
    CA130    RA082    -1.300000   RA086    -6.000000
    CA130    RA087    13.000000   RA088    11.000000
    1CA130   RA045    -0.750000   RA047    -0.250000
    1CA130   1RA047   1.000000
    CA131    RA013    -0.060000   RA016    -0.130000
    CA131    RA018    -0.810000   1RA053   1.000000
    CA133    RA051    -1.000000   RA052    1.000000
    CA133    RA093    -2.940000   RA094    1.750000
    CA133    RA095    -6.000000   RA096    -11.000000
    2CA133   RA051    -1.000000   1RA052   1.000000
    2CA133   RA093    -2.260000   RA094    2.010000
    2CA133   RA095    -6.000000   RA096    -11.000000
    1CA134   RA013    -0.250000   RA018    -0.750000
    1CA134   RA049    1.000000
    2CA134   RA006    -0.740000   RA013    -0.260000
    2CA134   RA049    1.000000
    CA135    RA008    -1.000000   RA010    1.000000
    CA136    RA008    -1.000000   RA013    1.000000
    CA137    RA011    1.000000   RA012    -1.000000
    CA138    RA026    -1.000000   RA051    1.000000
    CA138    RA093    -3.130000   RA094    2.320000
    CA138    RA095    -6.000000   RA096    67.000000
    CA139    R0000    10.000000   RA018    -1.000000
    CA139    RA024    0.115000   RA026    0.194000
    CA139    RA027    0.401000   RA034    0.040000
    CA139    RA035    0.001000   RA036    -0.022000
    CA139    RA051    0.129000   RA054    0.120000
    CA139    RA093    0.378000   RA094    -0.482000
    CA139    RA095    -0.194000   RA096    12.000000
    CA140    R0000    0.043100   RA020    -1.000000
    CA140    RA024    0.069000   RA026    0.273000
    CA140    RA034    0.013000   RA035    0.001000
    CA140    RA036    -0.010000   RA051    0.400000
    CA140    RA054    0.244000   RA093    3.380000
    CA140    RA094    -3.700000   RA095    2.800000
    CA140    RA096    1.600000
    CA142    RA027    -1.000000   RA038    0.980000
    CA143    RA007    -1.000000   RA038    0.980000
    CA144    R0000    0.007500   RA006    -1.000000
    CA144    RA007    0.488000   RA024    0.075000
    CA144    RA026    0.427000   RA034    0.010000
    CA144    RA036    -0.002900   RA057    0.944000
    CA145    RA006    -1.000000   RA048    1.000000
    CA145    RA089    5.140000   RA090    -5.950000
    CA145    RA091    0.900000   RA092    3.000000
    CA146    RA006    -1.000000   RA051    1.000000
    CA146    RA093    5.140000   RA094    -5.950000
    CA146    RA095    -7.600000   RA096    12.000000
    CA147    RA007    -1.000000   RA048    1.000000
    CA147    RA089    15.260000   RA090    -16.070000
    CA147    RA091    8.900000   RA092    -27.000000
    1CA147   RA007    -0.897000   RA026    -0.103000
    1CA147   RA036    0.000200   RA048    1.000000
    1CA147   RA057    -0.165000   RA089    13.860000
    1CA147   RA090    -14.670000   RA091    7.700000
    1CA147   RA092    -4.000000
    CA148    RA007    -1.000000   RA051    1.000000
    CA148    RA093    15.260000   RA094    -16.070000
    CA148    RA095    0.400000   RA096    -18.000000
    1CA148   RA007    -0.897000   RA026    -0.103000
    1CA148   RA036    0.000200   RA051    1.000000
    1CA148   RA057    -0.165000   RA093    13.860000
    1CA148   RA094    -14.670000   RA095    -0.800000
    1CA148   RA096    5.000000
    CA154    R0000    0.010000   2RA005   1.008000
    CA154    RA009    0.241000   RA011    0.056000
    CA154    RA012    0.028000   RA013    0.065000
    CA154    RA015    0.077000   RA017    0.051000
    CA154    RA019    0.464000   RA035    0.018000
    CA154    RA036    -0.031600   RA055    1.170000
    CA154    1RA055   1.170000
    CA155    RA034    -1.000000   RA048    1.000000
    CA155    RA089    -11.760000   RA090    10.950000
    CA155    RA091    -4.500000   RA092    -5.000000
    CA156    RA034    -1.000000   RA051    1.000000
    CA156    RA093    -11.760000   RA094    10.950000
    CA156    RA095    -13.000000   RA096    4.000000
    CA157    RA034    -1.000000   RA036    1.000000
    CA158    RA039    -1.000000   RA064    -2.684000
    CA158    RA065    -1.610000   RA097    1.000000
    CA166    RA040    -1.000000   RA066    5.400000
    CA166    RA069    -1.379000   RA070    -1.655000
    CA166    1RA099   1.000000
    CA168    RA028    -1.000000   RA038    0.980000
    CB001    RB001    1.010000   1RB005   0.004000
    CB001    RB006    0.010000   RB007    0.028000
    CB001    RB008    0.135000   RB010    0.085000
    CB001    RB012    0.110000   RB013    0.090000
    CB001    RB022    0.230000   RB031    -0.038000
    CB001    1RB031   0.003000   RB051    0.300000
    CB001    RB057    1.000000   RB091    0.405000
    CB001    RB092    -1.056000   1RB092   -1.800000
    CB001    RB093    -0.174000   1RB093   -4.950000
    CB001    RB101    0.969000
    2CB001   RB001    1.010000   1RB005   0.004000
    2CB001   RB006    0.010000   RB007    0.028000
    2CB001   RB008    0.135000   RB010    0.085000
    2CB001   RB012    0.110000   RB013    0.090000
    2CB001   RB022    0.230000   RB031    -0.038000
    2CB001   1RB031   0.003000   1RB053   0.300000
    2CB001   RB057    1.000000   RB101    0.969000
    2CB001   RB102    0.633000   RB103    -1.160000
    2CB001   RB104    -4.800000   RB105    -0.174000
    2CB001   RB106    -0.450000
    CB002    RB004    1.010000   RB006    0.003000
    CB002    2RB007   0.075000   2RB008   0.076000
    CB002    RB010    0.095000   RB012    0.140000
    CB002    RB015    0.130000   RB022    0.169000
    CB002    RB025    0.311000   RB031    -0.021000
    CB002    1RB031   0.001000   RB058    1.000000
    CB002    1RB058   1.000000   RB099    0.075000
    CB002    RB101    1.012000   UKLDF    -0.075000
    1CB002   RB001    1.010000   1RB005   0.004000
    1CB002   RB006    0.010000   RB007    0.018000
    1CB002   RB008    0.145000   RB009    0.044000
    1CB002   RB011    0.151000   RB013    0.090000
    1CB002   RB016    0.035000   RB018    0.500000
    1CB002   RB031    -0.026000   1RB031   0.003000
    1CB002   RB058    1.000000   1RB058   1.000000
    1CB002   RB101    0.969000
    CB003    RB004    1.010000   RB006    0.003000
    CB003    1RB007   0.011000   3RB008   0.140000
    CB003    RB010    0.095000   RB012    0.140000
    CB003    RB015    0.130000   RB022    0.166000
    CB003    RB025    0.311000   RB031    -0.054000
    CB003    1RB031   0.001000   RB057    1.000000
    CB003    RB101    1.012000
    1CB003   RB004    1.010000   RB006    0.003000
    1CB003   1RB007   0.011000   3RB008   0.140000
    1CB003   RB010    0.095000   RB012    0.140000
    1CB003   RB015    0.130000   RB022    0.169000
    1CB003   RB025    0.311000   RB031    -0.021000
    1CB003   1RB031   0.001000   RB058    1.000000
    1CB003   1RB058   1.000000   RB100    -0.560000
    1CB003   RB101    1.012000
    2CB003   RB003    1.010000   1RB005   0.002000
    2CB003   RB006    0.012000   RB007    0.056000
    2CB003   RB008    0.089000   RB010    0.076000
    2CB003   RB012    0.090000   1RB013   0.100000
    2CB003   RB016    0.032000   1RB020   0.541000
    2CB003   RB031    -0.023000   1RB031   0.002000
    2CB003   RB058    1.000000   1RB058   1.000000
    2CB003   RB101    1.021000
    1CB004   1RB001   1.010000   RB006    0.008000
    1CB004   2RB007   0.100000   2RB008   0.090000
    1CB004   RB009    0.047000   RB011    0.161000
    1CB004   1RB013   0.090000   1RB016   0.040000
    1CB004   1RB018   0.463000   RB031    -0.025000
    1CB004   1RB031   0.001000   RB058    1.000000
    1CB004   RB099    0.100000   RB101    0.969000
    1CB004   UKLDF    -0.100000
    2CB004   1RB001   1.010000   RB006    0.008000
    2CB004   1RB007   0.047000   1RB008   0.143000
    2CB004   RB009    0.047000   RB011    0.161000
    2CB004   1RB013   0.090000   1RB016   0.040000
    2CB004   1RB018   0.463000   RB031    -0.025100
    2CB004   1RB031   0.001000   RB058    1.000000
    2CB004   RB101    0.969000
    1CB005   RB002    1.010000   1RB005   0.004000
    1CB005   RB006    0.011000   1RB007   0.040000
    1CB005   1RB008   0.102000   RB009    0.035000
    1CB005   RB011    0.121000   1RB013   0.083000
    1CB005   1RB016   0.040000   RB019    0.560000
    1CB005   RB031    -0.023000   1RB031   0.004000
    1CB005   RB058    1.000000   RB101    1.000000
    2CB005   RB002    1.010000   1RB005   0.004000
    2CB005   RB006    0.011000   2RB007   0.077000
    2CB005   2RB008   0.065000   RB009    0.035000
    2CB005   RB011    0.121000   1RB013   0.083000
    2CB005   1RB016   0.040000   RB019    0.560000
    2CB005   RB031    -0.023000   1RB031   0.004000
    2CB005   RB058    1.000000   RB099    0.077000
    2CB005   RB101    1.000000   UKLDF    -0.077000
    CB006    RB005    1.010000   1RB005   0.001000
    CB006    RB006    0.004000   1RB007   0.024000
    CB006    RB008    0.073000   RB010    0.059000
    CB006    RB012    0.083000   RB014    0.096000
    CB006    RB020    0.509000   RB022    0.146000
    CB006    RB031    -0.038000   1RB031   0.001000
    CB006    RB057    1.000000   RB101    1.050000
    1CB006   RB005    1.010000   1RB005   0.001000
    1CB006   RB006    0.004000   1RB007   0.024000
    1CB006   RB008    0.073000   RB010    0.059000
    1CB006   RB012    0.083000   RB014    0.096000
    1CB006   RB020    0.659000   RB031    -0.021000
    1CB006   1RB031   0.001000   RB058    1.000000
    1CB006   1RB058   1.000000   RB101    1.050000
    2CB006   1RB005   -1.000000   2RB005   1.000000
    3CB006   RB005    1.010000   1RB005   0.001000
    3CB006   RB006    0.004000   2RB007   0.071000
    3CB006   2RB008   0.026000   RB010    0.059000
    3CB006   RB012    0.083000   RB014    0.096000
    3CB006   RB020    0.659000   RB031    -0.021000
    3CB006   1RB031   0.001000   RB058    1.000000
    3CB006   1RB058   1.000000   RB099    0.071000
    3CB006   RB101    1.050000   UKLDF    -0.071000
    CB007    1RB004   1.010000   RB006    0.005000
    CB007    1RB007   0.025000   3RB008   0.058000
    CB007    RB010    0.060000   RB012    0.070000
    CB007    1RB015   0.311000   1RB025   0.470000
    CB007    RB031    -0.026000   1RB031   0.001000
    CB007    RB058    1.000000   1RB058   1.000000
    CB007    RB101    1.012000
    1CB007   1RB004   1.010000   RB006    0.005000
    1CB007   2RB007   0.060000   2RB008   0.023000
    1CB007   RB010    0.060000   RB012    0.070000
    1CB007   1RB015   0.311000   1RB025   0.470000
    1CB007   RB031    -0.026000   1RB031   0.001000
    1CB007   RB058    1.000000   1RB058   1.000000
    1CB007   RB099    0.060000   RB101    1.012000
    1CB007   UKLDF    -0.060000
    2CB007   R0000    100.000000   1RB005   1.000000
    2CB008   R0000    7.500000   2RB005   1.000000
    2CB009   RB006    -1.000000   1RB031   1.000000
    2CB010   1RB006   -1.000000   1RB031   1.000000
    CB011    RB009    -0.227000   RB010    0.461000
    CB011    RB011    -0.773000   RB012    0.539000
    2CB012   R0000    7.000000   1RB006   1.000000
    1CB013   1RB007   -1.000000   2RB007   1.000000
    1CB013   RB099    1.000000   UKLDF    -1.000000
    2CB013   RB031    1.160000   1RB031   -1.000000
    3CB013   R0000    0.221000   RB007    -1.000000
    3CB013   RB031    -0.067000   RB034    0.960000
    3CB013   RB063    1.143000   RB064    30.510000
    3CB013   RB065    -70.730000   RB066    45.470000
    3CB013   RB067    -0.404000
    1CB014   RB007    1.000000   1RB007   -1.000000
    2CB014   RB009    -0.046000   RB010    -0.622000
    2CB014   RB011    -0.288000   RB013    -0.080000
    2CB014   2RB040   1.000000
    3CB014   R0000    0.097000   RB007    -1.000000
    3CB014   RB031    -0.067000   RB036    0.960000
    3CB014   RB063    1.143000   RB068    17.030000
    3CB014   RB069    -70.730000   RB070    45.470000
    3CB014   RB071    -0.647000
    CB015    RB007    -1.000000   RB038    1.000000
    CB015    UKLDF    -1.000000
    1CB015   RB007    -0.500000   2RB008   -0.500000
    1CB015   RB038    1.000000   UKLDF    -1.000000
    2CB015   RB009    -0.046000   RB010    -0.622000
    2CB015   RB011    -0.288000   1RB013   -0.080000
    2CB015   2RB040   1.000000
    1CB016   RB007    -1.000000   RB031    -0.067000
    1CB016   RB039    0.960000   RB063    1.143000
    1CB016   RB072    16.700000   RB073    -10.460000
    1CB016   RB074    -33.600000
    2CB016   2RB005   -1.000000   1RB031   1.000000
    CB017    RB007    -1.000000   RB031    1.110000
    2CB017   2RB005   -0.100000   RB006    -0.900000
    2CB017   1RB006   1.000000
    CB018    R0000    0.087000   3RB008   -1.000000
    CB018    RB036    0.990000   RB068    14.050000
    CB018    RB069    23.700000   RB070    -31.100000
    CB018    RB071    -0.588000
    1CB018   RB007    -0.400000   3RB008   -0.600000
    1CB018   RB038    1.000000   UKLDF    -1.000000
    CB019    RB007    -0.400000   RB008    -0.600000
    CB019    RB038    1.000000   UKLDF    -1.000000
    1CB019   RB007    -0.400000   1RB008   -0.600000
    1CB019   RB038    1.000000   UKLDF    -1.000000
    CB020    3RB008   -1.000000   RB039    0.990000
    CB020    RB072    -0.396000   RB073    0.540000
    CB020    RB074    -34.650000
    1CB020   RB008    -1.000000   RB031    -0.067000
    1CB020   RB039    0.980000   RB063    1.667000
    1CB020   RB072    2.060000   RB073    0.539000
    1CB020   RB074    -34.300000
    2CB020   1RB008   -1.000000   RB031    -0.067000
    2CB020   RB039    0.980000   RB063    1.000000
    2CB020   RB072    3.920000   RB073    0.539000
    2CB020   RB074    -34.300000
    CB021    R0000    0.088000   RB008    -1.000000
    CB021    RB031    -0.067000   RB036    0.980000
    CB021    RB063    1.667000   RB068    21.580000
    CB021    RB069    14.560000   RB070    -30.460000
    CB021    RB071    -0.593000
    1CB021   R0000    0.089000   1RB008   -1.000000
    1CB021   RB031    -0.067000   RB036    0.980000
    1CB021   RB063    1.000000   RB068    21.880000
    1CB021   RB069    14.760000   RB070    -30.870000
    1CB021   RB071    -0.601000
    2CB021   RB030    -1.000000   2RB030   1.000000
    2CB022   1RB030   -1.000000   2RB030   1.000000
    CB029    RB008    -1.000000   RB031    1.110000
    1CB029   1RB008   -1.000000   RB031    1.110000
    2CB029   2RB008   -1.000000   RB031    1.100000
    2CB030   R0000    0.056000   2RB005   0.036000
    2CB030   RB006    0.052000   RB007    0.029000
    2CB030   RB008    -1.000000   RB024    0.765000
    2CB030   RB031    0.027000   1RB031   0.009000
    2CB030   RB060    1.000000
    2CB031   R0000    0.094000   2RB005   0.044000
    2CB031   RB006    0.075000   RB007    0.029000
    2CB031   RB008    -1.000000   1RB024   0.714000
    2CB031   RB031    0.027000   1RB031   0.024000
    2CB031   RB060    1.000000
    1CB032   R0000    0.058000   2RB005   0.017000
    1CB032   RB006    0.024000   RB007    0.029000
    1CB032   3RB008   -1.000000   RB024    0.861000
    1CB032   RB031    0.027000   1RB031   -0.040000
    1CB032   RB060    1.712000
    2CB032   R0000    0.060000   2RB005   0.046000
    2CB032   RB006    0.077000   1RB007   0.029000
    2CB032   1RB008   -1.000000   RB024    0.706000
    2CB032   RB031    0.027000   1RB031   0.033000
    2CB032   RB060    1.022000
    1CB033   R0000    0.096000   2RB005   0.026000
    1CB033   RB006    0.044000   RB007    0.029000
    1CB033   3RB008   -1.000000   1RB024   0.810000
    1CB033   RB031    0.027000   1RB031   -0.023000
    1CB033   RB060    1.712000
    2CB033   R0000    0.100000   2RB005   0.055000
    2CB033   RB006    0.101000   1RB007   0.029000
    2CB033   1RB008   -1.000000   1RB024   0.650000
    2CB033   RB031    0.027000   1RB031   0.051000
    2CB033   RB060    1.022000
    CB034    RB009    -1.000000   RB039    0.970000
    CB034    RB072    -3.010000   RB073    1.840000
    CB034    RB074    -33.950000
    1CB034   R0000    0.213000   2RB005   0.034000
    1CB034   RB006    0.041500   1RB007   0.010000
    1CB034   2RB008   -1.000000   RB031    0.037000
    1CB034   1RB031   0.004000   RB034    0.792500
    1CB034   RB060    0.991500   RB064    3.700000
    1CB034   RB065    7.773000   RB066    -10.527000
    1CB034   RB067    -0.287000
    2CB034   R0000    0.220000   2RB005   0.028000
    2CB034   RB006    0.022000   RB007    0.010000
    2CB034   RB008    -0.766000   RB009    -0.234000
    2CB034   RB031    0.037000   1RB031   -0.012000
    2CB034   RB034    0.834000   RB060    0.983000
    2CB034   RB064    3.860000   RB065    9.648000
    2CB034   RB066    -11.888000   RB067    -0.300000
    1CB035   R0000    0.058500   2RB005   0.034000
    1CB035   RB006    0.041500   1RB007   0.010000
    1CB035   2RB008   -1.000000   RB026    0.355000
    1CB035   RB027    0.437500   RB031    0.025500
    1CB035   1RB031   0.004000   RB060    0.991500
    2CB035   R0000    0.058000   2RB005   0.028000
    2CB035   RB006    0.022000   RB007    0.010000
    2CB035   RB008    -0.766000   RB009    -0.234000
    2CB035   RB026    0.374000   RB027    0.460000
    2CB035   RB031    0.025000   1RB031   -0.012000
    2CB035   RB060    0.983000
    1CB036   R0000    0.239000   2RB005   0.043500
    1CB036   RB006    0.064000   1RB007   0.010000
    1CB036   2RB008   -1.000000   RB031    0.037000
    1CB036   1RB031   0.022500   RB034    0.737000
    1CB036   RB060    0.991500   RB064    -0.281500
    1CB036   RB065    5.696000   RB066    -8.554000
    1CB036   RB067    -0.263000
    2CB036   R0000    0.248000   2RB005   0.035000
    2CB036   RB006    0.040000   RB007    0.010000
    2CB036   RB008    -0.766000   RB009    -0.234000
    2CB036   RB031    0.037000   1RB031   0.001000
    2CB036   RB034    0.791000   RB060    0.983000
    2CB036   RB064    -0.300000   RB065    7.007000
    2CB036   RB066    -10.218000   RB067    -0.280000
    1CB037   R0000    0.098000   2RB005   0.043500
    1CB037   RB006    0.064000   1RB007   0.010000
    1CB037   2RB008   -1.000000   RB026    0.237500
    1CB037   RB027    0.499500   RB031    0.026000
    1CB037   1RB031   0.022500   RB060    0.991500
    2CB037   R0000    0.097000   2RB005   0.035000
    2CB037   RB006    0.040000   RB007    0.010000
    2CB037   RB008    -0.766000   RB009    -0.234000
    2CB037   RB026    0.255000   RB027    0.536000
    2CB037   RB031    0.025000   1RB031   0.001000
    2CB037   RB060    0.983000
    2CB038   R0000    0.207000   2RB005   0.040000
    2CB038   RB006    0.061000   1RB007   0.010000
    2CB038   1RB008   -0.676000   RB009    -0.324000
    2CB038   RB031    0.037000   1RB031   0.020000
    2CB038   RB034    0.751000   RB060    1.000000
    2CB038   RB064    3.540000   RB065    5.898000
    2CB038   RB066    -9.167000   RB067    -0.275000
    CB039    RB010    -1.000000   RB039    0.970000
    CB039    RB072    -5.430000   RB073    1.730000
    CB039    RB074    -33.950000
    1CB039   RB010    -1.000000   RB047    1.000000
    1CB039   RB081    3.000000   RB082    -24.500000
    1CB039   RB083    -9.220000   RB084    0.300000
    1CB039   RB085    23.573000   RB086    11.420000
    2CB039   R0000    0.059000   2RB005   0.040000
    2CB039   RB006    0.061000   1RB007   0.010000
    2CB039   1RB008   -0.676000   RB009    -0.324000
    2CB039   RB026    0.336000   RB027    0.415000
    2CB039   RB031    0.026000   1RB031   0.020000
    2CB039   RB060    1.000000
    CB040    RB010    -1.000000   RB012    0.034000
    CB040    RB031    0.025000   RB040    0.880000
    1CB040   RB010    -1.000000   RB045    1.000000
    1CB040   RB075    2.200000   RB076    -9.000000
    1CB040   RB077    -9.220000   RB078    0.300000
    1CB040   RB079    23.573000   RB080    -10.000000
    2CB040   R0000    0.231000   2RB005   0.052000
    2CB040   RB006    0.088000   1RB007   0.010000
    2CB040   1RB008   -0.676000   RB009    -0.324000
    2CB040   RB031    0.037000   1RB031   0.044000
    2CB040   RB034    0.683000   RB060    1.000000
    2CB040   RB064    -0.263000   RB065    4.385000
    2CB040   RB066    -6.890000   RB067    -0.246000
    CB041    RB008    0.049000   RB009    -0.194000
    CB041    RB010    -0.150000   RB011    -0.704000
    CB041    RB042    0.965000
    2CB041   R0000    0.099000   2RB005   0.052000
    2CB041   RB006    0.088000   1RB007   0.010000
    2CB041   1RB008   -0.676000   RB009    -0.324000
    2CB041   RB026    0.220000   RB027    0.463000
    2CB041   RB031    0.027000   1RB031   0.044000
    2CB041   RB060    1.000000
    CB043    RB009    -0.227000   RB011    -0.773000
    CB043    RB012    0.200000   RB031    -0.027000
    CB043    RB041    0.772000   RB062    1.000000
    CB044    RB009    -0.227000   RB011    -0.773000
    CB044    RB045    1.000000   RB075    3.300000
    CB044    RB076    -9.100000   RB077    -7.200000
    CB044    RB078    -1.200000   RB079    6.360000
    CB044    RB080    -10.000000
    CB045    RB009    -0.227000   RB011    -0.773000
    CB045    RB047    1.000000   RB081    4.100000
    CB045    RB082    -24.600000   RB083    -7.200000
    CB045    RB084    -1.200000   RB085    6.360000
    CB045    RB086    8.800000
    CB046    RB009    -0.227000   RB011    -0.773000
    CB046    RB046    1.000000   1RB050   1.000000
    CB046    RB087    -22.900000   1RB087   21.400000
    CB046    RB088    -29.700000   RB089    5.097000
    CB046    RB090    -25.000000   1RB090   -31.000000
    CB047    RB009    -0.227000   RB011    -0.773000
    CB047    RB051    1.000000   RB091    -30.430000
    CB047    RB092    29.260000   1RB092   -67.000000
    CB047    RB093    5.097000   1RB093   -37.700000
    1CB047   RB009    -0.227000   RB011    -0.773000
    1CB047   1RB053   1.000000   RB102    -29.670000
    1CB047   RB103    27.920000   RB104    -77.000000
    1CB047   RB105    5.097000   RB106    -22.700000
    CB048    RB009    -0.227000   RB011    -0.773000
    CB048    RB053    1.000000   RB094    -31.300000
    CB048    RB095    30.590000   RB096    -17.700000
    CB048    RB097    -83.000000
    CB049    RB011    -1.000000   RB039    0.970000
    CB049    RB072    -8.540000   RB073    1.550000
    CB049    RB074    63.050000
    CB051    RB011    -1.000000   RB012    0.200000
    CB051    RB031    -0.027000   RB041    0.772000
    CB051    RB062    1.000000
    CB052    RB011    -1.000000   RB045    1.000000
    CB052    RB075    2.500000   RB076    -9.100000
    CB052    RB077    -6.900000   RB078    -1.200000
    CB052    RB079    2.069000   RB080    -10.000000
    CB053    RB011    -1.000000   RB047    1.000000
    CB053    RB081    3.300000   RB082    -24.500000
    CB053    RB083    -6.900000   RB084    -1.200000
    CB053    RB085    2.069000   RB086    8.800000
    CB054    RB011    -1.000000   RB046    1.000000
    CB054    1RB050   1.000000   RB087    -22.690000
    CB054    1RB087   21.190000   RB088    -29.400000
    CB054    RB089    2.069000   RB090    -25.000000
    CB054    1RB090   -31.000000
    CB055    RB011    -1.000000   RB051    1.000000
    CB055    RB091    -30.220000   RB092    29.050000
    CB055    1RB092   -67.000000   RB093    2.069000
    CB055    1RB093   -37.400000
    1CB055   RB011    -1.000000   1RB053   1.000000
    1CB055   RB102    -29.460000   RB103    27.710000
    1CB055   RB104    -77.000000   RB105    2.069000
    1CB055   RB106    -22.400000
    CB056    RB011    -1.000000   RB053    1.000000
    CB056    RB094    -29.900000   RB095    29.190000
    CB056    RB096    -17.400000   RB097    -83.000000
    1CB057   RB012    -0.865000   RB031    -0.027000
    1CB057   RB041    0.386000   1RB043   0.386000
    1CB057   RB062    2.000000
    2CB057   RB010    -1.000000   RB012    0.216000
    2CB057   RB031    -0.012000   RB040    0.364000
    2CB057   1RB040   0.364000   RB062    1.820000
    CB058    RB012    -1.000000   RB045    1.000000
    CB058    RB075    1.000000   RB076    -9.000000
    CB058    RB077    -6.100000   RB078    -1.200000
    CB058    RB079    1.520000   RB080    -10.000000
    CB059    RB012    -1.000000   RB047    1.000000
    CB059    RB081    1.800000   RB082    -24.100000
    CB059    RB083    -6.100000   RB084    -1.200000
    CB059    RB085    1.520000   RB086    7.420000
    CB060    RB012    -1.000000   RB046    1.000000
    CB060    1RB050   1.000000   RB087    -22.690000
    CB060    1RB087   21.190000   RB088    -28.600000
    CB060    RB089    1.520000   RB090    -25.000000
    CB060    1RB090   -31.000000
    CB061    RB012    -1.000000   RB051    1.000000
    CB061    RB091    -30.220000   RB092    29.050000
    CB061    1RB092   -67.000000   RB093    1.520000
    CB061    1RB093   -36.600000
    1CB061   RB012    -1.000000   1RB053   1.000000
    1CB061   RB102    -29.460000   RB103    27.710000
    1CB061   RB104    -77.000000   RB105    1.520000
    1CB061   RB106    -21.600000
    CB062    RB012    -1.000000   RB053    1.000000
    CB062    RB094    -27.900000   RB095    27.190000
    CB062    RB096    -16.600000   RB097    -83.000000
    CB063    RB013    -1.000000   RB045    1.000000
    CB063    RB075    -3.400000   RB076    12.900000
    CB063    RB077    -1.500000   RB078    -0.250000
    CB063    RB079    -4.150000   RB080    -10.000000
    1CB063   1RB013   -1.000000   RB045    1.000000
    1CB063   RB075    -2.700000   RB076    7.600000
    1CB063   RB077    2.400000   RB078    -0.250000
    1CB063   RB079    -4.070000   RB080    -10.000000
    CB064    RB013    -1.000000   RB047    1.000000
    CB064    RB081    -2.600000   RB082    -1.700000
    CB064    RB083    -1.500000   RB084    -0.250000
    CB064    RB085    -4.150000   RB086    2.160000
    1CB064   1RB013   -1.000000   RB047    1.000000
    1CB064   RB081    -1.900000   RB082    -7.100000
    1CB064   RB083    2.400000   RB084    -0.250000
    1CB064   RB085    -4.070000   RB086    2.160000
    CB065    RB013    -1.000000   RB046    1.000000
    CB065    1RB050   1.000000   RB087    -14.900000
    CB065    1RB087   13.400000   RB088    -26.000000
    CB065    RB089    -4.410000   RB090    -25.000000
    CB065    1RB090   -22.000000
    1CB065   1RB013   -1.000000   RB046    1.000000
    1CB065   1RB050   1.000000   RB087    -14.900000
    1CB065   1RB087   13.400000   RB088    -23.300000
    1CB065   RB089    -4.410000   RB090    -25.000000
    1CB065   1RB090   -22.000000
    CB066    RB014    -1.000000   RB045    1.000000
    CB066    RB075    -6.100000   RB076    19.000000
    CB066    RB077    -1.000000   RB078    0.200000
    CB066    RB079    -3.959000   RB080    -10.000000
    CB067    RB014    -1.000000   RB047    1.000000
    CB067    RB081    -5.300000   RB082    4.600000
    CB067    RB083    -1.000000   RB084    0.200000
    CB067    RB085    -3.959000   RB086    -2.330000
    CB068    RB014    -1.000000   RB046    1.000000
    CB068    1RB050   1.000000   RB087    -12.030000
    CB068    1RB087   10.530000   RB088    -23.000000
    CB068    RB089    -3.959000   RB090    -25.000000
    CB068    1RB090   -17.000000
    CB069    RB015    -1.000000   RB045    1.000000
    CB069    RB075    -5.300000   RB076    14.400000
    CB069    RB077    -8.300000   RB078    0.300000
    CB069    RB079    -3.430000   RB080    -10.000000
    1CB069   RB012    -0.174000   RB013    -0.160000
    1CB069   RB014    -0.186000   RB015    -0.400000
    1CB069   RB016    -0.080000   RB031    -0.025000
    1CB069   1RB045   1.000000
    3CB069   RB012    -0.250000   1RB013   -0.150000
    3CB069   RB014    -0.150000   RB015    -0.400000
    3CB069   1RB016   -0.050000   RB031    -0.025000
    3CB069   1RB045   1.000000
    CB070    RB015    -1.000000   RB047    1.000000
    CB070    RB081    -4.500000   RB083    -8.300000
    CB070    RB084    0.300000   RB085    -3.430000
    CB070    RB086    -2.050000
    1CB070   1RB015   -1.000000   RB045    1.000000
    1CB070   RB075    -8.900000   RB076    -0.600000
    1CB070   RB077    -7.800000   RB078    1.600000
    1CB070   RB079    -3.430000   RB080    -10.000000
    2CB070   1RB015   -1.000000   RB047    1.000000
    2CB070   RB081    -8.100000   RB082    -14.600000
    2CB070   RB083    -7.800000   RB084    1.600000
    2CB070   RB085    -3.430000   RB086    -1.760000
    CB071    RB015    -1.000000   RB046    1.000000
    CB071    1RB050   1.000000   RB087    -12.240000
    CB071    1RB087   10.740000   RB088    -29.900000
    CB071    RB089    -3.526000   RB090    -25.000000
    CB071    1RB090   -18.000000
    1CB071   2RB015   -1.000000   RB045    1.000000
    1CB071   RB075    0.100000   RB076    19.400000
    1CB071   RB077    -8.700000   RB078    -1.800000
    1CB071   RB079    -4.410000   RB080    -5.000000
    2CB071   2RB015   -1.000000   RB047    1.000000
    2CB071   RB081    0.900000   RB082    5.500000
    2CB071   RB083    -8.700000   RB084    -1.800000
    2CB071   RB085    -4.410000   RB086    0.700000
    CB072    RB015    -1.000000   RB051    1.000000
    CB072    RB091    -19.770000   RB092    18.600000
    CB072    1RB092   -54.000000   RB093    -3.526000
    CB072    1RB093   -39.060000
    1CB072   RB015    -1.000000   1RB053   1.000000
    1CB072   RB102    -19.010000   RB103    17.260000
    1CB072   RB104    -64.000000   RB105    -3.526000
    1CB072   RB106    -24.060000
    CB073    RB015    -1.000000   RB053    1.000000
    CB073    RB094    -20.570000   RB095    19.860000
    CB073    RB096    -19.100000   RB097    -70.000000
    CB074    RB016    -1.000000   RB047    1.000000
    CB074    RB081    -5.300000   RB082    120.200000
    CB074    RB083    4.000000   RB084    -0.300000
    CB074    RB085    -3.560000   RB086    -2.050000
    1CB074   1RB016   -1.000000   RB047    1.000000
    1CB074   RB081    -6.000000   RB082    119.500000
    1CB074   RB083    9.800000   RB084    -0.450000
    1CB074   RB085    -3.560000   RB086    -2.600000
    CB075    RB016    -1.000000   RB051    1.000000
    CB075    RB091    -19.770000   RB092    18.600000
    CB075    1RB092   -32.000000   RB093    -3.856000
    CB075    1RB093   -29.000000
    1CB075   1RB016   -1.000000   RB051    1.000000
    1CB075   RB091    -19.190000   RB092    18.020000
    1CB075   1RB092   -32.000000   RB093    -3.856000
    1CB075   1RB093   -24.000000
    2CB075   RB016    -1.000000   1RB053   1.000000
    2CB075   RB102    -19.010000   RB103    17.260000
    2CB075   RB104    -42.000000   RB105    -3.856000
    2CB075   RB106    -14.000000
    3CB075   1RB016   -1.000000   1RB053   1.000000
    3CB075   RB102    -18.430000   RB103    16.680000
    3CB075   RB104    -42.000000   RB105    -3.856000
    3CB075   RB106    -9.000000
    CB076    R0000    0.095000   2RB005   0.028000
    CB076    RB006    0.080000   RB016    -1.000000
    CB076    RB028    0.126000   RB029    0.155000
    CB076    RB030    0.405000   RB031    -0.051000
    CB076    1RB031   0.087000   RB051    0.058000
    CB076    RB061    1.467000   RB091    -1.269000
    CB076    RB092    1.200000   1RB092   3.200000
    CB076    RB093    -0.164000   1RB093   -1.288000
    1CB076   R0000    0.095000   2RB005   0.032000
    1CB076   RB006    0.068000   1RB016   -1.000000
    1CB076   RB028    0.126000   RB029    0.155000
    1CB076   1RB030   0.405000   RB031    -0.051000
    1CB076   1RB031   0.095000   RB051    0.058000
    1CB076   RB061    1.467000   RB091    -1.269000
    1CB076   RB092    1.200000   1RB092   3.200000
    1CB076   RB093    -0.164000   1RB093   -1.288000
    CB077    RB025    -1.000000   RB051    1.000000
    CB077    RB091    -2.610000   RB092    1.440000
    CB077    1RB092   82.000000   RB093    -0.643000
    CB077    1RB093   -35.800000
    1CB077   RB025    -1.000000   1RB053   1.000000
    1CB077   RB102    -1.850000   RB103    0.100000
    1CB077   RB104    72.000000   RB105    -0.643000
    1CB077   RB106    -20.800000
    CB078    1RB025   -1.000000   RB053    1.000000
    CB078    RB095    -0.710000   RB096    -15.000000
    CB078    RB097    -10.000000
    1CB078   1RB025   -1.000000   RB051    1.000000
    1CB078   RB091    -0.760000   RB092    -0.410000
    1CB078   1RB092   6.000000   RB093    -0.643000
    1CB078   1RB093   -35.000000
    2CB078   2RB025   -1.000000   RB051    1.000000
    2CB078   RB091    -1.520000   RB092    0.350000
    2CB078   1RB092   25.700000   RB093    -0.803000
    2CB078   1RB093   -36.000000
    3CB078   2RB025   -1.000000   RB053    1.000000
    3CB078   RB094    -0.760000   RB095    0.050000
    3CB078   RB096    -16.000000   RB097    9.700000
    4CB078   1RB025   -1.000000   1RB053   1.000000
    4CB078   RB103    -1.750000   RB104    -4.000000
    4CB078   RB105    -0.643000   RB106    -20.000000
    CB079    1RB020   -1.000000   RB053    1.000000
    CB079    RB094    1.340000   RB095    -2.050000
    CB079    RB096    5.400000   RB097    -15.000000
    1CB079   2RB025   -1.000000   1RB053   1.000000
    1CB079   RB102    -0.760000   RB103    -0.990000
    1CB079   RB104    15.700000   RB105    -0.803000
    1CB079   RB106    -21.000000
    CB080    1RB020   -1.000000   RB051    1.000000
    CB080    RB091    0.580000   RB092    -1.750000
    CB080    1RB092   1.000000   RB093    -1.930000
    CB080    1RB093   -14.600000
    1CB080   1RB020   -1.000000   1RB053   1.000000
    1CB080   RB102    1.340000   RB103    -3.090000
    1CB080   RB104    -9.000000   RB105    -1.930000
    1CB080   RB106    0.400000
    CB081    RB018    -1.000000   RB051    1.000000
    CB081    RB091    -2.410000   RB092    1.240000
    CB081    1RB092   1.000000   RB093    -0.803000
    CB081    1RB093   -18.000000
    1CB081   1RB018   -1.000000   RB051    1.000000
    1CB081   RB091    -2.050000   RB092    0.880000
    1CB081   1RB092   -7.000000   RB093    -0.803000
    1CB081   1RB093   -4.000000
    2CB081   RB019    -1.000000   RB051    1.000000
    2CB081   RB091    -0.030000   RB092    -1.140000
    2CB081   1RB092   -11.000000   RB093    -0.803000
    2CB081   1RB093   -0.700000
    3CB081   RB018    -1.000000   1RB053   1.000000
    3CB081   RB102    -1.410000   RB103    -0.340000
    3CB081   RB104    -9.000000   RB105    -0.803000
    3CB081   RB106    -3.000000
    4CB081   1RB018   -1.000000   1RB053   1.000000
    4CB081   RB102    -1.320000   RB103    -0.430000
    4CB081   RB104    -14.000000   RB105    -0.803000
    4CB081   RB106    11.000000
    CB082    RB018    -1.000000   RB053    1.000000
    CB082    RB094    -1.650000   RB095    0.940000
    CB082    RB096    2.000000   RB097    -15.000000
    1CB082   1RB018   -1.000000   RB053    1.000000
    1CB082   RB094    -1.290000   RB095    0.580000
    1CB082   RB096    16.000000   RB097    -23.000000
    2CB082   RB019    -1.000000   RB053    1.000000
    2CB082   RB094    0.730000   RB095    -1.440000
    2CB082   RB096    19.300000   RB097    -27.000000
    3CB082   RB019    -1.000000   1RB053   1.000000
    3CB082   RB102    0.730000   RB103    -2.480000
    3CB082   RB104    -21.000000   RB105    -0.803000
    3CB082   RB106    14.300000
    1CB083   1RB018   -1.000000   1RB021   0.059000
    1CB083   1RB022   0.358000   1RB023   0.420000
    1CB083   1RB030   -0.054000   RB031    -0.075000
    1CB083   RB048    0.135000   RB051    0.100000
    1CB083   RB059    1.026000   RB091    -0.374000
    1CB083   RB092    0.162000   1RB092   4.300000
    1CB083   RB093    -0.159000   1RB093   0.996000
    2CB083   RB019    -1.000000   1RB021   0.063000
    2CB083   1RB022   0.317000   1RB023   0.484000
    2CB083   1RB030   -0.063000   RB031    -0.074000
    2CB083   RB048    0.135000   RB051    0.082000
    2CB083   RB059    1.025000   RB091    -0.317000
    2CB083   RB092    0.115000   1RB092   3.500000
    2CB083   RB093    -0.156000   1RB093   1.232000
    1CB085   1RB018   -1.000000   1RB021   0.057000
    1CB085   1RB022   0.308000   1RB023   0.396000
    1CB085   1RB030   -0.060000   RB031    -0.094000
    1CB085   RB048    0.189000   RB051    0.140000
    1CB085   RB059    1.036000   RB091    -0.524000
    1CB085   RB092    0.361000   1RB092   6.000000
    1CB085   RB093    -0.223000   1RB093   1.400000
    2CB085   RB019    -1.000000   1RB021   0.061000
    2CB085   1RB022   0.273000   1RB023   0.456000
    2CB085   1RB030   -0.070000   RB031    -0.094000
    2CB085   RB048    0.193000   RB051    0.117000
    2CB085   RB059    1.036000   RB091    -0.453000
    2CB085   RB092    0.316000   1RB092   5.000000
    2CB085   RB093    -0.223000   1RB093   1.760000
    CB086    RB016    -1.000000   RB045    1.000000
    CB086    RB075    -6.100000   RB076    134.600100
    CB086    RB077    4.000000   RB078    -0.300000
    CB086    RB079    -3.560000   RB080    -10.000000
    1CB086   1RB016   -1.000000   RB045    1.000000
    1CB086   RB075    -6.800000   RB076    133.699999
    1CB086   RB077    9.800000   RB078    -0.450000
    1CB086   RB079    -3.560000   RB080    -10.000000
    CB089    RB018    -1.000000   RB046    1.000000
    CB089    1RB050   1.000000   RB087    5.400000
    CB089    1RB087   -6.900000   RB088    -10.000000
    CB089    RB089    -0.803000   RB090    75.000000
    CB089    1RB090   37.000000
    CB090    1RB018   -1.000000   RB046    1.000000
    CB090    1RB050   1.000000   RB087    5.590000
    CB090    1RB087   -7.090000   RB088    4.000000
    CB090    RB089    -0.803000   RB090    75.000000
    CB090    1RB090   29.000000
    1CB090   RB019    -1.000000   RB046    1.000000
    1CB090   1RB050   1.000000   RB087    7.640000
    1CB090   1RB087   -9.040000   RB088    7.300000
    1CB090   RB089    -0.803000   RB090    75.000000
    1CB090   1RB090   25.000000
    CB091    RB011    -0.018000   RB020    -1.000000
    CB091    1RB021   0.055000   RB022    0.359000
    CB091    RB031    -0.046000   2RB049   0.222000
    CB091    RB051    0.364000   RB091    3.830000
    CB091    RB092    -4.260000   1RB092   -12.700000
    CB091    RB093    -0.234000   1RB093   -4.110000
    CB092    RB020    -1.000000   RB046    1.000000
    CB092    1RB050   1.000000   RB087    8.970000
    CB092    1RB087   -10.470000   RB088    -8.500000
    CB092    RB089    -0.803000   RB090    -25.000000
    CB092    1RB090   15.000000
    CB093    RB020    -1.000000   RB051    1.000000
    CB093    RB091    1.300000   RB092    -2.470000
    CB093    1RB092   -21.000000   RB093    -0.803000
    CB093    1RB093   -16.500000
    1CB093   RB020    -1.000000   1RB053   1.000000
    1CB093   RB102    2.060000   RB103    -3.810000
    1CB093   RB104    -31.000000   RB105    -0.803000
    1CB093   RB106    -1.500000
    CB094    RB020    -1.000000   RB053    1.000000
    CB094    RB094    2.060000   RB095    -2.770000
    CB094    RB096    3.500000   RB097    -37.000000
    2CB097   R0000    0.095000   2RB005   0.021000
    2CB097   RB006    0.065000   RB022    -1.000000
    2CB097   RB028    0.139000   RB029    0.171000
    2CB097   RB030    0.278000   RB031    -0.036000
    2CB097   1RB031   0.060000   RB051    0.207000
    2CB097   RB061    1.000000   RB091    -2.637000
    2CB097   RB092    2.395000   1RB092   4.100000
    2CB097   RB093    -0.406000   1RB093   -4.930000
    2CB098   R0000    0.095000   2RB005   0.021000
    2CB098   RB006    0.065000   RB022    -1.000000
    2CB098   RB028    0.139000   RB029    0.171000
    2CB098   RB030    0.278000   RB031    0.102000
    2CB098   1RB031   0.060000   RB051    0.069000
    2CB098   RB061    1.000000   RB091    -0.574000
    2CB098   RB092    0.493000   1RB092   3.900000
    2CB098   1RB093   -1.530000
    3CB098   1RB021   -1.000000   1RB053   1.000000
    3CB098   RB102    -17.620000   RB103    15.870000
    3CB098   RB104    -47.000000   RB105    -3.404000
    3CB098   RB106    -5.200000
    2CB099   R0000    0.095000   2RB005   0.031000
    2CB099   RB006    0.082000   RB022    -1.000000
    2CB099   RB028    0.150000   RB029    0.185000
    2CB099   RB030    0.231000   RB031    -0.036000
    2CB099   1RB031   0.082000   RB051    0.167000
    2CB099   RB061    1.412000   RB091    -2.194000
    2CB099   RB092    1.994000   1RB092   3.300000
    2CB099   RB093    -0.356000   1RB093   -3.990000
    1CB100   R0000    0.095000   2RB005   0.024000
    1CB100   RB006    0.059000   1RB021   -1.000000
    1CB100   RB028    0.125000   RB029    0.155000
    1CB100   1RB030   0.398000   RB031    -0.051000
    1CB100   1RB031   0.085000   RB051    0.100000
    1CB100   RB061    1.000000   RB091    -2.188000
    1CB100   RB092    2.070000   1RB092   5.600000
    1CB100   RB093    -0.284000   1RB093   -2.340000
    2CB100   R0000    0.095000   2RB005   0.031000
    2CB100   RB006    0.082000   RB022    -1.000000
    2CB100   RB028    0.150000   RB029    0.185000
    2CB100   RB030    0.231000   RB031    0.085000
    2CB100   1RB031   0.082000   RB051    0.046000
    2CB100   RB061    1.412000   RB091    -0.382000
    2CB100   RB092    0.329000   1RB092   2.600000
    2CB100   1RB093   -1.020000
    1CB101   R0000    0.095000   2RB005   0.036000
    1CB101   RB006    0.075000   1RB021   -1.000000
    1CB101   RB028    0.136000   RB029    0.167000
    1CB101   1RB030   0.336000   RB031    -0.051000
    1CB101   1RB031   0.106000   RB051    0.077000
    1CB101   RB061    1.100000   RB091    -1.684000
    1CB101   RB092    1.590000   1RB092   4.300000
    1CB101   RB093    -0.218000   1RB093   -1.800000
    2CB101   R0000    0.095000   2RB005   0.024000
    2CB101   RB006    0.055000   1RB022   -1.000000
    2CB101   RB028    0.139000   RB029    0.171000
    2CB101   1RB030   0.278000   RB031    -0.036000
    2CB101   1RB031   0.065000   RB051    0.207000
    2CB101   RB061    1.000000   RB091    -2.636000
    2CB101   RB092    2.395000   1RB092   4.100000
    2CB101   RB093    -0.406000   1RB093   -3.790000
    CB102    RB022    -1.000000   RB051    1.000000
    CB102    RB091    -9.080000   RB092    7.910000
    CB102    1RB092   43.000000   RB093    -2.549000
    CB102    1RB093   -18.000000
    1CB102   1RB022   -1.000000   RB051    1.000000
    1CB102   RB091    -8.420000   RB092    7.250000
    1CB102   1RB092   43.000000   RB093    -2.549000
    1CB102   1RB093   -12.000000
    2CB102   R0000    0.095000   2RB005   0.024000
    2CB102   RB006    0.055000   1RB022   -1.000000
    2CB102   RB028    0.139000   RB029    0.171000
    2CB102   1RB030   0.278000   RB031    0.102000
    2CB102   1RB031   0.065000   RB051    0.069000
    2CB102   RB061    1.000000   RB091    -0.574000
    2CB102   RB092    0.493000   1RB092   3.900000
    2CB102   1RB093   -1.100000
    3CB102   RB022    -1.000000   1RB053   1.000000
    3CB102   RB102    -8.320000   RB103    6.570000
    3CB102   RB104    33.000000   RB105    -2.549000
    3CB102   RB106    -3.000000
    4CB102   1RB022   -1.000000   1RB053   1.000000
    4CB102   RB102    -7.660000   RB103    5.910000
    4CB102   RB104    33.000000   RB105    -2.549000
    4CB102   RB106    3.000000
    2CB103   R0000    0.095000   2RB005   0.035000
    2CB103   RB006    0.070000   1RB022   -1.000000
    2CB103   RB028    0.150000   RB029    0.185000
    2CB103   1RB030   0.231000   RB031    -0.036000
    2CB103   1RB031   0.088000   RB051    0.167000
    2CB103   RB061    1.412000   RB091    -2.194000
    2CB103   RB092    1.999000   1RB092   3.300000
    2CB103   RB093    -0.356000   1RB093   -3.090000
    2CB104   R0000    0.095000   2RB005   0.035000
    2CB104   RB006    0.070000   1RB022   -1.000000
    2CB104   RB028    0.150000   RB029    0.185000
    2CB104   1RB030   0.231000   RB031    0.085000
    2CB104   1RB031   0.088000   RB051    0.046000
    2CB104   RB061    1.412000   RB091    -0.382000
    2CB104   RB092    0.329000   1RB092   2.600000
    2CB104   1RB093   -0.740000
    1CB105   1RB023   -1.000000   RB046    1.000000
    1CB105   1RB050   1.000000   RB087    11.930000
    1CB105   1RB087   -14.460000   RB088    21.000000
    1CB105   RB089    -0.175000   RB090    -25.000000
    1CB105   1RB090   17.000000
    1CB106   1RB023   -1.000000   RB051    1.000000
    1CB106   RB091    4.400000   RB092    -5.570000
    1CB106   1RB092   -19.000000   RB093    -0.175000
    1CB106   1RB093   13.000000
    CB111    RB025    -1.000000   RB053    1.000000
    CB111    RB094    -1.850000   RB095    1.140000
    CB111    RB096    -15.800000   RB097    66.000000
    CB112    RB053    -0.322000   RB054    1.000000
    CB112    1RB054   -0.678000
    1CB112   1RB025   -0.714000   RB053    -0.286000
    1CB112   RB054    1.000000
    CB113    RB025    -1.000000   1RB054   1.000000
    CB114    2RB025   -1.000000   1RB054   1.000000
    1CB114   1RB025   -1.000000   1RB054   1.000000
    2CB114   R0000    0.197000   RB024    -1.000000
    2CB114   RB034    1.000000   RB064    4.046000
    2CB114   RB065    -5.220000   RB066    -11.403000
    2CB114   RB067    -0.365000
    2CB115   R0000    0.086000   RB024    -1.000000
    2CB115   RB036    1.000000   RB068    -11.223000
    2CB115   RB069    -5.220000   RB070    -11.403000
    2CB115   RB071    -0.585000
    2CB116   RB024    -1.000000   RB026    0.448000
    2CB116   RB027    0.552000   RB031    -0.016000
    CB117    R0000    0.222000   RB028    -1.000000
    CB117    RB034    0.990000   RB064    -1.174000
    CB117    RB065    -71.879900   RB066    56.630000
    CB117    RB067    -0.411000
    2CB117   R0000    0.194000   1RB024   -1.000000
    2CB117   RB034    1.000000   RB064    -0.897000
    2CB117   RB065    1.282000   RB066    -7.810000
    2CB117   RB067    -0.359000
    CB118    R0000    0.097000   RB028    -1.000000
    CB118    RB036    0.990000   RB068    -20.098000
    CB118    RB069    -71.879900   RB070    56.630000
    CB118    RB071    -0.657000
    2CB118   R0000    0.085000   1RB024   -1.000000
    2CB118   RB036    1.000000   RB068    -17.179000
    2CB118   RB069    1.282000   RB070    -7.810000
    2CB118   RB071    -0.574000
    1CB119   R0000    0.170000   RB029    -1.000000
    1CB119   RB030    0.120000   RB034    0.880000
    1CB119   RB064    1.013000   RB065    40.500000
    1CB119   RB066    -32.321000   RB067    -0.315000
    2CB119   1RB024   -1.000000   RB026    0.322000
    2CB119   RB027    0.678000   RB031    -0.016000
    CB120    R0000    0.074000   RB029    -1.000000
    CB120    RB030    0.120000   RB036    0.880000
    CB120    RB068    -13.612000   RB069    40.500000
    CB120    RB070    -32.321000   RB071    -0.504000
    2CB120   R0000    0.224000   RB026    -1.000000
    2CB120   RB034    1.000000   RB064    19.100000
    2CB120   RB065    -69.606899   RB066    28.206000
    2CB120   RB067    -0.415000
    CB121    R0000    0.190000   RB029    -1.000000
    CB121    RB034    1.000000   RB064    2.390000
    CB121    RB065    52.500000   RB066    -37.500000
    CB121    RB067    -0.352000
    2CB121   R0000    0.098000   RB026    -1.000000
    2CB121   RB036    1.000000   RB068    6.664000
    2CB121   RB069    -69.606899   RB070    28.206000
    2CB121   RB071    -0.663000
    CB122    R0000    0.083000   RB029    -1.000000
    CB122    RB036    1.000000   RB068    -15.125000
    CB122    RB069    52.500000   RB070    -37.500000
    CB122    RB071    -0.560000
    1CB122   2RB007   1.000000   RB026    -1.000000
    1CB122   RB099    1.000000   UKLDF    -1.000000
    2CB122   RB026    -1.000000   RB038    1.000000
    2CB122   UKLDF    -1.000000
    CB123    RB030    -1.000000   RB045    1.000000
    CB123    RB075    -10.600000   RB076    24.300000
    CB123    RB077    -8.000000   RB078    1.750000
    CB123    RB079    -1.240000   RB080    90.000000
    1CB123   1RB030   -1.000000   RB045    1.000000
    1CB123   RB075    -9.300000   RB076    24.600000
    1CB123   RB077    10.500000   RB078    1.750000
    1CB123   RB079    -1.240000   RB080    90.000000
    2CB123   RB026    -1.000000   RB039    1.000000
    2CB123   RB072    15.148000   RB073    -10.588000
    2CB123   RB074    -35.000000
    CB124    RB030    -1.000000   RB047    1.000000
    CB124    RB081    -9.800000   RB082    10.600000
    CB124    RB083    -8.000000   RB084    1.750000
    CB124    RB085    -1.240000   RB086    -3.310000
    1CB124   1RB030   -1.000000   RB047    1.000000
    1CB124   RB081    -8.500000   RB082    10.700000
    1CB124   RB083    10.500000   RB084    1.750000
    1CB124   RB085    -1.240000   RB086    -6.870000
    2CB124   RB026    -1.000000   RB031    1.114000
    CB125    RB030    -1.000000   RB046    1.000000
    CB125    1RB050   1.000000   RB087    -10.750000
    CB125    1RB087   9.250000   RB088    -21.000000
    CB125    RB090    -25.000000   1RB090   -8.000000
    1CB125   1RB030   -1.000000   RB046    1.000000
    1CB125   1RB050   1.000000   RB087    -10.260000
    1CB125   1RB087   8.760000   RB088    -11.000000
    1CB125   RB090    -25.000000   1RB090   -8.000000
    CB126    RB030    -1.000000   RB051    1.000000
    CB126    RB091    -18.280000   RB092    17.110000
    CB126    1RB092   -44.000000   1RB093   -30.000000
    1CB126   1RB030   -1.000000   RB051    1.000000
    1CB126   RB091    -17.790000   RB092    16.620000
    1CB126   1RB092   -44.000000   1RB093   -20.000000
    2CB126   RB030    -1.000000   1RB053   1.000000
    2CB126   RB102    -17.520000   RB103    15.770000
    2CB126   RB104    -54.000000   RB106    -15.000000
    3CB126   1RB030   -1.000000   1RB053   1.000000
    3CB126   RB102    -17.030000   RB103    15.280000
    3CB126   RB104    -54.000000   RB106    -5.000000
    CB127    R0000    0.201000   RB034    1.000000
    CB127    RB055    1.000000   RB064    1.066000
    CB127    RB065    -4.170000   RB066    4.860000
    CB127    RB067    -0.373000
    CB128    R0000    0.085000   RB036    1.000000
    CB128    RB055    1.000000   RB068    -16.666000
    CB128    RB069    -4.170000   RB070    4.860000
    CB128    RB071    -0.574000
    CB130    R0000    0.794000   RB064    -11.160000
    CB130    RB067    1.000000
    CB131    R0000    0.591000   RB068    -11.161000
    CB131    RB071    1.000000
    CB133    R0000    0.356000   RB027    -0.500000
    CB133    RB028    -0.505000   RB033    1.000000
    1CB133   R0000    0.354000   RB024    -0.230000
    1CB133   RB027    -0.370000   RB028    -0.404000
    1CB133   RB033    1.000000
    2CB133   R0000    0.355000   RB007    -0.071000
    2CB133   RB027    -0.510000   RB028    -0.424000
    2CB133   RB033    1.000000
    CB135    RB034    -1.000000   RB035    1.000000
    CB135    RB064    1.745000
    CB138    RB036    -1.000000   RB037    1.000000
    CB138    RB068    6.850000
    CB139    RB016    -1.000000   RB031    1.051000
    1CB139   1RB016   -1.000000   RB031    1.049000
    CB140    RB031    1.000000   RB051    -1.000000
    CB140    RB091    2.100000   RB092    -0.930000
    CB140    1RB093   10.000000
    CB141    RB038    -1.000000   1RB038   1.000000
    CB142    RB047    -1.000000   2RB047   1.000000
    CB142    RB083    -2.000000   RB084    -1.300000
    CB142    RB086    -7.420000
    1CB142   RB047    -1.000000   3RB047   1.000000
    1CB142   RB081    0.700000   RB082    -27.200000
    1CB142   RB083    -2.000000   RB084    -1.300000
    1CB142   RB086    -7.420000
    CB143    RB009    -0.680000   RB010    1.310000
    CB143    RB011    -2.320000   RB012    1.690000
    CB143    RB013    -0.460000   RB016    -0.540000
    CB143    1RB044   1.000000
    1CB143   RB009    -0.720000   RB010    1.550000
    1CB143   RB011    -2.470000   RB012    1.650000
    1CB143   1RB013   -0.380000   1RB016   -0.630000
    1CB143   1RB044   1.000000
    CB144    4RB045   1.000000   RB047    -1.000000
    CB144    RB081    -0.800000   RB082    -5.400000
    CB144    RB083    2.500000   RB084    -0.500000
    CB144    RB086    -7.420000
    CB146    1RB001   1.000000   RB031    1.088000
    CB146    RB101    0.969000
    CB147    RB002    1.000000   RB031    1.081000
    CB147    RB101    1.000000
    CB149    RB010    -1.000000   RB031    1.090000
    CB150    RB012    -1.000000   RB031    1.080000
    CB151    RB031    1.060000   RB047    -1.000000
    CBF28    RB050    0.933000   1RB050   -1.000000
    CBF28    RB051    0.067000   RB088    2.000000
    CBF28    1RB090   -5.000000   RB091    -0.514000
    CBF28    RB092    0.436000   1RB092   -2.500000
    CBF28    1RB093   -0.670000
    1CBF29   RB051    -0.916000   1RB051   1.000000
    1CBF29   1RB053   -0.084000   RB091    -0.350000
    1CBF29   RB092    0.380000   1RB092   -2.750000
    1CBF29   1RB093   5.500000   RB102    0.280000
    1CBF29   RB103    -0.260000   RB104    0.590000
    1CBF29   RB106    -0.760000
    CBF35    RB051    -0.344000   RB052    1.000000
    CBF35    1RB053   -0.656000   RB091    0.400000
    CBF35    RB092    0.140000   1RB093   2.580000
    CBF35    RB102    2.220000   RB103    -2.040000
    CBF35    RB104    6.560000   RB106    -4.920000
    CBF80    RB051    -1.000000   2RB051   1.000000
    CBF80    RB092    0.410000   1RB093   6.000000
    ADDEA    R0000    0.637400   KW1RC    -1.000000
    CE001    RE001    1.010000   RE008    0.001800
    CE001    RE010    0.004400   RE011    0.012200
    CE001    RE012    0.042600   RE013    0.089000
    CE001    RE015    0.058000   RE017    0.093000
    CE001    RE018    0.117000   RE021    0.037000
    CE001    RE024    0.545000   RE060    -0.028200
    CE001    RE061    1.000000   1RE061   -1.000000
    CE001    2RE061   1.000000   RE062    0.208000
    CE002    RE002    1.010000   RE008    0.001500
    CE002    RE010    0.003800   RE011    0.011400
    CE002    RE012    0.040300   RE014    0.115000
    CE002    RE016    0.068000   RE017    0.115000
    CE002    RE019    0.136000   RE022    0.047000
    CE002    RE025    0.462000   RE060    -0.033100
    CE002    RE061    1.000000   1RE061   -1.000000
    CE002    2RE061   1.000000   RE062    0.240000
    CE004    RE004    1.010000   RE008    0.001300
    CE004    RE010    0.002800   RE011    0.012500
    CE004    RE012    0.040400   RE014    0.105000
    CE004    RE016    0.064000   RE017    0.101000
    CE004    RE019    0.082000   RE022    0.081000
    CE004    RE026    0.510000   RE060    -0.030800
    CE004    RE061    1.000000   1RE061   -1.000000
    CE004    2RE061   1.000000   RE062    0.208000
    CE005    RE008    -0.900000   RE009    1.000000
    CE005    RE010    -0.100000
    CE006    RE008    -1.000000   RE060    1.190000
    CE008    RE008    -1.000000   RE066    1.000000
    CE009    RE008    1.000000   RE010    -1.000000
    CE010    RE008    1.000000   RE011    -1.000000
    CE011    R0000    0.108000   RE011    -1.000000
    CE011    RE035    1.000000   RE068    -2.240000
    CE011    RE069    164.100100   RE070    -100.000000
    CE011    RE071    -0.367000
    CE012    R0000    0.049000   RE011    -1.000000
    CE012    RE037    1.000000   RE072    -13.100000
    CE012    RE073    164.100100   RE074    -100.000000
    CE012    RE075    -0.734000
    CE013    R0000    0.095000   RE012    -1.000000
    CE013    RE035    1.000000   RE063    1.000000
    CE013    RE068    36.970000   RE069    55.000000
    CE013    RE070    -87.899899   RE071    -0.323000
    CE014    R0000    0.044000   RE012    -1.000000
    CE014    RE037    1.000000   RE063    1.000000
    CE014    RE072    31.060000   RE073    55.000000
    CE014    RE074    -87.899899   RE075    -0.645000
    CE015    RE012    -1.000000   RE039    1.000000
    CE017    RE012    -1.000000   RE060    1.110000
    CE018    R0000    0.113000   RE008    0.115000
    CE018    RE010    0.077000   RE011    0.115000
    CE018    RE013    -1.000000   RE035    0.693000
    CE018    RE060    -0.120000   RE063    1.000000
    CE018    RE068    -0.980000   RE069    -4.300000
    CE018    RE070    -8.000000   RE071    -0.190000
    CE019    R0000    0.139000   RE008    0.128000
    CE019    RE010    0.086000   RE011    0.127000
    CE019    RE013    -1.000000   RE035    0.659000
    CE019    RE060    -0.126000   RE063    1.000000
    CE019    RE068    -2.500000   RE069    -3.100000
    CE019    RE070    -3.800000   RE071    -0.178000
    CE020    R0000    0.176000   RE008    0.137000
    CE020    RE010    0.091000   RE011    0.137000
    CE020    RE013    -1.000000   RE035    0.635000
    CE020    RE060    -0.130000   RE063    1.100000
    CE020    RE068    -4.610000   RE069    -2.900000
    CE020    RE071    -0.169000
    CE021    R0000    0.066000   RE008    0.097000
    CE021    RE010    0.065000   RE011    0.097000
    CE021    RE013    -1.000000   RE037    0.741000
    CE021    RE060    -0.113000   RE063    0.910000
    CE021    RE072    -3.020000   RE073    -8.300000
    CE021    RE074    -12.700000   RE075    -0.415000
    1CE021   R0000    0.049000   RE008    0.073000
    1CE021   RE010    0.040000   RE011    0.063000
    1CE021   RE013    -1.000000   RE037    0.824000
    1CE021   RE060    -0.110000   RE063    0.910000
    1CE021   RE072    7.470000   RE073    -16.100000
    1CE021   RE074    -2.200000   RE075    -0.475000
    CE022    R0000    0.083000   RE008    0.115000
    CE022    RE010    0.077000   RE011    0.115000
    CE022    RE013    -1.000000   RE037    0.693000
    CE022    RE060    -0.120000   RE063    1.000000
    CE022    RE072    -6.330000   RE073    -4.300000
    CE022    RE074    -8.000000   RE075    -0.380000
    CE023    R0000    0.116000   RE008    0.092000
    CE023    RE010    0.062000   RE011    0.094000
    CE023    RE014    -1.000000   RE035    0.752000
    CE023    RE060    -0.120000   RE063    1.000000
    CE023    RE068    -1.060000   RE069    -6.800000
    CE023    RE070    -4.800000   RE071    -0.204000
    CE024    R0000    0.151000   RE008    0.104000
    CE024    RE010    0.070000   RE011    0.104000
    CE024    RE014    -1.000000   RE035    0.722000
    CE024    RE060    -0.126000   RE063    1.000000
    CE024    RE068    -2.740000   RE069    -5.100000
    CE024    RE070    -1.400000   RE071    -0.194000
    CE025    R0000    0.177000   RE008    0.114000
    CE025    RE010    0.076000   RE011    0.113000
    CE025    RE014    -1.000000   RE035    0.697000
    CE025    RE060    -0.130000   RE063    1.100000
    CE025    RE068    -5.020000   RE069    -4.400000
    CE025    RE070    -1.700000   RE071    -0.184000
    CE026    R0000    0.066000   RE008    0.072000
    CE026    RE010    0.048000   RE011    0.081000
    CE026    RE014    -1.000000   RE037    0.799000
    CE026    RE060    -0.113000   RE063    0.910000
    CE026    RE072    -3.210000   RE073    -11.000000
    CE026    RE074    -8.300000   RE075    -0.441000
    1CE026   R0000    0.055000   RE008    0.056000
    1CE026   RE010    0.032000   RE011    0.050000
    1CE026   RE014    -1.000000   RE037    0.862000
    1CE026   RE060    -0.110000   RE063    0.910000
    1CE026   RE072    7.670000   RE073    -21.200000
    1CE026   RE074    -1.100000   RE075    -0.488000
    CE027    R0000    0.084000   RE008    0.092000
    CE027    RE010    0.062000   RE011    0.094000
    CE027    RE014    -1.000000   RE037    0.752000
    CE027    RE060    -0.120000   RE063    1.000000
    CE027    RE072    -6.810000   RE073    -6.800000
    CE027    RE074    -4.800000   RE075    -0.409000
    CE029    RE013    -1.000000   RE039    1.000000
    CE032    RE013    1.000000   RE014    -1.000000
    CE033    R0000    0.136000   RE008    0.096000
    CE033    RE010    0.064000   RE011    0.095000
    CE033    RE013    -0.620000   RE015    -0.380000
    CE033    RE035    0.745000   RE060    -0.120000
    CE033    RE063    1.000000   RE068    -0.670000
    CE033    RE069    -8.100000   RE070    -1.400000
    CE033    RE071    -0.204000
    CE034    R0000    0.180000   RE008    0.110000
    CE034    RE010    0.074000   RE011    0.109000
    CE034    RE013    -0.620000   RE015    -0.380000
    CE034    RE035    0.707000   RE060    -0.126000
    CE034    RE063    1.000000   RE068    -2.680000
    CE034    RE069    -6.000000   RE070    -0.900000
    CE034    RE071    -0.190000
    CE035    R0000    0.224000   RE008    0.124000
    CE035    RE010    0.074000   RE011    0.119000
    CE035    RE013    -0.620000   RE015    -0.380000
    CE035    RE035    0.683000   RE060    -0.130000
    CE035    RE063    1.100000   RE068    -4.520000
    CE035    RE069    -4.800000   RE070    4.300000
    CE035    RE071    -0.182000
    CE036    R0000    0.079000   RE008    0.076000
    CE036    RE010    0.050000   RE011    0.077000
    CE036    RE013    -0.620000   RE015    -0.380000
    CE036    RE037    0.797000   RE060    -0.113000
    CE036    RE063    0.910000   RE072    -2.810000
    CE036    RE073    -11.400000   RE075    -0.444000
    1CE036   R0000    0.062000   RE008    0.050000
    1CE036   RE010    0.027000   RE011    0.043000
    1CE036   RE013    -0.620000   RE015    -0.380000
    1CE036   RE037    0.880000   RE060    -0.110000
    1CE036   RE063    0.910000   RE072    8.020000
    1CE036   RE073    -15.400000   RE074    16.800000
    1CE036   RE075    -0.510000
    CE037    R0000    0.104000   RE008    0.096000
    CE037    RE010    0.064000   RE011    0.095000
    CE037    RE013    -0.620000   RE015    -0.380000
    CE037    RE037    0.745000   RE060    -0.120000
    CE037    RE063    1.000000   RE072    -6.600000
    CE037    RE073    -8.100000   RE074    -1.400000
    CE037    RE075    -0.407000
    CE038    R0000    0.137000   RE008    0.076000
    CE038    RE010    0.050000   RE011    0.076000
    CE038    RE014    -0.625000   RE016    -0.375000
    CE038    RE035    0.798000   RE060    -0.120000
    CE038    RE063    1.000000   RE068    -0.710000
    CE038    RE069    -13.000000   RE070    2.000000
    CE038    RE071    -0.215000
    CE039    R0000    0.181000   RE008    0.085000
    CE039    RE010    0.057000   RE011    0.086000
    CE039    RE014    -0.625000   RE016    -0.375000
    CE039    RE035    0.772000   RE060    -0.126000
    CE039    RE063    1.000000   RE068    -2.900000
    CE039    RE069    -10.200000   RE070    3.900000
    CE039    RE071    -0.206000
    CE040    R0000    0.183000   RE008    0.096000
    CE040    RE010    0.058000   RE011    0.091000
    CE040    RE014    -0.625000   RE016    -0.375000
    CE040    RE035    0.755000   RE060    -0.130000
    CE040    RE063    1.100000   RE068    -4.950000
    CE040    RE069    -8.500000   RE070    5.600000
    CE040    RE071    -0.198000
    CE041    R0000    0.079000   RE008    0.061000
    CE041    RE010    0.041000   RE011    0.062000
    CE041    RE014    -0.625000   RE016    -0.375000
    CE041    RE037    0.836000   RE060    -0.113000
    CE041    RE063    0.910000   RE072    -2.900000
    CE041    RE073    -15.600000   RE074    4.300000
    CE041    RE075    -0.458000
    1CE041   R0000    0.061000   RE008    0.039000
    1CE041   RE010    0.021000   RE011    0.034000
    1CE041   RE014    -0.625000   RE016    -0.375000
    1CE041   RE037    0.906000   RE060    -0.110000
    1CE041   RE063    0.910000   RE072    7.990000
    1CE041   RE073    -19.100000   RE074    9.500000
    1CE041   RE075    -0.508000
    CE042    R0000    0.104000   RE008    0.076000
    CE042    RE010    0.050000   RE011    0.076000
    CE042    RE014    -0.625000   RE016    -0.375000
    CE042    RE037    0.798000   RE060    -0.120000
    CE042    RE063    1.000000   RE072    -6.970000
    CE042    RE073    -13.000000   RE074    2.000000
    CE042    RE075    -0.430000
    1CE042   RE015    1.000000   RE016    -1.000000
    CE046    RE017    -1.000000   RE045    1.000000
    CE046    RE084    3.740000   RE085    -9.000000
    CE046    RE086    -59.070000   RE087    0.560000
    CE047    RE017    -1.000000   RE048    1.000000
    CE047    RE088    -29.900000   RE089    26.800000
    CE047    RE090    -37.000000   RE091    -93.000000
    CE047    RE092    0.560000
    CE049    RE017    -1.000000   RE058    1.000000
    CE049    RE098    -23.960000   RE099    21.200000
    CE049    RE100    -15.000000   RE101    -83.000000
    CE049    RE102    0.560000
    CE051    RE018    -1.000000   RE045    1.000000
    CE051    RE084    -1.860000   RE085    1.300000
    CE051    RE086    -29.850000   RE087    -4.000000
    CE052    RE018    -1.000000   RE048    1.000000
    CE052    RE088    -22.220000   RE089    19.130000
    CE052    RE090    -27.200000   RE091    -64.000000
    CE052    RE092    -4.000000
    CE054    RE018    -1.000000   RE058    1.000000
    CE054    RE098    -16.280000   RE099    13.520000
    CE054    RE100    -5.200000   RE101    -54.000000
    CE054    RE102    -4.000000
    CE056    RE019    -1.000000   RE045    1.000000
    CE056    RE084    -2.560000   RE085    -2.900000
    CE056    RE086    -31.850000   RE087    -4.000000
    CE057    RE019    -1.000000   RE048    1.000000
    CE057    RE088    -22.220000   RE089    19.130000
    CE057    RE090    -31.400000   RE091    -64.000000
    CE057    RE092    -4.000000
    CE059    RE019    -1.000000   RE058    1.000000
    CE059    RE098    -16.280000   RE099    13.520000
    CE059    RE100    -9.400000   RE101    -54.000000
    CE059    RE102    -4.000000
    CE067    RE021    -1.000000   RE045    1.000000
    CE067    RE084    -5.140000   RE085    7.300000
    CE067    RE086    55.070000   RE087    -3.470000
    CE068    RE021    -1.000000   RE048    1.000000
    CE068    RE088    -16.960000   RE089    13.870000
    CE068    RE090    -21.200000   RE091    -42.000000
    CE068    RE092    -3.470000
    CE070    RE021    -1.000000   RE058    1.000000
    CE070    RE098    -11.020000   RE099    8.260000
    CE070    RE100    0.800000   RE101    -32.000000
    CE070    RE102    -3.470000
    CE072    RE022    -1.000000   RE045    1.000000
    CE072    RE084    -6.580000   RE085    3.500000
    CE072    RE086    68.049998   RE087    -3.470000
    CE073    RE022    -1.000000   RE048    1.000000
    CE073    RE088    -16.960000   RE089    13.870000
    CE073    RE090    -25.000000   RE091    -31.000000
    CE073    RE092    -3.470000
    CE075    RE022    -1.000000   RE058    1.000000
    CE075    RE098    -11.020000   RE099    8.260000
    CE075    RE100    -3.000000   RE101    -21.000000
    CE075    RE102    -3.470000
    CE081    RE024    -1.000000   RE028    0.468000
    CE081    RE030    0.532000   RE060    -0.027000
    CE081    RE064    1.000000
    CE082    RE024    -1.000000   RE048    1.000000
    CE082    RE088    0.900000   RE089    -3.990000
    CE082    RE090    0.700000   RE091    -17.000000
    CE082    RE092    -0.800000
    CE084    RE024    -1.000000   RE058    1.000000
    CE084    RE098    6.840000   RE099    -9.600000
    CE084    RE100    22.700000   RE101    -7.000000
    CE084    RE102    -0.800000
    CE086    RE025    -1.000000   RE048    1.000000
    CE086    RE088    -0.730000   RE089    -2.360000
    CE086    RE090    -16.000000   RE091    3.000000
    CE086    RE092    -0.800000
    CE088    RE025    -1.000000   RE058    1.000000
    CE088    RE098    5.210000   RE099    -7.970000
    CE088    RE100    6.000000   RE101    13.000000
    CE088    RE102    -0.800000
    CE090    RE026    -1.000000   RE048    1.000000
    CE090    RE088    1.690000   RE089    -4.780000
    CE090    RE090    -14.000000   RE091    -4.000000
    CE090    RE092    -0.800000
    CE092    RE026    -1.000000   RE058    1.000000
    CE092    RE098    7.630000   RE099    -10.390000
    CE092    RE100    8.000000   RE101    6.000000
    CE092    RE102    -0.800000
    CE102    RE017    -0.147000   RE026    -0.853000
    CE102    1RE056   1.000000
    CE103    RE019    -0.234000   RE026    -0.766000
    CE103    1RE056   1.000000
    CE104    RE017    -0.178000   RE026    -0.822000
    CE104    1RE056   1.000000
    CE105    RE019    -0.284000   RE026    -0.716000
    CE105    1RE056   1.000000
    CE107    RE028    -1.000000   RE048    1.000000
    CE107    RE088    -7.650000   RE089    4.560000
    CE107    RE090    -15.000000   RE091    46.000000
    CE107    RE092    -0.800000
    CE108    RE048    -1.000000   RE060    1.000000
    CE112    RE030    -1.000000   RE103    0.980000
    CE124    R0000    0.279300   RE068    -9.821000
    CE124    RE071    1.000000
    CE125    R0000    0.256400   RE072    -15.270000
    CE125    RE075    1.000000
    CE126    RE035    -1.000000   RE036    1.000000
    CE126    RE068    -1.310000   RE069    -5.230000
    CE130    RE037    -1.000000   RE040    1.000000
    CE130    RE072    -4.730000   RE073    -5.400000
    CE134    RE045    -1.000000   RE046    1.000000
    CE135    RE045    -1.000000   RE047    1.000000
    CE135    RE085    7.000000
    CE136    RE048    -1.000000   RE049    1.000000
    CE136    RE088    5.940000   RE089    -5.600000
    CE136    RE090    7.000000   RE091    21.000000
    CE137    RE048    -1.000000   RE050    1.000000
    CE137    RE088    4.120000   RE089    -2.850000
    CE137    RE090    7.000000   RE091    21.000000
    CE138    RE017    -0.060000   RE022    -0.130000
    CE138    RE025    -0.810000   RE051    1.000000
    CE142    RE055    1.000000   RE058    -1.000000
    CE142    RE098    -1.820000   RE099    2.760000
    CE142    RE100    -5.000000   RE101    8.000000
    CE143    RE017    0.130000   RE044    -0.400000
    CE143    RE057    1.000000   RE058    -0.730000
    CH002    RH001    1.000000   1RH001   1.010000
    CH002    RH007    0.002400   RH008    0.009900
    CH002    1RH008   0.002200   RH010    0.038200
    CH002    RH016    0.108100   RH018    0.024200
    CH002    RH019    0.101000   RH020    0.092900
    CH002    2RH025   0.005000   RH026    0.609300
    CH002    RH096    -0.017000   RH107    1.000000
    CH002    1RH107   -1.000000   RH113    0.004800
    1CH002   R0000    0.001000   RH001    3.000000
    1CH002   RH106    -1.000000
    2CH002   RH001    1.111000   1RH001   1.010000
    2CH002   RH007    0.002400   RH008    0.009900
    2CH002   1RH008   0.002200   RH010    0.043200
    2CH002   RH016    0.101100   RH018    0.024200
    2CH002   RH019    0.103000   RH020    0.102900
    2CH002   2RH025   0.005000   RH026    0.606300
    2CH002   RH028    -0.007000   RH096    -0.016000
    2CH002   RH107    1.000000   1RH107   -1.000000
    2CH002   RH113    0.004800
    3CH002   RH001    1.126000   1RH001   0.505000
    3CH002   RH003    0.505000   RH007    0.003100
    3CH002   RH008    0.009500   1RH008   0.001300
    3CH002   RH010    0.049000   RH016    0.118200
    3CH002   RH018    0.028300   RH019    0.118200
    3CH002   RH020    0.110100   2RH025   0.005000
    3CH002   RH026    0.304000   RH027    0.255600
    3CH002   RH028    -0.007000   RH096    -0.016000
    3CH002   RH107    1.126000   1RH107   -1.000000
    3CH002   RH113    0.002700
    4CH002   RH001    1.000000   1RH001   1.010000
    4CH002   RH007    0.002400   RH008    0.009900
    4CH002   1RH008   0.002200   RH010    0.038200
    4CH002   RH016    0.108100   RH018    0.024200
    4CH002   RH019    0.101000   RH020    0.092900
    4CH002   2RH025   0.005000   RH026    0.609300
    4CH002   RH096    -0.017000   RH113    0.004800
    CH003    RH001    1.100000   RH002    1.010000
    CH003    RH007    0.002400   RH008    0.009000
    CH003    1RH008   0.001900   RH010    0.025900
    CH003    RH015    0.119200   RH017    0.532400
    CH003    RH018    0.035400   2RH018   0.127300
    CH003    RH021    0.133300   2RH025   0.005000
    CH003    RH096    -0.014500   RH107    1.100000
    CH003    1RH107   -1.000000   RH113    0.006200
    1CH003   1RH001   1.000000   RH096    1.000000
    2CH003   RH003    1.000000   RH096    1.000000
    CH004    RH001    1.027000   RH003    1.010000
    CH004    RH007    0.003900   RH008    0.009200
    CH004    1RH008   0.000400   RH010    0.048500
    CH004    RH016    0.134400   RH018    0.039400
    CH004    RH019    0.127300   RH020    0.107000
    CH004    2RH025   0.005000   RH027    0.522300
    CH004    RH096    -0.015000   RH113    0.000600
    1CH004   RH001    1.027000   RH003    1.010000
    1CH004   RH007    0.003900   RH008    0.009200
    1CH004   1RH008   0.000400   RH010    0.048500
    1CH004   RH016    0.134400   RH018    0.039400
    1CH004   RH019    0.137300   RH020    0.107000
    1CH004   2RH025   0.005000   RH027    0.522300
    1CH004   RH096    -0.015000   RH107    1.000000
    1CH004   1RH107   -1.000000   RH113    0.000600
    CH005    RH001    1.067000   RH004    1.010000
    CH005    RH007    0.001500   RH008    0.004900
    CH005    1RH008   0.000900   RH010    0.013700
    CH005    RH015    0.068700   1RH017   0.648600
    CH005    RH018    0.025300   1RH019   0.101000
    CH005    RH024    0.124300   2RH025   0.005000
    CH005    RH096    -0.017000   RH107    1.067000
    CH005    RH113    0.004100
    1CH005   RH001    1.067000   RH004    1.010000
    1CH005   RH007    0.001500   RH008    0.004900
    1CH005   1RH008   0.000900   RH010    0.013700
    1CH005   RH015    0.068700   1RH017   0.368400
    1CH005   RH018    0.025300   1RH019   0.101000
    1CH005   RH024    0.124300   2RH025   0.005000
    1CH005   1RH028   0.016800   RH029    0.110700
    1CH005   1RH030   0.152700   1RH060   0.280200
    1CH005   RH096    -0.024000   RH107    1.067000
    1CH005   RH113    0.004100
    2CH005   RH001    1.100000   1RH005   1.010000
    2CH005   RH007    0.000200   RH008    0.000400
    2CH005   1RH008   0.000300   RH010    0.023600
    2CH005   RH015    0.070000   RH018    0.030000
    2CH005   RH019    0.150000   RH023    0.220000
    2CH005   2RH025   0.005000   2RH026   0.500000
    2CH005   RH096    -0.017000   RH107    1.100000
    2CH005   1RH107   -1.000000   RH113    0.000500
    4CH005   RH001    1.100000   RH006    1.010000
    4CH005   RH007    0.002000   RH008    0.007200
    4CH005   1RH008   0.000500   RH010    0.037800
    4CH005   RH016    0.149500   2RH017   0.500900
    4CH005   RH018    0.043600   3RH018   0.122800
    4CH005   RH021    0.125700   2RH025   0.005000
    4CH005   RH096    -0.017000   RH107    1.100000
    4CH005   1RH107   -1.000000   RH113    0.003000
    CH006    RH001    1.100000   RH006    1.010000
    CH006    RH007    0.002000   RH008    0.007200
    CH006    1RH008   0.000500   RH010    0.037800
    CH006    RH016    0.149500   2RH017   0.500900
    CH006    RH018    0.043600   3RH018   0.122800
    CH006    RH021    0.125700   2RH025   0.005000
    CH006    RH096    -0.017000   RH113    0.003000
    1CH006   R0000    0.001000   1RH008   1.000000
    1CH006   RH055    1.000000   RH114    -1.000000
    2CH006   RH001    15.401000   RH006    14.140000
    2CH006   RH007    0.028000   RH008    0.101000
    2CH006   1RH008   0.007000   RH010    0.529000
    2CH006   RH016    2.093000   RH018    0.610000
    2CH006   3RH018   1.719000   RH021    1.760000
    2CH006   4RH022   1.777000   2RH025   0.070000
    2CH006   RH028    0.933000   RH029    2.195000
    2CH006   3RH030   1.088000   RH050    1.000000
    2CH006   RH060    7.062000   RH096    -0.641000
    2CH006   RH113    0.042000
    CH007    RH007    -1.000000   RH008    1.000000
    CH008    R0000    0.380000   RH008    -1.000000
    CH008    RH034    1.000000   RH063    4.665000
    CH008    RH064    -89.655000   RH065    238.949997
    CH008    RH066    -206.899897   1RH066   -0.579000
    CH008    RH096    -0.002000
    CH009    R0000    0.247000   RH008    -1.000000
    CH009    RH035    1.000000   RH067    -1.379000
    CH009    RH068    -89.655000   RH069    238.949997
    CH009    RH070    -206.899897   RH071    -0.425000
    CH009    RH096    -0.002000
    CH010    R0000    0.114000   RH008    -1.000000
    CH010    RH036    1.000000   RH072    -22.586000
    CH010    RH073    187.751997   RH074    95.000000
    CH010    RH075    -0.772000   RH096    -0.002000
    CH012    RH008    -1.000000   RH114    1.000000
    CH013    R0000    0.026000   RH007    -0.544000
    CH013    RH009    -0.490000   RH010    -0.070000
    CH013    RH014    1.000000   RH059    1.000000
    CH013    RH096    -0.146000   RH114    0.033000
    CH014    RH008    1.000000   RH009    -1.000000
    CH015    R0000    0.353000   RH010    -1.000000
    CH015    RH034    1.000000   RH054    1.000000
    CH015    RH063    0.960000   RH064    -99.200000
    CH015    RH065    132.080097   RH066    -128.000000
    CH015    1RH066   -0.538000   RH096    -0.222000
    CH016    R0000    0.229000   RH010    -1.000000
    CH016    RH035    1.000000   RH054    1.000000
    CH016    RH067    -3.200000   RH068    -99.200000
    CH016    RH069    132.080097   RH070    -128.000000
    CH016    RH071    -0.394000   RH096    -0.222000
    CH017    R0000    0.102000   RH010    -1.000000
    CH017    RH036    1.000000   RH072    18.154000
    CH017    RH073    58.074000   RH074    -5.000000
    CH017    RH075    -0.689000   RH096    -0.003000
    CH018    RH010    -1.000000   RH039    1.000000
    CH018    UKLDF    -1.000000
    1CH019   R0000    0.221000   RH010    -1.000000
    1CH019   RH035    1.000000   RH067    29.230000
    1CH019   RH068    -80.000000   RH069    61.130000
    1CH019   RH070    -30.770000   RH071    -0.380000
    1CH019   RH096    -0.003000
    CH020    RH011    1.000000   2RH038   -1.000000
    CH021    RH011    1.000000   RH038    -1.000000
    CH022    RH023    -1.000000   RH048    1.000000
    CH022    RH085    -7.833000   RH086    -14.970000
    CH022    RH087    -8.400000   RH088    13.000000
    CH022    RH089    -2.729000
    1CH022   RH023    -1.000000   RH043    1.000000
    1CH022   RH080    -10.080000   RH081    4.880000
    1CH022   RH082    -8.400000   RH083    13.000000
    1CH022   RH084    -2.729000
    2CH022   RH023    -1.000000   RH046    1.000000
    2CH022   RH062    -0.001400   1RH089   -5.670000
    2CH022   2RH089   14.000000   3RH089   -20.070000
    CH024    R0000    0.092000   RH036    1.000000
    CH024    RH072    -5.587000   RH073    4.268000
    CH024    RH074    -5.000000   RH075    -0.626000
    CH024    RH095    -1.000000
    1CH024   R0000    0.200000   RH035    1.000000
    1CH024   RH067    10.475000   RH068    -33.519000
    1CH024   RH069    7.060000   RH070    -6.980000
    1CH024   RH071    -0.344000   RH095    -1.000000
    CH025    RH095    -1.000000   RH096    1.110000
    1CH025   R0000    0.308000   RH034    1.000000
    1CH025   RH063    13.966000   RH064    -33.519000
    1CH025   RH065    7.060000   RH066    -6.980000
    1CH025   1RH066   -0.469000   RH095    -1.000000
    CH026    R0000    0.254000   RH011    -1.000000
    CH026    RH034    1.000000   RH063    -10.957000
    CH026    RH064    78.430900   RH065    -46.880000
    CH026    RH066    34.600000   1RH066   -0.387000
    CH027    R0000    0.165000   RH011    -1.000000
    CH027    RH035    1.000000   RH067    -15.340000
    CH027    RH068    78.430900   RH069    -46.880000
    CH027    RH070    34.600000   RH071    -0.284000
    CH028    R0000    0.324000   RH012    -1.000000
    CH028    RH034    1.000000   RH063    5.294000
    CH028    RH064    -69.117900   RH065    44.198000
    CH028    RH066    -26.470000   1RH066   -0.494000
    CH028    RH096    -0.003000
    CH029    R0000    0.211000   RH012    -1.000000
    CH029    RH035    1.000000   RH067    -1.030000
    CH029    RH068    -69.117900   RH069    44.198000
    CH029    RH070    -26.470000   RH071    -0.362000
    CH029    RH096    -0.003000
    CH030    R0000    0.097000   RH012    -1.000000
    CH030    RH036    1.000000   RH072    -20.147000
    CH030    RH073    41.244000   RH074    -5.000000
    CH030    RH075    -0.659000   RH096    -0.003000
    CH031    R0000    0.180000   RH013    -1.000000
    CH031    RH035    1.000000   RH067    3.015000
    CH031    RH068    45.226000   RH069    -50.890000
    CH031    RH070    25.130000   RH071    -0.310000
    CH031    RH096    -0.002000
    CH032    R0000    0.083000   RH013    -1.000000
    CH032    RH036    1.000000   RH072    -15.201000
    CH032    RH073    -53.410000   RH074    -5.000000
    CH032    RH075    -0.563000   RH096    -0.002000
    CH033    R0000    1.039000   RH010    -0.124000
    CH033    RH014    -0.709000   RH031    1.000000
    CH033    RH054    0.124000   RH095    -0.167000
    CH033    RH096    -0.031000
    CH034    R0000    0.662000   RH010    -0.122000
    CH034    RH014    -0.472000   RH032    1.000000
    CH034    RH054    0.122000   RH095    -0.406000
    CH034    RH096    -0.038000
    CH035    R0000    0.315000   RH014    -1.000000
    CH035    RH034    1.000000   RH064    1.429000
    CH035    RH065    -24.490000   RH066    -5.000000
    CH035    1RH066   -0.480000
    CH036    R0000    0.205000   RH014    -1.000000
    CH036    RH035    1.000000   RH067    -3.143000
    CH036    RH068    1.429000   RH069    -24.490000
    CH036    RH070    -5.000000   RH071    -0.352000
    1CH036   R0000    0.591000   RH063    -6.250000
    1CH036   1RH066   1.000000
    CH037    R0000    0.591000   RH067    -10.268000
    CH037    RH071    1.000000
    CH038    R0000    0.591000   RH072    -11.160000
    CH038    RH075    1.000000
    CH039    R0000    0.090000   RH016    -1.000000
    CH039    RH036    1.000000   RH072    27.459000
    CH039    RH073    -36.543000   RH074    -5.000000
    CH039    RH075    -0.612000   RH096    -0.002000
    CH040    RH010    -0.250000   RH016    -0.750000
    CH040    RH039    1.000000   UKLDF    -1.000000
    CH042    RH010    -1.000000   2RH039   1.000000
    CH042    1RH106   1.000000   UKLDF    -1.000000
    CH043    RH010    -0.700000   RH016    -0.300000
    CH043    2RH039   1.000000   1RH106   1.000000
    CH043    UKLDF    -1.000000
    CH044    R0000    0.089000   RH015    -1.000000
    CH044    RH036    1.000000   RH072    25.706000
    CH044    RH073    -36.248000   RH074    -5.000000
    CH044    RH075    -0.603000   RH096    -0.002000
    CH045    RH010    -0.250000   RH015    -0.750000
    CH045    RH039    1.000000   UKLDF    -1.000000
    CH046    RH010    -0.700000   RH015    -0.300000
    CH046    2RH039   1.000000   1RH106   1.000000
    CH046    UKLDF    -1.000000
    CH048    R0000    0.120000   RH007    0.029000
    CH048    RH008    0.043000   RH016    -1.000000
    CH048    RH036    0.755000   RH057    0.883000
    CH048    RH072    -8.657000   RH073    -12.314000
    CH048    RH074    -2.265000   RH075    -0.451000
    CH048    RH096    -0.120000   RH113    0.087000
    CH048    RH114    0.086000
    CH050    R0000    0.364000   RH007    0.042000
    CH050    RH008    0.071000   RH016    -1.000000
    CH050    RH034    0.621000   RH057    1.533000
    CH050    RH058    1.000000   RH063    -1.611000
    CH050    RH064    4.832000   RH065    -4.213000
    CH050    RH066    2.420000   1RH066   -0.271000
    CH050    RH096    -0.133000   RH113    0.133000
    CH050    RH114    0.133000
    CH051    R0000    0.304000   RH007    0.042000
    CH051    RH008    0.071000   RH016    -1.000000
    CH051    RH035    0.621000   RH057    1.533000
    CH051    RH058    1.000000   RH067    -4.026000
    CH051    RH068    4.832000   RH069    -4.213000
    CH051    RH070    2.420000   RH071    -0.198000
    CH051    RH096    -0.133000   RH113    0.133000
    CH051    RH114    0.133000
    CH056    R0000    0.123000   RH007    0.023000
    CH056    RH008    0.031000   RH016    -0.750000
    CH056    RH018    -0.250000   RH036    0.806000
    CH056    RH057    0.872000   RH072    -8.685000
    CH056    RH073    -15.602000   RH074    -2.418000
    CH056    RH075    -0.474000   RH096    -0.120000
    CH056    RH113    0.070000   RH114    0.070000
    CH057    R0000    0.306000   RH007    0.030000
    CH057    RH008    0.044000   RH016    -0.750000
    CH057    RH018    -0.250000   RH034    0.730000
    CH057    RH057    0.982000   RH063    3.189000
    CH057    RH064    4.832000   RH065    -10.030000
    CH057    RH066    5.800000   1RH066   -0.325000
    CH057    RH096    -0.120000   RH113    0.098000
    CH057    RH114    0.098000
    CH058    R0000    0.233000   RH007    0.030000
    CH058    RH008    0.044000   RH016    -0.750000
    CH058    RH018    -0.250000   RH035    0.730000
    CH058    RH057    0.982000   RH067    0.097000
    CH058    RH068    4.832000   RH069    -10.030000
    CH058    RH070    5.800000   RH071    -0.238000
    CH058    RH096    -0.120000   RH113    0.098000
    CH058    RH114    0.098000
    CH062    R0000    0.295000   RH007    0.023000
    CH062    RH008    0.030000   RH015    -0.740000
    CH062    RH018    -0.260000   RH034    0.776000
    CH062    RH057    0.963000   RH063    3.371000
    CH062    RH064    8.683000   RH065    -15.570000
    CH062    RH066    7.150000   1RH066   -0.343000
    CH062    RH096    -0.114000   RH113    0.086000
    CH062    RH114    0.085000
    CH063    R0000    0.219000   RH007    0.023000
    CH063    RH008    0.030000   RH015    -0.740000
    CH063    RH018    -0.260000   RH035    0.776000
    CH063    RH057    0.963000   RH067    0.102000
    CH063    RH068    8.683000   RH069    -15.570000
    CH063    RH070    7.150000   RH071    -0.252000
    CH063    RH096    -0.114000   RH113    0.086000
    CH063    RH114    0.085000
    CH065    R0000    0.180000   RH007    0.040000
    CH065    RH008    0.060000   RH010    -0.300000
    CH065    RH016    -0.700000   1RH038   0.660000
    CH065    RH057    1.150000   RH096    -0.120000
    CH065    RH113    0.120000   RH114    0.120000
    CH066    R0000    0.099000   RH007    0.035000
    CH066    RH008    0.055000   RH016    -1.000000
    CH066    1RH038   0.684000   RH057    1.000000
    CH066    RH096    -0.120000   RH113    0.113000
    CH066    RH114    0.113000
    CH067    R0000    0.349000   RH007    0.042000
    CH067    RH008    0.071000   RH011    0.214000
    CH067    RH016    -1.000000   RH034    0.360000
    CH067    RH038    0.019000   2RH038   0.028000
    CH067    RH057    1.533000   RH058    1.000000
    CH067    RH063    2.675000   RH064    -11.675000
    CH067    RH065    2.457000   RH066    -2.430000
    CH067    1RH066   -0.163000   RH096    -0.133000
    CH067    RH113    0.133000   RH114    0.133000
    CH068    R0000    0.262000   RH007    0.042000
    CH068    RH008    0.071000   RH011    0.214000
    CH068    RH016    -1.000000   RH035    0.360000
    CH068    RH038    0.019000   2RH038   0.028000
    CH068    RH057    1.533000   RH058    1.000000
    CH068    RH067    0.973000   RH068    -11.676000
    CH068    RH069    2.457000   RH070    -2.430000
    CH068    RH071    -0.119000   RH096    -0.133000
    CH068    RH113    0.133000   RH114    0.133000
    CH069    R0000    0.079000   RH007    0.028000
    CH069    RH008    0.040000   RH015    -1.000000
    CH069    1RH038   0.735000   RH057    0.977000
    CH069    RH096    -0.114000   RH113    0.098000
    CH069    RH114    0.099000
    CH070    R0000    0.294000   RH007    0.034000
    CH070    RH008    0.054000   RH011    0.236000
    CH070    RH015    -1.000000   RH034    0.395000
    CH070    RH038    0.019000   2RH038   0.030000
    CH070    RH057    1.498000   RH058    0.977000
    CH070    RH063    2.936000   RH064    -12.811000
    CH070    RH065    2.700000   RH066    -2.670000
    CH070    1RH066   -0.179000   RH096    -0.126000
    CH070    RH113    0.116000   RH114    0.116000
    CH071    R0000    0.264000   RH007    0.034000
    CH071    RH008    0.054000   RH011    0.236000
    CH071    RH015    -1.000000   RH035    0.395000
    CH071    RH038    0.019000   2RH038   0.030000
    CH071    RH057    1.498000   RH058    0.977000
    CH071    RH067    1.067000   RH068    -12.810000
    CH071    RH069    2.700000   RH070    -2.670000
    CH071    RH071    -0.131000   RH096    -0.126000
    CH071    RH113    0.116000   RH114    0.116000
    CH072    R0000    0.098000   RH007    0.030000
    CH072    RH008    0.044000   RH011    0.260000
    CH072    RH016    -0.750000   RH018    -0.250000
    CH072    RH038    0.014000   2RH038   0.023000
    CH072    RH057    0.982000   RH095    0.433000
    CH072    RH096    -0.120000   RH113    0.098000
    CH072    RH114    0.098000
    CH074    R0000    0.150000   RH007    0.035000
    CH074    RH008    0.055000   RH011    0.142000
    CH074    RH016    -1.000000   RH038    0.051000
    CH074    RH057    1.359000   RH095    0.491000
    CH074    RH096    -0.171000   RH113    0.113000
    CH074    RH114    0.113000
    1CH074   R0000    0.133000   RH007    0.035000
    1CH074   RH008    0.055000   RH011    0.104000
    1CH074   RH016    -1.000000   RH038    0.038000
    1CH074   2RH038   0.060000   RH057    1.210000
    1CH074   RH095    0.482000   RH096    -0.150000
    1CH074   RH113    0.113000   RH114    0.113000
    2CH074   R0000    0.133000   RH007    0.035000
    2CH074   RH008    0.055000   RH011    0.170000
    2CH074   RH016    -1.000000   RH038    0.032000
    2CH074   RH057    1.210000   RH095    0.482000
    2CH074   RH096    -0.150000   RH113    0.113000
    2CH074   RH114    0.113000
    CH075    R0000    0.121000   RH007    0.028000
    CH075    RH008    0.040000   RH011    0.160000
    CH075    RH015    -1.000000   RH038    0.052000
    CH075    RH057    1.336000   RH095    0.523000
    CH075    RH096    -0.163000   RH113    0.098000
    CH075    RH114    0.099000
    1CH075   R0000    0.108000   RH007    0.028000
    1CH075   RH008    0.040000   RH011    0.120000
    1CH075   RH015    -1.000000   RH038    0.039000
    1CH075   2RH038   0.062000   RH057    1.188000
    1CH075   RH095    0.514000   RH096    -0.142000
    1CH075   RH113    0.099000   RH114    0.098000
    2CH075   R0000    0.108000   RH007    0.028000
    2CH075   RH008    0.040000   RH011    0.188000
    2CH075   RH015    -1.000000   RH038    0.033000
    2CH075   RH057    1.188000   RH095    0.514000
    2CH075   RH096    -0.142000   RH113    0.099000
    2CH075   RH114    0.098000
    CH076    R0000    0.078000   RH007    0.023000
    CH076    RH008    0.030000   RH011    0.257000
    CH076    RH015    -0.740000   RH018    -0.260000
    CH076    RH038    0.015000   2RH038   0.024000
    CH076    RH057    0.963000   RH095    0.480000
    CH076    RH096    -0.114000   RH113    0.086000
    CH076    RH114    0.085000
    CH077    R0000    0.284000   RH034    1.000000
    CH077    1RH038   -1.000000   RH063    3.732000
    CH077    RH064    0.644000   RH065    -10.936000
    CH077    RH066    6.430000   1RH066   -0.432000
    1CH077   R0000    0.185000   RH035    1.000000
    1CH077   1RH038   -1.000000   RH067    0.257000
    1CH077   RH068    0.643000   RH069    -10.936000
    1CH077   RH070    6.430000   RH071    -0.317000
    CH078    RH011    0.268000   RH038    0.024000
    CH078    1RH038   -1.000000   2RH038   0.038000
    CH078    RH095    0.670000
    1CH078   RH011    0.310000   RH038    0.020000
    1CH078   1RH038   -1.000000   RH095    0.670000
    3CH078   1RH025   -1.020000   RH046    1.000000
    3CH078   RH062    0.007000   1RH089   -3.481000
    3CH078   2RH089   47.300000   3RH089   -31.567000
    3CH078   RH096    -0.023000   RH113    0.013000
    4CH078   RH019    -1.020000   RH046    1.000000
    4CH078   RH062    0.000200   1RH089   6.108000
    4CH078   2RH089   -13.000000   3RH089   -34.293000
    4CH078   RH096    -0.023000   RH113    0.013000
    CH079    RH019    -1.020000   RH046    1.000000
    CH079    RH062    -0.000800   1RH089   4.409000
    CH079    2RH089   -9.700000   3RH089   -33.827000
    CH079    RH096    -0.023000   RH113    0.013000
    1CH079   1RH019   -1.020000   RH046    1.000000
    1CH079   RH062    -0.001300   1RH089   4.257000
    1CH079   2RH089   -5.500000   3RH089   -33.785000
    1CH079   RH096    -0.023000   RH113    0.013000
    2CH079   RH020    -1.020000   RH046    1.000000
    2CH079   RH062    0.008300   1RH089   1.871000
    2CH079   2RH089   -11.100000   3RH089   -15.719000
    2CH079   RH096    -0.023000   RH113    0.013000
    3CH079   RH021    -1.020000   RH046    1.000000
    3CH079   RH062    0.005500   1RH089   0.569000
    3CH079   2RH089   -7.100000   3RH089   -15.550000
    3CH079   RH096    -0.023000   RH113    0.013000
    4CH079   RH024    -1.020000   RH046    1.000000
    4CH079   RH062    0.004800   1RH089   -1.677000
    4CH079   2RH089   -0.800000   3RH089   -11.972000
    4CH079   RH096    -0.023000   RH113    0.013000
    CH080    RH028    -1.020000   RH046    1.000000
    CH080    RH062    0.015500   1RH089   -1.677000
    CH080    2RH089   -0.400000   3RH089   2.934000
    CH080    RH096    -0.023000   RH113    0.013000
    1CH080   1RH028   -1.020000   RH046    1.000000
    1CH080   RH062    0.013000   1RH089   -3.039000
    1CH080   2RH089   6.100000   3RH089   2.900000
    1CH080   RH096    -0.023000   RH113    0.013000
    2CH080   RH028    -0.800000   RH029    -0.200000
    2CH080   RH046    1.000000   RH062    0.016200
    2CH080   1RH089   -1.951000   2RH089   0.450000
    2CH080   3RH089   28.920000   RH096    -0.023000
    2CH080   RH113    0.013000
    3CH080   1RH028   -0.612000   RH029    -0.408000
    3CH080   RH046    1.000000   RH062    0.014000
    3CH080   1RH089   -3.575000   2RH089   6.700000
    3CH080   3RH089   54.272000   RH096    -0.023000
    3CH080   RH113    0.013000
    4CH080   RH025    -1.020000   RH046    1.000000
    4CH080   RH062    0.022000   1RH089   -7.066000
    4CH080   2RH089   33.200000   3RH089   -11.422000
    4CH080   RH096    -0.023000   RH113    0.013000
    CH081    RH025    -0.714000   RH046    1.000000
    CH081    RH052    -0.306000   RH062    0.023000
    CH081    1RH089   -7.813000   2RH089   33.800000
    CH081    3RH089   9.455000   RH093    6.343000
    CH081    1RH093   5.500000   RH094    3.978000
    CH081    RH096    -0.023000   RH110    -6.138000
    CH081    RH113    0.013000
    1CH081   1RH021   -1.020000   RH046    1.000000
    1CH081   RH062    0.002500   1RH089   -0.705000
    1CH081   2RH089   -1.500000   3RH089   -13.728000
    1CH081   RH096    -0.023000   RH113    0.013000
    CH086    RH018    -0.200000   RH019    -0.800000
    CH086    1RH025   0.200000   RH041    0.800000
    CH086    RH056    1.000000   RH096    -0.021000
    1CH086   1RH025   -1.000000   RH043    1.000000
    1CH086   RH080    -9.171000   RH081    -6.286000
    1CH086   RH083    49.000000   RH084    5.623000
    CH087    1RH025   -1.000000   RH048    1.000000
    CH087    RH085    -6.926000   RH086    -26.286000
    CH087    RH088    49.000000   RH089    5.623000
    CH089    RH018    -0.200000   RH019    -0.800000
    CH089    RH043    1.000000   RH080    2.487000
    CH089    RH081    -6.927000   RH082    -7.400000
    CH089    RH083    -15.000000   RH084    7.987000
    1CH089   RH018    -0.180000   2RH018   -0.820000
    1CH089   RH043    1.000000   RH080    1.076000
    1CH089   RH081    -6.849000   RH082    -8.000000
    1CH089   RH083    -14.000000   RH084    7.987000
    2CH089   RH018    -0.180000   1RH019   -0.820000
    2CH089   RH043    1.000000   RH080    0.921000
    2CH089   RH081    -6.841000   RH082    -8.500000
    2CH089   RH083    -8.000000   RH084    7.987000
    CH090    RH018    -0.200000   RH019    -0.800000
    CH090    RH048    1.000000   RH085    4.782000
    CH090    RH086    -28.967000   RH087    -7.400000
    CH090    RH088    -15.000000   RH089    7.987000
    1CH090   RH018    -0.180000   2RH018   -0.820000
    1CH090   RH048    1.000000   RH085    3.321000
    1CH090   RH086    -28.643000   RH087    -8.000000
    1CH090   RH088    -14.000000   RH089    7.987000
    2CH090   RH018    -0.180000   1RH019   -0.820000
    2CH090   RH048    1.000000   RH085    3.166000
    2CH090   RH086    -28.607000   RH087    -8.500000
    2CH090   RH088    -8.000000   RH089    7.987000
    CH093    RH018    -0.220000   2RH018   -0.780000
    CH093    1RH025   0.200000   RH041    0.800000
    CH093    RH056    1.488000   RH096    -0.021000
    1CH093   RH018    -0.220000   3RH018   -0.780000
    1CH093   1RH025   0.200000   RH041    0.800000
    1CH093   RH056    1.488000   RH096    -0.021000
    CH097    RH019    -1.000000   RH043    1.000000
    CH097    RH080    1.699000   RH081    -6.884000
    CH097    RH082    -6.800000   RH083    -14.000000
    CH097    RH084    2.987000
    1CH097   2RH018   -1.000000   RH043    1.000000
    1CH097   RH080    0.152000   RH081    -6.799000
    1CH097   RH082    -7.800000   RH083    -11.000000
    1CH097   RH084    2.987000
    2CH097   1RH019   -1.000000   RH043    1.000000
    2CH097   RH081    -6.790000   RH082    -8.300000
    2CH097   RH083    -6.500000   RH084    2.987000
    CH098    RH019    -1.000000   RH048    1.000000
    CH098    RH085    3.944000   RH086    -28.786000
    CH098    RH087    -6.800000   RH088    -14.000000
    CH098    RH089    2.987000
    1CH098   2RH018   -1.000000   RH048    1.000000
    1CH098   RH085    2.397000   RH086    -28.430000
    1CH098   RH087    -7.800000   RH088    -11.000000
    1CH098   RH089    2.987000
    2CH098   1RH019   -1.000000   RH048    1.000000
    2CH098   RH085    2.244000   RH086    -28.395000
    2CH098   RH087    -8.300000   RH088    -6.500000
    2CH098   RH089    2.987000
    CH101    RH020    -1.000000   RH043    1.000000
    CH101    RH080    -3.697000   RH081    10.778000
    CH101    RH082    1.300000   RH083    -9.000000
    CH101    RH084    -2.795000
    1CH101   RH020    -1.000000   RH043    0.980000
    1CH101   RH062    0.009800   RH080    -2.488000
    1CH101   RH081    10.665000   RH082    -8.330000
    1CH101   RH083    -11.760000   RH084    -2.674000
    1CH101   RH096    -0.023000   RH113    0.013000
    CH102    RH020    -1.000000   RH048    1.000000
    CH102    RH085    -1.452000   RH086    -10.180000
    CH102    RH087    1.300000   RH088    -9.000000
    CH102    RH089    -2.795000
    1CH102   RH020    -1.000000   RH048    0.980000
    1CH102   RH062    0.009800   RH085    -0.288000
    1CH102   RH086    -10.073000   RH087    -8.330000
    1CH102   RH088    -11.760000   RH089    -2.674000
    1CH102   RH096    -0.023000   RH113    0.013000
    CH105    RH021    -1.000000   RH043    1.000000
    CH105    RH080    -4.551000   RH081    10.702000
    CH105    RH082    -1.500000   RH083    -6.000000
    CH105    RH084    -2.729000
    CH106    RH021    -1.000000   RH048    1.000000
    CH106    RH085    -2.306000   RH086    -10.107000
    CH106    RH087    -1.500000   RH088    -4.500000
    CH106    RH089    -2.729000
    CH112    1RH021   -1.000000   RH043    1.000000
    CH112    RH080    -5.532000   RH081    12.264000
    CH112    RH082    -4.500000   RH083    -2.500000
    CH112    RH084    -2.729000
    CH113    1RH021   -1.000000   RH048    1.000000
    CH113    RH085    -3.287000   RH086    -8.373000
    CH113    RH087    -4.500000   RH088    -2.500000
    CH113    RH089    -2.729000
    CH114    RH024    -1.000000   RH043    1.000000
    CH114    RH080    -6.770000   RH081    13.769000
    CH114    RH082    -2.200000   RH084    -2.729000
    CH115    RH024    -1.000000   RH048    1.000000
    CH115    RH085    -4.526000   RH086    -6.651000
    CH115    RH087    -2.200000   RH089    -2.729000
    CH119    RH026    -1.000000   RH028    0.070000
    CH119    RH029    0.459000   RH030    0.471000
    CH119    RH060    1.000000   RH096    -0.027000
    2CH119   2RH017   -1.000000   RH028    0.080000
    2CH119   RH029    0.537000   3RH030   0.383000
    2CH119   RH060    1.000000   RH096    -0.027000
    CH121    RH027    -1.000000   RH028    0.113000
    CH121    RH029    0.525000   RH030    0.362000
    CH121    RH060    1.007000   RH096    -0.027000
    CH122    4RH022   1.777000   RH026    -8.174000
    CH122    RH028    0.572000   RH029    2.195000
    CH122    RH030    2.610000   RH050    1.000000
    CH122    RH060    8.174000   RH096    -0.651000
    CH124    4RH022   1.777000   RH027    -7.147000
    CH124    RH028    0.808000   RH029    2.195000
    CH124    RH030    1.347000   RH050    1.000000
    CH124    RH060    7.200000   RH096    -0.624000
    CH126    RH028    -1.000000   RH048    1.000000
    CH126    RH085    -6.005000   RH086    8.065000
    CH126    RH087    8.500000   RH088    4.500000
    CH126    RH089    -3.281000
    1CH126   1RH028   -1.000000   RH048    1.000000
    1CH126   RH085    -6.926000   RH086    8.000000
    1CH126   RH087    6.000000   RH088    10.000000
    1CH126   RH089    -3.281000
    2CH126   1RH028   -0.600000   RH029    -0.400000
    2CH126   RH048    1.000000   RH085    -7.576000
    2CH126   RH086    58.523000   RH087    7.000000
    2CH126   RH088    11.000000   RH089    -2.950000
    3CH126   RH028    -0.800000   RH029    -0.200000
    3CH126   RH048    1.000000   RH085    -6.334000
    3CH126   RH086    21.000000   RH087    9.250000
    3CH126   RH088    5.250000   RH089    -2.953000
    CH128    RH028    -1.000000   RH043    1.000000
    CH128    RH080    -8.250000   RH081    28.226000
    CH128    RH082    8.500000   RH083    4.500000
    CH128    RH084    -3.281000
    1CH128   1RH028   -1.000000   RH043    1.000000
    1CH128   RH080    -9.171000   RH081    28.000000
    1CH128   RH082    6.000000   RH083    10.000000
    1CH128   RH084    -3.281000
    1CH130   R0000    0.150000   RH007    0.022000
    1CH130   RH008    0.007000   RH009    0.037000
    1CH130   RH012    0.157000   RH013    0.119000
    1CH130   RH025    0.222000   2RH025   0.322000
    1CH130   RH029    -1.000000   RH061    1.000000
    1CH130   RH096    -0.047000   RH114    0.069000
    1CH131   R0000    0.150000   RH007    0.028000
    1CH131   RH008    0.009000   RH009    0.049000
    1CH131   RH012    0.176000   RH013    0.122000
    1CH131   RH025    0.227000   2RH025   0.268000
    1CH131   RH029    -1.000000   RH061    1.138000
    1CH131   RH096    -0.047000   RH114    0.073000
    2CH131   R0000    0.150000   RH007    0.035000
    2CH131   RH008    0.011000   RH009    0.060000
    2CH131   RH012    0.195000   RH013    0.126000
    2CH131   RH025    0.228000   2RH025   0.216000
    2CH131   RH029    -1.000000   RH061    1.222000
    2CH131   RH096    -0.047000   RH114    0.077000
    CH134    RH025    -1.000000   RH043    1.000000
    CH134    RH080    -14.168000   RH081    12.896000
    CH134    RH082    15.000000   RH083    40.500000
    CH134    RH084    -2.729000
    CH135    RH025    -1.000000   RH048    1.000000
    CH135    RH085    -11.923000   RH086    -6.230000
    CH135    RH087    15.000000   RH088    40.500000
    CH135    RH089    -2.729000
    1CH140   RH048    -1.000000   2RH048   1.000000
    1CH140   RH085    -0.739000   RH086    6.951000
    1CH140   RH087    3.000000   RH088    -5.000000
    2CH140   RH048    -1.000000   3RH048   1.000000
    2CH140   RH085    -0.739000   RH086    -5.732000
    2CH140   RH087    3.000000   RH088    -5.000000
    CH143    1RH018   -1.000000   RH096    1.000000
    CH144    RH020    -1.000000   RH096    1.000000
    CH145    RH025    -1.000000   RH096    1.000000
    CH146    RH028    -1.000000   RH096    1.000000
    CH150    RH039    -1.000000   RH096    1.110000
    CH150    UKLDF    1.000000
    CH151    RH052    -1.000000   RH096    1.000000
    1CH151   RH029    -1.000000   RH096    1.000000
    2CH151   RH013    -1.000000   RH096    1.100000
    CH153    RH042    -1.000000   2RH042   1.000000
    CH155    RH018    -0.490000   3RH018   -0.510000
    CH155    RH042    1.000000   RH096    -0.002000
    CH156    RH018    -0.640000   RH019    -0.360000
    CH156    RH042    1.000000   RH096    -0.002000
    1CH156   1RH018   1.000000   2RH018   -1.000000
    2CH156   2RH018   1.000000   3RH018   -1.000000
    3CH156   1RH018   1.000000   RH019    -1.000000
    4CH156   1RH018   1.000000   1RH019   -1.000000
    CH180    RH001    1.151000   2RH001   1.010000
    CH180    RH007    0.002200   RH008    0.008800
    CH180    1RH008   0.002000   RH010    0.065000
    CH180    RH016    0.157000   RH018    0.030000
    CH180    RH019    0.090000   RH020    0.083000
    CH180    2RH025   0.005000   RH026    0.551000
    CH180    RH096    -0.017000   RH107    1.151000
    CH180    1RH107   -1.000000   RH113    0.004000
    1CH180   RH001    1.151000   2RH001   1.010000
    1CH180   RH007    0.002200   RH008    0.008800
    1CH180   1RH008   0.002000   RH010    0.065000
    1CH180   RH016    0.157000   RH018    0.030000
    1CH180   RH019    0.090000   RH020    0.083000
    1CH180   2RH025   0.005000   RH026    0.551000
    1CH180   RH096    -0.017000   RH113    0.004000
    CH183    RH001    1.100000   RH005    1.010000
    CH183    RH007    0.001200   RH008    0.001800
    CH183    1RH008   0.000300   RH010    0.025000
    CH183    RH015    0.138000   RH018    0.037000
    CH183    RH019    0.161000   1RH021   0.178000
    CH183    2RH025   0.014000   1RH026   0.441000
    CH183    RH096    -0.017000   RH107    1.100000
    CH183    1RH107   1.000000   RH113    0.000700
    CH188    1RH008   -1.000000   RH113    1.000000
    CH189    RH096    1.160000   RH113    -1.000000
    CH190    RH096    1.160000   RH114    -1.000000
    CH196    RH034    -1.000000   1RH034   1.000000
    CH196    RH063    -0.940000   2RH106   1.000000
    CH197    RH035    -1.000000   1RH035   1.000000
    CH197    RH067    1.745000   2RH106   1.000000
    CH200    RH036    -1.000000   1RH036   1.000000
    CH200    RH072    7.310000   2RH106   1.000000
    CH300    RH052    -1.000000   4RH052   1.000000
    CH300    1RH093   -5.000000   RH094    11.000000
    1CH302   R0000    0.150000   RH007    0.014000
    1CH302   RH008    0.007000   RH009    0.039000
    1CH302   RH012    0.150000   RH013    0.140000
    1CH302   1RH024   0.215000   2RH025   0.270000
    1CH302   1RH029   -1.000000   RH061    1.138000
    1CH302   RH096    -0.047000   RH114    0.080000
    CH303    2RH023   -1.000000   RH046    1.000000
    CH303    1RH089   2.457000   2RH089   -17.000000
    CH303    3RH089   -3.040000
    CH304    1RH024   -1.000000   RH046    1.000000
    CH304    1RH089   -5.800000   2RH089   34.000000
    CH304    3RH089   -11.422000
    CH305    2RH028   -1.000000   RH046    1.000000
    CH305    1RH089   -0.850000   2RH089   -16.000000
    CH305    3RH089   2.934000
    CH306    2RH023   -1.000000   RH043    1.000000
    CH306    RH080    -1.950000   RH081    23.690000
    CH306    RH082    -9.200000   RH083    -18.000000
    CH306    RH084    -3.486000
    CH307    2RH023   -1.000000   RH048    1.000000
    CH307    RH085    0.295000   RH086    2.430000
    CH307    RH087    -9.200000   RH088    -18.000000
    CH307    RH089    -3.486000
    CH310    1RH024   -1.000000   RH048    1.000000
    CH310    RH085    -7.960000   RH086    -6.230000
    CH310    RH087    -8.300000   RH088    33.000000
    CH310    RH089    -2.733000
    CH311    1RH024   -1.000000   RH043    1.000000
    CH311    RH080    -10.210000   RH081    12.896000
    CH311    RH082    -8.300000   RH083    33.000000
    CH311    RH084    -2.733000
    CH314    2RH028   -1.000000   RH048    1.000000
    CH314    RH085    -3.010000   RH086    8.065000
    CH314    RH087    -8.000000   RH088    -17.000000
    CH314    RH089    -3.281000
    CH360    RH018    0.023500   1RH019   -0.438200
    CH360    RH024    -0.539300   1RH025   -0.046000
    CH360    2RH043   1.000000
    CH361    RH018    0.023500   1RH019   -0.484200
    CH361    RH024    -0.539300   2RH043   1.000000
    CH362    RH018    0.027500   2RH018   -0.544400
    CH362    RH021    -0.557600   2RH043   1.000000
    CH362    RH048    0.074500   RH085    -2.445000
    CH362    RH087    -0.074500   RH088    -0.447000
    CH363    RH018    0.027500   3RH018   -0.544400
    CH363    RH021    -0.557600   2RH043   1.000000
    CH363    RH048    0.074500   RH085    -2.445000
    CH363    RH087    -0.074500   RH088    -0.447000
    CH401    RH018    -1.000000   RH053    1.000000
    CH401    RH115    -32.680000   RH116    31.200000
    CH401    RH117    -78.000000   RH118    -38.000000
    CH401    1RH118   95.000000
    CH404    RH018    -1.000000   RH052    1.000000
    CH404    RH093    -36.730000   1RH093   -25.000000
    CH404    RH094    -38.000000   RH110    36.060000
    CH406    1RH018   -1.000000   RH053    1.000000
    CH406    RH115    -25.160000   RH116    24.680000
    CH406    RH117    -71.000000   RH118    -36.200000
    CH406    1RH118   -5.000000
    CH408    1RH018   -1.000000   RH109    1.000000
    CH408    1RH109   -25.150000   2RH109   -18.430000
    CH409    1RH018   -1.000000   RH052    1.000000
    CH409    RH093    -29.210000   1RH093   -32.000000
    CH409    RH094    -35.800000   RH110    28.540000
    CH410    RH048    -1.000000   RH051    1.000000
    CH410    RH085    1.880000   RH086    -5.609000
    CH410    RH087    -1.000000   RH088    2.000000
    CH410    RH090    -16.580000   1RH090   -16.000000
    CH410    2RH090   15.250000   RH091    -18.000000
    CH410    RH103    1.000000   RH108    -30.000000
    CH411    RH048    -1.000000   RH053    1.000000
    CH411    RH085    1.880000   RH086    -5.609000
    CH411    RH087    -1.000000   RH088    2.000000
    CH411    RH115    -20.380000   RH116    18.900000
    CH411    RH117    -48.000000   RH118    28.000000
    CH411    1RH118   -5.000000
    CH413    RH048    -1.000000   RH085    1.880000
    CH413    RH086    -5.609000   RH087    -1.000000
    CH413    RH088    2.000000   RH109    1.000000
    CH413    1RH109   -20.380000   2RH109   18.900000
    CH414    RH048    -1.000000   RH052    1.000000
    CH414    RH085    1.880000   RH086    -5.609000
    CH414    RH087    -1.000000   RH088    2.000000
    CH414    RH093    -24.430000   1RH093   -53.000000
    CH414    RH094    -28.000000   RH110    23.760000
    CH415    2RH025   -1.000000   RH053    1.000000
    CH415    RH115    -9.110000   RH116    7.630000
    CH415    RH117    -10.000000   RH118    -10.000000
    CH415    1RH118   -5.000000
    CH417    2RH025   -1.000000   RH052    1.000000
    CH417    RH093    -13.160000   1RH093   -15.000000
    CH417    RH094    -10.000000   RH110    12.490000
    CH419    RH026    -1.000000   RH053    1.000000
    CH419    RH115    2.540000   RH116    -4.020000
    CH419    RH117    -6.000000   RH118    -0.900000
    CH419    1RH118   -5.000000
    CH421    RH026    -1.000000   RH052    1.000000
    CH421    RH093    -1.510000   1RH093   -11.000000
    CH421    RH094    -0.900000   RH110    0.840000
    CH423    RH027    -1.000000   RH053    1.000000
    CH423    RH115    0.550000   RH116    -2.030000
    CH423    RH117    1.000000   RH118    -3.900000
    CH423    1RH118   -5.000000
    CH425    RH027    -1.000000   RH052    1.000000
    CH425    RH093    -3.500000   1RH093   -4.000000
    CH425    RH094    -3.900000   RH110    2.830000
    CH427    2RH017   -1.000000   RH053    1.000000
    CH427    RH115    -1.820000   RH116    0.340000
    CH427    RH117    11.000000   RH118    -14.000000
    CH427    1RH118   -5.000000
    CH430    2RH017   -1.000000   RH052    1.000000
    CH430    RH093    -5.870000   1RH093   6.000000
    CH430    RH094    -14.000000   RH110    5.200000
    CH432    RH017    -1.000000   RH053    1.000000
    CH432    RH115    0.860000   RH116    -2.340000
    CH432    RH117    1.000000   RH118    -16.000000
    CH432    1RH118   -5.000000
    CH434    RH017    -1.000000   RH052    1.000000
    CH434    RH093    -3.190000   1RH093   -4.000000
    CH434    RH094    -16.000000   RH110    2.520000
    CH435    1RH017   -1.000000   RH051    1.000000
    CH435    RH090    8.900000   1RH090   16.000000
    CH435    2RH090   -10.150000   RH091    -4.500000
    CH435    RH103    1.000000   RH108    -30.000000
    CH437    1RH017   -1.000000   RH109    1.000000
    CH437    1RH109   5.020000   2RH109   -6.500000
    CH438    1RH017   -1.000000   RH052    1.000000
    CH438    RH093    0.970000   1RH093   -21.000000
    CH438    RH094    -14.500000   RH110    -1.640000
    CH442    2RH026   -1.000000   RH053    1.000000
    CH442    RH115    2.570000   RH116    -4.050000
    CH442    RH117    34.000000   RH118    -35.500000
    CH442    1RH118   -5.000000
    CH444    2RH026   -1.000000   RH052    1.000000
    CH444    RH093    -1.480000   1RH093   29.000000
    CH444    RH094    -35.500000   RH110    0.810000
    CH445    1RH026   -1.000000   RH053    1.000000
    CH445    RH115    -2.030000   RH116    0.550000
    CH445    RH117    57.000000   RH118    -35.500000
    CH445    1RH118   -5.000000
    CH447    1RH026   -1.000000   RH052    1.000000
    CH447    RH093    -6.080000   1RH093   52.000000
    CH447    RH094    -35.500000   RH110    5.410000
    CH448    1RH027   -1.000000   RH053    1.000000
    CH448    RH115    0.520000   RH116    -2.000000
    CH448    RH117    71.000000   RH118    -36.700000
    CH448    1RH118   -5.000000
    CH450    1RH027   -1.000000   RH052    1.000000
    CH450    RH093    -3.530000   1RH093   66.000000
    CH450    RH094    -36.700000   RH110    2.860000
    CH451    RH030    -1.000000   RH051    1.000000
    CH451    RH090    17.720000   1RH090   3.000000
    CH451    2RH090   -19.050000   RH091    23.000000
    CH451    RH103    1.000000   RH108    -30.000000
    CH452    RH030    -1.000000   RH053    1.000000
    CH452    RH115    13.920000   RH116    -15.400000
    CH452    RH117    -29.000000   RH118    13.000000
    CH452    1RH118   -5.000000
    CH454    RH030    -1.000000   RH052    1.000000
    CH454    RH093    9.870000   1RH093   -34.000000
    CH454    RH094    13.000000   RH110    -10.540000
    CH455    3RH030   -1.000000   RH051    1.000000
    CH455    RH090    13.230000   2RH090   -14.560000
    CH455    RH091    6.000000   RH103    1.000000
    CH455    RH108    -30.000000
    CH456    3RH030   -1.000000   RH053    1.000000
    CH456    RH115    9.430000   RH116    -10.910000
    CH456    RH117    -32.000000   RH118    -4.000000
    CH456    1RH118   -5.000000
    CH459    3RH030   -1.000000   RH052    1.000000
    CH459    RH093    5.380000   1RH093   -37.000000
    CH459    RH094    -4.000000   RH110    -6.050000
    CH460    2RH030   -1.000000   RH051    1.000000
    CH460    RH090    16.410000   1RH090   11.000000
    CH460    2RH090   -17.740000   RH091    2.600000
    CH460    RH103    1.000000   RH108    -30.000000
    CH461    2RH030   -1.000000   RH053    1.000000
    CH461    RH115    12.610000   RH116    -14.090000
    CH461    RH117    -21.000000   RH118    -7.400000
    CH461    1RH118   -5.000000
    CH464    2RH030   -1.000000   RH052    1.000000
    CH464    RH093    8.560000   1RH093   -26.000000
    CH464    RH094    -7.400000   RH110    -9.230000
    CH465    1RH030   -1.000000   RH051    1.000000
    CH465    RH090    18.450000   1RH090   2.000000
    CH465    2RH090   -19.790000   RH103    1.000000
    CH465    RH108    -30.000000
    CH467    1RH030   -1.000000   RH109    1.000000
    CH467    1RH109   14.660000   2RH109   -16.140000
    CH468    1RH030   -1.000000   RH052    1.000000
    CH468    RH093    10.610000   1RH093   -35.000000
    CH468    RH094    -10.000000   RH110    -11.280000
    CH472    1RH033   -1.000000   RH053    1.000000
    CH472    RH115    9.820000   RH116    -11.300000
    CH472    RH117    51.000000   RH118    -34.200000
    CH472    1RH118   -5.000000
    CH474    1RH033   -1.000000   RH052    1.000000
    CH474    RH093    5.770000   1RH093   46.000000
    CH474    RH094    -34.200000   RH110    -6.440000
    CH475    2RH033   -1.000000   RH053    1.000000
    CH475    RH115    7.320000   RH116    -8.800000
    CH475    RH117    59.000000   RH118    -34.500000
    CH475    1RH118   -5.000000
    CH477    2RH033   -1.000000   RH052    1.000000
    CH477    RH093    3.270000   1RH093   54.000000
    CH477    RH094    -34.500000   RH110    -3.940000
    CH478    4RH030   -1.000000   RH053    1.000000
    CH478    RH115    11.190000   RH116    -12.670000
    CH478    RH117    71.000000   RH118    -35.000000
    CH478    1RH118   -5.000000
    CH480    4RH030   -1.000000   RH052    1.000000
    CH480    RH093    7.140000   1RH093   66.000000
    CH480    RH094    -35.000000   RH110    -7.810000
    CH481    RH022    0.934000   RH030    -1.000000
    CH481    RH096    0.032000   RH099    1.000000
    CH481    RH113    0.016000
    CH482    RH022    0.467000   RH030    -1.000000
    CH482    RH051    0.467000   RH090    10.409000
    CH482    1RH090   3.736000   2RH090   -6.361000
    CH482    RH091    10.040000   RH096    0.032000
    CH482    RH099    1.000000   RH103    0.467000
    CH482    RH108    32.690000   RH113    0.016000
    CH483    RH022    -1.000000   RH053    1.000000
    CH483    RH115    8.490000   RH116    -9.970000
    CH483    RH117    -24.000000   RH118    11.500000
    CH483    1RH118   -5.000000
    CH485    RH022    -1.000000   RH052    1.000000
    CH485    RH093    4.440000   1RH093   -29.000000
    CH485    RH094    11.500000   RH110    -5.110000
    CH486    1RH022   0.934000   3RH030   -1.000000
    CH486    RH096    0.032000   RH099    1.000000
    CH486    RH113    0.016000
    CH487    1RH022   0.467000   3RH030   -1.000000
    CH487    RH051    0.467000   RH090    5.193000
    CH487    1RH090   1.401000   2RH090   -5.814000
    CH487    RH091    3.876000   RH096    0.032000
    CH487    RH099    1.000000   RH103    0.467000
    CH487    RH108    32.690000   RH113    0.016000
    CH488    1RH022   -1.000000   RH053    1.000000
    CH488    RH115    7.320000   RH116    -8.800000
    CH488    RH117    -29.000000   RH118    -1.700000
    CH488    1RH118   -5.000000
    CH491    1RH022   -1.000000   RH052    1.000000
    CH491    RH093    3.270000   1RH093   -34.000000
    CH491    RH094    -1.700000   RH110    -3.940000
    CH492    2RH022   0.934000   2RH030   -1.000000
    CH492    RH096    0.032000   RH099    1.000000
    CH492    RH113    0.016000
    CH493    2RH022   0.467000   2RH030   -1.000000
    CH493    RH051    0.467000   RH090    10.656000
    CH493    1RH090   6.071000   2RH090   -6.608000
    CH493    RH091    2.148000   RH096    0.032000
    CH493    RH099    1.000000   RH103    0.467000
    CH493    RH108    32.690000   RH113    0.016000
    CH494    2RH022   -1.000000   RH053    1.000000
    CH494    RH115    9.020000   RH116    -10.050000
    CH494    RH117    -19.000000   RH118    -5.400000
    CH494    1RH118   -5.000000
    CH497    2RH022   -1.000000   RH052    1.000000
    CH497    RH093    4.970000   1RH093   -24.000000
    CH497    RH094    -5.400000   RH110    -5.640000
    CH498    3RH022   0.934000   1RH030   -1.000000
    CH498    RH096    0.032000   RH099    1.000000
    CH498    RH113    0.016000
    CH499    3RH022   0.467000   1RH030   -1.000000
    CH499    RH051    0.467000   RH090    10.676000
    CH499    1RH090   1.401000   2RH090   -6.627000
    CH499    RH091    0.934000   RH096    0.032000
    CH499    RH099    1.000000   RH103    0.467000
    CH499    RH108    32.690000   RH113    0.016000
    CH501    3RH022   -1.000000   RH109    1.000000
    CH501    1RH109   9.060000   2RH109   -10.540000
    CH502    3RH022   -1.000000   RH052    1.000000
    CH502    RH093    5.030000   1RH093   -34.000000
    CH502    RH094    -8.000000   RH110    -5.680000
    CH503    RH029    -1.000000   RH053    1.000000
    CH503    RH115    -5.180000   RH116    3.700000
    CH503    RH117    48.000000   RH118    -16.000000
    CH503    1RH118   -5.000000
    CH505    RH029    -1.000000   RH052    1.000000
    CH505    RH093    -9.230000   1RH093   43.000000
    CH505    RH094    -16.000000   RH110    8.560000
    CH506    1RH029   -1.000000   RH053    1.000000
    CH506    RH115    -6.030000   RH116    4.550000
    CH506    RH117    91.000000   RH118    -37.600000
    CH506    1RH118   -5.000000
    CH508    1RH029   -1.000000   RH052    1.000000
    CH508    RH093    -10.080000   1RH093   86.000000
    CH508    RH094    -37.700000   RH110    9.410000
    CH509    RH020    0.090000   RH029    -1.000000
    CH509    RH053    0.780000   RH096    0.076000
    CH509    RH099    1.000000   RH113    0.040000
    CH509    RH115    -6.290000   RH116    5.000000
    CH509    RH117    5.220000   RH118    -11.310000
    CH509    1RH118   -4.350000
    CH511    RH020    0.090000   RH029    -1.000000
    CH511    RH052    0.780000   RH093    -9.810000
    CH511    1RH093   0.870000   RH094    -11.310000
    CH511    RH096    0.076000   RH099    1.000000
    CH511    RH110    9.230000   RH113    0.040000
    CH512    2RH023   0.090000   1RH029   -1.000000
    CH512    RH053    0.780000   RH096    0.076000
    CH512    RH099    1.000000   RH113    0.040000
    CH512    RH115    -8.740000   RH116    8.330000
    CH512    RH117    31.300000   RH118    -32.450000
    CH512    1RH118   -4.350000
    CH514    2RH023   0.090000   1RH029   -1.000000
    CH514    RH052    0.780000   RH093    -12.270000
    CH514    1RH093   27.000000   RH094    -32.450000
    CH514    RH096    0.076000   RH099    1.000000
    CH514    RH110    11.680000   RH113    0.040000
    CH515    4RH022   -1.000000   RH053    1.000000
    CH515    RH115    10.170000   RH116    -11.650000
    CH515    RH117    -12.000000   RH118    15.000000
    CH515    1RH118   -5.000000
    CH517    4RH022   -1.000000   RH052    1.000000
    CH517    RH093    6.120000   1RH093   -17.000000
    CH517    RH094    15.000000   RH110    -6.790000
    CH518    RH001    1.000000   1RH001   1.010000
    CH518    RH007    0.002400   RH008    0.009900
    CH518    1RH008   0.002200   RH010    0.038200
    CH518    RH016    0.108100   RH018    0.024200
    CH518    RH019    0.101000   RH020    0.092900
    CH518    2RH025   0.005000   RH026    0.394000
    CH518    1RH028   0.015100   RH029    0.098800
    CH518    RH030    0.101400   1RH060   0.215300
    CH518    RH096    -0.022800   RH107    1.000000
    CH518    1RH107   -1.000000   RH113    0.004800
    CH519    RH001    1.151000   2RH001   1.010000
    CH519    RH007    0.002200   RH008    0.008800
    CH519    1RH008   0.002000   RH010    0.065000
    CH519    RH016    0.157000   RH018    0.030000
    CH519    RH019    0.090000   RH020    0.083000
    CH519    2RH025   0.007000   RH026    0.301900
    CH519    1RH028   0.017400   RH029    0.114300
    CH519    RH030    0.117400   1RH060   0.249100
    CH519    RH096    -0.023700   RH107    1.151000
    CH519    1RH107   -1.000000   RH113    0.004000
    CH520    RH001    1.027000   RH003    1.010000
    CH520    RH007    0.003900   RH008    0.009200
    CH520    1RH008   0.000400   RH010    0.048500
    CH520    RH016    0.134400   RH018    0.039400
    CH520    RH019    0.137300   RH020    0.107000
    CH520    2RH025   0.005000   RH027    0.299900
    CH520    1RH028   0.025100   RH029    0.116800
    CH520    RH030    0.080500   1RH060   0.222400
    CH520    RH096    -0.023000   RH107    1.027000
    CH520    1RH107   -1.000000   RH113    0.000600
    CH521    RH001    1.100000   RH006    1.010000
    CH521    RH007    0.002000   RH008    0.007200
    CH521    1RH008   0.000500   RH010    0.037800
    CH521    RH016    0.149500   2RH017   0.262700
    CH521    RH018    0.043600   3RH018   0.122800
    CH521    RH021    0.125700   2RH025   0.005000
    CH521    1RH028   0.019100   RH029    0.127900
    CH521    3RH030   0.091200   1RH060   0.238200
    CH521    RH096    -0.023400   RH107    1.100000
    CH521    1RH107   -1.000000   RH113    0.003000
    CH522    RH001    1.100000   RH002    1.010000
    CH522    RH007    0.002400   RH008    0.009000
    CH522    1RH008   0.001900   RH010    0.025900
    CH522    RH015    0.119200   RH017    0.284300
    CH522    RH018    0.035400   2RH018   0.127300
    CH522    RH021    0.133300   2RH025   0.005000
    CH522    1RH028   0.019800   RH029    0.132700
    CH522    2RH030   0.095600   1RH060   0.248100
    CH522    RH096    -0.023700   RH107    1.100000
    CH522    1RH107   -1.000000   RH113    0.006200
    CH524    RH001    1.100000   1RH005   1.010000
    CH524    RH007    0.000200   RH008    0.000400
    CH524    1RH008   0.000300   RH010    0.023600
    CH524    RH015    0.070000   RH018    0.030000
    CH524    RH019    0.150000   RH023    0.220000
    CH524    2RH025   0.005000   2RH026   0.261900
    CH524    1RH028   0.019000   1RH029   0.083400
    CH524    1RH033   0.135700   1RH060   0.238100
    CH524    RH096    -0.023400   RH107    1.100000
    CH524    1RH107   -1.000000   RH113    0.000500
    CH525    RH001    1.100000   RH005    1.010000
    CH525    RH007    0.001200   RH008    0.001800
    CH525    1RH008   0.000300   RH010    0.025000
    CH525    RH015    0.138000   RH018    0.037000
    CH525    RH019    0.161000   1RH021   0.178000
    CH525    2RH025   0.014000   1RH026   0.203200
    CH525    1RH028   0.026000   1RH029   0.142400
    CH525    2RH033   0.069000   1RH060   0.237800
    CH525    RH096    -0.023400   RH107    1.100000
    CH525    1RH107   1.000000   RH113    0.000700
    CHF28    RH051    -1.000000   1RH051   1.000000
    CHF28    RH091    3.000000
    1CHF29   2RH051   1.000000   RH052    -1.000000
    1CHF29   1RH093   -3.000000   RH094    5.000000
    CHF35    RH052    -1.000000   3RH052   1.000000
    CHF35    RH093    3.080000   RH094    5.000000
    CHF35    RH110    -3.190000
    CHF48    RH053    -1.000000   3RH053   1.000000
    CHF48    RH117    -3.000000   RH118    5.000000
    CHF80    RH052    -1.000000   2RH052   1.000000
    CHF80    RH094    5.000000
    CHF82    RH053    -1.000000   2RH053   1.000000
    CHF82    RH115    -1.050000   RH116    1.670000
    CHF82    RH117    -5.000000   RH118    15.000000
    C1002    R1002    1.010000   R1008    0.000500
    C1002    R1012    0.012000   R1013    0.077500
    C1002    R1015    0.090000   R1016    0.031000
    C1002    R1017    0.026000   R1018    0.134000
    C1002    R1019    0.141000   R1022    0.051000
    C1002    R1025    0.437000   R1039    -0.026000
    C1002    R1071    1.028000   1R1071   0.973000
    C1002    2R1071   1.000000
    C1003    R1003    1.010000   R1008    0.002500
    C1003    R1010    0.003000   R1012    0.011000
    C1003    R1013    0.063500   R1015    0.064000
    C1003    R1016    0.022000   R1017    0.022000
    C1003    R1018    0.103000   R1019    0.118000
    C1003    R1022    0.044000   R1026    0.547000
    C1003    R1039    -0.021200   R1071    1.000000
    C1003    1R1071   1.000000   2R1071   1.000000
    C1004    R1004    1.010000   R1008    0.002500
    C1004    R1010    0.002500   R1012    0.010000
    C1004    R1014    0.065000   R1015    0.082000
    C1004    R1016    0.026000   R1017    0.026000
    C1004    R1018    0.127000   R1020    0.141000
    C1004    R1023    0.054000   R1027    0.464000
    C1004    R1039    -0.024700   R1071    1.018000
    C1004    1R1071   0.973000   2R1071   1.000000
    C1005    R1005    1.010000   R1008    0.001600
    C1005    R1010    0.002200   R1012    0.011000
    C1005    R1014    0.064200   R1015    0.081000
    C1005    R1016    0.020000   R1017    0.025000
    C1005    R1018    0.112000   1R1019   0.127000
    C1005    R1022    0.046000   R1028    0.510000
    C1005    R1039    -0.021200   R1071    0.999000
    C1005    1R1071   1.000000   2R1071   1.000000
    1C1005   R1005    0.808000   1R1006   0.202000
    1C1005   2R1006   0.202000   R1008    0.001700
    1C1005   R1010    0.002000   R1012    0.010400
    1C1005   R1014    0.062100   R1015    0.077800
    1C1005   R1016    0.021000   R1017    0.025000
    1C1005   R1018    0.109600   3R1021   0.125600
    1C1005   R1023    0.049800   1R1027   0.515000
    1C1005   R1039    -0.021300   R1071    1.004000
    1C1005   1R1071   1.003200   2R1071   1.000000
    1C1006   1R1007   1.010000   R1008    0.003500
    1C1006   R1010    0.000500   R1012    0.007000
    1C1006   R1013    0.067000   R1015    0.107000
    1C1006   R1016    0.032000   R1017    0.033000
    1C1006   R1018    0.170000   1R1020   0.158000
    1C1006   R1023    0.057000   1R1028   0.365000
    1C1006   R1039    -0.024700   R1071    1.052000
    1C1006   1R1071   0.950000   2R1071   1.000000
    C1007    R1007    1.010000   R1008    0.001000
    C1007    R1012    0.004000   R1013    0.044000
    C1007    R1015    0.093000   R1016    0.027000
    C1007    R1017    0.030000   R1018    0.141000
    C1007    1R1021   0.193000   R1024    0.069000
    C1007    R1029    0.398000   R1039    -0.026400
    C1007    R1071    1.024000   1R1071   0.992000
    C1007    2R1071   1.000000
    C1008    1R1004   1.010000   R1008    0.001000
    C1008    R1010    0.001000   R1012    0.002000
    C1008    R1013    0.037000   R1015    0.048000
    C1008    R1016    0.020000   R1017    0.020000
    C1008    R1018    0.138000   2R1021   0.266000
    C1008    R1024    0.031000   2R1028   0.436000
    C1008    R1039    -0.026400   R1071    0.973000
    C1008    1R1071   0.992000   2R1071   1.000000
    1C1008   1R1004   0.808000   1R1006   0.202000
    1C1008   2R1006   0.202000   R1008    0.001200
    1C1008   R1010    0.001000   R1012    0.003200
    1C1008   R1013    0.040400   R1015    0.051400
    1C1008   R1016    0.021000   R1017    0.021000
    1C1008   R1018    0.130400   R1021    0.236800
    1C1008   R1024    0.037800   2R1028   0.455800
    1C1008   R1039    -0.025400   R1071    0.983400
    1C1008   1R1071   0.996800   2R1071   1.000000
    C1009    R1002    0.757500   1R1006   0.252500
    C1009    2R1006   0.252500   R1008    0.000900
    C1009    R1010    0.000300   R1012    0.011000
    C1009    R1013    0.071600   R1015    0.083800
    C1009    R1016    0.029600   R1017    0.025800
    C1009    R1018    0.125500   3R1021   0.135700
    C1009    R1023    0.054600   3R1028   0.461200
    C1009    R1039    -0.024800   R1071    1.027300
    C1009    1R1071   0.983800   2R1071   1.000000
    2C1009   R1003    0.757500   1R1006   0.252500
    2C1009   2R1006   0.252500   R1008    0.002400
    2C1009   R1010    0.002600   R1012    0.010300
    2C1009   R1013    0.061100   R1015    0.064300
    2C1009   R1016    0.022800   R1017    0.022800
    2C1009   R1018    0.102200   3R1021   0.118500
    2C1009   R1023    0.049300   3R1028   0.543700
    2C1009   R1039    -0.021200   R1071    1.006300
    2C1009   1R1071   1.004000   2R1071   1.000000
    C1012    R1008    -1.000000   R1039    1.190000
    C1013    R1009    -1.000000   R1039    1.190000
    1C1013   R0000    -16.000000   R1009    -1.000000
    1C1013   1R1009   1.000000
    C1015    R0000    16.700000   R1010    1.000000
    1C1015   R1009    1.000000   R1010    -1.000000
    C1016    R0000    -11.500000   1R1009   1.000000
    C1016    R1012    -1.000000
    C1017    R1008    1.000000   R1010    -1.000000
    C1018    R0000    12.000000   R1012    1.000000
    C1020    R1008    1.000000   R1012    -1.000000
    C1021    R0000    0.228000   R1012    -1.000000
    C1021    R1046    1.000000   R1075    -6.380000
    C1021    R1076    -0.579000   R1077    -91.399899
    C1021    R1078    225.899897
    C1022    R0000    0.114000   R1012    -1.000000
    C1022    R1050    1.000000   R1079    -23.800000
    C1022    R1080    -0.772000   R1081    -91.399899
    C1022    R1082    225.899897
    C1023    R1014    -1.000000   R1039    1.110000
    C1023    1R1039   1.000000   R1042    -1.000000
    1C1023   R1013    -1.000000   R1014    1.000000
    C1024    R0000    0.196000   R1014    -1.000000
    C1024    R1046    1.000000   R1075    18.220000
    C1024    R1076    -0.498000   R1077    -63.700000
    C1024    R1078    28.100000
    C1025    R0000    0.098000   R1014    -1.000000
    C1025    R1050    1.000000   R1079    9.330000
    C1025    R1080    -0.664000   R1081    -63.700000
    C1025    R1082    28.100000
    C1026    R1014    -1.000000   R1055    1.000000
    C1026    UKLDF    -1.000000
    1C1027   R1013    -1.000000   R1054    1.000000
    1C1027   R1070    1.000000   UKLDF    -1.000000
    C1028    R1015    -1.000000   R1039    1.110000
    C1028    1R1039   1.000000   R1042    -1.000000
    C1029    R0000    0.090000   R1015    -1.000000
    C1029    R1050    1.000000   R1079    22.200000
    C1029    R1080    -0.610000   R1081    30.000000
    C1029    R1082    -36.800000
    C1030    R1015    -1.000000   R1055    1.000000
    C1030    UKLDF    -1.000000
    C1032    R1016    -1.000000   R1055    1.000000
    C1032    UKLDF    -1.000000
    C1034    R1016    -1.000000   R1062    1.000000
    C1034    R1091    10.580000   R1092    -8.500000
    C1034    R1093    -21.480000   R1094    56.800000
    C1034    R1095    -7.000000   R1096    -100.000000
    C1035    R1016    -1.000000   R1063    1.000000
    C1035    R1097    13.410000   R1098    -13.500000
    C1035    R1099    -30.520000   R1100    56.800000
    C1035    R1101    14.880000
    C1036    R1016    -1.000000   R1065    1.000000
    C1036    R1106    -36.060000   R1107    35.350000
    C1036    R1108    -18.500000   R1109    56.800000
    C1036    R1110    -117.000000
    C1037    R1016    -1.000000   R1068    1.000000
    C1037    R1111    -35.540000   R1112    34.850000
    C1037    R1113    -38.500000   R1114    56.800000
    C1037    R1115    -104.000000
    C1038    R1016    -0.520000   R1017    -0.480000
    C1038    R1055    1.000000   UKLDF    -1.000000
    C1040    R1016    -0.520000   R1017    -0.480000
    C1040    R1062    1.000000   R1091    8.890000
    C1040    R1092    -8.500000   R1093    -21.160000
    C1040    R1094    38.710000   R1095    -7.000000
    C1040    R1096    -100.000000
    C1041    R1016    -0.520000   R1017    -0.480000
    C1041    R1063    1.000000   R1097    11.720000
    C1041    R1098    -13.500000   R1099    -30.060000
    C1041    R1100    38.710000   R1101    14.880000
    C1042    R1016    -0.520000   R1017    -0.480000
    C1042    R1065    1.000000   R1106    -36.060000
    C1042    R1107    35.350000   R1108    -18.500000
    C1042    R1109    38.710000   R1110    -117.000000
    C1043    R1016    -0.520000   R1017    -0.480000
    C1043    R1068    1.000000   R1111    -35.540000
    C1043    R1112    34.850000   R1113    -38.500000
    C1043    R1114    38.710000   R1115    -104.000000
    1C1043   R1016    -0.520000   R1017    -0.480000
    1C1043   R1039    1.090000   1R1039   1.000000
    1C1043   R1042    -1.000000
    C1044    R1016    -0.260000   R1017    -0.240000
    C1044    R1018    -0.500000   R1057    1.000000
    C1044    1R1057   1.000000
    C1045    R1017    -0.600000   R1018    -0.400000
    C1045    R1057    1.000000   1R1057   1.000000
    C1047    R1017    -0.185000   R1018    -0.575000
    C1047    R1039    -0.019400   R1058    0.760000
    C1047    R1074    1.000000
    C1048    R1017    -0.160000   R1018    -0.840000
    C1048    R1060    1.000000   R1086    1.960000
    C1048    R1087    -7.000000   R1088    -5.780000
    C1048    R1089    6.620000   R1090    -7.000000
    C1049    R1017    -0.160000   R1018    -0.840000
    C1049    R1062    1.000000   R1091    3.280000
    C1049    R1092    -7.000000   R1093    -18.670000
    C1049    R1094    6.620000   R1095    -7.000000
    C1049    R1096    -100.000000
    C1050    R1017    -0.160000   R1018    -0.840000
    C1050    R1063    1.000000   R1097    6.110000
    C1050    R1098    -12.000000   R1099    -27.230000
    C1050    R1100    6.620000   R1101    9.080000
    C1052    R1017    -0.160000   R1018    -0.840000
    C1052    R1065    1.000000   R1106    -30.260000
    C1052    R1107    29.550000   R1108    -17.000000
    C1052    R1109    6.620000   R1110    -99.000000
    C1053    R1017    -0.160000   R1018    -0.840000
    C1053    R1068    1.000000   R1111    -29.740000
    C1053    R1112    29.050000   R1113    -37.000000
    C1053    R1114    6.620000   R1115    -86.000000
    C1055    R1018    -1.000000   R1060    1.000000
    C1055    R1086    1.200000   R1087    -6.600000
    C1055    R1088    -5.410000   R1089    0.580000
    C1055    R1090    -7.000000
    C1056    R1018    -1.000000   R1062    1.000000
    C1056    R1091    2.520000   R1092    -6.600000
    C1056    R1093    -18.200000   R1094    0.580000
    C1056    R1095    -7.000000   R1096    -100.000000
    C1057    R1018    -1.000000   R1063    1.000000
    C1057    R1097    5.350000   R1098    -11.600000
    C1057    R1099    -26.690000   R1100    0.580000
    C1057    R1101    7.980000
    C1058    R1018    -1.000000   R1064    1.000000
    C1058    R1102    -21.980000   1R1102   20.840000
    C1058    R1103    -28.600000   R1104    0.580000
    C1058    R1105    -47.000000
    C1059    R1018    -1.000000   R1065    1.000000
    C1059    R1106    -29.160000   R1107    28.450000
    C1059    R1108    -16.600000   R1109    0.580000
    C1059    R1110    -99.000000
    1C1059   R1018    -1.000000   R1039    1.080000
    C1060    R1018    -1.000000   R1068    1.000000
    C1060    R1111    -28.640000   R1112    27.950000
    C1060    R1113    -36.600000   R1114    0.580000
    C1060    R1115    -86.000000
    1C1060   R1019    1.000000   1R1019   -1.000000
    2C1060   R1021    1.000000   1R1021   -1.000000
    C1061    R1019    -1.000000   R1060    1.000000
    C1061    R1086    -1.460000   R1087    1.200000
    C1061    R1088    13.320000   R1089    -2.940000
    C1061    R1090    -5.000000
    1C1061   R1020    1.000000   1R1020   -1.000000
    2C1061   R1021    1.000000   2R1021   -1.000000
    C1062    R1019    -1.000000   R1062    1.000000
    C1062    R1091    -0.140000   R1092    1.200000
    C1062    R1093    0.840000   R1094    -2.940000
    C1062    R1095    -5.000000
    C1063    R1019    -1.000000   R1063    1.000000
    C1063    R1097    2.690000   R1098    -3.800000
    C1063    R1099    -7.440000   R1100    -2.940000
    C1063    R1101    2.330000
    C1064    R1019    -1.000000   R1064    1.000000
    C1064    R1102    -16.330000   1R1102   15.190000
    C1064    R1103    -20.800000   R1104    -2.940000
    C1064    R1105    -18.000000
    C1065    R1019    -1.000000   R1068    1.000000
    C1065    R1111    -22.990000   R1112    22.300000
    C1065    R1113    -28.800000   R1114    -2.940000
    C1065    R1115    -57.000000
    1C1065   R1019    -1.000000   R1039    1.060000
    C1066    R1020    -1.000000   R1060    1.000000
    C1066    R1086    -3.320000   R1087    -2.500000
    C1066    R1088    13.100000   R1089    -2.940000
    C1066    R1090    -3.000000
    C1067    R1020    -1.000000   R1062    1.000000
    C1067    R1091    -2.000000   R1092    -2.500000
    C1067    R1093    0.830000   R1094    -2.940000
    C1067    R1095    -3.000000
    C1068    R1020    -1.000000   R1063    1.000000
    C1068    R1097    0.830000   R1098    -7.500000
    C1068    R1099    -7.320000   R1100    -2.940000
    C1068    R1101    0.370000
    C1069    R1020    -1.000000   R1064    1.000000
    C1069    R1102    -14.370000   1R1102   13.230000
    C1069    R1103    -24.500000   R1104    -2.940000
    C1069    R1105    -18.000000
    C1070    R1021    -1.000000   R1060    1.000000
    C1070    R1086    -4.840000   R1087    -8.300000
    C1070    R1088    12.990000   R1089    -2.940000
    C1070    R1090    7.000000
    1C1070   3R1021   -1.000000   R1060    1.000000
    1C1070   R1086    -1.170000   R1087    -1.000000
    1C1070   R1088    13.430000   R1089    -2.940000
    1C1070   R1090    -7.000000
    C1071    R1021    -1.000000   R1062    1.000000
    C1071    R1091    -3.520000   R1092    -8.300000
    C1071    R1093    0.820000   R1094    -2.940000
    C1071    R1095    7.000000
    1C1071   3R1021   -1.000000   R1062    1.000000
    1C1071   R1091    -0.150000   R1092    -1.000000
    1C1071   R1093    0.850000   R1094    -2.940000
    1C1071   R1095    -7.000000
    C1072    R1021    -1.000000   R1063    1.000000
    C1072    R1097    -0.690000   R1098    -13.300000
    C1072    R1099    -7.250000   R1100    -2.940000
    C1072    R1101    0.780000
    C1074    R1021    -1.000000   R1065    1.000000
    C1074    R1106    -21.960000   R1107    21.250000
    C1074    R1108    -18.300000   R1109    -2.940000
    C1074    R1110    -70.000000
    C1076    R1019    -0.860000   R1022    -0.140000
    C1076    R1064    1.000000   R1102    -13.570000
    C1076    1R1102   12.430000   R1103    -19.000000
    C1076    R1104    -3.170000   R1105    -17.000000
    C1078    R1020    -0.880000   R1023    -0.120000
    C1078    R1064    1.000000   R1102    -14.480000
    C1078    1R1102   13.340000   R1103    -23.700000
    C1078    R1104    -3.170000   R1105    -17.000000
    C1081    R1022    -1.000000   R1062    1.000000
    C1081    R1091    -5.540000   R1092    7.800000
    C1081    R1093    113.399899   R1094    -3.470000
    C1081    R1095    1.000000
    C1082    R1022    -1.000000   R1063    1.000000
    C1082    R1097    -2.710000   R1098    2.800000
    C1082    R1099    105.459998   R1100    -3.470000
    C1082    R1101    -3.640000
    C1083    R1022    -1.000000   R1065    1.000000
    C1083    R1106    -17.540000   R1107    16.830000
    C1083    R1108    -2.200000   R1109    -3.470000
    C1083    R1110    -37.000000
    C1084    R1022    -1.000000   R1068    1.000000
    C1084    R1111    -17.020000   R1112    16.330000
    C1084    R1113    -22.200000   R1114    -3.470000
    C1084    R1115    -24.000000
    1C1084   R1022    -1.000000   R1039    1.050000
    C1085    R1023    -1.000000   R1062    1.000000
    C1085    R1091    -5.540000   R1092    4.100000
    C1085    R1093    113.399899   R1094    -3.470000
    C1085    R1095    2.000000
    1C1085   R1023    -1.000000   R1063    1.000000
    1C1085   R1097    -2.710000   R1098    -0.900000
    1C1085   R1099    105.459998   R1100    -3.470000
    1C1085   R1101    -5.020000
    C1086    R1023    -1.000000   R1068    1.000000
    C1086    R1111    -15.640000   R1112    14.950000
    C1086    R1113    -25.900000   R1114    -3.470000
    C1086    R1115    -24.000000
    C1087    R1023    -1.000000   R1065    1.000000
    C1087    R1106    -16.160000   R1107    15.450000
    C1087    R1108    -5.900000   R1109    -3.470000
    C1087    R1110    -37.000000
    C1088    R1024    -1.000000   R1062    1.000000
    C1088    R1091    -4.200000   R1092    -7.400000
    C1088    R1093    114.379900   R1094    -3.610000
    C1088    R1095    7.000000
    C1089    R1024    -1.000000   R1063    1.000000
    C1089    R1097    -1.370000   R1098    -12.400000
    C1089    R1099    106.370098   R1100    -3.610000
    C1089    R1101    -1.840000
    C1090    R1024    -1.000000   R1065    1.000000
    C1090    R1106    -19.340000   R1107    18.630000
    C1090    R1108    -17.400000   R1109    -3.610000
    C1090    R1110    -37.000000
    C1091    R1024    -1.000000   R1068    1.000000
    C1091    R1111    -18.820000   R1112    18.130000
    C1091    R1113    -37.400000   R1114    -3.610000
    C1091    R1115    -24.000000
    1C1091   3R1028   -1.000000   R1030    0.500000
    1C1091   2R1033   0.598000   R1037    -0.098000
    1C1091   R1039    -0.015400   R1072    1.005000
    2C1091   3R1028   -1.000000   R1065    1.000000
    2C1091   R1106    -0.260000   R1107    -0.450000
    2C1091   R1108    10.500000   R1109    -0.800000
    2C1091   R1110    6.000000
    3C1091   3R1028   -1.000000   R1068    1.000000
    3C1091   R1111    0.260000   R1112    -0.950000
    3C1091   R1113    -9.500000   R1114    -0.800000
    3C1091   R1115    19.000000
    C1092    R1025    -1.000000   R1030    0.520000
    C1092    R1032    0.600000   R1037    -0.120000
    C1092    R1039    -0.015400   R1072    1.003000
    C1093    R1025    -1.000000   R1065    1.000000
    C1093    R1106    -0.060000   R1107    -0.650000
    C1093    R1108    20.500000   R1109    -0.800000
    C1093    R1110    -10.000000
    C1094    R1025    -1.000000   R1068    1.000000
    C1094    R1111    0.460000   R1112    -1.150000
    C1094    R1113    0.500000   R1114    -0.800000
    C1094    R1115    3.000000
    C1095    R1026    -1.000000   R1030    0.479000
    C1095    R1032    0.618000   R1037    -0.097000
    C1095    R1039    -0.015400   R1072    1.000000
    C1096    R1026    -1.000000   R1065    1.000000
    C1096    R1106    1.240000   R1107    -1.950000
    C1096    R1108    21.500000   R1109    -0.800000
    C1096    R1110    -20.000000
    C1097    R1026    -1.000000   R1068    1.000000
    C1097    R1111    1.760000   R1112    -2.450000
    C1097    R1113    1.500000   R1114    -0.800000
    C1097    R1115    -7.000000
    1C1097   1R1027   -1.000000   R1030    0.464000
    1C1097   3R1033   0.691000   R1037    -0.155000
    1C1097   R1039    -0.015400   R1072    1.000000
    2C1097   1R1027   -1.000000   R1065    1.000000
    2C1097   R1106    1.730000   R1107    -2.440000
    2C1097   R1108    1.300000   R1109    -0.800000
    2C1097   R1110    2.000000
    C1098    R1027    -1.000000   R1030    0.577000
    C1098    R1033    0.536000   R1037    -0.113000
    C1098    R1039    -0.015400   R1072    1.007000
    C1099    R1027    -1.000000   R1065    1.000000
    C1099    R1106    0.240000   R1107    -0.950000
    C1099    R1108    3.000000   R1109    -0.800000
    C1099    R1110    -10.000000
    C1100    R1027    -1.000000   R1068    1.000000
    C1100    R1111    0.760000   R1112    -1.450000
    C1100    R1113    -17.000000   R1114    -0.800000
    C1100    R1115    3.000000
    C1101    R1028    -1.000000   R1030    0.454000
    C1101    R1033    0.732000   R1037    -0.186000
    C1101    R1039    -0.015400   R1072    1.044000
    C1102    R1028    -1.000000   R1065    1.000000
    C1102    R1106    2.440000   R1107    -3.150000
    C1102    R1108    6.300000   R1109    -0.800000
    C1102    R1110    -10.000000
    C1103    R1028    -1.000000   R1068    1.000000
    C1103    R1111    2.960000   R1112    -3.650000
    C1103    R1113    -13.700000   R1114    -0.800000
    C1103    R1115    3.000000
    1C1103   1R1028   -1.000000   R1030    0.653000
    1C1103   1R1033   0.347000   R1039    -0.015400
    1C1103   R1072    1.052000
    2C1103   1R1028   -1.000000   R1065    1.000000
    2C1103   R1106    -5.350000   R1107    4.640000
    2C1103   R1108    -4.500000   R1109    -0.800000
    2C1103   R1110    4.000000
    3C1103   1R1028   -1.000000   R1068    1.000000
    3C1103   R1111    -4.830000   R1112    4.140000
    3C1103   R1113    -24.500000   R1114    -0.800000
    3C1103   R1115    17.000000
    C1104    R1021    -0.037000   R1024    -0.008000
    C1104    R1029    -1.000000   R1031    0.770000
    C1104    R1034    0.275000   R1039    -0.015400
    C1104    R1072    1.246000
    1C1104   R1021    -0.073000   R1024    -0.016000
    1C1104   2R1028   -1.000000   R1031    0.630000
    1C1104   R1034    0.459000   R1039    -0.015400
    1C1104   R1072    1.020000
    2C1104   2R1028   -1.000000   R1065    1.000000
    2C1104   R1106    -1.200000   R1107    0.490000
    2C1104   R1108    -14.500000   R1109    -0.800000
    2C1104   R1110    -3.000000
    3C1104   2R1028   -1.000000   R1068    1.000000
    3C1104   R1111    -0.680000   R1112    -0.010000
    3C1104   R1113    -34.500000   R1114    -0.800000
    3C1104   R1115    10.000000
    C1105    R1029    -1.000000   R1065    1.000000
    C1105    R1106    -4.020000   R1107    3.310000
    C1105    R1108    -16.100000   R1109    -0.800000
    C1105    R1110    50.000000
    C1106    R1029    -1.000000   R1068    1.000000
    C1106    R1111    -3.500000   R1112    2.810000
    C1106    R1113    -36.100000   R1114    -0.800000
    C1106    R1115    63.000000
    C1108    R0000    0.050400   R1009    0.075000
    C1108    R1010    0.039000   R1012    0.095000
    C1108    R1030    -1.000000   R1035    0.160000
    C1108    R1036    0.202000   R1037    0.233000
    C1108    1R1038   0.015000   R1039    0.043700
    C1108    R1073    1.500000
    1C1108   R0000    0.050400   R1009    0.076000
    1C1108   R1010    0.040000   R1012    0.097000
    1C1108   R1022    -0.150000   R1030    -0.850000
    1C1108   R1035    0.159000   R1036    0.205000
    1C1108   R1037    0.229000   1R1038   0.015000
    1C1108   R1039    0.046600   R1073    1.500000
    C1109    R0000    0.050400   R1009    0.025000
    C1109    R1010    0.014000   R1012    0.054000
    C1109    R1030    -1.000000   R1035    0.111000
    C1109    R1036    0.192000   R1037    0.227000
    C1109    1R1038   0.246000   R1039    0.055200
    C1109    R1073    1.000000
    C1111    R0000    0.050400   R1009    0.067000
    C1111    R1010    0.036000   R1012    0.089000
    C1111    R1030    -1.000000   R1035    0.144000
    C1111    R1036    0.176000   R1037    0.194000
    C1111    1R1038   0.144000   R1039    0.053200
    C1111    R1073    1.110000
    C1112    R0000    0.050400   R1009    0.049000
    C1112    R1010    0.026000   R1012    0.073000
    C1112    R1030    -1.000000   R1035    0.130000
    C1112    R1036    0.185000   R1037    0.209000
    C1112    1R1038   0.189000   R1039    0.055000
    C1112    R1073    1.000000
    1C1112   R0000    0.050400   R1009    0.047000
    1C1112   R1010    0.027000   R1012    0.076000
    1C1112   R1022    -0.150000   R1030    -0.850000
    1C1112   R1035    0.128000   R1036    0.188000
    1C1112   R1037    0.203000   1R1038   0.191000
    1C1112   R1039    0.055700   R1073    1.000000
    C1113    R0000    0.050400   R1009    0.030000
    C1113    R1010    0.020000   R1012    0.053000
    C1113    R1031    -1.000000   R1035    0.101000
    C1113    R1036    0.188000   R1038    0.195000
    C1113    2R1038   0.281000   R1039    0.050900
    C1113    R1073    1.000000
    C1116    R0000    0.050400   R1009    0.017000
    C1116    R1010    0.013000   R1012    0.036000
    C1116    R1031    -1.000000   R1035    0.087000
    C1116    R1036    0.190000   R1038    0.208000
    C1116    2R1038   0.323000   R1039    0.046300
    C1116    R1073    1.110000
    C1117    R0000    0.050400   R1009    0.047000
    C1117    R1010    0.029000   R1012    0.081000
    C1117    R1031    -1.000000   R1035    0.119000
    C1117    R1036    0.181000   R1038    0.177000
    C1117    2R1038   0.224000   R1039    0.052600
    C1117    R1073    1.000000
    1C1117   R0000    0.050400   R1009    0.048000
    1C1117   R1010    0.030000   R1012    0.082000
    1C1117   R1024    -0.170000   R1031    -0.830000
    1C1117   R1035    0.117000   R1036    0.183000
    1C1117   R1038    0.172000   2R1038   0.227000
    1C1117   R1039    0.053100   R1073    1.000000
    C1118    R0000    0.050400   R1009    0.058000
    C1118    R1010    0.035000   R1012    0.098000
    C1118    R1031    -1.000000   R1035    0.170000
    C1118    R1036    0.207000   R1038    0.212000
    C1118    2R1038   0.043000   R1039    0.039700
    C1118    R1073    1.670000
    1C1118   R0000    0.050400   R1009    0.058000
    1C1118   R1010    0.036000   R1012    0.099000
    1C1118   R1024    -0.170000   R1031    -0.830000
    1C1118   R1035    0.169000   R1036    0.211000
    1C1118   R1038    0.208000   2R1038   0.044000
    1C1118   R1039    0.041600   R1073    1.670000
    2C1118   3R1033   -1.000000   R1065    1.000000
    2C1118   R1106    3.010000   R1107    -3.720000
    2C1118   R1108    7.400000   R1109    -0.800000
    2C1118   R1110    -19.000000
    3C1118   3R1033   -2.000000   R1068    1.000000
    3C1118   R1111    3.530000   R1112    -4.220000
    3C1118   R1113    -12.600000   R1114    -0.800000
    3C1118   R1115    -6.000000
    C1119    R1032    -1.000000   R1064    1.000000
    C1119    R1102    10.190000   1R1102   -11.330000
    C1119    R1103    18.900000   R1104    -0.080000
    C1119    R1105    -2.000000
    C1120    R1032    -1.000000   R1068    1.000000
    C1120    R1111    3.530000   R1112    -4.220000
    C1120    R1113    10.900000   R1114    -0.800000
    C1120    R1115    -41.000000
    1C1120   R1032    -1.000000   R1065    1.000000
    1C1120   R1106    3.010000   R1107    -3.720000
    1C1120   R1108    30.900000   R1109    -0.800000
    1C1120   R1110    -54.000000
    2C1120   2R1033   -1.000000   R1065    1.000000
    2C1120   R1106    3.010000   R1107    -3.720000
    2C1120   R1108    18.500000   R1109    -0.800000
    2C1120   R1110    -17.000000
    3C1120   2R1033   -1.000000   R1068    1.000000
    3C1120   R1111    3.530000   R1112    -4.220000
    3C1120   R1113    -1.500000   R1114    -0.800000
    3C1120   R1115    -4.000000
    C1121    R1033    -1.000000   R1064    1.000000
    C1121    R1102    10.190000   1R1102   -11.330000
    C1121    R1103    -0.500000   R1104    -0.080000
    C1121    R1105    2.000000
    C1122    R1033    -1.000000   R1065    1.000000
    C1122    R1106    3.010000   R1107    -3.720000
    C1122    R1108    11.500000   R1109    -0.800000
    C1122    R1110    -50.000000
    C1123    R1033    -1.000000   R1068    1.000000
    C1123    R1111    3.530000   R1112    -4.220000
    C1123    R1113    -8.500000   R1114    -0.800000
    C1123    R1115    -37.000000
    1C1123   1R1033   -1.000000   R1065    1.000000
    1C1123   R1106    3.090000   R1107    -3.800000
    1C1123   R1108    1.500000   R1109    -0.800000
    1C1123   R1110    -17.000000
    2C1123   1R1033   -1.000000   R1068    1.000000
    2C1123   R1111    3.610000   R1112    -4.300000
    2C1123   R1113    -18.500000   R1114    -0.800000
    2C1123   R1115    -4.000000
    3C1123   1R1033   -1.000000   R1064    1.000000
    3C1123   R1102    10.270000   1R1102   -11.410000
    3C1123   R1103    -10.500000   R1104    -0.080000
    3C1123   R1105    35.000000
    C1124    R1034    -1.000000   R1065    1.000000
    C1124    R1106    3.010000   R1107    -3.720000
    C1124    R1108    -15.900000   R1109    -0.800000
    C1124    R1110    20.000000
    C1125    R1034    -1.000000   R1068    1.000000
    C1125    R1111    3.530000   R1112    -4.220000
    C1125    R1113    -35.900000   R1114    -0.800000
    C1125    R1115    33.000000
    C1128    R1017    -0.007500   R1018    -0.040000
    C1128    R1022    -0.047500   R1065    -0.905000
    C1128    R1066    1.000000   R1108    -5.880000
    C1128    R1110    14.500000
    C1130    R1039    1.000000   R1068    -1.000000
    C1131    R0000    0.194000   R1035    -1.000000
    C1131    R1046    1.000000   R1075    0.730000
    C1131    R1076    -0.493000   R1077    -76.399899
    C1131    R1078    43.500000
    C1132    R0000    0.097000   R1035    -1.000000
    C1132    R1050    1.000000   R1079    -19.700000
    C1132    R1080    -0.658000   R1081    -76.399899
    C1132    R1082    43.500000
    C1133    R0000    0.170000   R1036    -1.270000
    C1133    R1037    0.270000   R1046    1.000000
    C1133    R1075    2.050000   R1076    -0.431000
    C1133    R1077    52.600000   R1078    -50.100000
    C1134    R0000    0.085000   R1036    -1.270000
    C1134    R1037    0.270000   R1050    1.000000
    C1134    R1079    -15.100000   R1080    -0.574000
    C1134    R1081    52.600000   R1082    -50.100000
    C1135    R0000    0.165000   R1036    -1.000000
    C1135    R1046    1.000000   R1075    2.000000
    C1135    R1076    -0.419000   R1077    52.400000
    C1135    R1078    -48.800000
    C1136    R0000    0.082000   R1036    -1.000000
    C1136    R1050    1.000000   R1079    -14.700000
    C1136    R1080    -0.559000   R1081    52.400000
    C1136    R1082    -48.800000
    C1137    R1037    -1.000000   R1060    1.000000
    C1137    R1086    -13.810000   R1087    17.300000
    C1137    R1088    7.020000   R1089    -3.480000
    C1137    R1090    43.000000
    C1138    R1037    -1.000000   R1062    1.000000
    C1138    R1091    -12.490000   R1092    17.300000
    C1138    R1093    -4.210000   R1094    -3.480000
    C1138    R1095    43.000000
    C1139    R1037    -1.000000   R1063    1.000000
    C1139    R1097    -9.660000   R1098    12.300000
    C1139    R1099    -11.660000   R1100    -3.480000
    C1139    R1101    1.330000
    C1140    R1037    -1.000000   R1064    1.000000
    C1140    R1102    -15.330000   1R1102   14.190000
    C1140    R1103    -3.500000   R1104    -3.480000
    C1140    R1105    -22.000000
    C1141    R1037    -1.000000   R1068    1.000000
    C1141    R1111    -21.990000   R1112    21.300000
    C1141    R1113    -11.500000   R1114    -3.480000
    C1141    R1115    -61.000000
    C1142    R1038    -1.000000   R1060    1.000000
    C1142    R1086    -12.510000   R1087    -5.800000
    C1142    R1088    7.500000   R1089    -3.480000
    C1142    R1090    40.000000
    C1143    R1038    -1.000000   R1062    1.000000
    C1143    R1091    -11.190000   R1092    -5.800000
    C1143    R1093    -4.250000   R1094    -3.480000
    C1143    R1095    40.000000
    C1144    R1038    -1.000000   R1064    1.000000
    C1144    R1102    -15.330000   1R1102   14.190000
    C1144    R1103    -27.500000   R1104    -3.480000
    C1144    R1105    -22.000000
    C1145    R1038    -1.000000   R1065    1.000000
    C1145    R1106    -22.510000   R1107    21.800000
    C1145    R1108    -15.500000   R1109    -3.480000
    C1145    R1110    -74.000000
    C1146    R1038    -1.000000   R1068    1.000000
    C1146    R1111    -21.990000   R1112    21.300000
    C1146    R1113    -35.500000   R1114    -3.480000
    C1146    R1115    -61.000000
    C1147    R1037    1.000000   R1038    -1.000000
    1C1147   1R1038   -1.000000   R1068    1.000000
    1C1147   R1111    -14.540000   R1112    13.850000
    1C1147   R1113    -11.500000   R1114    -3.440000
    1C1147   R1115    -10.000000
    2C1147   2R1038   -1.000000   R1068    1.000000
    2C1147   R1111    -14.540000   R1112    13.850000
    2C1147   R1113    -35.500000   R1114    -3.440000
    2C1147   R1115    17.000000
    C1148    1R1038   -1.000000   R1039    1.000000
    1C1148   2R1038   -1.000000   R1039    1.000000
    C1149    R0000    0.183000   R1040    1.000000
    C1149    R1046    1.000000   R1075    -0.280000
    C1149    R1076    -0.463000   R1077    -64.799999
    C1149    R1078    24.600000
    C1150    R0000    0.091000   R1040    1.000000
    C1150    R1050    1.000000   R1079    -17.790000
    C1150    R1080    -0.618000   R1081    -64.799999
    C1150    R1082    24.600000
    C1151    R0000    0.156000   R1041    1.000000
    C1151    R1046    1.000000   R1075    -3.760000
    C1151    R1076    -0.397000   R1077    68.500000
    C1151    R1078    -51.300000
    C1152    R0000    0.078000   R1041    1.000000
    C1152    R1050    1.000000   R1079    -18.690000
    C1152    R1080    -0.529000   R1081    68.500000
    C1152    R1082    -51.300000
    C1154    R0000    0.166000   R1043    1.000000
    C1154    R1046    1.000000   R1075    -4.380000
    C1154    R1076    -0.420000   R1077    21.250000
    C1154    R1078    -24.400000
    C1156    R0000    0.344000   R1035    -0.200000
    C1156    R1040    0.200000   R1043    0.600000
    C1156    R1045    1.000000
    C1158    R1046    -1.000000   R1047    1.000000
    C1158    R1075    1.320000
    C1162    R1050    -1.000000   R1051    1.000000
    C1162    R1079    6.900000
    C1163    R1018    -0.196000   R1020    -0.285000
    C1163    1R1021   -0.377000   R1023    -0.060000
    C1163    R1024    -0.082000   R1061    1.000000
    1C1163   R1018    -0.468000   R1020    -0.241000
    1C1163   1R1021   -0.163000   R1023    -0.093000
    1C1163   R1024    -0.035000   R1061    1.000000
    2C1163   R1018    -0.438000   1R1019   -0.197000
    2C1163   1R1021   -0.365000   R1061    1.000000
    3C1163   R1018    -0.310000   1R1020   -0.310000
    3C1163   2R1021   -0.380000   R1061    1.000000
    C1165    R1062    -1.000000   2R1062   1.000000
    C1165    R1091    -1.470000   R1092    2.500000
    C1165    R1093    -13.800000   R1095    -5.000000
    C1166    R1063    -1.000000   1R1063   1.000000
    C1166    R1097    -3.560000   R1098    3.000000
    C1166    R1101    -7.360000
    1C1166   R1063    -1.000000   2R1063   1.000000
    1C1166   R1097    -2.830000   R1098    3.000000
    1C1166   R1099    -8.500000   R1101    -7.360000
    C1167    R0000    0.591000   R1075    -4.460000
    C1167    R1076    1.000000
    C1168    R0000    0.591000   R1079    -11.200000
    C1168    R1080    1.000000
    C1F28    R1064    -1.000000   1R1064   1.000000
    C1F28    R1103    2.000000
    C1F35    R1068    -1.000000   R1069    1.000000
    C1F35    R1111    1.830000   R1112    -1.980000
    C1F35    R1113    5.500000   R1115    3.000000
    C1F64    R1068    -1.000000   1R1068   1.000000
    C1F64    R1112    0.150000   R1113    5.500000
    C1F64    R1115    3.000000
    CJ001    1RJ006   1.010000   RJ007    0.019000
    CJ001    1RJ007   0.006000   1RJ008   0.060000
    CJ001    RJ010    0.083000   RJ012    0.066000
    CJ001    RJ013    0.141000   RJ014    0.016000
    CJ001    RJ018    0.192000   RJ019    0.028000
    CJ001    RJ024    0.389000   RJ031    -0.023400
    CJ001    RJ048    1.222000
    CJ002    RJ001    1.010000   RJ007    0.014000
    CJ002    1RJ007   0.006000   1RJ008   0.049000
    CJ002    RJ010    0.081000   RJ012    0.044000
    CJ002    RJ013    0.091000   RJ014    0.010000
    CJ002    RJ015    0.136000   RJ016    0.024000
    CJ002    RJ025    0.545000   RJ031    -0.020200
    CJ002    RJ048    1.000000
    2CJ002   1RJ001   1.010000   RJ007    0.013000
    2CJ002   1RJ007   0.005000   1RJ008   0.074000
    2CJ002   RJ010    0.143000   RJ012    0.039000
    2CJ002   RJ013    0.082000   RJ014    0.009000
    2CJ002   RJ015    0.122000   RJ016    0.022000
    2CJ002   RJ025    0.491000   RJ031    -0.022600
    2CJ002   RJ048    1.210000
    CJ003    RJ002    1.010000   RJ007    0.013000
    CJ003    1RJ007   0.005000   RJ008    0.047000
    CJ003    RJ009    0.107000   1RJ011   0.050000
    CJ003    RJ014    0.124000   RJ018    0.164000
    CJ003    RJ019    0.027000   RJ026    0.463000
    CJ003    RJ031    -0.022000   RJ048    1.052000
    CJ004    RJ003    1.010000   RJ007    0.017000
    CJ004    1RJ007   0.007000   1RJ008   0.059000
    CJ004    RJ010    0.098000   RJ012    0.051000
    CJ004    RJ013    0.105000   RJ014    0.012000
    CJ004    RJ015    0.149000   RJ016    0.024000
    CJ004    RJ027    0.478000   RJ031    -0.021500
    CJ004    RJ048    1.043000
    CJ005    RJ004    1.010000   RJ007    0.024000
    CJ005    1RJ007   0.009000   1RJ008   0.078000
    CJ005    RJ010    0.127000   RJ012    0.065000
    CJ005    RJ013    0.130000   RJ014    0.015000
    CJ005    RJ020    0.172000   RJ021    0.025000
    CJ005    RJ028    0.355000   RJ031    -0.023400
    CJ005    RJ048    1.235000
    CJ006    RJ005    1.010000   RJ007    0.015000
    CJ006    1RJ007   0.003000   RJ008    0.047000
    CJ006    RJ009    0.097000   RJ011    0.049000
    CJ006    RJ014    0.107000   RJ018    0.149000
    CJ006    RJ019    0.023000   RJ029    0.510000
    CJ006    RJ031    -0.020300   RJ048    1.000000
    1CJ006   RJ005    1.010000   RJ007    0.015000
    1CJ006   1RJ007   0.003000   RJ008    0.047000
    1CJ006   RJ009    0.097000   1RJ011   0.049000
    1CJ006   RJ014    0.107000   RJ018    0.149000
    1CJ006   RJ019    0.023000   RJ029    0.510000
    1CJ006   RJ031    -0.023000   RJ048    1.000000
    1CJ006   RJ100    0.046400
    CJ007    RJ006    1.010000   RJ007    0.012000
    CJ007    1RJ007   0.004000   RJ008    0.060000
    CJ007    RJ010    0.103000   RJ012    0.061000
    CJ007    RJ013    0.126000   RJ014    0.014000
    CJ007    RJ020    0.172000   RJ021    0.030000
    CJ007    RJ030    0.418000   RJ031    -0.022000
    CJ007    RJ048    1.142000
    CJ008    RJ007    -1.000000   RJ031    1.160000
    1CJ008   1RJ007   -1.000000   RJ031    1.200000
    CJ009    R0000    0.251000   RJ007    -1.000000
    CJ009    RJ032    1.000000   RJ052    -7.410000
    CJ009    RJ053    -96.500000   RJ054    214.100100
    CJ009    RJ095    -0.541000
    CJ010    R0000    0.126000   RJ007    -1.000000
    CJ010    RJ033    1.000000   RJ055    -26.030000
    CJ010    RJ056    -96.540000   RJ057    214.100100
    CJ010    RJ096    -0.734000
    CJ012    RJ008    1.000000   1RJ008   -1.000000
    CJ013    R0000    0.219000   RJ008    -1.000000
    CJ013    RJ032    1.000000   1RJ050   1.000000
    CJ013    RJ052    34.500000   RJ053    -76.600100
    CJ013    RJ054    33.020000   RJ095    -0.471000
    CJ014    R0000    0.109000   RJ008    -1.000000
    CJ014    RJ033    1.000000   1RJ050   1.000000
    CJ014    RJ055    22.520000   RJ056    -76.549999
    CJ014    RJ057    33.020000   RJ096    -0.639000
    CJ016    R0000    0.100000   RJ010    -1.000000
    CJ016    RJ033    1.000000   1RJ050   1.000000
    CJ016    RJ055    31.260000   RJ056    30.290000
    CJ016    RJ057    -42.140000   RJ096    -0.586000
    1CJ016   R0000    0.091000   RJ009    -1.000000
    1CJ016   RJ033    1.000000   1RJ050   1.000000
    1CJ016   RJ055    31.260000   RJ056    30.290000
    1CJ016   RJ057    -42.140000   RJ096    -0.586000
    CJ018    RJ007    -0.040000   RJ008    -0.960000
    CJ018    RJ035    1.000000
    1CJ018   RJ007    -0.014000   RJ008    -0.336000
    1CJ018   RJ009    -0.650000   RJ035    1.000000
    CJ019    RJ007    -0.014000   RJ008    -0.336000
    CJ019    RJ010    -0.650000   RJ035    1.000000
    CJ020    R0000    1.266600   RC0ST    2.004000
    CJ020    RLDEX    -1.000000   RJ007    -0.014000
    CJ020    RJ008    -0.336000   RJ010    -0.650000
    CJ020    RJ036    1.000000
    1CJ020   R0000    1.266600   RC0ST    2.004000
    1CJ020   RLDEX    -1.000000   RJ007    -0.020000
    1CJ020   RJ008    -0.480000   RJ009    -0.500000
    1CJ020   RJ036    1.000000   1RJ050   0.500000
    CJ021    R0000    1.266600   RC0ST    2.004000
    CJ021    RLDEX    -1.000000   RJ007    -0.020000
    CJ021    RJ008    -0.480000   RJ010    -0.500000
    CJ021    RJ036    1.000000
    1CJ021   RJ008    -0.300000   RJ010    -0.700000
    1CJ021   1RJ036   1.000000
    2CJ021   RJ010    -0.700000   RJ011    -0.300000
    2CJ021   1RJ036   1.000000
    3CJ021   RJ008    -0.300000   RJ009    -0.700000
    3CJ021   1RJ036   1.000000
    4CJ021   RJ009    -0.700000   RJ011    -0.300000
    4CJ021   1RJ036   1.000000
    CJ022    RJ031    1.110000   RJ035    -1.000000
    CJ023    R0000    0.093100   RJ007    0.101000
    CJ023    1RJ007   0.152000   RJ008    0.010000
    CJ023    RJ009    -1.000000   RJ011    0.040000
    CJ023    RJ031    -0.101000   RJ049    1.157000
    CJ023    1RJ050   1.000000   RJ097    0.697000
    CJ023    RJ099    -0.190000
    CJ025    R0000    0.082900   RJ007    0.074000
    CJ025    1RJ007   0.112000   RJ008    0.010000
    CJ025    RJ009    -1.000000   RJ011    0.040000
    CJ025    RJ031    -0.095600   RJ049    0.909000
    CJ025    1RJ050   1.000000   1RJ097   0.764000
    CJ025    RJ099    -0.190000
    CJ028    R0000    0.096000   RJ033    1.000000
    CJ028    RJ055    -14.000000   RJ056    -9.250000
    CJ028    RJ057    -9.250000   RJ096    -0.562000
    CJ028    1RJ097   -1.000000
    CJ029    R0000    0.193000   RJ032    1.000000
    CJ029    RJ052    -0.660000   RJ053    -9.250000
    CJ029    RJ054    -9.250000   RJ095    -0.414000
    CJ029    1RJ097   -1.000000
    CJ030    R0000    0.120900   RJ007    0.099000
    CJ030    1RJ007   0.148000   RJ008    0.010000
    CJ030    RJ010    -1.000000   RJ011    0.040000
    CJ030    RJ031    -0.095600   RJ049    1.000000
    CJ030    1RJ097   0.703000   RJ099    -0.190000
    CJ031    R0000    0.128900   RJ007    0.126000
    CJ031    1RJ007   0.167000   RJ008    0.010000
    CJ031    RJ010    -1.000000   RJ011    0.040000
    CJ031    RJ031    -0.101000   RJ049    1.300000
    CJ031    RJ051    0.020000   RJ097    0.637000
    CJ031    RJ099    -0.190000
    CJ032    R0000    0.108400   RJ007    0.126000
    CJ032    1RJ007   0.187000   RJ008    0.010000
    CJ032    RJ010    -1.000000   RJ011    0.040000
    CJ032    RJ031    -0.101000   RJ049    1.445000
    CJ032    RJ097    0.637000   RJ099    -0.190000
    CJ033    R0000    0.190000   RJ032    1.000000
    CJ033    RJ052    -5.340000   RJ053    -5.210000
    CJ033    RJ054    -4.040000   RJ095    -0.408000
    CJ033    RJ097    -1.000000
    CJ034    R0000    0.096000   RJ033    1.000000
    CJ034    RJ055    -13.490000   RJ056    3.970000
    CJ034    RJ057    -14.420000   RJ096    -0.563000
    CJ034    1RJ098   -1.000000
    CJ035    R0000    0.070700   RJ007    0.064000
    CJ035    1RJ007   0.094000   RJ008    0.010000
    CJ035    RJ009    -0.667000   1RJ011   -0.333000
    CJ035    RJ014    0.040000   RJ031    -0.095600
    CJ035    RJ049    0.808000   1RJ050   0.667000
    CJ035    1RJ098   0.790000   RJ099    -0.190000
    CJ036    R0000    0.080400   RJ007    0.089000
    CJ036    1RJ007   0.135000   RJ008    0.010000
    CJ036    RJ009    -0.667000   1RJ011   -0.333000
    CJ036    RJ014    0.040000   RJ031    -0.101000
    CJ036    RJ049    1.044000   1RJ050   0.667000
    CJ036    RJ098    0.726000   RJ099    -0.190000
    CJ037    RJ011    1.000000   RJ012    -1.000000
    1CJ037   RJ011    1.000000   1RJ011   -1.000000
    CJ039    RJ011    -1.000000   RJ040    1.000000
    CJ039    RJ061    8.000000   RJ062    -8.500000
    CJ039    RJ063    36.080000   RJ064    -20.000000
    CJ039    RJ065    -13.000000   RJ079    1.000000
    CJ040    RJ011    -1.000000   RJ043    1.000000
    CJ040    RJ066    10.200000   RJ067    -13.500000
    CJ040    RJ068    36.080000   RJ069    -30.000000
    CJ040    RJ070    13.120000   RJ071    -26.000000
    CJ040    RJ079    1.000000
    CJ041    RJ011    -1.000000   RJ045    1.000000
    CJ041    RJ072    -38.000000   RJ073    -42.730000
    CJ041    1RJ073   41.920000   RJ074    36.080000
    CJ041    1RJ074   -95.000000
    CJ042    RJ011    -1.000000   RJ046    1.000000
    CJ042    RJ075    -38.000000   RJ076    -39.610000
    CJ042    1RJ076   38.970000   RJ077    36.080000
    CJ042    RJ078    -92.000000
    1CJ042   RJ011    -1.000000   RJ042    1.000000
    1CJ042   RJ102    -23.000000   RJ103    -39.610000
    1CJ042   RJ104    38.970000   RJ105    36.080000
    1CJ042   RJ106    -92.000000
    CJ043    R0000    0.191000   RJ032    1.000000
    CJ043    RJ052    -4.840000   RJ053    2.610000
    CJ043    RJ054    -10.190000   RJ095    -0.410000
    CJ043    RJ098    -1.000000
    CJ044    R0000    0.193000   RJ032    1.000000
    CJ044    RJ052    0.130000   RJ053    3.970000
    CJ044    RJ054    -14.420000   RJ095    -0.415000
    CJ044    1RJ098   -1.000000
    CJ045    R0000    0.093300   RJ007    0.076000
    CJ045    1RJ007   0.113000   RJ008    0.010000
    CJ045    RJ010    -0.667000   RJ012    -0.333000
    CJ045    RJ014    0.040000   RJ031    -0.095600
    CJ045    RJ049    0.880000   1RJ098   0.761000
    CJ045    RJ099    -0.190000
    CJ046    R0000    0.107400   RJ007    0.103000
    CJ046    1RJ007   0.144000   RJ008    0.010000
    CJ046    RJ010    -0.667000   RJ012    -0.333000
    CJ046    RJ014    0.040000   RJ031    -0.101000
    CJ046    RJ049    1.111000   RJ051    0.009000
    CJ046    RJ098    0.694000   RJ099    -0.190000
    1CJ046   R0000    0.094900   RJ007    0.103000
    1CJ046   1RJ007   0.153000   RJ008    0.010000
    1CJ046   RJ010    -0.667000   RJ012    -0.333000
    1CJ046   RJ014    0.040000   RJ031    -0.095600
    1CJ046   RJ049    1.182000   RJ098    0.694000
    1CJ046   RJ099    -0.190000
    CJ047    RJ012    -0.440000   RJ013    -0.560000
    CJ047    RJ034    1.000000   RJ038    1.000000
    1CJ047   1RJ011   -0.440000   RJ013    -0.560000
    1CJ047   RJ034    1.000000   RJ038    1.000000
    1CJ048   RJ011    0.100000   RJ013    -1.600000
    1CJ048   RJ015    0.500000   RJ034    1.000000
    1CJ048   1RJ037   1.000000   2RJ037   -1.000000
    CJ049    RJ013    -1.000000   RJ014    1.000000
    CJ050    RJ011    -0.150000   RJ014    -0.850000
    CJ050    RJ031    -0.035000   RJ034    0.810000
    CJ050    RJ039    0.810000   RJ040    0.190000
    CJ050    RJ050    1.000000   RJ061    -1.480000
    CJ050    RJ062    0.480000   RJ063    0.720000
    CJ050    RJ064    -3.800000   RJ065    9.700000
    CJ050    RJ079    0.190000
    CJ051    RJ011    -0.150000   RJ014    -0.850000
    CJ051    RJ031    -0.035000   RJ034    0.810000
    CJ051    RJ039    0.810000   RJ043    0.190000
    CJ051    RJ050    1.000000   RJ066    -1.060000
    CJ051    RJ067    -0.480000   RJ068    0.740000
    CJ051    RJ069    -5.700000   RJ070    1.970000
    CJ051    RJ071    7.500000   RJ079    0.190000
    1CJ051   RJ011    -0.680000   RJ014    -1.000000
    1CJ051   RJ031    -0.035000   RJ034    1.550000
    1CJ051   RJ038    1.550000   RJ043    0.130000
    1CJ051   RJ050    1.000000   RJ066    -0.960000
    1CJ051   RJ067    0.460000   RJ068    1.710000
    1CJ051   RJ069    -3.900000   RJ070    1.210000
    1CJ051   RJ071    4.940000   RJ079    0.130000
    CJ052    RJ011    -0.150000   RJ014    -0.850000
    CJ052    RJ031    -0.035000   RJ034    0.810000
    CJ052    RJ039    0.810000   RJ045    0.190000
    CJ052    RJ050    1.000000   RJ072    -5.130000
    CJ052    RJ073    -6.120000   1RJ073   5.960000
    CJ052    RJ074    0.740000   1RJ074   -18.100000
    1CJ052   RJ011    -0.150000   RJ014    -0.850000
    1CJ052   RJ031    -0.035000   RJ034    0.810000
    1CJ052   RJ039    0.810000   RJ042    0.190000
    1CJ052   RJ050    1.000000   RJ102    -2.280000
    1CJ052   RJ103    -5.530000   RJ104    5.400000
    1CJ052   RJ105    0.740000   RJ106    -17.500000
    CJ053    RJ011    -0.150000   RJ014    -0.850000
    CJ053    RJ031    -0.035000   RJ034    0.810000
    CJ053    RJ039    0.810000   RJ046    0.190000
    CJ053    RJ050    1.000000   RJ075    -5.130000
    CJ053    RJ076    -5.530000   1RJ076   5.400000
    CJ053    RJ077    0.740000   RJ078    -17.500000
    1CJ053   RJ011    -0.680000   RJ014    -1.000000
    1CJ053   RJ031    -0.035000   RJ034    1.550000
    1CJ053   RJ038    1.550000   RJ046    0.130000
    1CJ053   RJ050    1.000000   RJ075    -2.340000
    1CJ053   RJ076    -3.510000   1RJ076   3.420000
    1CJ053   RJ077    0.080000   RJ078    -12.000000
    2CJ053   RJ011    -0.680000   RJ014    -1.000000
    2CJ053   RJ031    -0.035000   RJ034    1.550000
    2CJ053   RJ038    1.550000   RJ042    0.130000
    2CJ053   RJ050    1.000000   RJ102    -0.390000
    2CJ053   RJ103    -3.510000   RJ104    3.420000
    2CJ053   RJ105    0.080000   RJ106    -12.000000
    CJ054    RJ014    -1.000000   RJ040    1.000000
    CJ054    RJ061    3.800000   RJ062    -6.500000
    CJ054    RJ063    0.710000   RJ064    -13.000000
    CJ054    RJ065    -13.000000   RJ079    1.000000
    CJ055    RJ014    -1.000000   RJ043    1.000000
    CJ055    RJ066    6.000000   RJ067    -11.500000
    CJ055    RJ068    0.710000   RJ069    -23.000000
    CJ055    RJ070    8.240000   RJ071    -26.000000
    CJ055    RJ079    1.000000
    CJ056    RJ014    -1.000000   RJ045    1.000000
    CJ056    RJ072    -36.000000   RJ073    -30.090000
    CJ056    1RJ073   29.280000   RJ074    0.710000
    CJ056    1RJ074   -76.500000
    1CJ056   RJ014    -1.000000   RJ031    1.087000
    CJ057    RJ014    -1.000000   RJ046    1.000000
    CJ057    RJ075    -36.000000   RJ076    -26.970000
    CJ057    1RJ076   26.330000   RJ077    0.710000
    CJ057    RJ078    -73.500000
    1CJ057   RJ014    -1.000000   RJ042    1.000000
    1CJ057   RJ102    -21.000000   RJ103    -26.970000
    1CJ057   RJ104    26.330000   RJ105    0.710000
    1CJ057   RJ106    -73.500000
    CJ058    RJ015    -1.000000   RJ040    1.000000
    CJ058    RJ061    -2.600000   RJ062    3.000000
    CJ058    RJ063    -3.010000   RJ064    4.000000
    CJ058    RJ065    -8.000000   RJ079    1.000000
    1CJ058   RJ015    -1.000000   RJ031    -0.055000
    1CJ058   RJ040    1.000000   RJ061    -2.600000
    1CJ058   RJ062    -0.500000   RJ063    -3.010000
    1CJ058   RJ064    4.000000   RJ065    -8.000000
    1CJ058   RJ079    1.000000   RJ100    1.000000
    CJ059    RJ015    -1.000000   RJ043    1.000000
    CJ059    RJ066    -0.400000   RJ067    -2.000000
    CJ059    RJ068    -3.330000   RJ069    -6.000000
    CJ059    RJ070    0.380000   RJ071    -21.000000
    CJ059    RJ079    1.000000
    CJ060    RJ015    -1.000000   RJ045    1.000000
    CJ060    RJ072    -27.000000   RJ073    -22.230000
    CJ060    1RJ073   21.420000   RJ074    -3.330000
    CJ060    1RJ074   -53.000000
    1CJ060   RJ015    -1.000000   RJ031    1.060000
    CJ061    RJ015    -1.000000   RJ046    1.000000
    CJ061    RJ075    -27.000000   RJ076    -19.110000
    CJ061    1RJ076   18.470000   RJ077    -3.330000
    CJ061    RJ078    -50.000000
    1CJ061   RJ015    -1.000000   RJ042    1.000000
    1CJ061   RJ102    -12.000000   RJ103    -19.110000
    1CJ061   RJ104    18.470000   RJ105    -3.330000
    1CJ061   RJ106    -50.000000
    CJ062    RJ018    -1.000000   RJ040    1.000000
    CJ062    RJ061    -3.800000   RJ062    0.100000
    CJ062    RJ063    -3.010000   RJ064    7.000000
    CJ062    RJ065    -6.500000   RJ079    1.000000
    CJ063    RJ018    -1.000000   RJ043    1.000000
    CJ063    RJ066    -1.600000   RJ067    -4.900000
    CJ063    RJ068    -3.330000   RJ069    -3.000000
    CJ063    RJ070    -1.220000   RJ071    -18.500000
    CJ063    RJ079    1.000000
    CJ064    RJ018    -1.000000   RJ045    1.000000
    CJ064    RJ072    -29.400000   RJ073    -20.630000
    CJ064    1RJ073   19.820000   RJ074    -3.330000
    CJ064    1RJ074   -50.000000
    CJ065    RJ018    -1.000000   RJ046    1.000000
    CJ065    RJ075    -29.400000   RJ076    -17.510000
    CJ065    1RJ076   16.870000   RJ077    -3.330000
    CJ065    RJ078    -47.000000
    1CJ065   RJ018    -1.000000   RJ042    1.000000
    1CJ065   RJ102    -14.400000   RJ103    -17.510000
    1CJ065   RJ104    16.870000   RJ105    -3.330000
    1CJ065   RJ106    -47.000000
    CJ066    RJ020    -1.000000   RJ040    1.000000
    CJ066    RJ061    -2.700000   RJ062    0.300000
    CJ066    RJ063    -3.010000   RJ064    4.000000
    CJ066    RJ065    -4.000000   RJ079    1.000000
    CJ067    RJ020    -1.000000   RJ043    1.000000
    CJ067    RJ066    -0.500000   RJ067    -4.700000
    CJ067    RJ068    -3.170000   RJ069    -6.000000
    CJ067    RJ070    -0.920000   RJ071    -20.000000
    CJ067    RJ079    1.000000
    CJ068    RJ020    -1.000000   RJ045    1.000000
    CJ068    RJ072    -29.200000   RJ073    -20.930000
    CJ068    1RJ073   20.120000   RJ074    -3.170000
    CJ068    1RJ074   -53.000000
    CJ069    RJ020    -1.000000   RJ046    1.000000
    CJ069    RJ075    -29.200000   RJ076    -17.810000
    CJ069    1RJ076   17.170000   RJ077    -3.170000
    CJ069    RJ078    -50.000000
    CJ070    RJ020    -1.000000   RJ042    1.000000
    CJ070    RJ102    -14.200000   RJ103    -17.810000
    CJ070    RJ104    17.170000   RJ105    -3.170000
    CJ070    RJ106    -50.000000
    CJ074    RJ016    -1.000000   RJ040    1.000000
    CJ074    RJ061    -7.600000   RJ062    11.000000
    CJ074    RJ063    -1.650000   RJ064    26.000000
    CJ074    RJ065    -4.000000   RJ079    1.000000
    CJ075    RJ016    -1.000000   RJ043    1.000000
    CJ075    RJ066    -5.400000   RJ067    6.000000
    CJ075    RJ068    -1.650000   RJ069    16.000000
    CJ075    RJ070    -7.620000   RJ071    -14.000000
    CJ075    RJ079    1.000000
    CJ076    RJ016    -1.000000   RJ045    1.000000
    CJ076    RJ072    -18.500000   RJ073    -14.230000
    CJ076    1RJ073   13.420000   RJ074    -1.650000
    CJ076    1RJ074   -30.000000
    1CJ076   RJ016    -1.000000   RJ031    1.044000
    CJ077    RJ016    -1.000000   RJ046    1.000000
    CJ077    RJ075    -18.500000   RJ076    -11.110000
    CJ077    1RJ076   10.470000   RJ077    -1.650000
    CJ077    RJ078    -27.000000
    1CJ077   RJ016    -1.000000   RJ042    1.000000
    1CJ077   RJ102    -3.500000   RJ103    -11.110000
    1CJ077   RJ104    10.470000   RJ105    -1.650000
    1CJ077   RJ106    -27.000000
    CJ078    RJ019    -1.000000   RJ040    1.000000
    CJ078    RJ061    -8.700000   RJ062    5.500000
    CJ078    RJ063    -1.650000   RJ064    38.000000
    CJ078    RJ065    -2.000000   RJ079    1.000000
    CJ079    RJ019    -1.000000   RJ043    1.000000
    CJ079    RJ066    -6.500000   RJ067    0.500000
    CJ079    RJ068    -1.650000   RJ069    28.000000
    CJ079    RJ070    -9.120000   RJ071    -11.500000
    CJ079    RJ079    1.000000
    CJ080    RJ019    -1.000000   RJ045    1.000000
    CJ080    RJ072    -24.000000   RJ073    -12.730000
    CJ080    1RJ073   11.920000   RJ074    -1.650000
    CJ080    1RJ074   -18.000000
    CJ081    RJ019    -1.000000   RJ046    1.000000
    CJ081    RJ075    -24.000000   RJ076    -9.610000
    CJ081    1RJ076   8.970000   RJ077    -1.650000
    CJ081    RJ078    -15.000000
    CJ082    RJ019    -1.000000   RJ042    1.000000
    CJ082    RJ102    -9.000000   RJ103    -9.610000
    CJ082    RJ104    8.970000   RJ105    -1.650000
    CJ082    RJ106    -15.000000
    CJ086    RJ021    -1.000000   RJ040    1.000000
    CJ086    RJ061    -6.300000   RJ062    8.000000
    CJ086    RJ063    -1.650000   RJ064    38.000000
    CJ086    RJ065    3.000000   RJ079    1.000000
    CJ087    RJ021    -1.000000   RJ043    1.000000
    CJ087    RJ066    -5.100000   RJ067    3.000000
    CJ087    RJ068    -1.650000   RJ069    28.000000
    CJ087    RJ070    -6.520000   RJ071    -12.500000
    CJ087    RJ079    1.000000
    CJ088    RJ021    -1.000000   RJ045    1.000000
    CJ088    RJ072    -21.500000   RJ073    -15.330000
    CJ088    1RJ073   14.520000   RJ074    -1.650000
    CJ088    1RJ074   -18.000000
    CJ089    RJ021    -1.000000   RJ046    1.000000
    CJ089    RJ075    -21.500000   RJ076    -12.210000
    CJ089    1RJ076   11.570000   RJ077    -1.650000
    CJ089    RJ078    -15.000000
    CJ090    RJ021    -1.000000   RJ042    1.000000
    CJ090    RJ102    -6.500000   RJ103    -12.210000
    CJ090    RJ104    11.570000   RJ105    -1.650000
    CJ090    RJ106    -15.000000
    CJ099    RJ025    -1.000000   RJ045    1.000000
    CJ099    RJ072    1.500000   RJ073    0.210000
    CJ099    1RJ073   -1.020000   RJ074    -2.140000
    CJ099    1RJ074   -10.000000
    CJ100    RJ025    -1.000000   RJ046    1.000000
    CJ100    RJ075    1.500000   RJ076    3.330000
    CJ100    1RJ076   -3.970000   RJ077    -2.140000
    CJ100    RJ078    -7.000000
    1CJ100   RJ025    -1.000000   RJ042    1.000000
    1CJ100   RJ102    16.500000   RJ103    3.330000
    1CJ100   RJ104    -3.970000   RJ105    -2.140000
    1CJ100   RJ106    -7.000000
    CJ102    RJ026    -1.000000   RJ045    1.000000
    CJ102    RJ072    -15.000000   RJ073    -1.800000
    CJ102    1RJ073   0.990000   RJ074    -2.140000
    CJ102    1RJ074   -2.000000
    CJ103    RJ026    -1.000000   RJ046    1.000000
    CJ103    RJ075    -15.000000   RJ076    1.320000
    CJ103    1RJ076   -1.960000   RJ077    -2.140000
    CJ103    RJ078    1.000000
    1CJ103   RJ026    -1.000000   RJ042    1.000000
    1CJ103   RJ103    1.320000   RJ104    -1.960000
    1CJ103   RJ105    -2.140000   RJ106    1.000000
    CJ105    RJ027    -1.000000   RJ045    1.000000
    CJ105    RJ072    -3.500000   RJ073    -1.650000
    CJ105    1RJ073   0.840000   RJ074    -2.140000
    CJ105    1RJ074   -10.000000
    CJ106    RJ027    -1.000000   RJ046    1.000000
    CJ106    RJ075    -3.500000   RJ076    1.470000
    CJ106    1RJ076   -2.110000   RJ077    -2.140000
    CJ106    RJ078    -7.000000
    CJ107    RJ027    -1.000000   RJ042    1.000000
    CJ107    RJ102    11.500000   RJ103    1.470000
    CJ107    RJ104    -2.110000   RJ105    -2.140000
    CJ107    RJ106    -7.000000
    CJ108    RJ028    -1.000000   RJ045    1.000000
    CJ108    RJ072    -14.000000   RJ073    -4.130000
    CJ108    1RJ073   3.320000   RJ074    -2.140000
    CJ108    1RJ074   10.000000
    CJ109    RJ028    -1.000000   RJ046    1.000000
    CJ109    RJ075    -14.000000   RJ076    -1.010000
    CJ109    1RJ076   0.370000   RJ077    -2.140000
    CJ109    RJ078    13.000000
    1CJ109   RJ028    -1.000000   RJ042    1.000000
    1CJ109   RJ102    1.000000   RJ103    -1.010000
    1CJ109   RJ104    0.370000   RJ105    -2.140000
    1CJ109   RJ106    13.000000
    CJ111    RJ029    -1.000000   RJ045    1.000000
    CJ111    RJ072    -11.000000   RJ073    0.800000
    CJ111    1RJ073   -1.610000   RJ074    -2.140000
    CJ111    1RJ074   -2.000000
    CJ112    RJ029    -1.000000   RJ046    1.000000
    CJ112    RJ075    -11.000000   RJ076    3.920000
    CJ112    1RJ076   -4.560000   RJ077    -2.140000
    CJ112    RJ078    1.000000
    CJ113    RJ029    -1.000000   RJ042    1.000000
    CJ113    RJ102    4.000000   RJ103    3.920000
    CJ113    RJ104    -4.560000   RJ105    -2.140000
    CJ113    RJ106    1.000000
    CJ114    RJ030    -1.000000   RJ045    1.000000
    CJ114    RJ072    -11.000000   RJ073    -3.720000
    CJ114    1RJ073   2.910000   RJ074    -2.140000
    CJ114    1RJ074   -2.000000
    CJ115    RJ030    -1.000000   RJ046    1.000000
    CJ115    RJ075    -11.000000   RJ076    -0.600000
    CJ115    1RJ076   -0.040000   RJ077    -2.140000
    CJ115    RJ078    1.000000
    1CJ115   RJ030    -1.000000   RJ042    1.000000
    1CJ115   RJ102    4.000000   RJ103    -0.600000
    1CJ115   RJ104    -0.040000   RJ105    -2.140000
    1CJ115   RJ106    1.000000
    CJ116    RJ024    -1.000000   RJ045    1.000000
    CJ116    RJ072    -22.000000   RJ073    -5.870000
    CJ116    1RJ073   5.060000   RJ074    -2.140000
    CJ116    1RJ074   17.000000
    CJ117    RJ024    -1.000000   RJ046    1.000000
    CJ117    RJ075    -22.000000   RJ076    -2.750000
    CJ117    1RJ076   2.110000   RJ077    -2.140000
    CJ117    RJ078    20.000000
    CJ118    RJ024    -1.000000   RJ042    1.000000
    CJ118    RJ102    -7.000000   RJ103    -2.750000
    CJ118    RJ104    2.110000   RJ105    -2.140000
    CJ118    RJ106    20.000000
    1CJ120   RJ014    -0.050000   RJ015    -0.330000
    1CJ120   RJ025    -0.620000   RJ047    1.000000
    CJ121    1RJ007   -1.000000   RJ051    1.000000
    CJ122    RJ031    1.000000   RJ045    -1.000000
    1CJ122   RJ031    1.000000   RJ046    -1.000000
    CJ123    R0000    0.910300   RC0ST    1.258000
    CJ123    RJ033    -1.000000   RJ055    2.667000
    CJ123    RJ081    1.000000
    CJ124    RJ032    -0.650000   RJ033    -0.350000
    CJ124    RJ053    2.600000   RJ054    -6.070000
    CJ124    RJ056    1.400000   RJ057    -3.270000
    CJ124    RJ082    1.000000
    1CJ125   R0000    0.165000   RJ032    -1.000000
    1CJ125   RJ052    5.730000   RJ053    4.000000
    1CJ125   RJ054    -9.330000   RJ083    1.000000
    CJ126    R0000    1.089100   RC0ST    1.258000
    CJ126    RJ038    -1.000000   RJ084    1.000000
    1CJ126   R0000    1.079000   RC0ST    1.258000
    1CJ126   RJ040    -1.000000   1RJ084   1.000000
    CJ131    RJ046    -1.000000   RJ075    6.000000
    CJ131    RJ076    1.230000   1RJ076   -1.770000
    CJ131    RJ078    -3.000000   RJ089    1.000000
    CJ133    R0000    0.001000   RJ048    1.000000
    CJ133    RJ080    -1.000000
    CJ134    RJ045    -1.000000   RJ073    0.740000
    CJ134    1RJ073   -0.780000   RJ091    1.000000
    CJ135    RJ045    -1.000000   RJ072    5.000000
    CJ135    RJ073    1.960000   1RJ073   -1.840000
    CJ135    1RJ074   11.000000   RJ092    1.000000
    CJ150    R0000    0.651000   RJ052    -8.035000
    CJ150    RJ095    1.000000
    CJ151    R0000    0.651000   RJ055    -15.625000
    CJ151    RJ096    1.000000
    CJG55    RJ040    -1.000000   1RJ041   1.000000
    CJG55    RJ062    2.500000
    CJF35    RJ046    -1.000000   2RJ046   1.000000
    CJF35    RJ075    5.000000
    CJF80    RJ045    -1.000000   2RJ045   1.000000
    CJF80    RJ072    5.000000   1RJ073   0.260000
    CJF80    1RJ074   3.000000
    CM001    R0000    0.867500   1RM001   1.000000
    CM001    RM002    0.155000   2RM003   0.240000
    CM001    1RM006   0.555000   RGACH    0.500000
    CM001    RKUWT    0.500000
    1CM004   2RM003   -0.145000   RM005    1.000000
    1CM004   1RM006   -0.855000
    CM005    R0000    0.868700   1RM001   1.000000
    CM005    RM002    0.150000   2RM003   0.255000
    CM005    1RM006   0.545000   RKUWT    1.000000
    CM006    1RM003   1.000000   2RM003   -1.171000
    CM006    RM004    0.171000
    CM007    R0000    0.867700   1RM001   1.000000
    CM007    RM002    0.155000   2RM003   0.240000
    CM007    RM006    0.416000   2RM006   0.139000
    CM007    RGACH    0.500000   RKUWT    0.500000
    CY001    R0000    0.275000   RY001    -0.149000
    CY001    RY002    -0.273000   RY004    -0.550000
    CY001    RY005    1.000000   RKUWT    1.000000
    1CY001   R0000    0.275000   RY001    -0.173000
    1CY001   RY002    -0.245000   RY004    -0.550000
    1CY001   RY005    1.000000   RKUWT    1.000000
    CY002    R0000    -2.400000   RY001    1.000000
    CY003    R0000    -2.400000   1RY001   1.000000
    CZ001    RZ001    -1.000000   RZ002    1.400000
    CZ001    RZ004    -0.300000   RZ005    0.200000
    CZ001    RZ006    -0.250000   RZ019    -0.050000
    CZ013    RZ002    0.160000   RZ004    -0.100000
    CZ013    RZ005    0.900000   RZ006    -1.000000
    CZ013    RZ016    0.030000   RZ019    0.010000
    CZ014    RZ016    0.200000   RZ019    0.800000
    CZ014    RZ020    -1.000000
    ZH145    R0000    1.798000   RC0ST    2.566700
    ZH145    RMSEX    -1.000000   RH031    1.000000
    ZH145    RH106    1.000000   RZ001    1.000000
    HM145    R0000    1.082100   RC0ST    2.133000
    HM145    RMSEX    1.000000   RH031    -1.000000
    HM145    RM011    1.000000
    ZM145    R0000    2.305100   RC0ST    3.642000
    ZM145    RM011    1.000000   RZ001    1.000000
    ZH130    R0000    1.665000   RC0ST    2.566700
    ZH130    RMSEX    -1.000000   RH032    1.000000
    ZH130    RH106    1.000000   RZ002    1.000000
    HM130    R0000    1.082100   RC0ST    2.133000
    HM130    RMSEX    1.000000   RH032    -1.000000
    HM130    RM012    1.000000
    ZM130    R0000    2.207800   RC0ST    3.483000
    ZM130    RM012    1.000000   RZ002    1.000000
    HBBMS    R0000    0.319700   RC0ST    0.629000
    HBBMS    RB033    1.000000   1RH034   -1.000000
    BDBMS    R0000    0.269100   RC0ST    0.440000
    BDBMS    RB033    -1.000000   RDBMS    1.000000
    HDBMS    R0000    0.169800   RC0ST    0.335000
    HDBMS    RDBMS    1.000000   1RH034   -1.000000
    H1BMS    R0000    0.310200   RC0ST    0.492000
    H1BMS    1RH034   -1.000000   R1045    1.000000
    HBPMS    R0000    0.319600   RC0ST    0.629200
    HBPMS    RB035    1.000000   1RH035   -1.000000
    JBPMS    R0000    1.301000   RC0ST    2.038000
    JBPMS    RMSEX    -1.000000   RB035    1.000000
    JBPMS    RJ083    -1.000000
    BHPMS    R0000    0.287500   RC0ST    0.500000
    BHPMS    RB035    -1.000000   1RH035   1.000000
    BHPMS    RH106    1.000000
    1HPMS    R0000    0.256000   RC0ST    0.377000
    1HPMS    1RH035   1.000000   RH106    1.000000
    1HPMS    R1047    -1.000000
    JHPMS    R0000    1.207100   RC0ST    1.883000
    JHPMS    RMSEX    -1.000000   1RH035   1.000000
    JHPMS    RH106    1.000000   RJ083    -1.000000
    H1PMS    R0000    0.310200   RC0ST    0.492000
    H1PMS    1RH035   -1.000000   R1047    1.000000
    J1PMS    R0000    1.416100   RC0ST    2.112000
    J1PMS    RMSEX    -1.000000   R1047    1.000000
    J1PMS    RJ083    -1.000000
    HBRMS    R0000    0.319600   RC0ST    0.629200
    HBRMS    RB037    1.000000   1RH036   -1.000000
    JBRMS    R0000    1.301000   RC0ST    2.038000
    JBRMS    RMSEX    -1.000000   RB037    1.000000
    JBRMS    RJ082    -1.000000
    BHRMS    R0000    0.287500   RC0ST    0.500000
    BHRMS    RB037    -1.000000   1RH036   1.000000
    BHRMS    RH106    1.000000
    1HRMS    R0000    0.256000   RC0ST    0.377000
    1HRMS    1RH036   1.000000   RH106    1.000000
    1HRMS    R1051    -1.000000
    JHRMS    R0000    1.207100   RC0ST    1.883000
    JHRMS    RMSEX    -1.000000   1RH036   1.000000
    JHRMS    RH106    1.000000   RJ082    -1.000000
    H1RMS    R0000    0.310200   RC0ST    0.492000
    H1RMS    1RH036   -1.000000   R1051    1.000000
    J1RMS    R0000    1.416100   RC0ST    2.112000
    J1RMS    RMSEX    -1.000000   R1051    1.000000
    J1RMS    RJ082    -1.000000
    HNM00    R0000    0.290900   30M00    1.000000
    HNM00    RC0ST    0.575000   RMSEX    1.000000
    HNM00    RH034    -1.000000   RH063    -2.281000
    HNM00    1RH066   0.150000   2RH106   1.000000
    ZBM83    R0000    1.844100   RC0ST    2.708000
    ZBM83    RMSEX    -1.000000   RB036    1.000000
    ZBM83    RB068    4.107000   RZ006    1.000000
    ZHM83    R0000    1.659000   RC0ST    2.554000
    ZHM83    RMSEX    -1.000000   RH036    1.000000
    ZHM83    RH072    4.138000   RH106    1.000000
    ZHM83    RZ006    1.000000
    ZJM83    R0000    0.688500   RC0ST    0.954200
    ZJM83    RJ033    1.000000   RJ055    5.580000
    ZJM83    RJ056    -8.300000   RJ057    9.700000
    ZJM83    RJ096    -0.594000   RZ006    1.000000
    EAM87    R0000    1.187600   KW1RC    1.000000
    EAM87    1RA099   1.000000   RE040    -1.000000
    AEM87    R0000    1.335400   KW1RC    -1.000000
    AEM87    1RA099   -1.000000   RE040    1.000000
    HNM90    R0000    0.409900   30M91    1.000000
    HNM90    RC0ST    0.575000   RMSEX    1.000000
    HNM90    RH036    -1.000000   RH072    5.517000
    HNM90    RH075    0.154000   2RH106   1.000000
    1NM90    R0000    0.583200   30M91    1.000000
    1NM90    RC0ST    0.729000   RMSEX    1.000000
    1NM90    R1050    -1.000000   R1079    5.500000
    1NM90    R1080    0.154000
    JNM90    R0000    1.603200   30M91    1.000000
    JNM90    RC0ST    2.429000   RH106    1.000000
    JNM90    RJ032    -0.580000   RJ033    -0.420000
    JNM90    RJ053    2.320000   RJ054    -5.410000
    JNM90    RJ056    1.680000   RJ057    -3.920000
    1HNM94   R0000    1.085900   30M94    1.000000
    1HNM94   RC0ST    0.575000   RMSEX    1.000000
    1HNM94   RH008    -0.020000   RH013    -0.040000
    1HNM94   RH016    -0.130000   RH095    -0.810000
    1HNM94   2RH106   1.000000
    2HNM94   R0000    1.085900   30M94    1.000000
    2HNM94   RC0ST    0.575000   RMSEX    1.000000
    2HNM94   RH010    -0.130000   RH013    -0.290000
    2HNM94   RH095    -0.580000   2RH106   1.000000
    JNM94    R0000    1.603200   30M94    1.000000
    JNM94    RC0ST    2.429000   RH106    1.000000
    JNM94    RJ032    -0.920000   RJ033    -0.080000
    JNM94    RJ053    3.680000   RJ054    -8.590000
    JNM94    RJ056    0.320000   RJ057    -0.750000
    ZHM95    R0000    1.659000   RC0ST    2.554000
    ZHM95    RMSEX    -1.000000   RH036    1.000000
    ZHM95    RH072    -12.195000   RH106    1.000000
    ZHM95    RZ005    1.000000
    ZJM95    R0000    0.786600   RC0ST    0.954000
    ZJM95    RJ032    1.000000   RJ052    5.480000
    ZJM95    RJ053    -4.070000   RJ054    9.500000
    ZJM95    RJ095    -0.430000   RZ005    1.000000
    EAM97    R0000    1.187600   KW1RC    1.000000
    EAM97    RA097    1.000000   RE035    -1.000000
    EAM97    RE068    -1.310000
    AEM97    R0000    1.335400   KW1RC    -1.000000
    AEM97    RA039    -1.000000   RE036    1.000000
    ABLDF    R0000    4.200700   RC0ST    2.133000
    ABLDF    RLDEX    -1.000000   RA023    -1.000000
    ABLDF    RA100    1.000000   1RB038   1.000000
    EBLDF    R0000    4.307400   RC0ST    2.367000
    EBLDF    RLDEX    -1.000000   1RB038   1.000000
    EBLDF    RE039    -1.000000   RE104    1.000000
    HBLDF    R0000    0.319700   RC0ST    0.629000
    HBLDF    1RB038   1.000000   RH039    -1.000000
    1BLDF    R0000    0.412400   RC0ST    0.662000
    1BLDF    1RB038   1.000000   R1055    -1.000000
    JBLDF    R0000    1.301000   RC0ST    2.038000
    JBLDF    RLDEX    -1.000000   1RB038   1.000000
    JBLDF    RJ035    -1.000000
    MBLDF    R0000    0.630200   RC0ST    1.271000
    MBLDF    RLDEX    -1.000000   1RB038   1.000000
    MBLDF    RM002    -1.000000
    YBLDF    R0000    1.574300   RC0ST    2.612000
    YBLDF    RLDEX    -1.000000   1RB038   1.000000
    YBLDF    RY001    1.000000
    1YBLDF   R0000    1.574300   RC0ST    2.612000
    1YBLDF   RLDEX    -1.000000   1RB038   1.000000
    1YBLDF   1RY001   1.000000
    BHLDF    R0000    0.287500   RC0ST    0.500000
    BHLDF    1RB038   -1.000000   RH039    1.000000
    BHLDF    RH106    1.000000
    EHLDF    R0000    4.217400   RC0ST    2.221000
    EHLDF    RLDEX    -1.000000   RE039    -1.000000
    EHLDF    RE104    1.000000   RH039    1.000000
    EHLDF    RH106    1.000000
    1HLDF    R0000    0.256000   RC0ST    0.377000
    1HLDF    RH039    1.000000   RH106    1.000000
    1HLDF    R1055    -1.000000
    JHLDF    R0000    1.207100   RC0ST    1.883000
    JHLDF    RLDEX    -1.000000   RH039    1.000000
    JHLDF    RH106    1.000000   RJ035    -1.000000
    YHLDF    R0000    1.480300   RC0ST    2.458000
    YHLDF    RLDEX    -1.000000   RH039    1.000000
    YHLDF    RH106    1.000000   RY001    1.000000
    1YHLDF   R0000    1.480300   RC0ST    2.458000
    1YHLDF   RLDEX    -1.000000   RH039    1.000000
    1YHLDF   RH106    1.000000   1RY001   1.000000
    A1LDF    R0000    4.390600   RC0ST    2.367000
    A1LDF    RLDEX    -1.000000   RA023    -1.000000
    A1LDF    RA100    1.000000   R1055    1.000000
    B1LDF    R0000    0.467100   RC0ST    0.717000
    B1LDF    1RB038   -1.000000   R1055    1.000000
    E1LDF    R0000    4.430200   RC0ST    2.458000
    E1LDF    RLDEX    -1.000000   RE039    -1.000000
    E1LDF    RE104    1.000000   R1055    1.000000
    H1LDF    R0000    0.310200   RC0ST    0.492000
    H1LDF    RH039    -1.000000   R1055    1.000000
    J1LDF    R0000    1.416100   RC0ST    2.112000
    J1LDF    RLDEX    -1.000000   R1055    1.000000
    J1LDF    RJ035    -1.000000
    M1LDF    R0000    0.745000   RC0ST    1.346000
    M1LDF    RLDEX    -1.000000   R1055    1.000000
    M1LDF    RM002    -1.000000
    Y1LDF    R0000    1.689000   RC0ST    2.688000
    Y1LDF    RLDEX    -1.000000   R1055    1.000000
    Y1LDF    RY001    1.000000
    1Y1LDF   R0000    1.689000   RC0ST    2.688000
    1Y1LDF   RLDEX    -1.000000   R1055    1.000000
    1Y1LDF   1RY001   1.000000
    ACLD4    R0000    4.715600   RC0ST    2.420800
    ACLD4    RLDEX    -1.000000   RA023    -1.000000
    ACLD4    RA100    1.000000   RCLD4    1.000000
    BCLD4    R0000    0.497800   RC0ST    0.512000
    BCLD4    2RB007   -1.000000   RCLD4    1.000000
    ECLD4    R0000    4.818500   RC0ST    2.641700
    ECLD4    RLDEX    -1.000000   RCLD4    1.000000
    ECLD4    RE039    -1.000000   RE104    1.000000
    HCLD4    R0000    0.577300   RC0ST    0.742000
    HCLD4    RCLD4    1.000000   2RH039   -1.000000
    1CLD4    R0000    0.343600   RC0ST    0.658400
    1CLD4    RCLD4    1.000000   R1054    -1.000000
    JCLD4    R0000    1.698700   RC0ST    2.217000
    JCLD4    RLDEX    -1.000000   RCLD4    1.000000
    JCLD4    1RJ008   -1.000000   1RJ050   1.000000
    ADLD4    R0000    4.398500   RC0ST    2.104200
    ADLD4    RLDEX    -1.000000   RA023    -1.000000
    ADLD4    RA100    1.000000   RDLD4    1.000000
    BDLD4    R0000    0.269200   RC0ST    0.439600
    BDLD4    2RB007   -1.000000   RDLD4    1.000000
    EDLD4    R0000    4.511300   RC0ST    2.345800
    EDLD4    RLDEX    -1.000000   RDLD4    1.000000
    EDLD4    RE039    -1.000000   RE104    1.000000
    HDLD4    R0000    0.169700   RC0ST    0.335400
    HDLD4    RDLD4    1.000000   2RH039   -1.000000
    1DLD4    R0000    0.273700   RC0ST    0.335800
    1DLD4    RDLD4    1.000000   R1054    -1.000000
    JDLD4    R0000    1.216900   RC0ST    1.825000
    JDLD4    RLDEX    -1.000000   RDLD4    1.000000
    JDLD4    1RJ008   -1.000000   1RJ050   1.000000
    BJW37    R0000    0.325100   RC0ST    0.579000
    BJW37    RB007    -0.450000   RB008    -0.550000
    BJW37    RJ036    1.000000   UKLDF    -1.000000
    1BJW37   R0000    0.325100   RC0ST    0.579000
    1BJW37   RB007    -0.450000   1RB008   -0.550000
    1BJW37   RJ036    1.000000   UKLDF    -1.000000
    YJW37    R0000    1.537600   RC0ST    2.579000
    YJW37    RLDEX    -1.000000   RJ036    1.000000
    YJW37    RY001    1.000000
    BNATG    R0000    0.565600   RC0ST    0.808000
    BNATG    RLDEX    1.000000   RB039    -1.000000
    BNATG    RN009    1.000000
    BXATG    R0000    0.462200   RC0ST    0.725000
    BXATG    RLDEX    1.000000   RB039    -1.000000
    BXATG    RXATG    1.000000
    HBK19    R0000    0.319700   RC0ST    0.629000
    HBK19    RB041    1.000000   RH041    -1.000000
    JBK19    R0000    1.301000   RC0ST    2.038000
    JBK19    RPKEX    -1.000000   RB041    1.000000
    JBK19    RJ039    -1.000000
    BDK19    R0000    0.269100   RC0ST    0.440000
    BDK19    RB041    -1.000000   RDK19    1.000000
    HDK19    R0000    0.169800   RC0ST    0.335000
    HDK19    RDK19    1.000000   RH041    -1.000000
    1DK19    R0000    0.273700   RC0ST    0.336000
    1DK19    RDK19    1.000000   R1058    -1.000000
    JDK19    R0000    1.216900   RC0ST    1.825000
    JDK19    RPKEX    -1.000000   RDK19    1.000000
    JDK19    RJ039    -1.000000
    BHK19    R0000    0.287500   RC0ST    0.500000
    BHK19    RB041    -1.000000   RH041    1.000000
    BHK19    RH106    1.000000
    1HK19    R0000    0.256000   RC0ST    0.377000
    1HK19    RH041    1.000000   RH106    1.000000
    1HK19    R1058    -1.000000
    JHK19    R0000    1.207100   RC0ST    1.883000
    JHK19    RPKEX    -1.000000   RH041    1.000000
    JHK19    RH106    1.000000   RJ039    -1.000000
    H1K19    R0000    0.310200   RC0ST    0.492000
    H1K19    RH041    -1.000000   R1058    1.000000
    J1K19    R0000    1.416100   RC0ST    2.112000
    J1K19    RPKEX    -1.000000   R1058    1.000000
    J1K19    RJ039    -1.000000
    BNK19    R0000    0.523300   30PGK    1.000000
    BNK19    RC0ST    0.808000   RPKEX    1.000000
    BNK19    RB041    -1.000000
    HNK19    R0000    0.362400   30PGK    1.000000
    HNK19    RC0ST    0.575000   RPKEX    1.000000
    HNK19    RH041    -1.000000
    1NK19    R0000    0.535700   30PGK    1.000000
    1NK19    RC0ST    0.729000   RPKEX    1.000000
    1NK19    R1058    -1.000000
    JNK19    R0000    1.555700   30PGK    1.000000
    JNK19    RC0ST    2.429000   RH106    1.000000
    JNK19    RJ039    -1.000000
    JAATK    R0000    -4.530500   RC0ST    1.688000
    JAATK    RA041    1.000000   RA100    -1.000000
    JAATK    RJ038    -1.000000
    ABATK    R0000    6.178700   RC0ST    2.133000
    ABATK    RRKEX    -1.000000   RA041    -1.000000
    ABATK    RA100    1.000000   RB042    1.000000
    JBATK    R0000    1.301000   RC0ST    2.038000
    JBATK    RRKEX    -1.000000   RB042    1.000000
    JBATK    RJ038    -1.000000
    ZBATK    R0000    1.753100   RC0ST    2.708000
    ZBATK    RRKEX    -1.000000   RB042    1.000000
    ZBATK    RZ012    1.000000
    AHATK    R0000    6.187500   RC0ST    2.195800
    AHATK    RRKEX    -1.000000   RA041    -1.000000
    AHATK    RA100    1.000000   2RH042   1.000000
    AHATK    RH106    1.000000
    BHATK    R0000    0.287500   RC0ST    0.500000
    BHATK    RB042    -1.000000   RB098    1.000000
    BHATK    2RH042   1.000000   RH106    1.000000
    1HATK    R0000    0.256000   RC0ST    0.377000
    1HATK    2RH042   1.000000   R1057    -1.000000
    JHATK    R0000    1.207100   RC0ST    1.883000
    JHATK    RRKEX    -1.000000   2RH042   1.000000
    JHATK    RH106    1.000000   RJ038    -1.000000
    ZHATK    R0000    1.659000   RC0ST    2.554000
    ZHATK    RRKEX    -1.000000   2RH042   1.000000
    ZHATK    RH106    1.000000   RZ012    1.000000
    A1ATK    R0000    6.368600   RC0ST    2.367000
    A1ATK    RRKEX    -1.000000   RA041    -1.000000
    A1ATK    RA100    1.000000   R1057    1.000000
    B1ATK    R0000    0.467100   RC0ST    0.717000
    B1ATK    RB042    -1.000000   RB098    1.000000
    B1ATK    R1057    1.000000
    J1ATK    R0000    1.416100   RC0ST    2.112000
    J1ATK    RRKEX    -1.000000   R1057    1.000000
    J1ATK    RJ038    -1.000000
    BJATK    R0000    0.301000   RC0ST    0.292000
    BJATK    RRKEX    1.000000   RB042    -1.000000
    BJATK    RB098    1.000000   RJ084    1.000000
    ZJATK    R0000    1.560400   RC0ST    1.933300
    ZJATK    RJ084    1.000000   RZ012    1.000000
    BNATK    R0000    0.565600   30ATK    1.000000
    BNATK    RC0ST    0.808000   RRKEX    1.000000
    BNATK    RB042    -1.000000   RB098    1.000000
    HNATK    R0000    0.362400   30ATK    1.000000
    HNATK    RC0ST    0.575000   RRKEX    1.000000
    HNATK    2RH042   -1.000000
    1NATK    R0000    0.535700   30ATK    1.000000
    1NATK    RC0ST    0.729000   RRKEX    1.000000
    1NATK    R1057    -1.000000
    JNATK    R0000    1.598000   30ATK    1.000000
    JNATK    RC0ST    2.429000   RH106    1.000000
    JNATK    RJ038    -1.000000
    ANG17    R0000    5.213300   30G17    1.000000
    ANG17    RC0ST    2.725000   RA043    -1.000000
    ANG17    RA075    0.570000   RA076    -0.590000
    ANG17    RA077    -3.500000   RA079    6.000000
    ANG17    RA081    -15.000000   RA100    1.000000
    ANG17    RH106    1.000000
    BNG17    R0000    0.491900   30G17    1.000000
    BNG17    RC0ST    0.808000   RG0EX    1.000000
    BNG17    RB045    -1.000000   RB078    -1.000000
    HNG17    R0000    0.343500   30G17    1.000000
    HNG17    RC0ST    0.575000   RG0EX    1.000000
    HNG17    RH043    -1.000000   RH080    1.506000
    HNG17    RH081    -4.146000
    1NG17    R0000    0.516800   30G17    1.000000
    1NG17    RC0ST    0.729000   RG0EX    1.000000
    1NG17    R1060    -1.000000   R1088    -4.080000
    JNG17    R0000    1.536800   30G17    1.000000
    JNG17    RC0ST    2.429000   RH106    1.000000
    JNG17    RJ040    -1.000000   RJ061    -0.800000
    JNG17    RJ064    6.000000
    MNG17    R0000    0.858000   30G17    1.000000
    MNG17    RC0ST    1.646000   RH106    1.000000
    MNG17    1RM003   -1.000000
    NNG17    R0000    -0.343500   30G17    -1.000000
    NNG17    RC0ST    -0.575000   RG0EX    -1.000000
    NNG17    1RN014   1.000000
    HAG20    R0000    -3.071500   RC0ST    1.800000
    HAG20    RG0EX    1.000000   RA044    1.000000
    HAG20    RA100    -1.000000   RH046    -1.002000
    HAG20    RH062    0.002000   1RH089   -1.434000
    HAG20    2RH089   4.000000   3RH089   8.434000
    AEG20    R0000    1.317200   KW1RC    -1.000000
    AEG20    RA044    -1.000000   RE044    1.000000
    1AJG22   R0000    3.806500   RC0ST    0.500000
    1AJG22   RA043    -1.000000   RA077    -3.500000
    1AJG22   RA081    -15.000000   RA100    1.000000
    1AJG22   RJ040    1.000000
    BJG22    R0000    0.301100   RC0ST    0.291700
    BJG22    RG0EX    1.000000   RB047    -1.000000
    BJG22    RB082    -1.800000   RB083    2.500000
    BJG22    RB086    -7.420000   1RJ084   1.000000
    MJG22    R0000    0.274700   RC0ST    0.329000
    MJG22    1RJ084   1.000000   1RM003   -1.000000
    YJG22    R0000    0.407800   RC0ST    0.858000
    YJG22    RJ040    1.000000   RJ079    1.000000
    YJG22    RY002    1.000000
    1YJG22   R0000    2.067100   RC0ST    3.338000
    1YJG22   1RJ084   1.000000   RY002    1.000000
    ZJG22    R0000    0.586600   RC0ST    0.954000
    ZJG22    RJ040    1.000000   RJ079    1.000000
    ZJG22    RZ016    1.000000
    ANG22    R0000    5.213300   30G22    1.000000
    ANG22    RC0ST    2.725000   RA043    -1.000000
    ANG22    RA077    -3.500000   RA081    -15.000000
    ANG22    RA100    1.000000   RH106    1.000000
    BNG22    R0000    0.491900   30G22    1.000000
    BNG22    RC0ST    0.808000   RG0EX    1.000000
    BNG22    RB047    -1.000000   RB082    -1.800000
    BNG22    RB086    -7.420000
    HNG22    R0000    0.343500   30G22    1.000000
    HNG22    RC0ST    0.575000   RG0EX    1.000000
    HNG22    RH048    -1.000000
    1NG22    R0000    0.516800   30G22    1.000000
    1NG22    RC0ST    0.729000   RG0EX    1.000000
    1NG22    R1062    -1.000000   R1093    -9.480000
    JNG22    R0000    1.536800   30G22    1.000000
    JNG22    RC0ST    2.429000   RH106    1.000000
    JNG22    RJ040    -1.000000
    1MNG22   R0000    0.858000   30G22    1.000000
    1MNG22   RC0ST    1.645800   RH106    1.000000
    1MNG22   2RM003   -1.000000
    YNG22    R0000    1.809900   30G22    1.000000
    YNG22    RC0ST    3.004000   RH106    1.000000
    YNG22    RY002    1.000000
    H1G27    R0000    0.310200   RC0ST    0.492000
    H1G27    RH046    -1.000000   R1061    1.000000
    1ARG29   R0000    5.000900   RC0ST    2.450000
    1ARG29   RA043    -1.000000   RA075    -1.420000
    1ARG29   RA077    -1.000000   RA078    -0.990000
    1ARG29   RA079    1.500000   RA081    -15.000000
    1ARG29   RA100    1.000000   RH106    0.330000
    1ARG29   RRG29    1.000000
    1BRG29   R0000    0.282900   RC0ST    0.517000
    1BRG29   RG0EX    1.000000   RB047    -1.000000
    1BRG29   RB081    -0.600000   RB082    7.200000
    1BRG29   RB083    4.000000   RB084    0.500000
    1BRG29   RB085    -2.190000   RB086    -3.760000
    1BRG29   RRG29    1.000000
    1HRG29   R0000    0.192000   RC0ST    0.404000
    1HRG29   RG0EX    1.000000   RH043    -1.000000
    1HRG29   RH080    2.245000   RH081    -12.606000
    1HRG29   RH082    5.000000   RH083    -5.000000
    1HRG29   RH084    -1.379000   RRG29    1.000000
    11RG29   R0000    0.303900   RC0ST    0.429000
    11RG29   RG0EX    1.000000   R1062    -1.000000
    11RG29   R1091    -0.730000   R1092    4.000000
    11RG29   R1094    -1.980000   R1095    -5.000000
    11RG29   R1096    25.000000   RRG29    1.000000
    1JRG29   R0000    1.217000   RC0ST    1.904000
    1JRG29   RH106    0.250000   RJ011    -0.130000
    1JRG29   RJ014    -0.200000   RJ015    0.200000
    1JRG29   RJ018    -0.980000   RJ019    0.110000
    1JRG29   RJ031    -0.022000   RJ079    1.000000
    1JRG29   RJ100    0.500000   RRG29    1.000000
    2JRG29   R0000    1.217000   RC0ST    1.904000
    2JRG29   RH106    0.250000   RJ011    -0.130000
    2JRG29   RJ014    -0.200000   RJ015    -0.310000
    2JRG29   RJ016    0.040000   RJ018    -0.470000
    2JRG29   RJ019    0.070000   RJ031    -0.037000
    2JRG29   RJ079    1.000000   RJ100    0.670000
    2JRG29   RRG29    1.000000
    1MRG29   R0000    0.300300   RC0ST    1.104000
    1MRG29   2RM003   -1.000000   RRG29    1.000000
    ANG30    R0000    5.213300   30G30    1.000000
    ANG30    RC0ST    2.725000   RA043    -1.000000
    ANG30    RA075    0.570000   RA076    -0.590000
    ANG30    RA079    6.000000   RA081    -15.000000
    ANG30    RA100    1.000000   RH106    1.000000
    BNG30    R0000    0.491900   30G30    1.000000
    BNG30    RC0ST    0.808000   RG0EX    1.000000
    BNG30    RB045    -1.000000   RB077    5.000000
    BNG30    RB078    -1.000000   RB100    1.000000
    HNG30    R0000    0.343500   30G30    1.000000
    HNG30    RC0ST    0.575000   RG0EX    1.000000
    HNG30    RH043    -1.000000   RH080    1.506000
    HNG30    RH081    -4.146000   RH082    5.000000
    HNG30    RH083    -3.000000
    1NG30    R0000    0.516800   30G30    1.000000
    1NG30    RC0ST    0.729000   RG0EX    1.000000
    1NG30    R1060    -1.000000   R1087    5.000000
    1NG30    R1088    -4.080000
    BRG33    R0000    0.298700   RC0ST    0.550000
    BRG33    RG0EX    1.000000   RB047    -1.000000
    BRG33    RB081    -0.600000   RB082    7.200000
    BRG33    RB083    2.500000   RB084    0.500000
    BRG33    RB085    -2.190000   RB086    -5.230000
    BRG33    RR010    1.000000
    HRG33    R0000    0.209800   RC0ST    0.442000
    HRG33    RG0EX    1.000000   RH043    -1.000000
    HRG33    RH080    2.245000   RH081    -10.909000
    HRG33    RH082    3.000000   RH083    -5.000000
    HRG33    RH084    -1.379000   RR010    1.000000
    1RG33    R0000    0.321600   RC0ST    0.467000
    1RG33    RG0EX    1.000000   R1062    -1.000000
    1RG33    R1091    -1.470000   R1092    2.500000
    1RG33    R1093    3.150000   R1094    -2.650000
    1RG33    R1095    5.000000   R1096    25.000000
    1RG33    RR010    1.000000
    JRG33    R0000    1.217000   RC0ST    1.904000
    JRG33    RJ040    -1.000000   RJ062    2.500000
    JRG33    RJ063    -2.530000   RJ064    3.000000
    JRG33    RJ065    5.000000   RR010    1.000000
    2MRG33   R0000    0.316200   RC0ST    1.137500
    2MRG33   2RM003   -1.000000   RR010    1.000000
    1HNG44   R0000    0.343500   30G44    1.000000
    1HNG44   RC0ST    0.575000   RG0EX    1.000000
    1HNG44   2RH043   -1.000000
    11NG44   R0000    0.516800   30G44    1.000000
    11NG44   RC0ST    0.729000   RG0EX    1.000000
    11NG44   R1060    -1.000000   R1086    -1.500000
    11NG44   R1087    5.000000   R1088    0.610000
    BDG55    R0000    0.256600   RC0ST    0.440000
    BDG55    4RB045   -1.000000   RDG55    1.000000
    HDG55    R0000    0.169800   RC0ST    0.335000
    HDG55    RDG55    1.000000   3RH048   -1.000000
    1DG55    R0000    0.273700   RC0ST    0.336000
    1DG55    RDG55    1.000000   2R1062   -1.000000
    JDG55    R0000    1.216900   RC0ST    1.825000
    JDG55    RG0EX    -1.000000   RDG55    1.000000
    JDG55    1RJ041   -1.000000
    MDG55    R0000    0.546100   RC0ST    1.058000
    MDG55    RG0EX    -1.000000   RDG55    1.000000
    MDG55    2RM003   -1.000000
    BHG55    R0000    0.275000   RC0ST    0.500000
    BHG55    4RB045   -1.000000   3RH048   1.000000
    BHG55    RH106    1.000000
    1HG55    R0000    0.256000   RC0ST    0.377000
    1HG55    3RH048   1.000000   RH106    1.000000
    1HG55    2R1062   -1.000000
    JHG55    R0000    1.207100   RC0ST    1.883000
    JHG55    RG0EX    -1.000000   3RH048   1.000000
    JHG55    RH106    1.000000   1RJ041   -1.000000
    MHG55    R0000    0.536200   RC0ST    1.117000
    MHG55    RG0EX    -1.000000   3RH048   1.000000
    MHG55    RH106    1.000000   2RM003   -1.000000
    B1G55    R0000    0.454600   RC0ST    0.717000
    B1G55    4RB045   -1.000000   2R1062   1.000000
    H1G55    R0000    0.310200   RC0ST    0.492000
    H1G55    3RH048   -1.000000   2R1062   1.000000
    J1G55    R0000    1.416100   RC0ST    2.112000
    J1G55    RG0EX    -1.000000   2R1062   1.000000
    J1G55    1RJ041   -1.000000
    M1G55    R0000    0.745000   RC0ST    1.346000
    M1G55    RG0EX    -1.000000   2R1062   1.000000
    M1G55    2RM003   -1.000000
    YAD11    R0000    -2.510300   RC0ST    2.025000
    YAD11    RA046    1.000000   RY002    0.890000
    YAD11    RY004    0.110000
    ZAD11    R0000    -2.336400   RC0ST    2.121000
    ZAD11    RA046    1.000000   RZ016    0.650000
    ZAD11    RZ019    0.350000
    AED16    R0000    1.310600   KW1RC    -1.000000
    AED16    1RA047   -1.000000   RE047    1.000000
    MHD20    R0000    0.480400   RC0ST    1.117000
    MHD20    RF0EX    -1.000000   2RH025   1.000000
    MHD20    RH106    1.000000   RM004    -1.000000
    AJD20    R0000    3.824900   RC0ST    0.591700
    AJD20    RA046    -1.000000   RA082    -4.060000
    AJD20    RA083    1.390000   RA086    -9.000000
    AJD20    RA087    12.000000   RA088    -6.000000
    AJD20    RJ043    1.000000
    JVD20    R0000    0.975600   RC0ST    1.504200
    JVD20    RJ043    -1.000000   RV001    1.000000
    YVD20    R0000    1.218200   RC0ST    2.075000
    YVD20    RV001    1.000000   RY002    1.000000
    ZVD20    R0000    1.277400   RC0ST    2.133300
    ZVD20    RV001    1.000000   RZ016    1.000000
    BND22    R0000    0.462100   30D22    1.000000
    BND22    RC0ST    0.833000   RG0EX    1.000000
    BND22    3RB047   -1.000000
    HND22    R0000    0.325400   30D22    1.000000
    HND22    RC0ST    0.600000   RG0EX    1.000000
    HND22    2RH048   -1.000000
    1ND22    R0000    0.491000   30D22    1.000000
    1ND22    RC0ST    0.754000   RG0EX    1.000000
    1ND22    2R1063   -1.000000
    EJD26    R0000    3.802300   RC0ST    0.600000
    EJD26    RE046    -1.000000   RJ043    1.000000
    BND30    R0000    0.462100   30D30    1.000000
    BND30    RC0ST    0.833000   RG0EX    1.000000
    BND30    2RB047   -1.000000
    HND30    R0000    0.325400   30D30    1.000000
    HND30    RC0ST    0.600000   RG0EX    1.000000
    HND30    2RH048   -1.000000
    1ND30    R0000    0.491000   30D30    1.000000
    1ND30    RC0ST    0.754000   RG0EX    1.000000
    1ND30    1R1063   -1.000000
    ATF07    R0000    2.931900   RA051    -1.000000
    ATF07    RA093    -3.190000   RA094    3.100000
    ATF07    RA095    -6.000000   RA096    -3.000000
    ATF07    RT005    1.000000
    ETF07    R0000    3.001500   RE048    -1.000000
    ETF07    RE088    1.040000   RE089    1.140000
    ETF07    RE091    18.000000   RT005    1.000000
    JTF07    R0000    1.013400   RJ045    -1.000000
    JTF07    RJ073    1.050000   1RJ073   -0.940000
    JTF07    1RJ074   11.000000   RT005    1.000000
    YTF07    R0000    1.147900   RT005    1.000000
    YTF07    RY002    0.046000   RY004    0.954000
    ATF09    R0000    2.931900   RA048    -1.000000
    ATF09    RA089    -1.200000   RA090    0.810000
    ATF09    RA091    -2.500000   RA092    4.000000
    ATF09    RT006    1.000000
    ETF09    R0000    3.001500   1RE056   -1.000000
    ETF09    RT006    1.000000
    JTF09    R0000    1.013400   RJ042    -1.000000
    JTF09    RJ102    -3.000000   RJ103    -0.150000
    JTF09    RJ104    -0.690000   RJ105    -0.310000
    JTF09    RJ106    6.000000   RT006    1.000000
    ZTF09    R0000    1.175600   RT006    1.000000
    ZTF09    RZ020    1.000000
    HNF21    R0000    0.314800   30121    0.500000
    HNF21    30F52    0.500000   RC0ST    0.575000
    HNF21    RF0EX    1.000000   RH051    -1.000000
    HNF21    RH091    13.000000
    1NF21    R0000    0.480400   30121    0.900000
    1NF21    RC0ST    0.729000   RF0EX    1.000000
    1NF21    R1018    -0.320000   R1033    -0.150000
    1NF21    1R1033   -0.530000   R1065    0.100000
    1NF21    R1106    -0.750000   R1107    0.650000
    1NF21    R1108    -0.290000   R1109    -0.110000
    1NF21    R1110    -4.900000
    HBF28    R0000    0.203300   RC0ST    0.429000
    HBF28    RB050    1.000000   1RH051   -1.000000
    BHF28    R0000    0.229200   RC0ST    0.500000
    BHF28    RB050    -1.000000   1RH051   1.000000
    BHF28    RH106    1.000000
    B1F28    R0000    0.398000   RC0ST    0.717000
    B1F28    RB050    -1.000000   1R1064   1.000000
    H1F28    R0000    0.333500   RC0ST    0.604000
    H1F28    1RH051   -1.000000   1R1064   1.000000
    HBF35    R0000    0.203300   RC0ST    0.429000
    HBF35    RB052    1.000000   3RH052   -1.000000
    JBF35    R0000    1.114200   RC0ST    1.838000
    JBF35    RF0EX    -1.000000   RB052    1.000000
    JBF35    2RJ046   -1.000000
    MBF35    R0000    0.471600   RC0ST    1.071000
    MBF35    RF0EX    -1.000000   RB052    1.000000
    MBF35    RM005    -1.000000
    BCF35    R0000    0.372100   RC0ST    0.512000
    BCF35    RB052    -1.000000   RCF35    1.000000
    HCF35    R0000    0.423400   RC0ST    0.742000
    HCF35    RCF35    1.000000   3RH052   -1.000000
    JCF35    R0000    1.467100   RC0ST    2.217000
    JCF35    RF0EX    -1.000000   RCF35    1.000000
    JCF35    2RJ046   -1.000000
    MCF35    R0000    0.838200   RC0ST    1.458000
    MCF35    RF0EX    -1.000000   RCF35    1.000000
    MCF35    RM005    -1.000000
    ZCF35    R0000    1.883700   RC0ST    2.883000
    ZCF35    RF0EX    -1.000000   RCF35    1.000000
    ZCF35    RZ019    1.000000
    BDF35    R0000    0.490500   RC0ST    0.679200
    BDF35    RB052    -1.000000   RDF35    1.000000
    HDF35    R0000    0.153000   RC0ST    0.335000
    HDF35    RDF35    1.000000   3RH052   -1.000000
    1DF35    R0000    0.312500   RC0ST    0.467000
    1DF35    RDF35    1.000000   R1069    -1.000000
    JDF35    R0000    1.125700   RC0ST    1.825000
    JDF35    RF0EX    -1.000000   RDF35    1.000000
    JDF35    2RJ046   -1.000000
    MDF35    R0000    0.493200   RC0ST    1.058000
    MDF35    RF0EX    -1.000000   RDF35    1.000000
    MDF35    RM005    -1.000000
    ZDF35    R0000    1.394800   RC0ST    2.458300
    ZDF35    RF0EX    -1.000000   RDF35    1.000000
    ZDF35    RZ019    1.000000
    BHF35    R0000    0.229200   RC0ST    0.500000
    BHF35    RB052    -1.000000   3RH052   1.000000
    BHF35    RH106    1.000000
    1HF35    R0000    0.293000   RC0ST    0.509000
    1HF35    3RH052   1.000000   RH106    1.000000
    1HF35    R1069    -1.000000
    JHF35    R0000    1.112900   RC0ST    1.883000
    JHF35    RF0EX    -1.000000   3RH052   1.000000
    JHF35    RH106    1.000000   2RJ046   -1.000000
    MHF35    R0000    0.480400   RC0ST    1.117000
    MHF35    RF0EX    -1.000000   3RH052   1.000000
    MHF35    RH106    1.000000   RM005    -1.000000
    ZHF35    R0000    1.382100   RC0ST    2.516700
    ZHF35    RF0EX    -1.000000   3RH052   1.000000
    ZHF35    RH106    1.000000   RZ019    1.000000
    B1F35    R0000    0.398000   RC0ST    0.717000
    B1F35    RB052    -1.000000   R1069    1.000000
    H1F35    R0000    0.333500   RC0ST    0.604000
    H1F35    3RH052   -1.000000   R1069    1.000000
    J1F35    R0000    1.310400   RC0ST    2.112000
    J1F35    RF0EX    -1.000000   R1069    1.000000
    J1F35    2RJ046   -1.000000
    M1F35    R0000    0.677800   RC0ST    1.346000
    M1F35    RF0EX    -1.000000   R1069    1.000000
    M1F35    RM005    -1.000000
    Z1F35    R0000    1.579500   RC0ST    2.745800
    Z1F35    RF0EX    -1.000000   R1069    1.000000
    Z1F35    RZ019    1.000000
    MJF35    R0000    0.258200   RC0ST    0.329200
    MJF35    RJ046    1.000000   RM005    -1.000000
    YJF35    R0000    1.179500   RC0ST    1.895800
    YJF35    RJ046    1.000000   RY002    0.130000
    YJF35    RY004    0.870000
    HVF35    R0000    0.253100   RC0ST    0.458000
    HVF35    RF0EX    1.000000   3RH052   -1.000000
    HVF35    RV002    1.000000
    JVF35    R0000    1.010100   RC0ST    1.504000
    JVF35    2RJ046   -1.000000   RV002    1.000000
    YVF35    R0000    1.252700   RC0ST    2.075000
    YVF35    RV002    1.000000   RY002    0.130000
    YVF35    RY004    0.870000
    ZVF35    R0000    1.277400   RC0ST    2.133300
    ZVF35    RV002    1.000000   RZ019    1.000000
    YJF46    R0000    0.364900   RC0ST    0.858000
    YJF46    RJ045    1.000000   RJ072    1.000000
    YJF46    RJ073    -0.280000   1RJ073   -0.530000
    YJF46    1RJ074   -14.000000   RJ080    1.000000
    YJF46    RY004    1.000000
    JVF46    R0000    0.975600   RC0ST    1.504000
    JVF46    RJ045    -1.000000   RV003    1.000000
    BNF48    R0000    0.490800   30F48    1.000000
    BNF48    RC0ST    0.950000   RF0EX    1.000000
    BNF48    1RB053   -1.000000   RB102    3.380000
    BNF48    RB103    -3.110000   RB104    12.000000
    BNF48    RB106    -7.500000
    HNF48    R0000    0.314800   30F48    1.000000
    HNF48    RC0ST    0.575000   RF0EX    1.000000
    HNF48    3RH053   -1.000000
    1NF48    R0000    0.480400   30F48    1.000000
    1NF48    RC0ST    0.729000   RF0EX    1.000000
    1NF48    R1069    -1.000000   R1111    1.060000
    1NF48    R1112    -1.670000   R1115    2.000000
    JNF48    R0000    1.415400   30F48    1.000000
    JNF48    RC0ST    2.429000   RH106    1.000000
    JNF48    2RJ046   -1.000000   RJ076    1.030000
    JNF48    1RJ076   -1.770000   RJ078    2.000000
    ZNF48    R0000    1.618700   30F48    1.000000
    ZNF48    RC0ST    2.675000   RZ020    1.000000
    BNF52    R0000    0.490800   30F52    1.000000
    BNF52    RC0ST    0.950000   RF0EX    1.000000
    BNF52    RB050    -1.000000
    HNF52    R0000    0.314800   30F52    1.000000
    HNF52    RC0ST    0.575000   RF0EX    1.000000
    HNF52    1RH051   -1.000000
    1NF52    R0000    0.480400   30F52    1.000000
    1NF52    RC0ST    0.729000   RF0EX    1.000000
    1NF52    1R1064   -1.000000
    ZJF57    R0000    0.389600   RC0ST    0.916700
    ZJF57    RJ089    1.000000   RZ019    1.000000
    EAF59    R0000    1.187600   KW1RC    1.000000
    EAF59    RA049    1.000000   RE058    -1.000000
    EAF59    RE098    -1.820000   RE099    2.760000
    EAF59    RE100    0.500000   RE101    25.000000
    EAF60    R0000    1.187600   KW1RC    1.000000
    EAF60    RA051    1.000000   RE048    -1.000000
    EAF60    RE088    4.120000   RE089    -2.850000
    EAF60    RE090    7.000000   RE091    21.000000
    AEF60    R0000    1.310600   KW1RC    -1.000000
    AEF60    RA051    -1.000000   RE050    1.000000
    EAF64    R0000    1.187600   KW1RC    1.000000
    EAF64    RA052    1.000000   RE048    -1.000000
    EAF64    RE088    1.270000   RE090    6.000000
    EAF64    RE091    10.000000
    B1F64    R0000    0.398000   RC0ST    0.717000
    B1F64    RB051    -0.704000   1RB053   -0.296000
    B1F64    RB091    0.060000   RB092    0.290000
    B1F64    1RB093   4.220000   RB102    1.000000
    B1F64    RB103    -0.920000   RB104    2.960000
    B1F64    RB106    -2.660000   1R1068   1.000000
    H1F64    R0000    0.333500   RC0ST    0.604000
    H1F64    2RH052   -1.000000   RH093    1.250000
    H1F64    RH110    -1.060000   1R1068   1.000000
    J1F64    R0000    1.310400   RC0ST    2.112000
    J1F64    RF0EX    -1.000000   1R1068   1.000000
    J1F64    2RJ045   -1.000000   RJ073    1.270000
    J1F64    1RJ073   -0.780000
    BNF64    R0000    0.490800   2SF145   1.000000
    BNF64    RC0ST    0.950000   RF0EX    1.000000
    BNF64    RB051    -0.704000   1RB053   -0.296000
    BNF64    RB091    0.060000   RB092    0.290000
    BNF64    1RB093   4.220000   RB102    1.000000
    BNF64    RB103    -0.920000   RB104    2.960000
    BNF64    RB106    -2.660000
    HNF64    R0000    0.314800   2SF145   1.000000
    HNF64    RC0ST    0.575000   RF0EX    1.000000
    HNF64    2RH052   -1.000000   RH093    1.250000
    HNF64    RH110    -1.060000
    1NF64    R0000    0.480400   2SF145   1.000000
    1NF64    RC0ST    0.729000   RF0EX    1.000000
    1NF64    1R1068   -1.000000
    JNF64    R0000    1.415400   2SF145   1.000000
    JNF64    RC0ST    2.429000   RH106    1.000000
    JNF64    RJ045    -1.000000   RJ073    1.270000
    JNF64    1RJ073   -0.780000
    YNF64    R0000    1.659700   2SF145   1.000000
    YNF64    RC0ST    3.004000   RH106    1.000000
    YNF64    RY002    0.055000   RY004    0.945000
    AEF68    R0000    1.310600   KW1RC    -1.000000
    AEF68    RA013    -0.236000   RA019    -0.764000
    AEF68    RE049    1.000000
    AXF72    R0000    3.079600   RC0ST    1.308000
    AXF72    1RA053   -1.000000   RXF72    1.000000
    EXF72    R0000    3.096300   RC0ST    0.812000
    EXF72    RE051    -1.000000   RXF72    1.000000
    1BF75    R0000    0.336600   RC0ST    0.562000
    1BF75    RB053    1.000000   R1065    -1.000000
    1BF75    R1106    0.460000   R1107    0.250000
    HBF80    R0000    0.203300   RC0ST    0.429000
    HBF80    2RB051   1.000000   2RH052   -1.000000
    JBF80    R0000    1.114200   RC0ST    1.838000
    JBF80    RF0EX    -1.000000   2RB051   1.000000
    JBF80    2RJ045   -1.000000
    MBF80    R0000    0.471600   RC0ST    1.071000
    MBF80    RF0EX    -1.000000   2RB051   1.000000
    MBF80    RM006    -1.000000
    BCF80    R0000    0.372100   RC0ST    0.512000
    BCF80    2RB051   -1.000000   RCF80    1.000000
    HCF80    R0000    0.423400   RC0ST    0.742000
    HCF80    RCF80    1.000000   2RH052   -1.000000
    JCF80    R0000    1.467100   RC0ST    2.217000
    JCF80    RF0EX    -1.000000   RCF80    1.000000
    JCF80    2RJ045   -1.000000
    MCF80    R0000    0.838200   RC0ST    1.458000
    MCF80    RF0EX    -1.000000   RCF80    1.000000
    MCF80    RM006    -1.000000
    BHF80    R0000    0.229200   RC0ST    0.500000
    BHF80    2RB051   -1.000000   2RH052   1.000000
    BHF80    RH106    1.000000
    JHF80    R0000    1.112900   RC0ST    1.883000
    JHF80    RF0EX    -1.000000   2RH052   1.000000
    JHF80    RH106    1.000000   2RJ045   -1.000000
    MHF80    R0000    0.480400   RC0ST    1.117000
    MHF80    RF0EX    -1.000000   2RH052   1.000000
    MHF80    RH106    1.000000   RM006    -1.000000
    BNF80    R0000    0.490800   2SF129   1.000000
    BNF80    RC0ST    0.950000   RF0EX    1.000000
    BNF80    1RB051   -1.000000
    YJF83    R0000    0.407800   RC0ST    0.858000
    YJF83    RJ080    1.000000   RJ091    1.000000
    YJF83    RY002    0.025000   RY004    0.975000
    HNF89    R0000    0.312600   2SF089   1.000000
    HNF89    RC0ST    0.575000   RF0EX    1.000000
    HNF89    RH052    -1.000000   RH093    1.250000
    HNF89    1RH093   -16.000000   RH094    21.000000
    HNF89    RH110    -1.060000
    1NF89    R0000    0.480400   2SF089   1.000000
    1NF89    RC0ST    0.729000   RF0EX    1.000000
    1NF89    R1065    -1.000000   R1106    0.520000
    1NF89    R1107    -0.350000   R1108    -5.000000
    117FHR   R0000    0.171800   RC0ST    0.404200
    117FHR   RH053    -1.000000   RH115    0.240000
    117FHR   RH117    -5.000000   RH118    15.000000
    117FHR   RR021    1.000000
    117FZR   R0000    1.382100   RC0ST    2.516700
    117FZR   RR021    1.000000   RZ019    1.000000
    118FAT   R0000    2.931900   RA048    -1.000000
    118FAT   RA091    0.500000   RA092    4.000000
    118FAT   3RT006   1.000000
    118FET   R0000    3.001500   RE048    -1.000000
    118FET   RE088    4.320000   RE089    -1.960000
    118FET   RE090    17.000000   RE091    16.000000
    118FET   3RT006   1.000000
    118FJT   R0000    1.013400   RJ042    -1.000000
    118FJT   RJ103    1.230000   RJ104    -1.770000
    118FJT   RJ106    6.000000   3RT006   1.000000
    118FZT   R0000    1.175600   3RT006   1.000000
    118FZT   RZ020    1.000000
    129FHB   R0000    0.203300   RC0ST    0.429000
    129FHB   1RB051   1.000000   2RH051   -1.000000
    129FJB   R0000    1.114200   RC0ST    1.838000
    129FJB   RF0EX    -1.000000   1RB051   1.000000
    129FJB   2RJ045   -1.000000
    129FBH   R0000    0.229200   RC0ST    0.500000
    129FBH   1RB051   -1.000000   2RH051   1.000000
    129FBH   RH106    1.000000
    129F1H   R0000    0.293000   RC0ST    0.509000
    129F1H   2RH051   1.000000   RH106    1.000000
    129F1H   R1068    -1.000000
    129FJH   R0000    1.112900   RC0ST    1.883000
    129FJH   RF0EX    -1.000000   2RH051   1.000000
    129FJH   RH106    1.000000   2RJ045   -1.000000
    HN129    R0000    0.314800   2SF129   1.000000
    HN129    RC0ST    0.575000   RF0EX    1.000000
    HN129    RH052    -1.000000
    JN129    R0000    1.415400   2SF129   1.000000
    JN129    RC0ST    2.429000   RH106    1.000000
    JN129    RJ045    -1.000000   RJ072    5.000000
    MN129    R0000    0.775700   2SF129   1.000000
    MN129    RC0ST    1.646000   RH106    1.000000
    MN129    RM006    -1.000000
    YN129    R0000    1.659700   2SF129   1.000000
    YN129    RC0ST    3.004200   RH106    1.000000
    YN129    RY004    1.000000
    HV129    R0000    0.253100   RC0ST    0.458000
    HV129    RF0EX    1.000000   RH052    -1.000000
    HV129    RV003    1.000000
    YV129    R0000    1.252700   RC0ST    2.075000
    YV129    RV003    1.000000   RY004    1.000000
    AT137    R0000    2.931900   RA051    -1.000000
    AT137    RA093    1.700000   RA094    -2.870000
    AT137    RA095    5.000000   RA096    9.000000
    AT137    4RT006   1.000000
    ET137    R0000    3.001500   RE058    -1.000000
    ET137    RE099    0.780000   RE100    -10.000000
    ET137    RE101    19.000000   4RT006   1.000000
    JT137    R0000    1.013400   RJ014    -0.300000
    JT137    RJ025    -0.700000   4RT006   1.000000
    YAFLD    R0000    -2.277100   RC0ST    2.025000
    YAFLD    RA009    0.870000   RA010    0.130000
    YAFLD    RA060    1.000000   3RA060   1.000000
    YAFLD    RA100    -1.000000   RY001    1.007000
    1YAFLD   R0000    -2.479600   RA009    0.870000
    1YAFLD   RA010    0.130000   RA055    2.133000
    1YAFLD   2RA060   1.000000   3RA060   1.000000
    1YAFLD   RY001    1.010000
    YEFLD    R0000    -1.987000   RC0ST    2.566700
    YEFLD    3RA060   1.000000   RE012    0.257000
    YEFLD    RE013    0.556000   RE015    0.187000
    YEFLD    RE060    -0.010000   RE062    1.000000
    YEFLD    RE104    -1.000000   RY001    1.010000
    1YEFLD   R0000    -2.238000   3RA060   1.000000
    1YEFLD   RE005    1.000000   RE012    0.257000
    1YEFLD   RE013    0.556000   RE015    0.187000
    1YEFLD   RE060    -0.030800   RE061    2.800000
    1YEFLD   RE062    1.000000   RY001    1.010000
    YHFLD    R0000    0.988600   RH010    0.285000
    YHFLD    RH016    0.665000   RH096    0.028000
    YHFLD    RH105    1.000000   RH106    1.000000
    YHFLD    RY001    1.010000
    1YHFLD   R0000    1.660300   RC0ST    2.458000
    1YHFLD   RLDEX    -1.000000   RH007    0.040000
    1YHFLD   RH008    0.080000   1RH038   0.660000
    1YHFLD   1RH054   1.000000   RH057    1.150000
    1YHFLD   RH096    -0.120000   RH106    1.000000
    1YHFLD   RH113    0.120000   RH114    0.120000
    1YHFLD   RY001    1.000000
    YJFLD    R0000    0.407800   RC0ST    0.858000
    YJFLD    1RJ008   0.300000   RJ010    0.550000
    YJFLD    RJ012    0.150000   RJ099    0.810000
    YJFLD    RY001    1.010000
    JASRB    R0000    -2.364500   RC0ST    1.688000
    JASRB    RA009    1.600000   RA023    -0.600000
    JASRB    RA060    1.000000   3RA060   1.000000
    JASRB    RA100    -1.000000   RJ010    -1.000000
    1JASRB   R0000    -2.364500   RC0ST    1.688000
    1JASRB   RA009    1.600000   RA023    -0.600000
    1JASRB   RA060    1.000000   3RA060   1.000000
    1JASRB   RA100    -1.000000   RJ009    -1.000000
    JESRB    R0000    -2.069100   RC0ST    2.238000
    JESRB    3RA060   1.000000   RE013    1.000000
    JESRB    RE060    -0.010000   RE062    1.000000
    JESRB    RE104    -1.000000   RJ010    -1.000000
    1JESRB   R0000    -2.069100   RC0ST    2.238000
    1JESRB   3RA060   1.000000   RE014    1.000000
    1JESRB   RE060    -0.010000   RE062    1.000000
    1JESRB   RE104    -1.000000   RJ009    -1.000000
    BHSRB    R0000    0.287500   RC0ST    0.500000
    BHSRB    RB008    -1.000000   RH015    0.950000
    BHSRB    RH096    0.025000   RH105    0.949400
    BHSRB    RH106    1.000000
    1BHSRB   R0000    0.287500   RC0ST    0.500000
    1BHSRB   1RB008   -1.000000   RH016    0.950000
    1BHSRB   RH096    0.025000   RH105    0.949400
    1BHSRB   RH106    1.000000
    2BHSRB   R0000    0.287500   RC0ST    0.500000
    2BHSRB   RB008    -1.000000   RH015    0.990000
    2BHSRB   1RH054   0.990000   RH106    1.000000
    3BHSRB   R0000    0.287500   RC0ST    0.500000
    3BHSRB   1RB008   -1.000000   RH016    0.990000
    3BHSRB   1RH054   0.990000   RH106    1.000000
    JHSRB    R0000    1.112900   RC0ST    1.883000
    JHSRB    RLDEX    -1.000000   RH016    0.950000
    JHSRB    RH096    0.025000   RH105    0.949400
    JHSRB    RH106    1.000000   RJ010    -1.000000
    1JHSRB   R0000    1.112900   RC0ST    1.883000
    1JHSRB   RLDEX    -1.000000   RH015    0.950000
    1JHSRB   RH096    0.025000   RH105    0.949400
    1JHSRB   RH106    1.000000   RJ009    -1.000000
    BHFCR    R0000    0.287500   RC0ST    0.500000
    BHFCR    1RB024   -1.000000   1RH038   1.000000
    JHFCR    R0000    1.207100   RC0ST    1.883000
    JHFCR    RMSEX    -1.000000   1RH038   1.000000
    JHFCR    RH106    1.000000   RJ097    -1.000000
    1JHFCR   R0000    1.392100   RC0ST    1.883000
    1JHFCR   RMSEX    -1.000000   RH035    1.000000
    1JHFCR   RH067    0.130700   RH068    7.843000
    1JHFCR   RH069    -17.017000   RH070    7.937000
    1JHFCR   RH071    -0.325900   RH106    1.000000
    1JHFCR   RJ098    -1.000000
    2JHFCR   R0000    1.392100   RC0ST    1.883000
    2JHFCR   RMSEX    -1.000000   RH035    1.000000
    2JHFCR   RH067    2.604000   RH068    0.643000
    2JHFCR   RH069    -10.936000   RH070    6.430000
    2JHFCR   RH071    -0.317000   RH106    1.000000
    2JHFCR   RJ097    -0.400000   1RJ097   -0.600000
    3JHFCR   R0000    1.392100   RC0ST    1.883000
    3JHFCR   RMSEX    -1.000000   RH035    1.000000
    3JHFCR   RH067    3.267000   RH068    7.843000
    3JHFCR   RH069    -17.017000   RH070    7.937000
    3JHFCR   RH071    -0.325900   RH106    1.000000
    3JHFCR   RJ098    -0.400000   1RJ098   -0.600000
    ZHFCR    R0000    1.844100   RC0ST    2.554000
    ZHFCR    RMSEX    -1.000000   RH035    1.000000
    ZHFCR    RH067    -0.128000   RH068    1.282000
    ZHFCR    RH069    -13.305000   RH070    6.410000
    ZHFCR    RH071    -0.316000   RH106    1.000000
    ZHFCR    RZ004    1.000000
    ZJFCR    R0000    0.773600   RC0ST    0.954000
    ZJFCR    RJ032    1.000000   RJ052    -4.500000
    ZJFCR    RJ053    10.300000   RJ054    -10.200000
    ZJFCR    RJ095    -0.402000   RZ004    1.000000
    H1HCR    R0000    0.310200   RC0ST    0.492000
    H1HCR    RH011    -0.548000   RH095    -0.452000
    H1HCR    R1043    -1.000000
    BHLCS    R0000    0.287500   RC0ST    0.500000
    BHLCS    RB028    -1.000000   RH012    1.000000
    BHLCS    RH106    1.000000
    1HHSC    R0000    0.425000   RC0ST    0.377000
    1HHSC    RH035    1.000000   RH067    -0.708000
    1HHSC    RH068    69.649899   RH069    -19.950000
    1HHSC    RH070    82.639899   RH071    -0.291000
    1HHSC    RH106    1.000000   R1041    1.000000
    11HHSC   R0000    0.334000   RC0ST    0.377000
    11HHSC   RH036    1.000000   RH072    -14.990000
    11HHSC   RH073    -19.950000   RH074    -5.000000
    11HHSC   RH075    -0.529000   RH106    1.000000
    11HHSC   R1041    1.000000
    1HLSC    R0000    0.454000   RC0ST    0.377000
    1HLSC    RH035    1.000000   RH067    1.379000
    1HLSC    RH068    -63.400000   RH069    27.310000
    1HLSC    RH070    -34.480000   RH071    -0.340000
    1HLSC    RH106    1.000000   R1040    1.000000
    11HLSC   R0000    0.347000   RC0ST    0.377000
    11HLSC   RH036    1.000000   RH072    -16.140000
    11HLSC   RH073    27.310000   RH074    -5.000000
    11HLSC   RH075    -0.618000   RH106    1.000000
    11HLSC   R1040    1.000000
    EAKER    R0000    1.187600   KW1RC    1.000000
    EAKER    RA013    1.000000   RE017    -1.000000
    EHKER    R0000    4.810400   RC0ST    2.221000
    EHKER    RG0EX    -1.000000   RE017    -1.000000
    EHKER    RE104    1.000000   RH048    1.000000
    EHKER    RH085    3.944000   RH086    -28.786000
    EHKER    RH087    -6.800000   RH088    -14.000000
    EHKER    RH089    2.987000   RH106    1.000000
    EAALG    R0000    1.187600   KW1RC    1.000000
    EAALG    RA014    1.000000   RE019    -1.000000
    EHALG    R0000    4.810400   RC0ST    2.221000
    EHALG    RG0EX    -1.000000   RE019    -1.000000
    EHALG    RE104    1.000000   RH048    1.000000
    EHALG    RH085    -2.306000   RH086    -10.107000
    EHALG    RH087    -1.500000   RH088    -4.500000
    EHALG    RH089    -2.729000   RH106    1.000000
    EAKLG    R0000    1.187600   KW1RC    1.000000
    EAKLG    RA015    1.000000   RE018    -1.000000
    EHKLG    R0000    4.810400   RC0ST    2.221000
    EHKLG    RG0EX    -1.000000   RE018    -1.000000
    EHKLG    RE104    1.000000   RH048    1.000000
    EHKLG    RH085    -1.452000   RH086    -10.180000
    EHKLG    RH087    1.300000   RH088    -9.000000
    EHKLG    RH089    -2.795000   RH106    1.000000
    MUKG0    R0000    -0.948100   RC0ST    -1.342000
    MUKG0    1RM003   -1.000000   RY002    -1.000000
    1YBLG0   R0000    1.574300   RC0ST    2.612000
    1YBLG0   RG0EX    -1.000000   RB047    1.000000
    1YBLG0   RB081    3.565000   RB082    -5.400000
    1YBLG0   RB083    0.300000   RB084    -0.900000
    1YBLG0   RB085    -0.636000   RB086    2.160000
    1YBLG0   RY002    1.000000
    2YBLG0   R0000    1.574300   RC0ST    2.612000
    2YBLG0   RG0EX    -1.000000   RB046    1.000000
    2YBLG0   1RB050   1.000000   RB087    -14.900000
    2YBLG0   RB088    -22.200000   RB089    -0.636000
    2YBLG0   RB090    -25.000000   1RB090   -18.000000
    2YBLG0   RY002    1.000000
    3YBLG0   R0000    1.574300   RC0ST    2.612000
    3YBLG0   RG0EX    -1.000000   RB051    1.000000
    3YBLG0   RB091    -22.570000   RB092    13.080000
    3YBLG0   1RB092   -54.000000   RB093    -0.636000
    3YBLG0   1RB093   -30.200000   RY002    1.000000
    1ZBLG0   R0000    1.753100   RC0ST    2.708000
    1ZBLG0   RG0EX    -1.000000   RB047    1.000000
    1ZBLG0   RB081    1.053000   RB082    -3.800000
    1ZBLG0   RB083    -1.400000   RB084    -0.500000
    1ZBLG0   RB085    -0.636000   RB086    2.160000
    1ZBLG0   RZ016    1.000000
    2ZBLG0   R0000    1.753100   RC0ST    2.708000
    2ZBLG0   RG0EX    -1.000000   RB046    1.000000
    2ZBLG0   1RB050   1.000000   RB087    -14.900000
    2ZBLG0   RB088    -23.900000   RB089    -0.636000
    2ZBLG0   RB090    -25.000000   1RB090   -18.000000
    2ZBLG0   RZ016    1.000000
    3ZBLG0   R0000    1.753100   RC0ST    2.708000
    3ZBLG0   RG0EX    -1.000000   RB051    1.000000
    3ZBLG0   RB091    -22.570000   RB092    13.080000
    3ZBLG0   1RB092   -54.000000   RB093    -0.636000
    3ZBLG0   1RB093   -31.900000   RZ016    1.000000
    YHLG0    R0000    1.480300   RC0ST    2.458000
    YHLG0    RG0EX    -1.000000   RH051    1.000000
    YHLG0    RH090    -16.330000   1RH090   -22.000000
    YHLG0    2RH090   15.000000   RH091    -22.200000
    YHLG0    RH103    1.000000   RH106    1.000000
    YHLG0    RH108    -30.000000   RY002    1.000000
    1YHLG0   R0000    1.480300   RC0ST    2.458000
    1YHLG0   RG0EX    -1.000000   RH052    1.000000
    1YHLG0   RH093    -24.180000   1RH093   -61.000000
    1YHLG0   RH094    -30.200000   RH106    1.000000
    1YHLG0   RH110    23.510000   RY002    1.000000
    4YHLG0   R0000    1.480300   RC0ST    2.458000
    4YHLG0   RG0EX    -1.000000   RH048    1.000000
    4YHLG0   RH086    -13.333000   RH087    -0.200000
    4YHLG0   RH088    -10.000000   RH089    -0.700000
    4YHLG0   RH106    1.000000   RY002    1.000000
    YHLGG    R0000    1.480300   RC0ST    2.458000
    YHLGG    RG0EX    -1.000000   RH106    1.000000
    YHLGG    RH109    1.000000   1RH109   -18.230000
    YHLGG    2RH109   16.950000   RY002    1.000000
    ZHLG0    R0000    1.659000   RC0ST    2.554000
    ZHLG0    RG0EX    -1.000000   RH051    1.000000
    ZHLG0    RH090    -16.330000   1RH090   -17.000000
    ZHLG0    2RH090   15.000000   RH091    -23.900000
    ZHLG0    RH103    1.000000   RH106    1.000000
    ZHLG0    RH108    -30.000000   RZ016    1.000000
    1ZHLG0   R0000    1.659000   RC0ST    2.554000
    1ZHLG0   RG0EX    -1.000000   RH052    1.000000
    1ZHLG0   RH093    -24.180000   1RH093   -56.000000
    1ZHLG0   RH094    -31.900000   RH106    1.000000
    1ZHLG0   RH110    23.510000   RZ016    1.000000
    3ZHLG0   R0000    1.659000   RC0ST    2.554000
    3ZHLG0   RG0EX    -1.000000   RH048    1.000000
    3ZHLG0   RH085    -2.447000   RH086    -6.770000
    3ZHLG0   RH087    -1.900000   RH088    -6.000000
    3ZHLG0   RH089    -0.700000   RH106    1.000000
    3ZHLG0   RZ016    1.000000
    EAAHG    R0000    1.187600   KW1RC    1.000000
    EAAHG    RA016    1.000000   RE022    -1.000000
    EAKHG    R0000    1.187600   KW1RC    1.000000
    EAKHG    RA017    1.000000   RE021    -1.000000
    EAHWD    R0000    1.187600   KW1RC    1.000000
    EAHWD    RA026    1.000000   RE028    -1.000000
    AJCG0    R0000    4.055100   RC0ST    1.425000
    AJCG0    RA033    -1.000000   RA100    1.000000
    AJCG0    RJ040    1.000000   RJ061    -10.700000
    AJCG0    RJ062    7.000000   RJ063    -3.430000
    AJCG0    RJ064    4.000000   RJ065    29.000000
    1AJCG0   R0000    4.055100   RC0ST    1.425000
    1AJCG0   RA033    -1.000000   RJ043    1.000000
    1AJCG0   RJ066    -7.800000   RJ067    2.000000
    1AJCG0   RJ068    -3.430000   RJ069    -6.000000
    1AJCG0   RJ070    -0.500000   RJ071    16.000000
    MHRES    R0000    0.480400   RC0ST    1.117000
    MHRES    RF0EX    -1.000000   RH052    1.000000
    MHRES    RH094    -5.000000   RH106    1.000000
    MHRES    RH110    -0.670000   RM006    -1.000000
    1MHRES   R0000    0.480400   RC0ST    1.117000
    1MHRES   RF0EX    -1.000000   RH052    1.000000
    1MHRES   RH093    -3.080000   RH094    -5.000000
    1MHRES   RH106    1.000000   RH110    2.410000
    1MHRES   RM005    -1.000000
    2MHRES   R0000    0.480400   RC0ST    1.117000
    2MHRES   RF0EX    -1.000000   RH052    1.000000
    2MHRES   RH106    1.000000   RH110    0.670000
    2MHRES   1RM006   -1.000000
    3MHRES   R0000    0.480400   RC0ST    1.117000
    3MHRES   RF0EX    -1.000000   RH052    1.000000
    3MHRES   RH106    1.000000   RH110    0.670000
    3MHRES   2RM006   -1.000000
    YHRES    R0000    1.357300   RC0ST    2.458000
    YHRES    RF0EX    -1.000000   RH052    1.000000
    YHRES    1RH093   -7.000000   RH094    -0.500000
    YHRES    RH106    1.000000   RH110    -0.670000
    YHRES    RY004    1.000000
    ZHRES    R0000    1.531300   RC0ST    2.554000
    ZHRES    RF0EX    -1.000000   RH052    1.000000
    ZHRES    RH093    -4.050000   1RH093   -5.000000
    ZHRES    RH094    -15.000000   RH106    1.000000
    ZHRES    RH110    3.380000   RZ019    1.000000
    ZJRES    R0000    0.538800   RC0ST    0.954000
    ZJRES    RJ045    1.000000   RJ072    -16.000000
    ZJRES    RJ073    -4.460000   1RJ073   3.650000
    ZJRES    RJ074    -1.030000   RJ080    1.000000
    ZJRES    RZ019    1.000000
    1ZJRES   R0000    0.538800   RC0ST    0.954000
    1ZJRES   RJ046    1.000000   RJ075    -16.000000
    1ZJRES   RJ076    -1.340000   1RJ076   0.700000
    1ZJRES   RJ077    -1.030000   RJ078    3.000000
    1ZJRES   RJ080    1.000000   RZ019    1.000000
    2ZJRES   R0000    0.538800   RC0ST    0.954000
    2ZJRES   RJ042    1.000000   RJ080    1.000000
    2ZJRES   RJ102    -1.000000   RJ103    -1.340000
    2ZJRES   RJ104    0.700000   RJ105    -1.030000
    2ZJRES   RJ106    3.000000   RZ019    1.000000
    ZJREX    R0000    0.538800   RC0ST    0.954000
    ZJREX    RJ045    1.000000   RJ072    -16.000000
    ZJREX    RJ073    -4.460000   1RJ073   3.650000
    ZJREX    RJ074    -1.030000   1RJ074   -7.000000
    ZJREX    RJ080    1.000000   RZ020    1.000000
    1ZJREX   R0000    0.538800   RC0ST    0.954000
    1ZJREX   RJ046    1.000000   RJ075    -16.000000
    1ZJREX   RJ076    -1.340000   1RJ076   0.700000
    1ZJREX   RJ077    -1.030000   RJ078    -4.000000
    1ZJREX   RJ080    1.000000   RZ020    1.000000
    2ZJREX   R0000    0.538800   RC0ST    0.954000
    2ZJREX   RJ042    1.000000   RJ080    1.000000
    2ZJREX   RJ102    -1.000000   RJ103    -1.340000
    2ZJREX   RJ104    0.700000   RJ105    -1.030000
    2ZJREX   RJ106    -4.000000   RZ020    1.000000
    HSPMS    R0000    -9.000000   1RH035   -1.000000
    HSPMS    HSPMS    1.000000
    HSRMS    R0000    -8.000000   1RH036   -1.000000
    HSRMS    HSRMS    1.000000
    HSLDF    R0000    -7.000000   RH039    -1.000000
    HSLDF    HSLDF    1.000000
    HSATK    R0000    -8.000000   2RH042   -1.000000
    HSATK    HSATK    1.000000
    NSG17    R0000    -6.500000   1RN014   -1.000000
    NSG17    NSG17    1.000000
    HSG58    R0000    -6.000000   2RH048   -1.000000
    HSG58    HSG58    1.000000
    HSF80    R0000    -2.000000   2RH052   -1.000000
    HSF80    HSF80    1.000000
    2CB002   RB017    0.511000   RB001    0.707000
    2CB002   1RB003   0.303000   1RB005   0.003000
    2CB002   RB006    0.009000   RB007    0.030000
    2CB002   RB008    0.102000   1RB008   0.023000
    2CB002   RB009    0.045000   RB011    0.129000
    2CB002   RB013    0.063000   2RB015   0.041000
    2CB002   RB016    0.017000   RB022    0.025000
    2CB002   RB031    -0.026000   1RB031   0.002000
    2CB002   RB058    1.000000   1RB058   1.000000
    2CB002   RB101    0.983000
    3CB003   2RB020   0.539000   RB003    0.707000
    3CB003   1RB003   0.303000   1RB005   0.002000
    3CB003   RB006    0.011000   RB007    0.057000
    3CB003   RB008    0.062000   1RB008   0.023000
    3CB003   RB010    0.071000   RB012    0.082000
    3CB003   1RB013   0.070000   2RB015   0.041000
    3CB003   RB016    0.016000   RB022    0.024000
    3CB003   RB031    -0.024000   1RB031   0.002000
    3CB003   RB058    1.000000   1RB058   1.000000
    3CB003   RB101    1.020000
    3CB004   2RB018   0.484000   1RB001   0.707000
    3CB004   1RB003   0.303000   RB006    0.008000
    3CB004   1RB007   0.050000   1RB008   0.122000
    3CB004   RB009    0.047000   RB011    0.135000
    3CB004   1RB013   0.063000   2RB015   0.041000
    3CB004   1RB016   0.020000   RB022    0.029000
    3CB004   RB031    -0.025000   1RB031   0.001000
    3CB004   RB058    1.000000   1RB058   1.000000
    3CB004   RB101    0.983000
    4CB004   2RB018   0.484000   1RB001   0.707000
    4CB004   1RB003   0.303000   RB006    0.008000
    4CB004   2RB007   0.096000   2RB008   0.076000
    4CB004   RB009    0.047000   RB011    0.135000
    4CB004   1RB013   0.063000   2RB015   0.041000
    4CB004   1RB016   0.020000   RB022    0.029000
    4CB004   RB031    -0.025000   1RB031   0.001000
    4CB004   RB058    1.000000   1RB058   1.000000
    4CB004   RB099    0.096000   RB101    0.983000
    4CB004   UKLDF    -0.096000
    3CB005   1RB019   0.553000   RB002    0.707000
    3CB005   1RB003   0.303000   1RB005   0.003000
    3CB005   RB006    0.010000   1RB007   0.045000
    3CB005   1RB008   0.094000   RB009    0.039000
    3CB005   RB011    0.108000   1RB013   0.058000
    3CB005   2RB015   0.041000   1RB016   0.020000
    3CB005   RB022    0.026000   RB031    -0.024000
    3CB005   1RB031   0.003000   RB058    1.000000
    3CB005   1RB058   1.000000   RB101    1.005000
    1CB096   2RB018   -1.000000   RB053    1.000000
    1CB096   RB094    -1.500000   RB095    0.790000
    1CB096   RB096    4.700000   RB097    3.200000
    2CB096   1RB019   -1.000000   RB053    1.000000
    2CB096   RB094    -0.020000   RB095    -0.690000
    2CB096   RB096    8.400000   RB097    -4.600000
    3CB096   2RB020   -1.000000   RB053    1.000000
    3CB096   RB094    0.390000   RB095    -1.100000
    3CB096   RB096    -1.600000   RB097    4.400000
    2CB095   1RB019   -1.000000   1RB053   1.000000
    2CB095   RB102    -0.020000   RB103    -1.730000
    2CB095   RB104    1.400000   RB105    -0.803000
    2CB095   RB106    3.400000
    3CB095   2RB020   -1.000000   1RB053   1.000000
    3CB095   RB102    0.390000   RB103    -2.140000
    3CB095   RB104    10.400000   RB105    -0.803000
    3CB095   RB106    -6.600000
    CB096    RB017    -1.000000   RB053    1.000000
    CB096    RB094    -1.550000   RB095    0.840000
    CB096    RB096    -4.300000   RB097    5.500000
    3CB084   2RB020   -1.000000   RB051    1.000000
    3CB084   RB091    -0.370000   RB092    -0.800000
    3CB084   1RB092   20.400000   RB093    -0.803000
    3CB084   1RB093   -21.600000
    CB095    RB017    -1.000000   1RB053   1.000000
    CB095    RB102    -1.550000   RB103    -0.200000
    CB095    RB104    11.500000   RB105    -0.803000
    CB095    RB106    -9.300000
    1CB095   2RB018   -1.000000   1RB053   1.000000
    1CB095   RB102    -1.500000   RB103    -0.250000
    1CB095   RB104    9.200000   RB105    -0.803000
    1CB095   RB106    -0.300000
    CB084    RB017    -1.000000   RB051    1.000000
    CB084    RB091    -2.310000   RB092    1.140000
    CB084    1RB092   21.500000   RB093    -0.803000
    CB084    1RB093   -24.300000
    1CB084   2RB018   -1.000000   RB051    1.000000
    1CB084   RB091    -2.260000   RB092    1.090000
    1CB084   1RB092   19.200000   RB093    -0.803000
    1CB084   1RB093   -15.300000
    2CB084   1RB019   -1.000000   RB051    1.000000
    2CB084   RB091    -0.780000   RB092    1.090000
    2CB084   1RB092   11.400000   RB093    -0.803000
    2CB084   1RB093   -11.600000
    4CB005   1RB019   0.553000   RB002    0.707000
    4CB005   1RB003   0.303000   1RB005   0.003000
    4CB005   RB006    0.010000   2RB007   0.080000
    4CB005   2RB008   0.059000   RB009    0.039000
    4CB005   RB011    0.108000   1RB013   0.058000
    4CB005   2RB015   0.041000   1RB016   0.020000
    4CB005   RB022    0.026000   RB031    -0.024000
    4CB005   1RB031   0.003000   RB058    1.000000
    4CB005   1RB058   1.000000   RB099    0.080000
    4CB005   RB101    1.005000   UKLDF    -0.080000
    1CB068   RB009    -0.070000   RB011    -0.240000
    1CB068   RB012    -0.320000   RB015    -0.300000
    1CB068   1RB016   -0.070000   1RB045   1.000000
    CH458    3RH030   -1.000000   RH109    1.000000
    CH458    1RH109   9.430000   2RH109   -10.910000
    CH463    2RH030   -1.000000   RH109    1.000000
    CH463    1RH109   12.610000   2RH109   -14.090000
    CB152    RB022    -1.000000   RB031    1.031300
    CB153    1RB022   -1.000000   RB031    1.014800
    1C1076   R1019    -0.860000   R1022    -0.140000
    1C1076   R1062    1.000000   R1091    -2.280000
    1C1076   R1092    2.600000   R1093    9.300000
    1C1076   R1094    -3.170000   R1095    -5.000000
    1C1078   R1020    -0.880000   R1023    -0.120000
    1C1078   R1062    1.000000   R1091    -1.680000
    1C1078   R1092    -1.700000   R1093    9.380000
    1C1078   R1094    -3.170000   R1095    -6.000000
    C1080    R1021    -0.920000   R1024    -0.080000
    C1080    R1062    1.000000   R1091    -5.880000
    C1080    R1092    -7.200000   R1093    9.050000
    C1080    R1094    -3.240000   R1095    7.000000
    CH147    2RH025   -1.000000   RH096    1.000000
    3CH151   1RH029   -1.000000   RH096    1.000000
    CH526    RH060    1.000000   1RH060   -1.000000
    1CJ015   R0000    0.201000   RJ010    -1.000000
    1CJ015   RJ032    1.000000   1RJ050   1.000000
    1CJ015   RJ052    42.000000   RJ053    30.290000
    1CJ015   RJ054    -42.140000
    2CJ015   R0000    0.201000   RJ009    -1.000000
    2CJ015   RJ032    1.000000   1RJ050   1.000000
    2CJ015   RJ052    42.000000   RJ053    30.290000
    2CJ015   RJ054    -42.140000
    1CJ062   RJ018    -1.000000   RJ031    -0.055000
    1CJ062   RJ040    1.000000   RJ061    -3.800000
    1CJ062   RJ062    -3.000000   RJ063    -3.010000
    1CJ062   RJ064    7.000000   RJ065    -6.500000
    1CJ062   RJ079    1.000000   RJ100    1.000000
    128FNN   30F48    -1.000000   30128    1.000000
    90AS30   R0000    0.207900   30G22    -1.000000
    90AS30   RC0ST    0.437500   RH048    1.000000
    90A930   R0000    0.186000   2SF129   -1.000000
    90A930   RC0ST    0.437500   RH052    1.000000
    3CB007   1RB003   0.303000   1RB004   0.707000
    3CB007   RB006    0.006000   1RB007   0.035000
    3CB007   1RB008   0.064000   RB010    0.059000
    3CB007   RB012    0.069000   1RB015   0.218000
    3CB007   2RB015   0.020000   RB022    0.038000
    3CB007   2RB025   0.490000   RB031    -0.026000
    3CB007   1RB031   0.001000   RB058    1.000000
    3CB007   1RB058   1.000000   RB101    1.015000
    4CB007   1RB003   0.303000   1RB004   0.707000
    4CB007   RB006    0.006000   2RB007   0.069000
    4CB007   2RB008   0.030000   RB010    0.059000
    4CB007   RB012    0.069000   RB015    0.218000
    4CB007   2RB015   0.020000   RB022    0.038000
    4CB007   2RB025   0.490000   RB031    -0.026000
    4CB007   1RB031   0.001000   RB058    1.000000
    4CB007   1RB058   1.000000   RB099    0.069000
    4CB007   RB101    1.015000   UKLDF    -0.069000
    1CH301   RH001    1.455000   1RH006   1.010000
    1CH301   RH007    0.003000   RH008    0.010300
    1CH301   1RH008   0.002000   RH010    0.044400
    1CH301   RH015    0.097000   RH018    0.047500
    1CH301   RH019    0.110100   2RH023   0.070700
    1CH301   2RH025   0.005000   1RH027   0.505000
    1CH301   1RH029   0.102000   RH096    -0.017000
    1CH301   RH107    1.455000   1RH107   -1.000000
    1CH301   2RH107   1.000000   RH113    0.003000
    2CH301   RH001    1.455000   1RH006   1.010000
    2CH301   RH007    0.003000   RH008    0.010300
    2CH301   1RH008   0.002000   RH010    0.044400
    2CH301   RH015    0.097000   RH018    0.047500
    2CH301   RH019    0.110100   2RH023   0.070700
    2CH301   2RH025   0.005000   1RH027   0.217000
    2CH301   2RH028   0.005800   1RH029   0.251800
    2CH301   4RH030   0.132400   RH060    0.288000
    2CH301   RH096    -0.027000   RH107    1.455000
    2CH301   1RH107   -1.000000   2RH107   1.000000
    2CH301   RH113    0.003000
    3CH301   2RH025   -1.000000   RH029    1.000000
    1CH119   RH026    -1.000000   1RH028   0.070000
    1CH119   RH029    0.459000   RH030    0.471000
    1CH119   1RH060   1.000000   RH096    -0.027000
    3CH119   2RH017   -1.000000   1RH028   0.080000
    3CH119   RH029    0.537000   3RH030   0.383000
    3CH119   1RH060   1.000000   RH096    -0.027000
    1CH121   RH027    -1.000000   1RH028   0.113000
    1CH121   RH029    0.525000   RH030    0.362000
    1CH121   1RH060   1.007000   RH096    -0.027000
    C1129    R1030    -1.000000   R1039    1.030000
    1C1129   R1031    -1.000000   R1039    1.040000
    1ZHREX   R0000    1.531300   RC0ST    2.554000
    1ZHREX   RH053    1.000000   RH115    -0.480000
    1ZHREX   RH116    -1.000000   RH117    1.000000
    1ZHREX   RH118    -14.000000   1RH118   -5.000000
    1ZHREX   RZ020    1.000000
    SLACK7232 RCRFT    1.000000
    SLACK7233 RA037    1.000000
    SLACK7234 RA055    1.000000
    SLACK7235 1RA055   1.000000
    SLACK7236 RA056    1.000000
    SLACK7237 RA057    1.000000
    SLACK7238 RA058    1.000000
    SLACK7239 RA059    1.000000
    SLACK7240 RA060    1.000000
    SLACK7241 2RA060   1.000000
    SLACK7242 3RA060   1.000000
    SLACK7243 RA061    1.000000
    SLACK7244 RA062    1.000000
    SLACK7245 RA063    1.000000
    SLACK7246 RA064    1.000000
    SLACK7247 RA065    1.000000
    SLACK7248 RA066    1.000000
    SLACK7249 RA067    1.000000
    SLACK7250 RA068    1.000000
    SLACK7251 RA069    1.000000
    SLACK7252 RA070    1.000000
    SLACK7253 RA072    1.000000
    SLACK7254 RA075    1.000000
    SLACK7255 1RA075   1.000000
    SLACK7256 RA076    1.000000
    SLACK7257 1RA076   1.000000
    SLACK7258 RA077    1.000000
    SLACK7259 RA078    1.000000
    SLACK7260 1RA078   1.000000
    SLACK7261 RA079    1.000000
    SLACK7262 1RA079   1.000000
    SLACK7263 RA081    1.000000
    SLACK7264 1RA081   1.000000
    SLACK7265 RA082    1.000000
    SLACK7266 RA083    1.000000
    SLACK7267 RA084    1.000000
    SLACK7268 RA085    1.000000
    SLACK7269 RA086    1.000000
    SLACK7270 RA087    1.000000
    SLACK7271 RA088    1.000000
    SLACK7272 RA089    1.000000
    SLACK7273 RA090    1.000000
    SLACK7274 RA091    1.000000
    SLACK7275 RA092    1.000000
    SLACK7276 RA093    1.000000
    SLACK7277 RA094    1.000000
    SLACK7278 RA095    1.000000
    SLACK7279 RA096    1.000000
    SLACK7280 RA100    1.000000
    SLACK7281 RB046    1.000000
    SLACK7282 RB057    1.000000
    SLACK7283 RB058    1.000000
    SLACK7284 1RB058   1.000000
    SLACK7285 RB059    1.000000
    SLACK7286 RB060    1.000000
    SLACK7287 RB061    1.000000
    SLACK7288 RB062    1.000000
    SLACK7289 RB063    1.000000
    SLACK7290 RB065    1.000000
    SLACK7291 RB066    1.000000
    SLACK7292 RB067    1.000000
    SLACK7293 RB069    1.000000
    SLACK7294 RB070    1.000000
    SLACK7295 RB071    1.000000
    SLACK7296 RB072    1.000000
    SLACK7297 RB074    1.000000
    SLACK7298 RB075    1.000000
    SLACK7299 RB076    1.000000
    SLACK7300 RB077    1.000000
    SLACK7301 RB078    1.000000
    SLACK7302 RB079    1.000000
    SLACK7303 RB080    1.000000
    SLACK7304 RB081    1.000000
    SLACK7305 RB082    1.000000
    SLACK7306 RB083    1.000000
    SLACK7307 RB084    1.000000
    SLACK7308 RB085    1.000000
    SLACK7309 RB086    1.000000
    SLACK7310 RB087    1.000000
    SLACK7311 1RB087   1.000000
    SLACK7312 RB088    1.000000
    SLACK7313 RB089    1.000000
    SLACK7314 RB090    1.000000
    SLACK7315 1RB090   1.000000
    SLACK7316 RB091    1.000000
    SLACK7317 RB092    1.000000
    SLACK7318 1RB092   1.000000
    SLACK7319 RB093    1.000000
    SLACK7320 1RB093   1.000000
    SLACK7321 RB094    1.000000
    SLACK7322 RB095    1.000000
    SLACK7323 RB096    1.000000
    SLACK7324 RB097    1.000000
    SLACK7325 RB098    1.000000
    SLACK7326 RB099    1.000000
    SLACK7327 RB100    1.000000
    SLACK7328 RB101    1.000000
    SLACK7329 RB102    1.000000
    SLACK7330 RB103    1.000000
    SLACK7331 RB104    1.000000
    SLACK7332 RB105    1.000000
    SLACK7333 RB106    1.000000
    SLACK7334 RE005    1.000000
    SLACK7335 RE061    1.000000
    SLACK7336 1RE061   1.000000
    SLACK7337 2RE061   1.000000
    SLACK7338 RE062    1.000000
    SLACK7339 RE063    1.000000
    SLACK7340 RE064    1.000000
    SLACK7341 RE066    1.000000
    SLACK7342 RE068    1.000000
    SLACK7343 RE069    1.000000
    SLACK7344 RE070    1.000000
    SLACK7345 RE071    1.000000
    SLACK7346 RE072    1.000000
    SLACK7347 RE073    1.000000
    SLACK7348 RE074    1.000000
    SLACK7349 RE075    1.000000
    SLACK7350 RE084    1.000000
    SLACK7351 RE085    1.000000
    SLACK7352 RE086    1.000000
    SLACK7353 RE087    1.000000
    SLACK7354 RE088    1.000000
    SLACK7355 RE089    1.000000
    SLACK7356 RE090    1.000000
    SLACK7357 RE091    1.000000
    SLACK7358 RE092    1.000000
    SLACK7359 RE098    1.000000
    SLACK7360 RE099    1.000000
    SLACK7361 RE100    1.000000
    SLACK7362 RE101    1.000000
    SLACK7363 RE102    1.000000
    SLACK7364 RE104    1.000000
    SLACK7365 RH001    1.000000
    SLACK7366 RH054    1.000000
    SLACK7367 1RH054   1.000000
    SLACK7368 RH055    1.000000
    SLACK7369 RH056    1.000000
    SLACK7370 RH057    1.000000
    SLACK7371 RH058    1.000000
    SLACK7372 RH059    1.000000
    SLACK7373 RH060    1.000000
    SLACK7374 1RH060   1.000000
    SLACK7375 RH061    1.000000
    SLACK7376 RH062    1.000000
    SLACK7377 RH064    1.000000
    SLACK7378 RH065    1.000000
    SLACK7379 RH066    1.000000
    SLACK7380 1RH066   1.000000
    SLACK7381 RH068    1.000000
    SLACK7382 RH069    1.000000
    SLACK7383 RH070    1.000000
    SLACK7384 RH071    1.000000
    SLACK7385 RH073    1.000000
    SLACK7386 RH074    1.000000
    SLACK7387 RH075    1.000000
    SLACK7388 RH080    1.000000
    SLACK7389 RH081    1.000000
    SLACK7390 RH082    1.000000
    SLACK7391 RH083    1.000000
    SLACK7392 RH084    1.000000
    SLACK7393 RH085    1.000000
    SLACK7394 RH086    1.000000
    SLACK7395 RH087    1.000000
    SLACK7396 RH088    1.000000
    SLACK7397 RH089    1.000000
    SLACK7398 1RH089   1.000000
    SLACK7399 2RH089   1.000000
    SLACK7400 3RH089   1.000000
    SLACK7401 RH090    1.000000
    SLACK7402 1RH090   1.000000
    SLACK7403 2RH090   1.000000
    SLACK7404 RH091    1.000000
    SLACK7405 RH093    1.000000
    SLACK7406 1RH093   1.000000
    SLACK7407 RH094    1.000000
    SLACK7408 RH099    1.000000
    SLACK7409 RH103    1.000000
    SLACK7410 RH105    1.000000
    SLACK7411 RH106    1.000000
    SLACK7412 1RH106   1.000000
    SLACK7413 2RH106   1.000000
    SLACK7414 RH107    1.000000
    SLACK7415 1RH107   1.000000
    SLACK7416 2RH107   1.000000
    SLACK7417 RH108    1.000000
    SLACK7418 1RH109   1.000000
    SLACK7419 2RH109   1.000000
    SLACK7420 RH110    1.000000
    SLACK7421 RH115    1.000000
    SLACK7422 RH116    1.000000
    SLACK7423 RH117    1.000000
    SLACK7424 RH118    1.000000
    SLACK7425 1RH118   1.000000
    SLACK7426 2R1006   1.000000
    SLACK7427 1R1009   1.000000
    SLACK7428 1R1039   1.000000
    SLACK7429 R1042    1.000000
    SLACK7430 1R1057   1.000000
    SLACK7431 R1070    1.000000
    SLACK7432 R1071    1.000000
    SLACK7433 1R1071   1.000000
    SLACK7434 2R1071   1.000000
    SLACK7435 R1072    1.000000
    SLACK7436 R1073    1.000000
    SLACK7437 R1074    1.000000
    SLACK7438 R1076    1.000000
    SLACK7439 R1077    1.000000
    SLACK7440 R1078    1.000000
    SLACK7441 R1080    1.000000
    SLACK7442 R1081    1.000000
    SLACK7443 R1082    1.000000
    SLACK7444 R1086    1.000000
    SLACK7445 R1087    1.000000
    SLACK7446 R1088    1.000000
    SLACK7447 R1089    1.000000
    SLACK7448 R1090    1.000000
    SLACK7449 R1091    1.000000
    SLACK7450 R1092    1.000000
    SLACK7451 R1093    1.000000
    SLACK7452 R1094    1.000000
    SLACK7453 R1095    1.000000
    SLACK7454 R1096    1.000000
    SLACK7455 R1097    1.000000
    SLACK7456 R1098    1.000000
    SLACK7457 R1099    1.000000
    SLACK7458 R1100    1.000000
    SLACK7459 R1101    1.000000
    SLACK7460 R1102    1.000000
    SLACK7461 1R1102   1.000000
    SLACK7462 R1103    1.000000
    SLACK7463 R1104    1.000000
    SLACK7464 R1105    1.000000
    SLACK7465 R1106    1.000000
    SLACK7466 R1107    1.000000
    SLACK7467 R1108    1.000000
    SLACK7468 R1109    1.000000
    SLACK7469 R1110    1.000000
    SLACK7470 R1111    1.000000
    SLACK7471 R1112    1.000000
    SLACK7472 R1113    1.000000
    SLACK7473 R1114    1.000000
    SLACK7474 R1115    1.000000
    SLACK7475 RJ034    1.000000
    SLACK7476 2RJ037   1.000000
    SLACK7477 RJ048    1.000000
    SLACK7478 RJ049    1.000000
    SLACK7479 RJ050    1.000000
    SLACK7480 1RJ050   1.000000
    SLACK7481 RJ051    1.000000
    SLACK7482 RJ053    1.000000
    SLACK7483 RJ054    1.000000
    SLACK7484 RJ056    1.000000
    SLACK7485 RJ057    1.000000
    SLACK7486 RJ061    1.000000
    SLACK7487 RJ062    1.000000
    SLACK7488 RJ063    1.000000
    SLACK7489 RJ064    1.000000
    SLACK7490 RJ065    1.000000
    SLACK7491 RJ066    1.000000
    SLACK7492 RJ067    1.000000
    SLACK7493 RJ068    1.000000
    SLACK7494 RJ069    1.000000
    SLACK7495 RJ070    1.000000
    SLACK7496 RJ071    1.000000
    SLACK7497 RJ072    1.000000
    SLACK7498 RJ073    1.000000
    SLACK7499 1RJ073   1.000000
    SLACK7500 RJ074    1.000000
    SLACK7501 1RJ074   1.000000
    SLACK7502 RJ075    1.000000
    SLACK7503 RJ076    1.000000
    SLACK7504 1RJ076   1.000000
    SLACK7505 RJ077    1.000000
    SLACK7506 RJ078    1.000000
    SLACK7507 RJ079    1.000000
    SLACK7508 RJ080    1.000000
    SLACK7509 RJ095    1.000000
    SLACK7510 RJ096    1.000000
    SLACK7511 RJ099    1.000000
    SLACK7512 RJ100    1.000000
    SLACK7513 RJ102    1.000000
    SLACK7514 RJ103    1.000000
    SLACK7515 RJ104    1.000000
    SLACK7516 RJ105    1.000000
    SLACK7517 RJ106    1.000000
    SLACK7518 1RM001   1.000000
    SLACK7519 UKLDF    1.000000
    SLACK7520 HSPMS    1.000000
    SLACK7521 HSRMS    1.000000
    SLACK7522 HSLDF    1.000000
    SLACK7523 HSATK    1.000000
    SLACK7524 NSG17    1.000000
    SLACK7525 HSG58    1.000000
    SLACK7526 HSF80    1.000000
    SLACK7527 RY005    1.000000
    SLACK7528 RABDH    1.000000
    SLACK7529 RGACH    1.000000
    SLACK7530 RHN1G    1.000000
    SLACK7531 RK1RK    1.000000
    SLACK7532 RL1BY    1.000000
    SLACK7533 RMN1G    1.000000
    SLACK7534 RMURB    1.000000
    SLACK7535 RQATR    1.000000
    SLACK7536 RT1JA    1.000000
RHS
    .00001   2SF145   29.000000
    .00001   2SF089   60.000000
    .00001   2SF129   73.000000
    .00001   30M00    77.000000
    .00001   30M94    27.000000
    .00001   30M91    44.000000
    .00001   30ATK    4.000000
    .00001   30PGK    23.000000
    .00001   30G30    44.000000
    .00001   30G17    164.000000
    .00001   30G44    31.000000
    .00001   30G22    79.000000
    .00001   30D22    19.000000
    .00001   30D30    1.000000
    .00001   30121    4.000000
    .00001   30F52    86.000000
    .00001   30F48    88.000000
    .00001   30128    20.000000
    .00001   RCRFT    -62.500000
    .00001   RA009    0.800000
    .00001   RA023    2.000000
    .00001   RA035    2.420000
    .00001   RA036    12.130000
    .00001   RA037    12.200000
    .00001   RA038    4.600000
    .00001   RA040    1.000000
    .00001   RA041    31.000000
    .00001   RA043    25.000000
    .00001   1RA043   7.000000
    .00001   RA044    24.000000
    .00001   RA046    8.000000
    .00001   RA047    5.000000
    .00001   RA049    2.000000
    .00001   RA051    68.299998
    .00001   RA052    32.000000
    .00001   1RA052   5.000000
    .00001   RA054    19.000000
    .00001   RA055    700.000000
    .00001   1RA055   350.000000
    .00001   RA056    135.000000
    .00001   RA057    230.000000
    .00001   RA058    115.000000
    .00001   1RA058   45.000000
    .00001   RA059    60.000000
    .00001   RA060    35.000000
    .00001   2RA060   25.000000
    .00001   3RA060   133.000000
    .00001   RA097    80.000000
    .00001   1RA099   28.000000
    .00001   RB002    215.000000
    .00001   2RB005   3.600000
    .00001   1RB006   6.400000
    .00001   2RB007   22.000000
    .00001   1RB022   12.000000
    .00001   2RB030   5.000000
    .00001   RB031    4.000000
    .00001   1RB031   5.000000
    .00001   RB033    9.000000
    .00001   RB035    60.000000
    .00001   RB037    31.000000
    .00001   RB038    10.000000
    .00001   1RB038   52.000000
    .00001   RB039    6.000000
    .00001   RB040    6.500000
    .00001   1RB040   1.200000
    .00001   2RB040   1.100000
    .00001   RB041    7.000000
    .00001   RB042    22.000000
    .00001   1RB043   0.800000
    .00001   1RB044   1.800000
    .00001   1RB045   51.000000
    .00001   4RB045   33.000000
    .00001   RB046    60.000000
    .00001   3RB047   30.000000
    .00001   RB048    24.700000
    .00001   2RB049   4.000000
    .00001   RB050    57.000000
    .00001   2RB051   113.000000
    .00001   RB052    23.000000
    .00001   RB053    89.000000
    .00001   RB054    28.000000
    .00001   1RB054   28.000000
    .00001   RB055    14.000000
    .00001   RB057    96.700000
    .00001   RB058    1321.899979
    .00001   1RB058   881.299988
    .00001   RB059    182.099997
    .00001   RB060    110.599999
    .00001   RB061    130.299997
    .00001   RB062    23.500000
    .00001   RB063    22.000000
    .00001   RB098    18.000000
    .00001   RB099    50.000000
    .00001   RB101    1376.199966
    .00001   RCLD4    34.000000
    .00001   RCF35    14.000000
    .00001   RCF80    98.000000
    .00001   RDBMS    16.000000
    .00001   RDLD4    11.000000
    .00001   RDK19    55.000000
    .00001   RDG55    1.000000
    .00001   RDF35    83.000000
    .00001   RE005    67.000000
    .00001   RE008    4.300000
    .00001   RE009    4.800000
    .00001   RE010    1.500000
    .00001   RE011    1.800000
    .00001   RE036    56.000000
    .00001   RE040    17.000000
    .00001   RE044    7.000000
    .00001   RE046    11.000000
    .00001   RE047    18.000000
    .00001   RE049    5.000000
    .00001   RE050    72.000000
    .00001   RE055    23.000000
    .00001   RE057    17.000000
    .00001   RE060    -4.700000
    .00001   RE061    400.000000
    .00001   1RE061   -160.000000
    .00001   2RE061   280.000000
    .00001   RE062    120.000000
    .00001   RE063    105.000000
    .00001   RE064    35.000000
    .00001   RE066    9.340000
    .00001   RE103    4.000000
    .00001   RH001    1972.699966
    .00001   RH008    19.400000
    .00001   1RH008   3.200000
    .00001   RH009    -1.000000
    .00001   RH010    1.000000
    .00001   RH011    4.000000
    .00001   RH016    -14.200000
    .00001   RH018    0.200000
    .00001   2RH025   -16.000000
    .00001   RH031    44.300000
    .00001   RH032    14.000000
    .00001   1RH034   8.000000
    .00001   1RH035   42.000000
    .00001   1RH036   22.000000
    .00001   RH038    2.680000
    .00001   2RH038   4.030000
    .00001   2RH039   30.000000
    .00001   RH041    14.000000
    .00001   RH042    30.000000
    .00001   2RH042   48.000000
    .00001   RH046    73.000000
    .00001   3RH048   38.000000
    .00001   RH050    30.000000
    .00001   1RH051   89.000000
    .00001   2RH051   12.000000
    .00001   2RH052   177.699997
    .00001   3RH052   49.000000
    .00001   4RH052   50.000000
    .00001   2RH053   16.000000
    .00001   3RH053   26.300000
    .00001   RH054    4.880000
    .00001   1RH054   80.000000
    .00001   RH055    3.660000
    .00001   RH056    60.000000
    .00001   RH057    323.299995
    .00001   RH058    98.000000
    .00001   RH059    18.340000
    .00001   RH060    390.399994
    .00001   RH061    134.199999
    .00001   RH062    1.020000
    .00001   RH096    3.970000
    .00001   RH099    109.799999
    .00001   RH103    200.000000
    .00001   RH105    45.750000
    .00001   RH106    2000.000000
    .00001   1RH106   60.000000
    .00001   2RH106   300.000000
    .00001   RH107    986.399986
    .00001   2RH107   260.000000
    .00001   RH109    73.000000
    .00001   RH114    18.800000
    .00001   R1003    175.000000
    .00001   2R1006   130.000000
    .00001   R1009    4.710000
    .00001   1R1009   1.200000
    .00001   R1010    4.100000
    .00001   R1012    8.700000
    .00001   R1039    54.900000
    .00001   1R1039   35.000000
    .00001   R1040    23.200000
    .00001   R1041    11.000000
    .00001   R1042    -10.000000
    .00001   R1043    -0.600000
    .00001   R1045    6.000000
    .00001   R1047    52.000000
    .00001   R1051    27.800000
    .00001   R1055    62.000000
    .00001   R1057    15.000000
    .00001   1R1057   15.000000
    .00001   R1058    3.000000
    .00001   R1061    36.000000
    .00001   2R1062   49.000000
    .00001   2R1063   8.000000
    .00001   1R1064   24.000000
    .00001   R1065    61.000000
    .00001   R1066    10.000000
    .00001   1R1068   154.000000
    .00001   R1069    44.000000
    .00001   R1070    14.000000
    .00001   R1071    635.899986
    .00001   1R1071   793.000000
    .00001   2R1071   823.500000
    .00001   R1072    231.799999
    .00001   R1073    129.900000
    .00001   R1074    16.500000
    .00001   RJ001    200.000000
    .00001   RJ003    24.000000
    .00001   RJ007    0.900000
    .00001   1RJ007   4.000000
    .00001   RJ008    5.000000
    .00001   RJ031    6.600000
    .00001   RJ032    3.600000
    .00001   RJ033    6.400000
    .00001   RJ034    160.000000
    .00001   RJ036    44.000000
    .00001   1RJ036   42.000000
    .00001   1RJ037   17.000000
    .00001   2RJ037   -2.000000
    .00001   RJ038    31.000000
    .00001   RJ039    2.000000
    .00001   RJ040    22.000000
    .00001   RJ043    66.000000
    .00001   RJ045    56.000000
    .00001   RJ046    193.000000
    .00001   RJ047    17.000000
    .00001   RJ048    1432.299973
    .00001   RJ049    69.000000
    .00001   RJ050    78.900000
    .00001   1RJ050   97.599999
    .00001   RJ051    9.000000
    .00001   RJ079    320.000000
    .00001   RJ080    180.000000
    .00001   RJ081    1.000000
    .00001   RJ084    24.000000
    .00001   1RJ084   8.000000
    .00001   RJ089    10.000000
    .00001   RJ091    193.000000
    .00001   RJ092    4.000000
    .00001   RJ100    13.500000
    .00001   1RM001   208.000000
    .00001   RM011    4.500000
    .00001   RM012    4.500000
    .00001   RN009    18.000000
    .00001   RR010    30.000000
    .00001   RR021    68.000000
    .00001   RRG29    81.000000
    .00001   HSPMS    100.000000
    .00001   HSRMS    100.000000
    .00001   HSLDF    50.000000
    .00001   HSATK    30.000000
    .00001   NSG17    100.000000
    .00001   HSG58    100.000000
    .00001   HSF80    100.000000
    .00001   RT005    85.000000
    .00001   RT006    15.000000
    .00001   3RT006   9.000000
    .00001   4RT006   15.000000
    .00001   RV001    10.000000
    .00001   RV002    22.000000
    .00001   RV003    4.000000
    .00001   RXATG    16.000000
    .00001   RXF72    26.000000
    .00001   RY001    7.000000
    .00001   1RY001   29.000000
    .00001   RY005    518.000000
    .00001   RZ002    4.000000
    .00001   RZ004    19.000000
    .00001   RZ005    23.000000
    .00001   RZ012    43.000000
    .00001   RZ016    63.000000
    .00001   RZ019    30.000000
    .00001   RZ020    118.000000
    .00001   RABDH    506.000000
    .00001   RAGJA    575.000000
    .00001   RGACH    966.000000
    .00001   RHN1G    436.000000
    .00001   RK1RK    272.000000
    .00001   RL1BY    200.000000
    .00001   RMN1G    79.000000
    .00001   RMURB    148.000000
    .00001   RQATR    146.000000
    .00001   RT1JA    247.000000
BOUNDS
ENDATA
