NAME          ADLITTLE
ROWS
 N  .Z....  
 E  ....01  
 E  ....02  
 E  ....03  
 E  ....04  
 E  ....05  
 E  ....06  
 E  ....07  
 E  ....08  
 E  ....09  
 E  ....10  
 E  ....11  
 E  ....12  
 E  ....13  
 E  ....14  
 E  ....15  
 E  ....16  
 E  ....17  
 E  ....18  
 E  ....19  
 E  ....20  
 E  ....21  
 E  ....22  
 E  ....23  
 E  ....24  
 E  ....25  
 E  ....26  
 E  ....27  
 E  ....28  
 E  ....29  
 E  ....30  
 E  ....31  
 E  ....32  
 E  ....33  
 E  ....34  
 E  ....35  
 E  ....36  
 E  ....37  
 E  ....38  
 E  ....39  
 E  ....40  
 E  ....41  
 E  ....42  
 E  ....43  
 E  ....44  
 E  ....45  
 E  ....46  
 E  ....47  
 E  ....48  
 E  ....49  
 E  ....50  
 E  ....51  
 E  ....52  
 E  ....53  
 E  ....54  
 E  ....55  
 E  ....56  
COLUMNS
    ...100   .Z....   -3280.000000   ....01   0.506000
    ...100   ....04   1.000000   ....05   0.182000
    ...100   ....55   0.312000
    ...101   .Z....   -3280.000000   ....01   0.638000
    ...101   ....04   1.000000   ....05   0.050000
    ...101   ....55   0.312000
    ...102   .Z....   3310.000000   ....01   -1.000000
    ...103   .Z....   -1890.000000   ....05   0.920000
    ...103   ....30   1.000000   ....49   -9.500000
    ...103   ....52   -0.042000   ....53   -0.063000
    ...103   ....55   0.080000
    ...104   ....34   0.825000   ....35   0.175000
    ...104   ....40   1.000000   ....51   16.000000
    ...105   ....35   0.175000   ....40   1.000000
    ...105   ....46   0.825000   ....51   21.000000
    ...106   .Z....   -1890.000000   ....06   1.000000
    ...106   ....30   1.000000   ....49   3.600000
    ...106   ....52   -0.042000   ....53   -0.063000
    ...107   .Z....   -903.000000   ....06   1.000000
    ...107   ....38   1.000000
    ...108   ....06   1.000000   ....50   -0.800000
    ...109   .Z....   432.000000   ....31   -1.230000
    ...109   ....42   0.230000
    ...110   .Z....   432.000000   ....32   -1.230000
    ...110   ....43   0.230000   ....56   1.000000
    ...111   .Z....   432.000000   ....33   -1.230000
    ...111   ....44   0.230000   ....56   1.000000
    ...112   .Z....   446.000000   ....07   1.000000
    ...112   ....31   -1.000000
    ...113   .Z....   446.000000   ....07   1.000000
    ...113   ....32   -1.000000
    ...114   .Z....   446.000000   ....07   1.000000
    ...114   ....33   -1.000000
    ...115   .Z....   450.000000   ....08   1.000000
    ...115   ....31   -0.950000   ....42   -0.050000
    ...116   .Z....   450.000000   ....08   1.000000
    ...116   ....32   -0.950000   ....43   -0.050000
    ...117   .Z....   450.000000   ....08   1.000000
    ...117   ....33   -0.950000   ....44   -0.050000
    ...118   .Z....   459.000000   ....09   1.000000
    ...118   ....31   -0.790000   ....42   -0.210000
    ...119   .Z....   459.000000   ....09   1.000000
    ...119   ....32   -0.790000   ....43   -0.210000
    ...120   .Z....   459.000000   ....09   1.000000
    ...120   ....33   -0.790000   ....44   -0.210000
    ...121   .Z....   483.000000   ....11   1.000000
    ...121   ....31   -0.420000   ....42   -0.580000
    ...122   .Z....   483.000000   ....11   1.000000
    ...122   ....32   -0.420000   ....43   -0.580000
    ...123   .Z....   483.000000   ....11   1.000000
    ...123   ....33   -0.420000   ....44   -0.580000
    ...124   .Z....   500.000000   ....12   1.000000
    ...124   ....31   -0.050000   ....42   -0.950000
    ...125   .Z....   500.000000   ....12   1.000000
    ...125   ....32   -0.050000   ....43   -0.950000
    ...126   .Z....   500.000000   ....12   1.000000
    ...126   ....33   -0.050000   ....44   -0.950000
    ...127   .Z....   493.000000   ....13   1.000000
    ...127   ....31   -0.260000   ....42   -0.740000
    ...128   .Z....   493.000000   ....13   1.000000
    ...128   ....32   -0.260000   ....43   -0.740000
    ...129   .Z....   493.000000   ....13   1.000000
    ...129   ....33   -0.260000   ....44   -0.740000
    ...130   .Z....   -1890.000000   ....14   1.000000
    ...130   ....30   1.000000   ....49   -3.200000
    ...130   ....52   -0.042000   ....53   -0.063000
    ...131   .Z....   -903.000000   ....14   1.000000
    ...131   ....38   1.000000
    ...132   .Z....   506.000000   ....17   1.000000
    ...132   ....31   0.260000   ....42   -1.260000
    ...133   ....14   1.000000   ....50   -0.800000
    ...134   .Z....   506.000000   ....17   1.000000
    ...134   ....32   0.260000   ....43   -1.260000
    ...135   .Z....   506.000000   ....17   1.000000
    ...135   ....33   0.260000   ....44   -1.260000
    ...136   .Z....   505.000000   ....15   1.000000
    ...136   ....31   0.160000   ....42   -1.160000
    ...137   .Z....   505.000000   ....15   1.000000
    ...137   ....32   0.160000   ....43   -1.160000
    ...138   .Z....   505.000000   ....15   1.000000
    ...138   ....33   0.160000   ....44   -1.160000
    ...139   .Z....   499.000000   ....16   1.000000
    ...139   ....31   -0.160000   ....42   -0.840000
    ...140   .Z....   499.000000   ....16   1.000000
    ...140   ....32   -0.160000   ....43   -0.840000
    ...141   .Z....   499.000000   ....16   1.000000
    ...141   ....33   -0.160000   ....44   -0.840000
    ...142   ....10   -1.000000
    ...143   ....02   1.000000   ....03   0.790000
    ...143   ....10   37.000000   ....28   0.494000
    ...143   ....34   0.506000   ....54   2.274240
    ...144   ....02   1.000000   ....03   0.530000
    ...144   ....10   47.000000   ....28   0.492000
    ...144   ....46   0.508000   ....54   2.263200
    ...145   .Z....   512.000000   ....18   1.000000
    ...145   ....31   0.620000   ....42   -1.620000
    ...146   .Z....   512.000000   ....18   1.000000
    ...146   ....32   0.620000   ....43   -1.620000
    ...147   .Z....   512.000000   ....18   1.000000
    ...147   ....33   0.620000   ....44   -1.620000
    ...148   .Z....   70.900000   ....01   -0.247000
    ...148   ....06   0.172600   ....14   -0.312200
    ...148   ....20   1.783000   ....28   0.470300
    ...148   ....50   -0.092800   ....54   1.400150
    ...149   .Z....   39.800000   ....01   -0.157000
    ...149   ....14   -0.239900   ....20   1.000000
    ...149   ....28   0.427300   ....50   -0.036100
    ...149   ....54   1.204040
    ...150   .Z....   39.800000   ....01   -0.157000
    ...150   ....14   -0.278900   ....20   1.000000
    ...150   ....28   0.466300   ....50   -0.036100
    ...150   ....54   1.434980
    ...151   .Z....   2.040000   ....26   1.000000
    ...151   ....28   0.550000   ....50   -0.520000
    ...151   ....54   0.600000
    ...152   ....28   1.000000   ....50   -1.000000
    ...152   ....54   1.800000
    ...153   .Z....   1.800000   ....03   -0.330000
    ...153   ....21   1.000000   ....50   0.017000
    ...154   .Z....   1.800000   ....21   1.000000
    ...154   ....37   -0.330000
    ...155   .Z....   -2600.000000   ....01   0.200000
    ...155   ....14   0.730000   ....29   1.000000
    ...155   ....55   0.070000
    ...156   .Z....   -2600.000000   ....14   0.720000
    ...156   ....29   1.000000   ....47   0.200000
    ...156   ....55   0.080000
    ...157   .Z....   10.400000   ....02   1.000000
    ...157   ....03   0.250000   ....10   45.000000
    ...157   ....22   0.875000   ....28   0.367500
    ...157   ....34   0.632500   ....50   0.025360
    ...157   ....54   1.614000
    ...158   .Z....   10.400000   ....02   1.000000
    ...158   ....03   0.200000   ....10   55.000000
    ...158   ....22   0.875000   ....28   0.365000
    ...158   ....46   0.635000   ....50   0.025380
    ...158   ....54   1.590000
    ...159   .Z....   28.800000   ....19   1.000000
    ...159   ....28   -0.828000   ....31   1.000000
    ...159   ....34   -0.095000   ....35   -0.020000
    ...159   ....50   0.012000   ....54   -1.420000
    ...159   ....55   -0.046700
    ...160   .Z....   43.400000   ....01   -0.002200
    ...160   ....06   -0.019200   ....19   1.000000
    ...160   ....27   0.679000   ....28   -0.808000
    ...160   ....32   1.000000   ....34   -0.095000
    ...160   ....35   -0.020000   ....50   0.020500
    ...160   ....54   -1.840000   ....55   -0.046700
    ...161   .Z....   30.400000   ....01   -0.002200
    ...161   ....06   -0.019200   ....24   1.000000
    ...161   ....27   0.679000   ....28   -0.808000
    ...161   ....33   1.000000   ....34   -0.095000
    ...161   ....35   -0.020000   ....50   0.020500
    ...161   ....54   -1.840000   ....55   -0.046700
    ...162   ....28   -1.000000   ....34   1.000000
    ...162   ....54   -5.200000
    ...163   ....28   -1.000000   ....35   1.000000
    ...163   ....54   -6.700000
    ...164   .Z....   -1218.000000   ....35   1.000000
    ...164   ....48   1.000000
    ...165   ....35   1.000000   ....50   -0.800000
    ...166   ....28   0.482000   ....34   0.498000
    ...166   ....35   0.020000   ....36   1.000000
    ...166   ....37   0.790000   ....54   2.217000
    ...167   ....28   0.474000   ....35   0.020000
    ...167   ....36   1.000000   ....37   0.530000
    ...167   ....46   0.506000   ....54   2.180000
    ...168   .Z....   -1322.000000   ....06   0.070000
    ...168   ....35   0.100000   ....39   1.000000
    ...168   ....55   0.830000
    ...169   .Z....   -1322.000000   ....35   0.070000
    ...169   ....39   1.000000   ....46   0.330000
    ...169   ....55   0.600000
    ...170   .Z....   -1322.000000   ....34   0.330000
    ...170   ....35   0.070000   ....39   1.000000
    ...170   ....55   0.600000
    ...171   .Z....   -1660.000000   ....22   0.625000
    ...171   ....28   -0.125000   ....34   1.125000
    ...171   ....41   1.000000   ....50   0.018120
    ...171   ....54   -0.650000
    ...172   .Z....   -1670.000000   ....41   1.000000
    ...172   ....46   1.000000
    ...173   .Z....   14.800000   ....22   1.250000
    ...173   ....28   -0.250000   ....34   1.031250
    ...173   ....35   0.218750   ....40   1.000000
    ...173   ....50   0.036250   ....51   30.000000
    ...173   ....54   -1.365620
    ...174   .Z....   14.800000   ....22   1.250000
    ...174   ....28   -0.250000   ....35   0.218750
    ...174   ....40   1.000000   ....46   1.031250
    ...174   ....50   0.036250   ....51   35.000000
    ...174   ....54   -1.383750
    ...175   .Z....   28.800000   ....19   1.072000
    ...175   ....28   -0.706000   ....35   -0.027000
    ...175   ....42   1.000000   ....46   -0.128000
    ...175   ....50   0.012900   ....54   -1.610000
    ...175   ....55   -0.120300
    ...176   .Z....   43.000000   ....01   -0.001200
    ...176   ....06   -0.015900   ....19   1.072000
    ...176   ....27   0.534000   ....28   -0.690000
    ...176   ....35   -0.027000   ....43   1.000000
    ...176   ....46   -0.128000   ....50   0.019500
    ...176   ....54   -1.840000   ....55   -0.120300
    ...177   .Z....   30.000000   ....01   -0.001200
    ...177   ....06   -0.015900   ....24   1.000000
    ...177   ....27   0.534000   ....28   -0.690000
    ...177   ....35   -0.027000   ....44   1.000000
    ...177   ....46   -0.128000   ....50   0.019500
    ...177   ....54   -1.840000   ....55   -0.120300
    ...178   .Z....   -1763.000000   ....05   0.181000
    ...178   ....45   1.000000   ....47   0.110000
    ...178   ....55   0.709000
    ...179   .Z....   -1722.000000   ....05   0.051000
    ...179   ....45   1.000000   ....47   0.055000
    ...179   ....55   0.894000
    ...180   .Z....   -1680.000000   ....05   0.036000
    ...180   ....45   1.000000   ....55   0.964000
    ...181   ....28   -1.000000   ....46   1.000000
    ...181   ....54   -5.300000
    ...182   .Z....   -1890.000000   ....30   1.000000
    ...182   ....47   0.920000   ....49   -10.100000
    ...182   ....52   -0.042000   ....53   -0.063000
    ...182   ....55   0.080000
    ...183   .Z....   1780.000000   ....02   1.000000
    ...183   ....03   0.400000   ....10   45.000000
    ...184   .Z....   1600.000000   ....28   -1.000000
    ...184   ....54   -4.350000
    ...185   .Z....   903.000000   ....28   -1.000000
    ...185   ....54   -2.100000
    ...186   .Z....   1760.000000   ....36   1.000000
    ...186   ....37   0.800000
    ...187   .Z....   2100.000000   ....40   1.000000
    ...187   ....51   24.000000
    ...188   .Z....   1000.000000   ....49   -64.300000
    ...188   ....52   1.000000
    ...189   .Z....   1000.000000   ....49   -27.400000
    ...189   ....53   1.000000
    ...190   .Z....   -1890.000000   ....30   1.000000
    ...190   ....49   9.100000   ....52   -0.042000
    ...190   ....53   -0.063000   ....55   1.000000
    ...191   .Z....   92.100000   ....05   -0.360000
    ...191   ....23   1.000000   ....28   -0.026000
    ...191   ....47   -0.134000   ....50   -0.182000
    ...191   ....54   -0.174200   ....55   0.826000
    ...192   .Z....   -903.000000   ....38   1.000000
    ...192   ....55   1.000000
    ...193   .Z....   78.700000   ....55   1.000000
    ...194   .Z....   -1218.000000   ....48   1.000000
    ...194   ....55   1.000000
    ...195   .Z....   15.600000   ....05   -0.396000
    ...195   ....25   1.000000   ....28   -0.029000
    ...195   ....47   -0.147000   ....50   -0.119000
    ...195   ....54   -0.194000   ....55   0.810000
    ...196   ....50   -0.800000   ....55   1.000000
    SLACK11424 ....01   1.000000
    SLACK11425 ....03   1.000000
    SLACK11426 ....04   1.000000
    SLACK11427 ....05   1.000000
    SLACK11428 ....06   1.000000
    SLACK11429 ....07   1.000000
    SLACK11430 ....08   1.000000
    SLACK11431 ....09   1.000000
    SLACK11432 ....11   1.000000
    SLACK11433 ....12   1.000000
    SLACK11434 ....13   1.000000
    SLACK11435 ....14   1.000000
    SLACK11436 ....15   1.000000
    SLACK11437 ....16   1.000000
    SLACK11438 ....17   1.000000
    SLACK11439 ....18   1.000000
    SLACK11440 ....19   1.000000
    SLACK11441 ....20   1.000000
    SLACK11442 ....21   1.000000
    SLACK11443 ....22   1.000000
    SLACK11444 ....23   1.000000
    SLACK11445 ....24   1.000000
    SLACK11446 ....26   1.000000
    SLACK11447 ....27   1.000000
    SLACK11448 ....29   1.000000
    SLACK11449 ....30   1.000000
    SLACK11450 ....34   1.000000
    SLACK11451 ....35   1.000000
    SLACK11452 ....37   1.000000
    SLACK11453 ....38   1.000000
    SLACK11454 ....39   1.000000
    SLACK11455 ....41   1.000000
    SLACK11456 ....45   1.000000
    SLACK11457 ....46   1.000000
    SLACK11458 ....47   1.000000
    SLACK11459 ....48   1.000000
    SLACK11460 ....51   -1.000000
    SLACK11461 ....52   1.000000
    SLACK11462 ....53   1.000000
    SLACK11463 ....55   1.000000
    SLACK11464 ....56   1.000000
RHS
    ZZZZ0001 ....02   52.600000
    ZZZZ0001 ....03   22.700000
    ZZZZ0001 ....04   23.400000
    ZZZZ0001 ....07   108.000000
    ZZZZ0001 ....08   50.000000
    ZZZZ0001 ....09   13.000000
    ZZZZ0001 ....10   2366.000000
    ZZZZ0001 ....11   200.000000
    ZZZZ0001 ....12   265.000000
    ZZZZ0001 ....13   300.000000
    ZZZZ0001 ....15   31.000000
    ZZZZ0001 ....16   60.000000
    ZZZZ0001 ....17   134.000000
    ZZZZ0001 ....18   34.000000
    ZZZZ0001 ....19   413.000000
    ZZZZ0001 ....20   41.500000
    ZZZZ0001 ....21   15.000000
    ZZZZ0001 ....22   20.600000
    ZZZZ0001 ....23   13.500000
    ZZZZ0001 ....24   440.000000
    ZZZZ0001 ....26   16.000000
    ZZZZ0001 ....27   290.000000
    ZZZZ0001 ....28   -524.900000
    ZZZZ0001 ....29   3.100000
    ZZZZ0001 ....30   9.100000
    ZZZZ0001 ....36   43.000000
    ZZZZ0001 ....37   34.400000
    ZZZZ0001 ....38   15.600000
    ZZZZ0001 ....39   19.200000
    ZZZZ0001 ....40   44.900000
    ZZZZ0001 ....41   6.100000
    ZZZZ0001 ....45   13.200000
    ZZZZ0001 ....48   31.200000
    ZZZZ0001 ....50   2.500000
    ZZZZ0001 ....51   1080.000000
    ZZZZ0001 ....54   -1231.600000
    ZZZZ0001 ....56   107.000000
BOUNDS
ENDATA
