NAME          AFIRO
ROWS
 E  R09     
 E  R10     
 E  X05     
 E  X21     
 E  R12     
 E  R13     
 E  X17     
 E  X18     
 E  X19     
 E  X20     
 E  R19     
 E  R20     
 E  X27     
 E  X44     
 E  R22     
 E  R23     
 E  X40     
 E  X41     
 E  X42     
 E  X43     
 E  X45     
 E  X46     
 E  X47     
 E  X48     
 E  X49     
 E  X50     
 E  X51     
 N  COST    
COLUMNS
    X01      X48      0.301000   R09      -1.000000
    X01      R10      -1.060000   X05      1.000000
    X02      X21      -1.000000   R09      1.000000
    X02      COST     -0.400000
    X03      X46      -1.000000   R09      1.000000
    X04      X50      1.000000   R10      1.000000
    X06      X49      0.301000   R12      -1.000000
    X06      R13      -1.060000   X17      1.000000
    X07      X49      0.313000   R12      -1.000000
    X07      R13      -1.060000   X18      1.000000
    X08      X49      0.313000   R12      -1.000000
    X08      R13      -0.960000   X19      1.000000
    X09      X49      0.326000   R12      -1.000000
    X09      R13      -0.860000   X20      1.000000
    X10      X45      2.364000   X17      -1.000000
    X11      X45      2.386000   X18      -1.000000
    X12      X45      2.408000   X19      -1.000000
    X13      X45      2.429000   X20      -1.000000
    X14      X21      1.400000   R12      1.000000
    X14      COST     -0.320000
    X15      X47      -1.000000   R12      1.000000
    X16      X51      1.000000   R13      1.000000
    X22      X46      0.109000   R19      -1.000000
    X22      R20      -0.430000   X27      1.000000
    X23      X44      -1.000000   R19      1.000000
    X23      COST     -0.600000
    X24      X48      -1.000000   R19      1.000000
    X25      X45      -1.000000   R19      1.000000
    X26      X50      1.000000   R20      1.000000
    X28      X47      0.109000   R22      -0.430000
    X28      R23      1.000000   X40      1.000000
    X29      X47      0.108000   R22      -0.430000
    X29      R23      1.000000   X41      1.000000
    X30      X47      0.108000   R22      -0.390000
    X30      R23      1.000000   X42      1.000000
    X31      X47      0.107000   R22      -0.370000
    X31      R23      1.000000   X43      1.000000
    X32      X45      2.191000   X40      -1.000000
    X33      X45      2.219000   X41      -1.000000
    X34      X45      2.249000   X42      -1.000000
    X35      X45      2.279000   X43      -1.000000
    X36      X44      1.400000   R23      -1.000000
    X36      COST     -0.480000
    X37      X49      -1.000000   R23      1.000000
    X38      X51      1.000000   R22      1.000000
    X39      R23      1.000000   COST     10.000000
    SLACK11465 X05      1.000000
    SLACK11466 X21      1.000000
    SLACK11467 X17      1.000000
    SLACK11468 X18      1.000000
    SLACK11469 X19      1.000000
    SLACK11470 X20      1.000000
    SLACK11471 X27      1.000000
    SLACK11472 X44      1.000000
    SLACK11473 X40      1.000000
    SLACK11474 X41      1.000000
    SLACK11475 X42      1.000000
    SLACK11476 X43      1.000000
    SLACK11477 X45      1.000000
    SLACK11478 X46      1.000000
    SLACK11479 X47      1.000000
    SLACK11480 X48      1.000000
    SLACK11481 X49      1.000000
    SLACK11482 X50      1.000000
    SLACK11483 X51      1.000000
RHS
    B        X50      310.000000
    B        X51      300.000000
    B        X05      80.000000
    B        X17      80.000000
    B        X27      500.000000
    B        R23      44.000000
    B        X40      500.000000
BOUNDS
ENDATA
