NAME          AGG
ROWS
 E  CAP00101
 E  CAP00201
 E  CAP00301
 E  CAP00401
 E  CAP00501
 E  CAP00601
 E  CAP00701
 E  CAP00801
 E  CAP00901
 E  CAP01001
 E  CAP01101
 E  CAP01201
 E  CAP01301
 E  CAP01401
 E  CAP01501
 E  CAP01601
 E  CAP01701
 E  CAP01801
 E  CAP02001
 E  CAP02201
 E  CAP02501
 E  CAP02701
 E  CAP03101
 E  CAP03301
 E  CAP03701
 E  CAP04101
 E  CAP04301
 E  CAP04601
 E  CAP05501
 E  CAP06101
 E  CAP06201
 E  CAP06301
 E  CAP06501
 E  CAP00102
 E  CAP00202
 E  CAP00302
 E  CAP00402
 E  CAP00502
 E  CAP00602
 E  CAP00702
 E  CAP00802
 E  CAP00902
 E  CAP01002
 E  CAP01102
 E  CAP01202
 E  CAP01302
 E  CAP01402
 E  CAP01502
 E  CAP01602
 E  CAP01702
 E  CAP01802
 E  CAP01902
 E  CAP02002
 E  CAP02102
 E  CAP02202
 E  CAP02302
 E  CAP02402
 E  CAP02502
 E  CAP02602
 E  CAP02702
 E  CAP02802
 E  CAP02902
 E  CAP03002
 E  CAP03102
 E  CAP03202
 E  CAP03302
 E  CAP03402
 E  CAP03502
 E  CAP03602
 E  CAP03702
 E  CAP03802
 E  CAP03902
 E  CAP04002
 E  CAP04102
 E  CAP04202
 E  CAP04302
 E  CAP04402
 E  CAP04502
 E  CAP04602
 E  CAP04702
 E  CAP04802
 E  CAP04902
 E  CAP05002
 E  CAP05102
 E  CAP05202
 E  CAP05302
 E  CAP05402
 E  CAP05502
 E  CAP05602
 E  CAP05702
 E  CAP05802
 E  CAP05902
 E  CAP06002
 E  CAP06102
 E  CAP06202
 E  CAP06302
 E  CAP06402
 E  CAP06502
 E  CAP00103
 E  CAP00203
 E  CAP00303
 E  CAP00403
 E  CAP00503
 E  CAP00603
 E  CAP00703
 E  CAP00803
 E  CAP00903
 E  CAP01003
 E  CAP01103
 E  CAP01203
 E  CAP01303
 E  CAP01403
 E  CAP01503
 E  CAP01603
 E  CAP01703
 E  CAP01803
 E  CAP01903
 E  CAP02003
 E  CAP02103
 E  CAP02203
 E  CAP02303
 E  CAP02403
 E  CAP02503
 E  CAP02603
 E  CAP02703
 E  CAP02803
 E  CAP02903
 E  CAP03003
 E  CAP03103
 E  CAP03203
 E  CAP03303
 E  CAP03403
 E  CAP03503
 E  CAP03603
 E  CAP03703
 E  CAP03803
 E  CAP03903
 E  CAP04003
 E  CAP04103
 E  CAP04203
 E  CAP04303
 E  CAP04403
 E  CAP04503
 E  CAP04603
 E  CAP04703
 E  CAP04803
 E  CAP04903
 E  CAP05003
 E  CAP05103
 E  CAP05203
 E  CAP05303
 E  CAP05403
 E  CAP05503
 E  CAP05603
 E  CAP05703
 E  CAP05803
 E  CAP05903
 E  CAP06003
 E  CAP06103
 E  CAP06203
 E  CAP06303
 E  CAP06403
 E  CAP06503
 E  CAP00104
 E  CAP00204
 E  CAP00304
 E  CAP00404
 E  CAP00504
 E  CAP00604
 E  CAP00704
 E  CAP00804
 E  CAP00904
 E  CAP01004
 E  CAP01104
 E  CAP01204
 E  CAP01304
 E  CAP01404
 E  CAP01504
 E  CAP01604
 E  CAP01704
 E  CAP01804
 E  CAP01904
 E  CAP02004
 E  CAP02104
 E  CAP02204
 E  CAP02304
 E  CAP02404
 E  CAP02504
 E  CAP02604
 E  CAP02704
 E  CAP02804
 E  CAP02904
 E  CAP03004
 E  CAP03104
 E  CAP03204
 E  CAP03304
 E  CAP03404
 E  CAP03504
 E  CAP03604
 E  CAP03704
 E  CAP03804
 E  CAP03904
 E  CAP04004
 E  CAP04104
 E  CAP04204
 E  CAP04304
 E  CAP04404
 E  CAP04504
 E  CAP04604
 E  CAP04704
 E  CAP04804
 E  CAP04904
 E  CAP05004
 E  CAP05104
 E  CAP05204
 E  CAP05304
 E  CAP05404
 E  CAP05504
 E  CAP05604
 E  CAP05704
 E  CAP05804
 E  CAP05904
 E  CAP06004
 E  CAP06104
 E  CAP06204
 E  CAP06304
 E  CAP06404
 E  CAP06504
 E  CAP00105
 E  CAP00205
 E  CAP00305
 E  CAP00405
 E  CAP00505
 E  CAP00605
 E  CAP00705
 E  CAP00805
 E  CAP00905
 E  CAP01005
 E  CAP01105
 E  CAP01205
 E  CAP01305
 E  CAP01405
 E  CAP01505
 E  CAP01605
 E  CAP01705
 E  CAP01805
 E  CAP01905
 E  CAP02005
 E  CAP02105
 E  CAP02205
 E  CAP02305
 E  CAP02405
 E  CAP02505
 E  CAP02605
 E  CAP02705
 E  CAP02805
 E  CAP02905
 E  CAP03005
 E  CAP03105
 E  CAP03205
 E  CAP03305
 E  CAP03405
 E  CAP03505
 E  CAP03605
 E  CAP03705
 E  CAP03805
 E  CAP03905
 E  CAP04005
 E  CAP04105
 E  CAP04205
 E  CAP04305
 E  CAP04405
 E  CAP04505
 E  CAP04605
 E  CAP04705
 E  CAP04805
 E  CAP04905
 E  CAP05005
 E  CAP05105
 E  CAP05205
 E  CAP05305
 E  CAP05405
 E  CAP05505
 E  CAP05605
 E  CAP05705
 E  CAP05805
 E  CAP05905
 E  CAP06005
 E  CAP06105
 E  CAP06205
 E  CAP06305
 E  CAP06405
 E  CAP06505
 E  CAP00106
 E  CAP00206
 E  CAP00306
 E  CAP00406
 E  CAP00506
 E  CAP00606
 E  CAP00706
 E  CAP00806
 E  CAP00906
 E  CAP01006
 E  CAP01106
 E  CAP01206
 E  CAP01306
 E  CAP01406
 E  CAP01506
 E  CAP01606
 E  CAP01706
 E  CAP01806
 E  CAP01906
 E  CAP02006
 E  CAP02106
 E  CAP02206
 E  CAP02306
 E  CAP02406
 E  CAP02506
 E  CAP02606
 E  CAP02706
 E  CAP02806
 E  CAP02906
 E  CAP03006
 E  CAP03106
 E  CAP03206
 E  CAP03306
 E  CAP03406
 E  CAP03506
 E  CAP03606
 E  CAP03706
 E  CAP03806
 E  CAP03906
 E  CAP04006
 E  CAP04106
 E  CAP04206
 E  CAP04306
 E  CAP04406
 E  CAP04506
 E  CAP04606
 E  CAP04706
 E  CAP04806
 E  CAP04906
 E  CAP05006
 E  CAP05106
 E  CAP05206
 E  CAP05306
 E  CAP05406
 E  CAP05506
 E  CAP05606
 E  CAP05706
 E  CAP05806
 E  CAP05906
 E  CAP06006
 E  CAP06106
 E  CAP06206
 E  CAP06306
 E  CAP06406
 E  CAP06506
 E  MND00102
 E  MXD00102
 E  MND00202
 E  MXD00202
 E  MND00502
 E  MXD00502
 E  MND00702
 E  MXD00702
 E  MND00802
 E  MXD00802
 E  MND00902
 E  MXD00902
 E  MND01002
 E  MXD01002
 E  MND00103
 E  MXD00103
 E  MND00203
 E  MXD00203
 E  MND00303
 E  MXD00303
 E  MND00403
 E  MXD00403
 E  MND00503
 E  MXD00503
 E  MND00603
 E  MXD00603
 E  MND00703
 E  MXD00703
 E  MND00803
 E  MXD00803
 E  MND00903
 E  MXD00903
 E  MND01003
 E  MXD01003
 E  MND00104
 E  MXD00104
 E  MND00204
 E  MXD00204
 E  MND00304
 E  MXD00304
 E  MND00404
 E  MXD00404
 E  MND00504
 E  MXD00504
 E  MND00604
 E  MXD00604
 E  MND00704
 E  MXD00704
 E  MND00804
 E  MXD00804
 E  MND00904
 E  MXD00904
 E  MND01004
 E  MXD01004
 E  MND00105
 E  MXD00105
 E  MND00205
 E  MXD00205
 E  MND00305
 E  MXD00305
 E  MND00405
 E  MXD00405
 E  MND00505
 E  MXD00505
 E  MND00605
 E  MXD00605
 E  MND00705
 E  MXD00705
 E  MND00805
 E  MXD00805
 E  MND00905
 E  MXD00905
 E  MND01005
 E  MXD01005
 E  MND00106
 E  MXD00106
 E  MND00206
 E  MXD00206
 E  MND00306
 E  MXD00306
 E  MND00406
 E  MXD00406
 E  MND00506
 E  MXD00506
 E  MND00606
 E  MXD00606
 E  MND00706
 E  MXD00706
 E  MND00806
 E  MXD00806
 E  MND00906
 E  MXD00906
 E  MND01006
 E  MXD01006
 E  INV00101
 E  INV00201
 E  INV00301
 E  INV00401
 E  INV00501
 E  INV00601
 E  INV00102
 E  INV00202
 E  INV00302
 E  INV00402
 E  INV00502
 E  INV00602
 E  INV00103
 E  INV00203
 E  INV00303
 E  INV00403
 E  INV00503
 E  INV00603
 E  INV00104
 E  INV00204
 E  INV00304
 E  INV00404
 E  INV00504
 E  INV00604
 E  INV00105
 E  INV00205
 E  INV00305
 E  INV00405
 E  INV00505
 E  INV00605
 E  INV00106
 E  INV00206
 E  INV00306
 E  INV00406
 E  INV00506
 E  INV00606
 N  OBJECTIV
COLUMNS
    Y00102   MND00104 1.000000   CAP01401 0.017730
    Y00102   CAP01501 0.017750   CAP06302 0.001320
    Y00102   MND00103 1.000000   INV00302 -0.768290
    Y00102   MXD00104 1.000000   INV00301 -1.140500
    Y00102   MXD00103 1.000000   CAP01502 0.012480
    Y00102   MXD00106 1.000000   CAP01402 0.013010
    Y00102   CAP06301 0.001410   MND00106 1.000000
    Y00102   MXD00102 1.000000   MND00102 1.000000
    Y00102   MND00105 1.000000   MXD00105 1.000000
    Y00102   OBJECTIV -31.090000
    Y00103   INV00302 -1.052770   CAP06302 0.001300
    Y00103   MXD00105 1.000000   OBJECTIV -29.520000
    Y00103   MND00104 1.000000   CAP01503 0.013850
    Y00103   CAP06303 0.001430   INV00303 -0.856020
    Y00103   MND00105 1.000000   CAP01402 0.016360
    Y00103   MXD00103 1.000000   CAP01403 0.014380
    Y00103   MND00103 1.000000   MXD00104 1.000000
    Y00103   CAP01502 0.016390   MXD00106 1.000000
    Y00103   MND00106 1.000000
    Y00104   MXD00104 1.000000   MND00106 1.000000
    Y00104   MND00104 1.000000   CAP01504 0.013850
    Y00104   MXD00106 1.000000   MXD00105 1.000000
    Y00104   CAP01404 0.014380   MND00105 1.000000
    Y00104   CAP01403 0.016360   CAP01503 0.016390
    Y00104   OBJECTIV -28.030000   CAP06304 0.001430
    Y00104   INV00304 -0.856020   CAP06303 0.001300
    Y00104   INV00303 -1.052770
    Y00105   MXD00106 1.000000   MND00106 1.000000
    Y00105   CAP01504 0.015780   OBJECTIV -26.610000
    Y00105   CAP01404 0.015760   MND00105 1.000000
    Y00105   INV00305 -0.895010   INV00304 -1.013780
    Y00105   CAP06305 0.001470   CAP06304 0.001250
    Y00105   MXD00105 1.000000   CAP01405 0.014980
    Y00105   CAP01505 0.014460
    Y00106   CAP01506 0.030240   CAP06306 0.002720
    Y00106   OBJECTIV -25.260000   INV00306 -1.908790
    Y00106   INV00305 -1.094880   CAP01405 0.017020
    Y00106   CAP01505 0.017040   MND00106 1.000000
    Y00106   CAP01406 0.030740   CAP06305 0.001350
    Y00106   MXD00106 1.000000
    Y00202   CAP06302 0.001320   CAP00301 0.020590
    Y00202   MXD00104 1.000000   OBJECTIV -31.150000
    Y00202   CAP00102 0.011760   MND00106 1.000000
    Y00202   MND00104 1.000000   MND00105 1.000000
    Y00202   MXD00105 1.000000   CAP06301 0.001410
    Y00202   INV00302 -0.529690   CAP00302 0.009650
    Y00202   INV00301 -1.379100   MXD00106 1.000000
    Y00202   MXD00102 1.000000   MND00102 1.000000
    Y00202   CAP00101 0.020830   MXD00103 1.000000
    Y00202   MND00103 1.000000
    Y00203   MND00104 1.000000   MXD00104 1.000000
    Y00203   MXD00103 1.000000   MND00103 1.000000
    Y00203   CAP06302 0.001300   CAP06303 0.001430
    Y00203   CAP00103 0.013360   CAP00303 0.011230
    Y00203   MXD00105 1.000000   CAP00302 0.019000
    Y00203   MND00106 1.000000   MXD00106 1.000000
    Y00203   INV00302 -1.273020   INV00303 -0.635780
    Y00203   CAP00102 0.019230   OBJECTIV -29.570000
    Y00203   MND00105 1.000000
    Y00204   MND00104 1.000000   CAP00103 0.019230
    Y00204   OBJECTIV -28.080000   MND00106 1.000000
    Y00204   MXD00106 1.000000   CAP06304 0.001430
    Y00204   CAP06303 0.001300   INV00303 -1.273020
    Y00204   INV00304 -0.635780   CAP00304 0.011230
    Y00204   CAP00104 0.013360   CAP00303 0.019000
    Y00204   MXD00104 1.000000   MND00105 1.000000
    Y00204   MXD00105 1.000000
    Y00205   INV00304 -1.225870   MXD00105 1.000000
    Y00205   CAP00305 0.011940   CAP00105 0.014080
    Y00205   CAP06304 0.001250   CAP00304 0.018300
    Y00205   INV00305 -0.682920   CAP06305 0.001470
    Y00205   CAP00104 0.018520   OBJECTIV -26.660000
    Y00205   MND00105 1.000000   MND00106 1.000000
    Y00205   MXD00106 1.000000
    Y00206   MND00106 1.000000   OBJECTIV -25.310000
    Y00206   INV00305 -1.323940   INV00306 -1.908790
    Y00206   CAP06306 0.002720   CAP00105 0.020000
    Y00206   CAP00306 0.030240   CAP00305 0.019760
    Y00206   CAP00106 0.032590   CAP06305 0.001350
    Y00206   MXD00106 1.000000
    Y00302   MXD00205 1.000000   MND00205 1.000000
    Y00302   CAP00501 0.014550   MXD00202 1.000000
    Y00302   MND00204 1.000000   OBJECTIV -25.460000
    Y00302   CAP00401 0.014260   CAP00502 0.060230
    Y00302   MND00202 1.000000   MXD00204 1.000000
    Y00302   CAP06302 0.001650   MND00206 1.000000
    Y00302   MXD00206 1.000000   INV00301 -0.677870
    Y00302   CAP06301 0.000150   CAP00402 0.046110
    Y00302   INV00302 -1.761240   MND00203 1.000000
    Y00302   MXD00203 1.000000
    Y00303   CAP00503 0.061350   CAP00403 0.047200
    Y00303   MXD00205 1.000000   MND00203 1.000000
    Y00303   OBJECTIV -30.040000   MND00204 1.000000
    Y00303   MND00205 1.000000   CAP06303 0.001660
    Y00303   MXD00203 1.000000   INV00303 -1.813390
    Y00303   INV00302 -0.625730   MXD00206 1.000000
    Y00303   MND00206 1.000000   MXD00204 1.000000
    Y00303   CAP06302 0.000140   CAP00502 0.013430
    Y00303   CAP00402 0.013160
    Y00304   CAP00503 0.013430   MXD00204 1.000000
    Y00304   MND00204 1.000000   CAP06304 0.001660
    Y00304   INV00303 -0.625730   MND00205 1.000000
    Y00304   MXD00205 1.000000   MXD00206 1.000000
    Y00304   INV00304 -1.813390   CAP00404 0.047200
    Y00304   OBJECTIV -28.520000   CAP00504 0.061350
    Y00304   CAP06303 0.000140   CAP00403 0.013160
    Y00304   MND00206 1.000000
    Y00305   MND00206 1.000000   CAP06305 0.001670
    Y00305   MXD00206 1.000000   INV00305 -1.836560
    Y00305   INV00304 -0.602550   CAP00505 0.061840
    Y00305   CAP00404 0.012680   MXD00205 1.000000
    Y00305   OBJECTIV -27.080000   CAP00504 0.012930
    Y00305   MND00205 1.000000   CAP06304 0.000130
    Y00305   CAP00405 0.047690
    Y00306   CAP06306 0.001800   CAP06305 0.000140
    Y00306   INV00306 -2.439110   CAP00406 0.060370
    Y00306   CAP00506 0.074780   CAP00505 0.013970
    Y00306   OBJECTIV -25.710000   MND00206 1.000000
    Y00306   MXD00206 1.000000   CAP00405 0.013690
    Y00306   INV00305 -0.650750
    Y00402   CAP06302 0.001650   CAP01701 0.009280
    Y00402   CAP06301 0.000150   MND00206 1.000000
    Y00402   MXD00206 1.000000   OBJECTIV -25.420000
    Y00402   CAP01602 0.051770   MXD00205 1.000000
    Y00402   MND00205 1.000000   MXD00204 1.000000
    Y00402   CAP01601 0.008600   INV00301 -0.372980
    Y00402   MXD00203 1.000000   MND00203 1.000000
    Y00402   MND00204 1.000000   MXD00202 1.000000
    Y00402   INV00302 -2.066130   MND00202 1.000000
    Y00402   CAP01702 0.061000
    Y00403   MXD00206 1.000000   INV00303 -2.094820
    Y00403   MXD00205 1.000000   MND00205 1.000000
    Y00403   MND00206 1.000000   CAP06303 0.001660
    Y00403   CAP01702 0.008570   MND00204 1.000000
    Y00403   CAP06302 0.000140   OBJECTIV -30.000000
    Y00403   CAP01603 0.052430   CAP01602 0.007940
    Y00403   CAP01703 0.061710   MXD00204 1.000000
    Y00403   INV00302 -0.344290   MND00203 1.000000
    Y00403   MXD00203 1.000000
    Y00404   MXD00204 1.000000   CAP06304 0.001660
    Y00404   INV00303 -0.344290   MND00204 1.000000
    Y00404   CAP01604 0.052430   CAP01704 0.061710
    Y00404   INV00304 -2.094820   CAP01603 0.007940
    Y00404   CAP01703 0.008570   OBJECTIV -28.480000
    Y00404   MND00206 1.000000   MXD00205 1.000000
    Y00404   MND00205 1.000000   CAP06303 0.000140
    Y00404   MXD00206 1.000000
    Y00405   MND00205 1.000000   CAP01604 0.007650
    Y00405   MXD00206 1.000000   CAP01704 0.008250
    Y00405   OBJECTIV -27.040000   CAP06304 0.000130
    Y00405   MND00206 1.000000   INV00305 -2.107580
    Y00405   CAP01605 0.052720   CAP01705 0.062030
    Y00405   CAP06305 0.001670   INV00304 -0.331540
    Y00405   MXD00205 1.000000
    Y00406   CAP01706 0.070280   CAP01605 0.008260
    Y00406   INV00305 -0.358060   MND00206 1.000000
    Y00406   MXD00206 1.000000   CAP06305 0.000140
    Y00406   INV00306 -2.439110   CAP01606 0.060370
    Y00406   CAP01705 0.008910   OBJECTIV -25.670000
    Y00406   CAP06306 0.001800
    Y00503   CAP00401 0.004010   MND00305 1.000000
    Y00503   INV00301 -0.216000   MND00304 1.000000
    Y00503   CAP06002 0.002250   CAP06003 0.001240
    Y00503   CAP00502 0.039730   MXD00306 1.000000
    Y00503   OBJECTIV -33.210000   MXD00304 1.000000
    Y00503   MND00306 1.000000   MXD00305 1.000000
    Y00503   CAP00501 0.003310   INV00302 -1.188010
    Y00503   MXD00303 1.000000   CAP00402 0.030740
    Y00503   MND00303 1.000000
    Y00504   MND00306 1.000000   CAP06004 0.001240
    Y00504   MXD00306 1.000000   MXD00304 1.000000
    Y00504   MND00304 1.000000   CAP00403 0.033410
    Y00504   CAP00402 0.001340   CAP06003 0.002250
    Y00504   INV00303 -1.296010   MXD00305 1.000000
    Y00504   MND00305 1.000000   INV00302 -0.108000
    Y00504   OBJECTIV -28.740000   CAP00503 0.043040
    Y00505   CAP06005 0.001330   OBJECTIV -27.280000
    Y00505   INV00303 -0.104000   CAP06004 0.002160
    Y00505   MXD00306 1.000000   CAP00505 0.001590
    Y00505   CAP00403 0.001290   CAP00404 0.033460
    Y00505   CAP00504 0.041450   INV00304 -1.300010
    Y00505   MND00305 1.000000   MXD00305 1.000000
    Y00505   MND00306 1.000000
    Y00506   MND00306 1.000000   INV00305 -1.516330
    Y00506   MXD00306 1.000000   CAP00405 0.037530
    Y00506   INV00306 -1.404010   OBJECTIV -25.900000
    Y00506   CAP06005 0.002340   CAP06006 0.003490
    Y00506   INV00304 -0.056160   CAP00406 0.034750
    Y00506   CAP00506 0.043040
    Y00603   MXD00303 1.000000   INV00302 -1.296010
    Y00603   MND00305 1.000000   CAP01602 0.032080
    Y00603   MND00303 1.000000   MXD00304 1.000000
    Y00603   MND00306 1.000000   CAP06002 0.002250
    Y00603   MXD00306 1.000000   CAP01702 0.037340
    Y00603   INV00301 -0.054000   CAP06003 0.001240
    Y00603   INV00303 -0.054000   CAP01703 0.002330
    Y00603   MND00304 1.000000   CAP01603 0.001670
    Y00603   CAP01701 0.000780   MXD00305 1.000000
    Y00603   OBJECTIV -33.210000   CAP01601 0.001000
    Y00604   MXD00306 1.000000   OBJECTIV -28.740000
    Y00604   INV00304 -0.054000   MXD00304 1.000000
    Y00604   CAP06003 0.002250   MND00304 1.000000
    Y00604   CAP01603 0.033080   CAP01703 0.038120
    Y00604   MND00306 1.000000   CAP01604 0.001670
    Y00604   INV00303 -1.350010   MND00305 1.000000
    Y00604   CAP06004 0.001240   CAP01704 0.002330
    Y00604   MXD00305 1.000000
    Y00605   CAP06005 0.001330   MND00306 1.000000
    Y00605   INV00305 -1.404010   CAP01705 0.003750
    Y00605   MXD00305 1.000000   CAP01704 0.036710
    Y00605   MND00305 1.000000   MXD00306 1.000000
    Y00605   OBJECTIV -27.280000   INV00304 -1.300010
    Y00605   CAP01604 0.031850   CAP01605 0.002900
    Y00606   CAP06005 0.002340   MXD00306 1.000000
    Y00606   CAP06006 0.003490   MND00306 1.000000
    Y00606   CAP01706 0.040460   CAP01606 0.034750
    Y00606   OBJECTIV -25.900000   CAP01705 0.039650
    Y00606   CAP01605 0.034400
    Y00703   CAP00101 0.002170   CAP06402 0.001000
    Y00703   MND00404 1.000000   MXD00405 1.000000
    Y00703   MND00405 1.000000   MND00406 1.000000
    Y00703   CAP06403 0.000900   MXD00404 1.000000
    Y00703   MXD00406 1.000000   INV00602 -1.241420
    Y00703   MND00403 1.000000   CAP00202 0.011100
    Y00703   OBJECTIV -87.070000   MXD00403 1.000000
    Y00703   INV00601 -0.372430   CAP00201 0.002640
    Y00703   CAP00102 0.011920
    Y00704   CAP00202 0.001590   MND00404 1.000000
    Y00704   MXD00405 1.000000   CAP00203 0.012150
    Y00704   MND00405 1.000000   CAP00103 0.013010
    Y00704   CAP06403 0.001000   INV00602 -0.248280
    Y00704   CAP00102 0.001080   OBJECTIV -82.660000
    Y00704   MND00406 1.000000   MXD00404 1.000000
    Y00704   CAP06404 0.000900   MXD00406 1.000000
    Y00704   INV00603 -1.365560
    Y00705   INV00604 -1.374760   CAP00103 0.001040
    Y00705   MND00406 1.000000   OBJECTIV -78.480000
    Y00705   INV00603 -0.239090   CAP06405 0.000940
    Y00705   CAP06404 0.000970   MND00405 1.000000
    Y00705   MXD00405 1.000000   CAP00104 0.013050
    Y00705   CAP00204 0.012210   CAP00203 0.001530
    Y00705   MXD00406 1.000000
    Y00706   CAP00106 0.014090   CAP00104 0.000560
    Y00706   MND00406 1.000000   OBJECTIV -74.510000
    Y00706   CAP00105 0.015220   CAP06406 0.001910
    Y00706   CAP06405 0.001040   CAP00206 0.013740
    Y00706   INV00604 -0.193660   CAP00205 0.014840
    Y00706   INV00606 -1.613850   CAP00204 0.001100
    Y00706   MXD00406 1.000000   INV00605 -1.742960
    Y00802   MXD00503 1.000000   CAP00602 0.017740
    Y00802   CAP06501 0.000330   CAP00201 0.002410
    Y00802   INV00102 -0.640040   MND00503 1.000000
    Y00802   CAP00202 0.004010   CAP00601 0.012670
    Y00802   MXD00505 1.000000   MND00506 1.000000
    Y00802   MND00504 1.000000   INV00101 -0.541570
    Y00802   OBJECTIV -4.060000   MXD00502 1.000000
    Y00802   MXD00504 1.000000   CAP06502 0.002300
    Y00802   MND00502 1.000000   MXD00506 1.000000
    Y00802   MND00505 1.000000
    Y00803   MXD00506 1.000000   MND00506 1.000000
    Y00803   CAP06502 0.000300   MXD00504 1.000000
    Y00803   MND00504 1.000000   INV00103 -0.681690
    Y00803   CAP00202 0.002220   MND00503 1.000000
    Y00803   INV00102 -0.499910   CAP00602 0.011700
    Y00803   OBJECTIV -3.860000   MXD00503 1.000000
    Y00803   CAP06503 0.002320   CAP00203 0.004200
    Y00803   MXD00505 1.000000   CAP00603 0.018720
    Y00803   MND00505 1.000000
    Y00804   CAP00603 0.011700   MND00504 1.000000
    Y00804   OBJECTIV -3.660000   MXD00504 1.000000
    Y00804   MND00506 1.000000   INV00104 -0.681690
    Y00804   CAP00604 0.018720   CAP06503 0.000300
    Y00804   MND00505 1.000000   MXD00505 1.000000
    Y00804   CAP06504 0.002320   CAP00204 0.004200
    Y00804   INV00103 -0.499910   MXD00506 1.000000
    Y00804   CAP00203 0.002220
    Y00805   MXD00505 1.000000   MXD00506 1.000000
    Y00805   CAP00604 0.011260   CAP06504 0.000290
    Y00805   MND00505 1.000000   CAP06505 0.002330
    Y00805   INV00104 -0.481390   MND00506 1.000000
    Y00805   CAP00605 0.019150   OBJECTIV -3.480000
    Y00805   CAP00204 0.002140   CAP00205 0.004280
    Y00805   INV00105 -0.700210
    Y00806   CAP00206 0.006420   MXD00506 1.000000
    Y00806   CAP06505 0.000310   MND00506 1.000000
    Y00806   INV00106 -1.181600   CAP06506 0.002620
    Y00806   CAP00606 0.030410   INV00105 -0.519910
    Y00806   CAP00205 0.002310   CAP00605 0.012170
    Y00806   OBJECTIV -3.300000
    Y00902   MND00502 1.000000   OBJECTIV -4.060000
    Y00902   MXD00502 1.000000   CAP01101 0.012670
    Y00902   MND00506 1.000000   MXD00506 1.000000
    Y00902   MND00505 1.000000   INV00101 -0.541570
    Y00902   CAP06501 0.000330   INV00102 -0.640040
    Y00902   CAP01002 0.004010   CAP01102 0.017740
    Y00902   MND00504 1.000000   CAP01001 0.002410
    Y00902   MXD00504 1.000000   MXD00505 1.000000
    Y00902   CAP06502 0.002300   MXD00503 1.000000
    Y00902   MND00503 1.000000
    Y00903   CAP06503 0.002320   MND00505 1.000000
    Y00903   MXD00505 1.000000   INV00103 -0.681690
    Y00903   CAP06502 0.000300   MXD00506 1.000000
    Y00903   INV00102 -0.499910   CAP01103 0.018720
    Y00903   OBJECTIV -3.860000   MND00506 1.000000
    Y00903   MND00503 1.000000   CAP01102 0.011700
    Y00903   CAP01003 0.004200   CAP01002 0.002220
    Y00903   MXD00503 1.000000   MND00504 1.000000
    Y00903   MXD00504 1.000000
    Y00904   MND00504 1.000000   MXD00504 1.000000
    Y00904   INV00103 -0.499910   MND00505 1.000000
    Y00904   CAP06504 0.002320   MXD00505 1.000000
    Y00904   MXD00506 1.000000   OBJECTIV -3.660000
    Y00904   CAP01004 0.004200   CAP01104 0.018720
    Y00904   CAP01003 0.002220   INV00104 -0.681690
    Y00904   CAP06503 0.000300   CAP01103 0.011700
    Y00904   MND00506 1.000000
    Y00905   INV00104 -0.481390   INV00105 -0.700210
    Y00905   MND00505 1.000000   MXD00505 1.000000
    Y00905   CAP06505 0.002330   CAP01104 0.011260
    Y00905   CAP01004 0.002140   CAP01005 0.004280
    Y00905   MXD00506 1.000000   MND00506 1.000000
    Y00905   CAP06504 0.000290   OBJECTIV -3.480000
    Y00905   CAP01105 0.019150
    Y00906   CAP01106 0.030410   CAP06505 0.000310
    Y00906   INV00106 -1.181600   CAP01006 0.006420
    Y00906   MND00506 1.000000   OBJECTIV -3.300000
    Y00906   CAP06506 0.002620   CAP01105 0.012170
    Y00906   MXD00506 1.000000   INV00105 -0.519910
    Y00906   CAP01005 0.002310
    Y01003   MXD00606 1.000000   MND00606 1.000000
    Y01003   CAP06002 0.006990   MND00603 1.000000
    Y01003   CAP01002 0.013830   MXD00605 1.000000
    Y01003   INV00202 -1.232600   INV00201 -0.224110
    Y01003   CAP01201 0.001300   MND00604 1.000000
    Y01003   MXD00603 1.000000   CAP01001 0.001150
    Y01003   OBJECTIV -33.100000   MXD00604 1.000000
    Y01003   MND00605 1.000000   CAP01202 0.009950
    Y01003   CAP06003 0.003840
    Y01004   CAP01202 0.000430   CAP01003 0.014980
    Y01004   MXD00605 1.000000   MND00605 1.000000
    Y01004   MXD00606 1.000000   CAP06003 0.006990
    Y01004   OBJECTIV -31.420000   MXD00604 1.000000
    Y01004   MND00606 1.000000   INV00202 -0.112050
    Y01004   CAP01203 0.010820   MND00604 1.000000
    Y01004   CAP06004 0.003840   INV00203 -1.344660
    Y01005   MXD00605 1.000000   CAP06004 0.006740
    Y01005   CAP06005 0.004100   CAP01203 0.000420
    Y01005   INV00204 -1.348810   OBJECTIV -29.830000
    Y01005   INV00203 -0.107900   CAP01204 0.010830
    Y01005   MND00605 1.000000   CAP01005 0.000550
    Y01005   MXD00606 1.000000   MND00606 1.000000
    Y01005   CAP01004 0.014430
    Y01006   MND00606 1.000000   MXD00606 1.000000
    Y01006   INV00206 -1.456710   INV00205 -1.573250
    Y01006   CAP06005 0.007270   CAP01205 0.012150
    Y01006   CAP01005 0.015580   OBJECTIV -28.320000
    Y01006   INV00204 -0.058270   CAP01006 0.014980
    Y01006   CAP01206 0.011250   CAP06006 0.010840
    Y01103   MXD00604 1.000000   MND00604 1.000000
    Y01103   CAP06002 0.006990   MND00605 1.000000
    Y01103   MXD00605 1.000000   CAP06003 0.003840
    Y01103   INV00202 -1.232600   CAP00502 0.013830
    Y01103   CAP00501 0.001150   CAP00702 0.009950
    Y01103   MND00603 1.000000   MND00606 1.000000
    Y01103   CAP00701 0.001300   MXD00606 1.000000
    Y01103   OBJECTIV -33.100000   MXD00603 1.000000
    Y01103   INV00201 -0.224110
    Y01104   CAP00702 0.000430   CAP00503 0.014980
    Y01104   CAP06003 0.006990   MND00605 1.000000
    Y01104   MXD00606 1.000000   INV00203 -1.344660
    Y01104   CAP06004 0.003840   MXD00604 1.000000
    Y01104   MND00604 1.000000   OBJECTIV -31.420000
    Y01104   CAP00703 0.010820   MXD00605 1.000000
    Y01104   INV00202 -0.112050   MND00606 1.000000
    Y01105   INV00204 -1.348810   MND00606 1.000000
    Y01105   OBJECTIV -29.830000   CAP00504 0.014430
    Y01105   CAP00703 0.000420   MND00605 1.000000
    Y01105   CAP00704 0.010830   CAP00505 0.000550
    Y01105   CAP06004 0.006740   MXD00606 1.000000
    Y01105   CAP06005 0.004100   INV00203 -0.107900
    Y01105   MXD00605 1.000000
    Y01106   CAP00705 0.012150   MXD00606 1.000000
    Y01106   MND00606 1.000000   OBJECTIV -28.320000
    Y01106   CAP06006 0.010840   CAP00505 0.015580
    Y01106   INV00206 -1.456710   INV00205 -1.573250
    Y01106   CAP00506 0.014980   CAP06005 0.007270
    Y01106   CAP00706 0.011250   INV00204 -0.058270
    Y01202   MND00705 1.000000   MXD00703 1.000000
    Y01202   INV00402 -0.866060   OBJECTIV -5.600000
    Y01202   CAP06301 0.000020   CAP06302 0.000400
    Y01202   MXD00702 1.000000   MND00706 1.000000
    Y01202   MND00702 1.000000   MXD00705 1.000000
    Y01202   MND00703 1.000000   MND00704 1.000000
    Y01202   MXD00704 1.000000   CAP01201 0.001860
    Y01202   CAP01202 0.007060   CAP01002 0.009900
    Y01202   MXD00706 1.000000   INV00401 -0.288690
    Y01202   CAP01001 0.001980
    Y01203   MXD00706 1.000000   MND00706 1.000000
    Y01203   CAP01203 0.007200   OBJECTIV -5.320000
    Y01203   MXD00704 1.000000   MND00704 1.000000
    Y01203   MND00703 1.000000   CAP01003 0.010050
    Y01203   MXD00705 1.000000   MXD00703 1.000000
    Y01203   INV00403 -0.888270   MND00705 1.000000
    Y01203   CAP01002 0.001830   INV00402 -0.266480
    Y01203   CAP06302 0.000020   CAP06303 0.000400
    Y01203   CAP01202 0.001710
    Y01204   CAP01204 0.007200   INV00403 -0.266480
    Y01204   MXD00706 1.000000   CAP01004 0.010050
    Y01204   MND00706 1.000000   OBJECTIV -5.050000
    Y01204   CAP06303 0.000020   CAP01203 0.001710
    Y01204   MXD00704 1.000000   CAP01003 0.001830
    Y01204   MXD00705 1.000000   MND00705 1.000000
    Y01204   CAP06304 0.000400   MND00704 1.000000
    Y01204   INV00404 -0.888270
    Y01205   CAP06305 0.000400   CAP01005 0.010120
    Y01205   CAP01205 0.007270   INV00405 -0.898140
    Y01205   MND00705 1.000000   CAP06304 0.000020
    Y01205   CAP01204 0.001650   MXD00705 1.000000
    Y01205   CAP01004 0.001760   MND00706 1.000000
    Y01205   MXD00706 1.000000   OBJECTIV -4.790000
    Y01205   INV00404 -0.256610
    Y01206   CAP01205 0.001780   CAP01005 0.001900
    Y01206   CAP06306 0.000420   INV00405 -0.277140
    Y01206   CAP06305 0.000020   CAP01206 0.008920
    Y01206   CAP01006 0.011880   OBJECTIV -4.550000
    Y01206   INV00406 -1.154750   MND00706 1.000000
    Y01206   MXD00706 1.000000
    Y01302   MND00706 1.000000   CAP00702 0.007060
    Y01302   CAP06301 0.000020   CAP00501 0.001980
    Y01302   CAP00502 0.009900   CAP06302 0.000400
    Y01302   INV00401 -0.288690   INV00402 -0.866060
    Y01302   MXD00702 1.000000   MND00702 1.000000
    Y01302   OBJECTIV -5.620000   MND00704 1.000000
    Y01302   MXD00706 1.000000   MND00703 1.000000
    Y01302   MXD00703 1.000000   MND00705 1.000000
    Y01302   CAP00701 0.001860   MXD00704 1.000000
    Y01302   MXD00705 1.000000
    Y01303   MXD00706 1.000000   CAP06302 0.000020
    Y01303   CAP00503 0.010050   MND00704 1.000000
    Y01303   MXD00704 1.000000   INV00403 -0.888270
    Y01303   CAP00703 0.007200   INV00402 -0.266480
    Y01303   MND00706 1.000000   MXD00705 1.000000
    Y01303   CAP00502 0.001830   CAP06303 0.000400
    Y01303   MND00705 1.000000   OBJECTIV -5.340000
    Y01303   MXD00703 1.000000   MND00703 1.000000
    Y01303   CAP00702 0.001710
    Y01304   MXD00706 1.000000   MND00705 1.000000
    Y01304   MND00706 1.000000   MXD00705 1.000000
    Y01304   OBJECTIV -5.070000   MND00704 1.000000
    Y01304   CAP06304 0.000400   CAP00504 0.010050
    Y01304   INV00403 -0.266480   MXD00704 1.000000
    Y01304   CAP00704 0.007200   INV00404 -0.888270
    Y01304   CAP06303 0.000020   CAP00703 0.001710
    Y01304   CAP00503 0.001830
    Y01305   CAP06304 0.000020   MND00706 1.000000
    Y01305   CAP00704 0.001650   MXD00705 1.000000
    Y01305   CAP00504 0.001760   CAP00705 0.007270
    Y01305   MND00705 1.000000   MXD00706 1.000000
    Y01305   CAP00505 0.010120   OBJECTIV -4.810000
    Y01305   CAP06305 0.000400   INV00405 -0.898140
    Y01305   INV00404 -0.256610
    Y01306   CAP00705 0.001780   MND00706 1.000000
    Y01306   MXD00706 1.000000   OBJECTIV -4.570000
    Y01306   CAP00506 0.011880   CAP00706 0.008920
    Y01306   CAP06305 0.000020   CAP00505 0.001900
    Y01306   CAP06306 0.000420   INV00406 -1.154750
    Y01306   INV00405 -0.277140
    Y01402   MND00803 1.000000   MXD00802 1.000000
    Y01402   MND00802 1.000000   MXD00803 1.000000
    Y01402   CAP01001 0.004120   OBJECTIV -5.460000
    Y01402   MXD00805 1.000000   INV00502 -0.701400
    Y01402   CAP06201 0.000830   CAP06202 0.004420
    Y01402   MND00805 1.000000   CAP06102 0.000660
    Y01402   INV00501 -0.501000   CAP01002 0.008240
    Y01402   CAP01202 0.005800   MXD00806 1.000000
    Y01402   CAP01201 0.003480   CAP06101 0.000060
    Y01402   MND00806 1.000000   MND00804 1.000000
    Y01402   MXD00804 1.000000
    Y01403   CAP01003 0.008560   MXD00805 1.000000
    Y01403   MND00805 1.000000   MXD00804 1.000000
    Y01403   MND00806 1.000000   OBJECTIV -5.180000
    Y01403   CAP06202 0.000770   CAP01203 0.006070
    Y01403   CAP06102 0.000060   MXD00806 1.000000
    Y01403   MND00803 1.000000   MND00804 1.000000
    Y01403   CAP06203 0.004490   INV00502 -0.462460
    Y01403   MXD00803 1.000000   CAP06103 0.000670
    Y01403   CAP01202 0.003210   CAP01002 0.003800
    Y01403   INV00503 -0.739940
    Y01404   MND00806 1.000000   CAP06204 0.004490
    Y01404   MXD00806 1.000000   CAP01203 0.003210
    Y01404   CAP06104 0.000670   CAP06103 0.000060
    Y01404   CAP01003 0.003800   OBJECTIV -4.920000
    Y01404   CAP06203 0.000770   INV00503 -0.462460
    Y01404   MND00805 1.000000   INV00504 -0.739940
    Y01404   MXD00805 1.000000   MND00804 1.000000
    Y01404   MXD00804 1.000000   CAP01004 0.008560
    Y01404   CAP01204 0.006070
    Y01405   INV00504 -0.445340   CAP01205 0.006190
    Y01405   CAP01005 0.008700   INV00505 -0.757070
    Y01405   CAP06105 0.000670   CAP06204 0.000740
    Y01405   MND00805 1.000000   MXD00805 1.000000
    Y01405   CAP01004 0.003660   CAP01204 0.003100
    Y01405   CAP06104 0.000050   MND00806 1.000000
    Y01405   CAP06205 0.004520   MXD00806 1.000000
    Y01405   OBJECTIV -4.670000
    Y01406   CAP01206 0.009290   CAP06105 0.000060
    Y01406   CAP01006 0.012370   CAP06205 0.000800
    Y01406   INV00505 -0.480960   MXD00806 1.000000
    Y01406   OBJECTIV -4.440000   INV00506 -1.202410
    Y01406   CAP06106 0.000720   MND00806 1.000000
    Y01406   CAP06206 0.005250   CAP01005 0.003960
    Y01406   CAP01205 0.003340
    Y01502   CAP06102 0.000660   CAP06101 0.000060
    Y01502   OBJECTIV -5.460000   INV00501 -0.501000
    Y01502   MXD00806 1.000000   CAP00701 0.003480
    Y01502   CAP06201 0.000830   CAP00501 0.004120
    Y01502   CAP06202 0.004420   MND00806 1.000000
    Y01502   CAP00502 0.008240   INV00502 -0.701400
    Y01502   MND00805 1.000000   MND00803 1.000000
    Y01502   MXD00803 1.000000   MND00804 1.000000
    Y01502   MXD00804 1.000000   MXD00805 1.000000
    Y01502   MND00802 1.000000   MXD00802 1.000000
    Y01502   CAP00702 0.005800
    Y01503   CAP00703 0.006070   MXD00803 1.000000
    Y01503   INV00503 -0.739940   MND00804 1.000000
    Y01503   INV00502 -0.462460   MXD00804 1.000000
    Y01503   CAP06203 0.004490   CAP06202 0.000770
    Y01503   MXD00806 1.000000   MND00806 1.000000
    Y01503   CAP00702 0.003210   MND00803 1.000000
    Y01503   CAP06103 0.000670   MND00805 1.000000
    Y01503   MXD00805 1.000000   CAP00502 0.003800
    Y01503   OBJECTIV -5.180000   CAP00503 0.008560
    Y01504   CAP00704 0.006070   CAP00504 0.008560
    Y01504   CAP00703 0.003210   CAP06203 0.000770
    Y01504   CAP06104 0.000670   INV00503 -0.462460
    Y01504   MND00804 1.000000   MND00805 1.000000
    Y01504   CAP06204 0.004490   CAP00503 0.003800
    Y01504   MXD00805 1.000000   MXD00804 1.000000
    Y01504   CAP06103 0.000060   INV00504 -0.739940
    Y01504   MND00806 1.000000   MXD00806 1.000000
    Y01504   OBJECTIV -4.920000
    Y01505   MND00805 1.000000   CAP06104 0.000050
    Y01505   CAP06105 0.000670   MXD00805 1.000000
    Y01505   CAP06204 0.000740   OBJECTIV -4.670000
    Y01505   CAP00704 0.003100   CAP06205 0.004520
    Y01505   CAP00504 0.003660   CAP00705 0.006190
    Y01505   INV00504 -0.445340   CAP00505 0.008700
    Y01505   MXD00806 1.000000   MND00806 1.000000
    Y01505   INV00505 -0.757070
    Y01506   CAP06105 0.000060   INV00506 -1.202410
    Y01506   INV00505 -0.480960   MXD00806 1.000000
    Y01506   CAP00706 0.009290   CAP00705 0.003340
    Y01506   CAP06205 0.000800   CAP00505 0.003960
    Y01506   CAP00506 0.012370   CAP06106 0.000720
    Y01506   MND00806 1.000000   CAP06206 0.005250
    Y01506   OBJECTIV -4.440000
    Y01602   MND00904 1.000000   MND00906 1.000000
    Y01602   MXD00903 1.000000   MXD00904 1.000000
    Y01602   OBJECTIV -3.990000   MND00903 1.000000
    Y01602   CAP00802 0.000630   MXD00906 1.000000
    Y01602   INV00401 -0.288690   CAP06302 0.000400
    Y01602   INV00402 -0.866060   MND00902 1.000000
    Y01602   CAP06301 0.000020   MXD00905 1.000000
    Y01602   MXD00902 1.000000   CAP00101 0.001310
    Y01602   MND00905 1.000000   CAP00102 0.006540
    Y01602   CAP00801 0.000170
    Y01603   CAP00102 0.001210   MXD00903 1.000000
    Y01603   MXD00904 1.000000   MND00904 1.000000
    Y01603   MND00903 1.000000   CAP00803 0.000650
    Y01603   INV00402 -0.266480   MND00906 1.000000
    Y01603   MXD00906 1.000000   CAP00802 0.000150
    Y01603   OBJECTIV -3.790000   INV00403 -0.888270
    Y01603   MND00905 1.000000   CAP00103 0.006640
    Y01603   MXD00905 1.000000   CAP06302 0.000020
    Y01603   CAP06303 0.000400
    Y01604   CAP00103 0.001210   CAP00803 0.000150
    Y01604   CAP00104 0.006640   MND00906 1.000000
    Y01604   MXD00906 1.000000   CAP06303 0.000020
    Y01604   OBJECTIV -3.590000   CAP00804 0.000650
    Y01604   MXD00904 1.000000   INV00403 -0.266480
    Y01604   MND00905 1.000000   CAP06304 0.000400
    Y01604   MXD00905 1.000000   MND00904 1.000000
    Y01604   INV00404 -0.888270
    Y01605   MND00906 1.000000   OBJECTIV -3.410000
    Y01605   MXD00906 1.000000   INV00404 -0.256610
    Y01605   CAP00104 0.001160   MND00905 1.000000
    Y01605   CAP00804 0.000150   INV00405 -0.898140
    Y01605   MXD00905 1.000000   CAP06304 0.000020
    Y01605   CAP00105 0.006680   CAP06305 0.000400
    Y01605   CAP00805 0.000650
    Y01606   INV00405 -0.277140   CAP00106 0.007840
    Y01606   CAP06306 0.000420   OBJECTIV -3.240000
    Y01606   CAP00805 0.000160   MND00906 1.000000
    Y01606   CAP00105 0.001250   CAP06305 0.000020
    Y01606   CAP00806 0.000800   INV00406 -1.154750
    Y01606   MXD00906 1.000000
    Y01702   CAP00902 0.006540   CAP01301 0.000170
    Y01702   CAP06301 0.000020   MND00902 1.000000
    Y01702   INV00401 -0.288690   MXD00902 1.000000
    Y01702   CAP01302 0.000630   OBJECTIV -3.970000
    Y01702   MND00903 1.000000   MXD00903 1.000000
    Y01702   MND00905 1.000000   MXD00905 1.000000
    Y01702   CAP06302 0.000400   INV00402 -0.866060
    Y01702   MND00906 1.000000   MXD00906 1.000000
    Y01702   CAP00901 0.001310   MND00904 1.000000
    Y01702   MXD00904 1.000000
    Y01703   INV00402 -0.266480   INV00403 -0.888270
    Y01703   OBJECTIV -3.770000   CAP01302 0.000150
    Y01703   CAP06303 0.000400   MXD00906 1.000000
    Y01703   MND00906 1.000000   MXD00904 1.000000
    Y01703   MND00903 1.000000   CAP06302 0.000020
    Y01703   MXD00903 1.000000   MND00904 1.000000
    Y01703   MXD00905 1.000000   CAP00902 0.001210
    Y01703   MND00905 1.000000   CAP00903 0.006640
    Y01703   CAP01303 0.000650
    Y01704   MND00906 1.000000   MXD00906 1.000000
    Y01704   INV00404 -0.888270   MND00904 1.000000
    Y01704   CAP01303 0.000150   INV00403 -0.266480
    Y01704   OBJECTIV -3.580000   MXD00905 1.000000
    Y01704   CAP06304 0.000400   MND00905 1.000000
    Y01704   CAP00903 0.001210   CAP01304 0.000650
    Y01704   CAP00904 0.006640   MXD00904 1.000000
    Y01704   CAP06303 0.000020
    Y01705   CAP01305 0.000650   CAP06305 0.000400
    Y01705   MXD00905 1.000000   INV00404 -0.256610
    Y01705   INV00405 -0.898140   MND00905 1.000000
    Y01705   OBJECTIV -3.400000   MND00906 1.000000
    Y01705   CAP00904 0.001160   CAP01304 0.000150
    Y01705   CAP06304 0.000020   CAP00905 0.006680
    Y01705   MXD00906 1.000000
    Y01706   INV00406 -1.154750   MXD00906 1.000000
    Y01706   MND00906 1.000000   CAP06306 0.000420
    Y01706   OBJECTIV -3.220000   CAP01305 0.000160
    Y01706   CAP01306 0.000800   INV00405 -0.277140
    Y01706   CAP00905 0.001250   CAP00906 0.007840
    Y01706   CAP06305 0.000020
    Y01802   MND00905 1.000000   CAP01401 0.000770
    Y01802   OBJECTIV -3.930000   MXD00905 1.000000
    Y01802   INV00401 -0.144340   MND00906 1.000000
    Y01802   MND00904 1.000000   MXD00906 1.000000
    Y01802   CAP06301 0.000020   CAP01802 0.000710
    Y01802   MXD00903 1.000000   MND00903 1.000000
    Y01802   CAP06302 0.000400   MXD00904 1.000000
    Y01802   CAP01402 0.006620   INV00402 -1.010400
    Y01802   CAP01801 0.000090   MXD00902 1.000000
    Y01802   MND00902 1.000000
    Y01803   MND00904 1.000000   MXD00904 1.000000
    Y01803   INV00403 -1.021510   MXD00903 1.000000
    Y01803   MND00903 1.000000   CAP01402 0.000710
    Y01803   CAP01802 0.000080   CAP06303 0.000400
    Y01803   CAP06302 0.000020   CAP01803 0.000720
    Y01803   CAP01403 0.006680   OBJECTIV -3.730000
    Y01803   MXD00906 1.000000   MND00906 1.000000
    Y01803   INV00402 -0.133240   MND00905 1.000000
    Y01803   MXD00905 1.000000
    Y01804   CAP01404 0.006680   MND00906 1.000000
    Y01804   MXD00906 1.000000   CAP01804 0.000720
    Y01804   MND00905 1.000000   CAP06303 0.000020
    Y01804   CAP06304 0.000400   MXD00905 1.000000
    Y01804   INV00403 -0.133240   INV00404 -1.021510
    Y01804   MND00904 1.000000   OBJECTIV -3.540000
    Y01804   MXD00904 1.000000   CAP01403 0.000710
    Y01805   MXD00905 1.000000   MND00905 1.000000
    Y01805   CAP01805 0.000720   CAP06305 0.000400
    Y01805   CAP01404 0.000680   CAP06304 0.000020
    Y01805   CAP01405 0.006710   INV00405 -1.026440
    Y01805   CAP01804 0.000080   INV00404 -0.128310
    Y01805   OBJECTIV -3.360000   MND00906 1.000000
    Y01805   MXD00906 1.000000
    Y01806   INV00405 -0.138570   MXD00906 1.000000
    Y01806   CAP01406 0.007390   CAP01806 0.000800
    Y01806   MND00906 1.000000   CAP06306 0.000420
    Y01806   OBJECTIV -3.190000   CAP06305 0.000020
    Y01806   CAP01405 0.000740   INV00406 -1.154750
    Y01806   CAP01805 0.000090
    Y01902   OBJECTIV -3.670000   MXD01004 1.000000
    Y01902   MXD01006 1.000000   CAP06201 0.000830
    Y01902   CAP00901 0.002720   CAP06102 0.000660
    Y01902   CAP06101 0.000060   MND01006 1.000000
    Y01902   CAP01302 0.000520   MND01004 1.000000
    Y01902   MND01005 1.000000   CAP01301 0.000310
    Y01902   MND01003 1.000000   MXD01003 1.000000
    Y01902   MXD01002 1.000000   MND01002 1.000000
    Y01902   INV00502 -0.701400   MXD01005 1.000000
    Y01902   INV00501 -0.501000   CAP00902 0.005440
    Y01902   CAP06202 0.004420
    Y01903   MND01006 1.000000   CAP06203 0.004490
    Y01903   CAP06103 0.000670   MXD01006 1.000000
    Y01903   OBJECTIV -3.490000   CAP06202 0.000770
    Y01903   CAP06102 0.000060   CAP00903 0.005650
    Y01903   MND01005 1.000000   MXD01005 1.000000
    Y01903   CAP01302 0.000290   INV00502 -0.462460
    Y01903   MND01003 1.000000   MXD01003 1.000000
    Y01903   INV00503 -0.739940   CAP01303 0.000540
    Y01903   CAP00902 0.002510   MND01004 1.000000
    Y01903   MXD01004 1.000000
    Y01904   CAP06104 0.000670   CAP06204 0.004490
    Y01904   CAP06103 0.000060   CAP01303 0.000290
    Y01904   MND01005 1.000000   CAP06203 0.000770
    Y01904   CAP01304 0.000540   MXD01005 1.000000
    Y01904   MND01004 1.000000   INV00504 -0.739940
    Y01904   CAP00904 0.005650   INV00503 -0.462460
    Y01904   MXD01006 1.000000   MXD01004 1.000000
    Y01904   OBJECTIV -3.310000   CAP00903 0.002510
    Y01904   MND01006 1.000000
    Y01905   CAP00904 0.002420   MXD01006 1.000000
    Y01905   CAP01304 0.000280   CAP06105 0.000670
    Y01905   MXD01005 1.000000   CAP06205 0.004520
    Y01905   OBJECTIV -3.140000   INV00504 -0.445340
    Y01905   CAP01305 0.000560   CAP06104 0.000050
    Y01905   MND01006 1.000000   CAP00905 0.005750
    Y01905   CAP06204 0.000740   MND01005 1.000000
    Y01905   INV00505 -0.757070
    Y01906   CAP01305 0.000300   CAP06105 0.000060
    Y01906   CAP06205 0.000800   MND01006 1.000000
    Y01906   INV00505 -0.480960   MXD01006 1.000000
    Y01906   CAP01306 0.000830   OBJECTIV -2.990000
    Y01906   CAP00905 0.002610   CAP06106 0.000720
    Y01906   INV00506 -1.202410   CAP00906 0.008170
    Y02002   OBJECTIV -3.650000   MND01006 1.000000
    Y02002   MXD01006 1.000000   CAP06102 0.000660
    Y02002   CAP01802 0.000600   MND01004 1.000000
    Y02002   MXD01004 1.000000   MXD01003 1.000000
    Y02002   MND01003 1.000000   INV00502 -0.851710
    Y02002   CAP01402 0.005610   MXD01002 1.000000
    Y02002   MND01002 1.000000   MND01005 1.000000
    Y02002   CAP01801 0.000230   MXD01005 1.000000
    Y02002   CAP01401 0.002090   CAP06201 0.000830
    Y02002   CAP06101 0.000060   INV00501 -0.350700
    Y02002   CAP06202 0.004420
    Y02003   OBJECTIV -3.460000   MXD01004 1.000000
    Y02003   MXD01005 1.000000   CAP01803 0.000620
    Y02003   MND01006 1.000000   MXD01006 1.000000
    Y02003   CAP01402 0.001920   CAP06103 0.000670
    Y02003   MND01003 1.000000   CAP06203 0.004490
    Y02003   CAP01403 0.005770   CAP01802 0.000220
    Y02003   INV00502 -0.323730   INV00503 -0.878680
    Y02003   MXD01003 1.000000   CAP06102 0.000060
    Y02003   CAP06202 0.000770   MND01005 1.000000
    Y02003   MND01004 1.000000
    Y02004   CAP01804 0.000620   CAP01803 0.000220
    Y02004   CAP06103 0.000060   CAP06203 0.000770
    Y02004   CAP01404 0.005770   CAP06204 0.004490
    Y02004   CAP06104 0.000670   MND01004 1.000000
    Y02004   MND01006 1.000000   INV00503 -0.323730
    Y02004   MXD01004 1.000000   CAP01403 0.001920
    Y02004   MXD01006 1.000000   INV00504 -0.878680
    Y02004   MXD01005 1.000000   MND01005 1.000000
    Y02004   OBJECTIV -3.290000
    Y02005   CAP06104 0.000050   CAP01804 0.000210
    Y02005   INV00505 -0.890670   CAP06204 0.000740
    Y02005   INV00504 -0.311740   CAP01405 0.005850
    Y02005   CAP01404 0.001850   CAP06105 0.000670
    Y02005   OBJECTIV -3.120000   CAP01805 0.000620
    Y02005   CAP06205 0.004520   MXD01006 1.000000
    Y02005   MND01006 1.000000   MXD01005 1.000000
    Y02005   MND01005 1.000000
    Y02006   OBJECTIV -2.960000   CAP06206 0.005250
    Y02006   CAP06106 0.000720   INV00505 -0.336670
    Y02006   MXD01006 1.000000   MND01006 1.000000
    Y02006   INV00506 -1.202410   CAP01806 0.000830
    Y02006   CAP01405 0.002000   CAP01406 0.007700
    Y02006   CAP06205 0.000800   CAP06105 0.000060
    Y02006   CAP01805 0.000220
    X00103   CAP02103 0.006770   CAP01903 0.021090
    X00103   CAP03101 0.003300   CAP02003 0.001300
    X00103   CAP02001 0.000720   CAP02002 0.009360
    X00103   CAP02102 0.005460   CAP03103 0.039500
    X00103   CAP01902 0.012850   CAP02803 0.011420
    X00103   CAP02703 0.048250   CAP02501 0.002940
    X00103   CAP02701 0.003560   CAP02702 0.100130
    X00103   CAP02802 0.064790   CAP02502 0.012410
    X00103   INV00103 280.000000   CAP03102 0.084140
    X00104   CAP02003 0.009470   CAP02002 0.000420
    X00104   CAP02103 0.005210   CAP02702 0.002260
    X00104   CAP02503 0.013240   CAP03102 0.002100
    X00104   INV00104 280.000000   CAP01903 0.012260
    X00104   CAP02502 0.002110   CAP03103 0.082410
    X00104   CAP02703 0.097840   CAP01904 0.021670
    X00104   CAP02104 0.007020   CAP02704 0.051830
    X00104   CAP02804 0.014370   CAP03104 0.042420
    X00104   CAP02004 0.001490   CAP02803 0.061850
    X00105   CAP02704 0.098970   CAP02703 0.001130
    X00105   CAP01904 0.012260   CAP02705 0.051830
    X00105   CAP02503 0.001410   CAP02104 0.005210
    X00105   CAP02504 0.013940   CAP03103 0.001050
    X00105   CAP03105 0.042420   CAP02804 0.061850
    X00105   CAP02805 0.014370   CAP03104 0.083460
    X00105   CAP01905 0.021670   CAP02003 0.000160
    X00105   CAP02005 0.001490   CAP02105 0.007020
    X00105   CAP02004 0.009730   INV00105 280.000000
    X00106   CAP03105 0.088540   CAP02705 0.104870
    X00106   INV00106 280.000000   CAP02805 0.064790
    X00106   CAP02505 0.016080   CAP01906 0.033940
    X00106   CAP02006 0.011390   CAP03106 0.126940
    X00106   CAP02106 0.012230   CAP02506 0.015350
    X00106   CAP02806 0.076210   CAP02706 0.151930
    X00106   CAP02105 0.005460   CAP02005 0.010360
    X00106   CAP02004 0.000160   CAP03104 0.001100
    X00106   CAP02504 0.001480   CAP02704 0.001190
    X00106   CAP01905 0.012850
    X00203   CAP02102 0.007660   CAP01903 0.014920
    X00203   CAP02003 0.000510   CAP02701 0.003330
    X00203   CAP02501 0.002960   CAP02502 0.011610
    X00203   CAP03203 0.014870   CAP03101 0.000080
    X00203   CAP02002 0.009800   CAP02103 0.004590
    X00203   CAP02303 0.020600   CAP01902 0.017680
    X00203   CAP02603 0.021570   CAP02703 0.020940
    X00203   CAP02803 0.003420   CAP03103 0.030820
    X00203   CAP02001 0.000790   CAP03102 0.068790
    X00203   INV00203 75.000000   CAP03202 0.025050
    X00203   CAP02802 0.017220   CAP02602 0.023730
    X00203   CAP02702 0.086080   CAP02302 0.015510
    X00204   CAP03203 0.023910   CAP03103 0.065740
    X00204   CAP03204 0.016010   CAP02803 0.016440
    X00204   CAP02703 0.084180   CAP03104 0.033950
    X00204   CAP02603 0.022650   CAP02503 0.012410
    X00204   CAP02303 0.014810   CAP02103 0.007310
    X00204   CAP02003 0.009870   CAP02002 0.000500
    X00204   CAP01903 0.016880   CAP02702 0.002170
    X00204   CAP02604 0.022650   CAP02804 0.004200
    X00204   CAP02502 0.002160   INV00204 75.000000
    X00204   CAP01904 0.015720   CAP02304 0.021310
    X00204   CAP02104 0.004940   CAP02004 0.000730
    X00204   CAP02704 0.024000
    X00205   CAP02503 0.001500   CAP02705 0.024000
    X00205   CAP02104 0.007310   CAP02703 0.001170
    X00205   INV00205 75.000000   CAP03205 0.016010
    X00205   CAP02004 0.010120   CAP02605 0.022650
    X00205   CAP03105 0.033950   CAP02805 0.004200
    X00205   CAP02003 0.000250   CAP01904 0.016880
    X00205   CAP02804 0.016440   CAP02005 0.000730
    X00205   CAP02105 0.004940   CAP01905 0.015720
    X00205   CAP02704 0.085190   CAP03204 0.023910
    X00205   CAP02604 0.022650   CAP02305 0.021310
    X00205   CAP03104 0.065740   CAP02504 0.013070
    X00205   CAP02304 0.014810
    X00206   CAP03206 0.039920   CAP02704 0.001220
    X00206   CAP02805 0.017220   CAP01905 0.017680
    X00206   CAP02505 0.015260   CAP02005 0.010860
    X00206   CAP02705 0.090470   CAP02004 0.000260
    X00206   CAP02105 0.007660   INV00206 75.000000
    X00206   CAP02605 0.023730   CAP02305 0.015510
    X00206   CAP02504 0.001570   CAP02806 0.020640
    X00206   CAP03105 0.068870   CAP02506 0.014570
    X00206   CAP01906 0.032600   CAP02306 0.036110
    X00206   CAP02706 0.110360   CAP02606 0.045290
    X00206   CAP02006 0.011100   CAP02106 0.012250
    X00206   CAP03106 0.099690   CAP03205 0.025050
    X00303   CAP03002 0.009980   CAP02501 0.002850
    X00303   CAP02202 0.123490   CAP02403 0.008370
    X00303   INV00303 43.000000   CAP02903 0.007190
    X00303   CAP02201 0.000770   CAP02803 0.003920
    X00303   CAP02502 0.011870   CAP02902 0.015930
    X00303   CAP02603 0.028000   CAP02702 0.110340
    X00303   CAP02703 0.020050   CAP02001 0.000790
    X00303   CAP02802 0.016640   CAP02203 0.025130
    X00303   CAP02102 0.020410   CAP02002 0.009770
    X00303   CAP02003 0.000540   CAP03003 0.010770
    X00303   CAP03202 0.018310   CAP02701 0.005760
    X00303   CAP03102 0.005940   CAP02402 0.013630
    X00303   CAP02602 0.016080   CAP02103 0.029730
    X00303   CAP03203 0.020770   CAP01902 0.012550
    X00303   CAP01903 0.019790   CAP03103 0.011980
    X00304   CAP02502 0.002050   CAP02204 0.030780
    X00304   CAP02703 0.108300   CAP02104 0.030660
    X00304   CAP02903 0.015200   CAP02404 0.008990
    X00304   CAP02702 0.003760   CAP03204 0.021600
    X00304   CAP02004 0.000770   CAP03003 0.009530
    X00304   CAP02803 0.015890   CAP03203 0.017480
    X00304   CAP03103 0.005670   CAP02403 0.013010
    X00304   CAP01903 0.011980   CAP02002 0.000500
    X00304   CAP02904 0.007910   CAP02804 0.004670
    X00304   CAP02003 0.009830   CAP03104 0.012250
    X00304   CAP02103 0.019480   CAP02203 0.118610
    X00304   CAP02704 0.024090   CAP03004 0.011220
    X00304   CAP01904 0.020360   CAP02604 0.028730
    X00304   INV00304 43.000000   CAP02503 0.012660
    X00304   CAP02603 0.015350
    X00305   CAP01905 0.020360   CAP02504 0.013330
    X00305   CAP02205 0.030780   CAP02904 0.015200
    X00305   CAP02204 0.118610   CAP02005 0.000770
    X00305   CAP02404 0.013010   CAP02804 0.015890
    X00305   CAP02604 0.015350   CAP02704 0.109540
    X00305   CAP02105 0.030660   CAP03104 0.005670
    X00305   CAP03004 0.009530   CAP02503 0.001380
    X00305   CAP02605 0.028730   CAP03205 0.021600
    X00305   CAP03105 0.012250   CAP02104 0.019480
    X00305   CAP02703 0.002530   CAP03204 0.017480
    X00305   CAP02003 0.000250   CAP02705 0.024090
    X00305   CAP02004 0.010090   CAP01904 0.011980
    X00305   CAP02905 0.007910   CAP02405 0.008990
    X00305   CAP03005 0.011220   CAP02805 0.004670
    X00305   INV00305 43.000000
    X00306   CAP03206 0.039080   CAP03006 0.020750
    X00306   CAP02106 0.050140   CAP02206 0.149390
    X00306   CAP03106 0.017930   CAP02705 0.117400
    X00306   CAP03105 0.005940   CAP02704 0.002650
    X00306   CAP02806 0.020560   CAP02006 0.011100
    X00306   CAP03005 0.009980   CAP02905 0.015930
    X00306   CAP02805 0.016640   INV00306 43.000000
    X00306   CAP02105 0.020410   CAP02405 0.013630
    X00306   CAP02004 0.000260   CAP02906 0.023120
    X00306   CAP02606 0.044080   CAP02505 0.015420
    X00306   CAP02005 0.010830   CAP02506 0.014720
    X00306   CAP02406 0.022010   CAP02205 0.124250
    X00306   CAP02706 0.136160   CAP02504 0.001450
    X00306   CAP01905 0.012550   CAP01906 0.032340
    X00306   CAP02605 0.016080   CAP03205 0.018310
    X00403   CAP04703 0.015830   CAP04403 0.012860
    X00403   CAP04603 0.001040   CAP04503 0.016880
    X00403   CAP04402 0.005210   CAP03301 0.000060
    X00403   CAP04102 0.011700   CAP03702 0.033040
    X00403   CAP03402 0.025580   CAP03802 0.027330
    X00403   CAP04002 0.016210   CAP05403 0.010890
    X00403   CAP05303 0.005910   CAP04903 0.004310
    X00403   CAP04202 0.011260   CAP05103 0.004390
    X00403   CAP05003 0.006850   CAP04302 0.027430
    X00403   CAP03803 0.017060   CAP04103 0.000500
    X00403   CAP03703 0.003620   CAP03302 0.015480
    X00403   CAP04502 0.022520   CAP04203 0.023930
    X00403   CAP04003 0.025560   CAP03403 0.031920
    X00403   CAP04602 0.015660   CAP03303 0.002550
    X00403   CAP04702 0.010040   CAP04303 0.005760
    X00403   CAP05402 0.007860   CAP05302 0.011480
    X00403   CAP04601 0.000270   CAP05102 0.013200
    X00403   CAP05002 0.016330   INV00303 153.000000
    X00403   CAP04902 0.013930   CAP04101 0.000470
    X00404   CAP05004 0.006850   CAP05103 0.013200
    X00404   CAP03803 0.027330   CAP05104 0.004390
    X00404   CAP04904 0.004310   CAP04704 0.015830
    X00404   CAP05003 0.016330   CAP03403 0.025580
    X00404   CAP05304 0.005910   CAP05404 0.010890
    X00404   CAP05303 0.011480   CAP03703 0.033040
    X00404   CAP05403 0.007860   CAP03303 0.015540
    X00404   CAP03804 0.017060   CAP04203 0.011260
    X00404   CAP04303 0.027430   CAP04404 0.012860
    X00404   INV00304 153.000000   CAP03404 0.031920
    X00404   CAP04304 0.005760   CAP04603 0.015930
    X00404   CAP04403 0.005210   CAP04204 0.023930
    X00404   CAP04003 0.016210   CAP03304 0.002550
    X00404   CAP04104 0.000500   CAP04503 0.022520
    X00404   CAP04703 0.010040   CAP04504 0.016880
    X00404   CAP04103 0.012170   CAP03704 0.003620
    X00404   CAP04604 0.001040   CAP04903 0.013930
    X00404   CAP04004 0.025560
    X00405   CAP03305 0.003130   CAP04505 0.017720
    X00405   CAP03304 0.014960   CAP04004 0.015610
    X00405   CAP03804 0.026320   CAP04305 0.006780
    X00405   CAP04405 0.013060   CAP04105 0.000950
    X00405   CAP03405 0.032870   CAP03705 0.004850
    X00405   CAP03805 0.018070   CAP03404 0.024640
    X00405   CAP04005 0.026160   CAP04205 0.024350
    X00405   CAP05105 0.004880   CAP04604 0.015340
    X00405   CAP04704 0.009670   CAP04904 0.013410
    X00405   CAP05004 0.015730   CAP04504 0.021690
    X00405   INV00305 153.000000   CAP05104 0.012710
    X00405   CAP04404 0.005020   CAP05304 0.011060
    X00405   CAP05404 0.007570   CAP04605 0.001630
    X00405   CAP04304 0.026420   CAP05405 0.011180
    X00405   CAP05305 0.006340   CAP04204 0.010840
    X00405   CAP05005 0.007450   CAP04905 0.004830
    X00405   CAP04104 0.011720   CAP04705 0.016200
    X00405   CAP03704 0.031810
    X00406   CAP04405 0.005420   CAP05305 0.011940
    X00406   CAP05105 0.013730   CAP05005 0.016990
    X00406   CAP04905 0.014480   CAP04705 0.010440
    X00406   CAP04605 0.016560   CAP04505 0.023420
    X00406   CAP04305 0.028530   CAP05405 0.008170
    X00406   CAP04205 0.011710   CAP04105 0.012660
    X00406   CAP04005 0.016860   CAP04906 0.018240
    X00406   CAP03705 0.034360   CAP03405 0.026610
    X00406   CAP03306 0.018090   CAP04406 0.018080
    X00406   CAP04706 0.025860   CAP04606 0.016960
    X00406   CAP04506 0.039400   CAP05006 0.023180
    X00406   CAP05106 0.017590   CAP05306 0.017400
    X00406   CAP05406 0.018750   CAP04306 0.033190
    X00406   CAP03305 0.016160   CAP04206 0.035190
    X00406   CAP04106 0.012670   CAP04006 0.041770
    X00406   CAP03806 0.044390   CAP03706 0.036660
    X00406   CAP03406 0.057510   CAP03805 0.028430
    X00503   CAP03002 0.009980   CAP02802 0.016640
    X00503   CAP02803 0.003920   CAP02703 0.020050
    X00503   CAP02701 0.005760   CAP03102 0.005940
    X00503   CAP02702 0.110340   CAP03202 0.018310
    X00503   INV00403 43.000000   CAP02902 0.015930
    X00503   CAP02603 0.028000   CAP02903 0.007190
    X00503   CAP03003 0.010770   CAP03203 0.020770
    X00503   CAP02501 0.002850   CAP02201 0.000770
    X00503   CAP02001 0.000790   CAP01903 0.019790
    X00503   CAP03103 0.011980   CAP02203 0.025130
    X00503   CAP02003 0.000540   CAP02202 0.123490
    X00503   CAP01902 0.012550   CAP02402 0.013630
    X00503   CAP02102 0.020410   CAP02502 0.011870
    X00503   CAP02103 0.029730   CAP02002 0.009770
    X00503   CAP02602 0.016080   CAP02403 0.008370
    X00504   CAP03103 0.005670   CAP03204 0.021600
    X00504   CAP01903 0.011980   CAP02003 0.009830
    X00504   CAP02503 0.012660   CAP03203 0.017480
    X00504   CAP02903 0.015200   CAP02103 0.019480
    X00504   CAP02803 0.015890   CAP02703 0.108300
    X00504   CAP02203 0.118610   CAP02403 0.013010
    X00504   CAP02603 0.015350   CAP03003 0.009530
    X00504   CAP03004 0.011220   CAP02804 0.004670
    X00504   INV00404 43.000000   CAP02702 0.003760
    X00504   CAP02704 0.024090   CAP02904 0.007910
    X00504   CAP02604 0.028730   CAP02104 0.030660
    X00504   CAP02502 0.002050   CAP03104 0.012250
    X00504   CAP02004 0.000770   CAP02002 0.000500
    X00504   CAP01904 0.020360   CAP02204 0.030780
    X00504   CAP02404 0.008990
    X00505   CAP02703 0.002530   CAP01905 0.020360
    X00505   CAP02405 0.008990   INV00405 43.000000
    X00505   CAP02805 0.004670   CAP02704 0.109540
    X00505   CAP02003 0.000250   CAP02404 0.013010
    X00505   CAP02905 0.007910   CAP02104 0.019480
    X00505   CAP02503 0.001380   CAP02705 0.024090
    X00505   CAP02605 0.028730   CAP02204 0.118610
    X00505   CAP02004 0.010090   CAP02604 0.015350
    X00505   CAP03004 0.009530   CAP02504 0.013330
    X00505   CAP02904 0.015200   CAP02205 0.030780
    X00505   CAP01904 0.011980   CAP02005 0.000770
    X00505   CAP02804 0.015890   CAP03204 0.017480
    X00505   CAP02105 0.030660   CAP03205 0.021600
    X00505   CAP03105 0.012250   CAP03104 0.005670
    X00505   CAP03005 0.011220
    X00506   CAP02704 0.002650   INV00406 43.000000
    X00506   CAP02905 0.015930   CAP02504 0.001450
    X00506   CAP02705 0.117400   CAP03205 0.018310
    X00506   CAP03105 0.005940   CAP02805 0.016640
    X00506   CAP03005 0.009980   CAP02106 0.050140
    X00506   CAP03006 0.020750   CAP02706 0.136160
    X00506   CAP01905 0.012550   CAP02806 0.020560
    X00506   CAP02906 0.023120   CAP02606 0.044080
    X00506   CAP02004 0.000260   CAP03106 0.017930
    X00506   CAP02005 0.010830   CAP02205 0.124250
    X00506   CAP03206 0.039080   CAP01906 0.032340
    X00506   CAP02506 0.014720   CAP02406 0.022010
    X00506   CAP02405 0.013630   CAP02505 0.015420
    X00506   CAP02105 0.020410   CAP02206 0.149390
    X00506   CAP02605 0.016080   CAP02006 0.011100
    X00603   CAP05303 0.005910   CAP05102 0.013200
    X00603   CAP03303 0.002550   CAP03803 0.017060
    X00603   CAP04601 0.000270   CAP05403 0.010890
    X00603   CAP05302 0.011480   CAP05402 0.007860
    X00603   CAP03403 0.031920   CAP03703 0.003620
    X00603   CAP03301 0.000060   CAP04101 0.000470
    X00603   CAP04503 0.016880   CAP04702 0.010040
    X00603   CAP04202 0.011260   CAP04903 0.004310
    X00603   CAP04003 0.025560   CAP04402 0.005210
    X00603   CAP04203 0.023930   CAP04103 0.000500
    X00603   CAP03302 0.015480   CAP04902 0.013930
    X00603   CAP04502 0.022520   CAP05103 0.004390
    X00603   CAP04403 0.012860   CAP05003 0.006850
    X00603   CAP04602 0.015660   INV00403 143.000000
    X00603   CAP04302 0.027430   CAP03802 0.027330
    X00603   CAP04002 0.016210   CAP04603 0.001040
    X00603   CAP05002 0.016330   CAP03702 0.033040
    X00603   CAP04303 0.005760   CAP03402 0.025580
    X00603   CAP04102 0.011700   CAP04703 0.015830
    X00604   CAP04903 0.013930   CAP03804 0.017060
    X00604   CAP04304 0.005760   CAP05003 0.016330
    X00604   CAP04104 0.000500   CAP03704 0.003620
    X00604   CAP04204 0.023930   CAP04303 0.027430
    X00604   CAP04203 0.011260   CAP04004 0.025560
    X00604   CAP03403 0.025580   CAP05004 0.006850
    X00604   CAP04703 0.010040   CAP05104 0.004390
    X00604   INV00404 143.000000   CAP03304 0.002550
    X00604   CAP05303 0.011480   CAP04603 0.015930
    X00604   CAP03404 0.031920   CAP03803 0.027330
    X00604   CAP04704 0.015830   CAP04904 0.004310
    X00604   CAP04503 0.022520   CAP04604 0.001040
    X00604   CAP05103 0.013200   CAP05403 0.007860
    X00604   CAP04404 0.012860   CAP05404 0.010890
    X00604   CAP03703 0.033040   CAP04403 0.005210
    X00604   CAP05304 0.005910   CAP04003 0.016210
    X00604   CAP04103 0.012170   CAP04504 0.016880
    X00604   CAP03303 0.015540
    X00605   CAP04105 0.000950   CAP04505 0.017720
    X00605   CAP04005 0.026160   CAP03805 0.018070
    X00605   CAP04205 0.024350   CAP03705 0.004850
    X00605   CAP03405 0.032870   CAP04305 0.006780
    X00605   CAP04405 0.013060   CAP04605 0.001630
    X00605   CAP05405 0.011180   CAP04705 0.016200
    X00605   CAP04905 0.004830   INV00405 143.000000
    X00605   CAP05005 0.007450   CAP05105 0.004880
    X00605   CAP05305 0.006340   CAP03305 0.003130
    X00605   CAP04304 0.026420   CAP04204 0.010840
    X00605   CAP05104 0.012710   CAP05304 0.011060
    X00605   CAP03704 0.031810   CAP03304 0.014960
    X00605   CAP04704 0.009670   CAP03804 0.026320
    X00605   CAP04404 0.005020   CAP05404 0.007570
    X00605   CAP03404 0.024640   CAP04504 0.021690
    X00605   CAP04604 0.015340   CAP04904 0.013410
    X00605   CAP04104 0.011720   CAP04004 0.015610
    X00605   CAP05004 0.015730
    X00606   CAP04606 0.016960   CAP04206 0.035190
    X00606   CAP04305 0.028530   CAP04106 0.012670
    X00606   CAP04006 0.041770   CAP04205 0.011710
    X00606   CAP04906 0.018240   CAP04405 0.005420
    X00606   CAP03806 0.044390   CAP03705 0.034360
    X00606   CAP04306 0.033190   CAP04506 0.039400
    X00606   CAP04406 0.018080   CAP03805 0.028430
    X00606   CAP03305 0.016160   CAP05106 0.017590
    X00606   CAP05406 0.018750   CAP05006 0.023180
    X00606   CAP04005 0.016860   CAP03405 0.026610
    X00606   CAP04105 0.012660   CAP05306 0.017400
    X00606   CAP04706 0.025860   CAP03306 0.018090
    X00606   CAP04505 0.023420   CAP05105 0.013730
    X00606   CAP05405 0.008170   CAP05005 0.016990
    X00606   CAP05305 0.011940   CAP04905 0.014480
    X00606   CAP03406 0.057510   CAP04705 0.010440
    X00606   CAP04605 0.016560   CAP03706 0.036660
    X00703   CAP03303 0.003760   CAP03902 0.009690
    X00703   CAP03301 0.000930   CAP03802 0.019450
    X00703   CAP05102 0.008620   CAP04102 0.011160
    X00703   CAP04203 0.024400   CAP04402 0.004960
    X00703   CAP04202 0.009780   CAP05703 0.024340
    X00703   CAP03502 0.014630   CAP03302 0.019620
    X00703   CAP05903 0.020550   CAP03903 0.007900
    X00703   CAP04602 0.014780   CAP03701 0.002600
    X00703   CAP03402 0.031300   CAP05803 0.016770
    X00703   CAP03803 0.022700   CAP04303 0.003960
    X00703   CAP04403 0.012990   CAP03702 0.025100
    X00703   CAP04302 0.029080   CAP05302 0.018220
    X00703   CAP04301 0.000120   CAP05303 0.019770
    X00703   CAP03503 0.034770   CAP05902 0.014550
    X00703   INV00503 424.000000   CAP05103 0.005390
    X00703   CAP05402 0.005420   CAP04601 0.002580
    X00703   CAP05502 0.012590   CAP05501 0.002290
    X00703   CAP05602 0.022660   CAP04101 0.002030
    X00703   CAP05702 0.010240   CAP03403 0.048540
    X00703   CAP05403 0.012470   CAP05802 0.019360
    X00703   CAP05603 0.012080
    X00704   CAP05304 0.019770   CAP04204 0.024400
    X00704   CAP05903 0.014550   CAP04303 0.029200
    X00704   CAP03703 0.027230   CAP05403 0.005420
    X00704   CAP05303 0.018220   CAP05803 0.019360
    X00704   CAP05103 0.008620   INV00504 424.000000
    X00704   CAP05704 0.024340   CAP03504 0.034770
    X00704   CAP03302 0.000450   CAP05604 0.012080
    X00704   CAP04103 0.012180   CAP05404 0.012470
    X00704   CAP04602 0.001250   CAP03404 0.048540
    X00704   CAP05603 0.022660   CAP04404 0.012990
    X00704   CAP05804 0.016770   CAP04304 0.003960
    X00704   CAP04203 0.009780   CAP03304 0.003760
    X00704   CAP03904 0.007900   CAP03803 0.019450
    X00704   CAP03503 0.014630   CAP05104 0.005390
    X00704   CAP03403 0.031300   CAP05503 0.013740
    X00704   CAP04102 0.001010   CAP04403 0.004960
    X00704   CAP04603 0.016120   CAP05904 0.020550
    X00704   CAP03303 0.020100   CAP03804 0.022700
    X00704   CAP05502 0.001140   CAP03702 0.000470
    X00704   CAP05703 0.010240   CAP03903 0.009690
    X00705   CAP04104 0.012210   CAP03303 0.000430
    X00705   CAP05605 0.012920   CAP05704 0.009860
    X00705   INV00505 424.000000   CAP05105 0.005710
    X00705   CAP05904 0.014010   CAP05405 0.012670
    X00705   CAP05905 0.021090   CAP03704 0.026680
    X00705   CAP05705 0.024720   CAP03904 0.009330
    X00705   CAP05804 0.018640   CAP05805 0.017490
    X00705   CAP04204 0.009420   CAP05503 0.001100
    X00705   CAP03804 0.018730   CAP05305 0.020440
    X00705   CAP05404 0.005220   CAP03305 0.004290
    X00705   CAP04604 0.016160   CAP04305 0.005040
    X00705   CAP03304 0.019580   CAP04205 0.024760
    X00705   CAP03703 0.000450   CAP05104 0.008300
    X00705   CAP03905 0.008260   CAP04405 0.013170
    X00705   CAP03805 0.023420   CAP04603 0.001200
    X00705   CAP03405 0.049700   CAP03505 0.035310
    X00705   CAP04304 0.028120   CAP03705 0.000570
    X00705   CAP05604 0.021820   CAP04103 0.000980
    X00705   CAP04404 0.004770   CAP03404 0.030140
    X00705   CAP05504 0.013780   CAP05304 0.017550
    X00705   CAP03504 0.014090
    X00706   CAP05406 0.017890   CAP05906 0.035100
    X00706   CAP04406 0.017950   CAP03306 0.024300
    X00706   CAP05306 0.037990   CAP05506 0.014880
    X00706   CAP05106 0.014010   CAP03706 0.027700
    X00706   CAP04106 0.013190   CAP03806 0.042150
    X00706   CAP05806 0.036130   CAP03906 0.017590
    X00706   CAP03304 0.000220   CAP05706 0.034580
    X00706   CAP03506 0.049400   CAP04306 0.033160
    X00706   CAP03406 0.079840   CAP04606 0.017360
    X00706   CAP04206 0.034180   CAP05606 0.034740
    X00706   INV00506 424.000000   CAP03705 0.029300
    X00706   CAP05405 0.005640   CAP05305 0.018950
    X00706   CAP03305 0.021620   CAP05105 0.008970
    X00706   CAP03405 0.032550   CAP03505 0.015220
    X00706   CAP03805 0.020230   CAP05505 0.016070
    X00706   CAP03905 0.010070   CAP04105 0.014250
    X00706   CAP04205 0.010170   CAP04605 0.018750
    X00706   CAP04305 0.030370   CAP04405 0.005150
    X00706   CAP04604 0.000600   CAP04104 0.000530
    X00706   CAP05605 0.023560   CAP05705 0.010650
    X00706   CAP05504 0.000600   CAP05905 0.015130
    X00706   CAP05805 0.020130
    X00803   CAP05103 0.006920   CAP05102 0.022450
    X00803   CAP04403 0.012890   CAP03701 0.000810
    X00803   CAP05203 0.032300   CAP05002 0.010340
    X00803   CAP05403 0.011510   CAP04902 0.013640
    X00803   CAP04601 0.000970   CAP03603 0.019340
    X00803   CAP05903 0.020630   CAP05902 0.018350
    X00803   CAP04903 0.004530   CAP04803 0.004940
    X00803   CAP05802 0.026110   CAP05702 0.013090
    X00803   CAP05602 0.033880   CAP05402 0.006790
    X00803   CAP04101 0.000980   CAP04603 0.000370
    X00803   CAP05603 0.008980   CAP05202 0.019580
    X00803   CAP03703 0.003970   CAP05003 0.006780
    X00803   INV00603 26.000000   CAP03303 0.002710
    X00803   CAP03302 0.015180   CAP04103 0.000020
    X00803   CAP03602 0.031490   CAP04602 0.015980
    X00803   CAP04402 0.005290   CAP03702 0.057470
    X00803   CAP03301 0.000330   CAP05803 0.014130
    X00803   CAP04102 0.011960   CAP04302 0.032420
    X00803   CAP04802 0.013070   CAP05703 0.024760
    X00803   CAP04303 0.004890
    X00804   CAP05404 0.011510   CAP04103 0.012940
    X00804   CAP03704 0.003970   CAP05204 0.032300
    X00804   CAP05104 0.006920   CAP04603 0.016950
    X00804   CAP05603 0.033880   CAP03703 0.058280
    X00804   INV00604 26.000000   CAP03303 0.015500
    X00804   CAP03603 0.031490   CAP05904 0.020630
    X00804   CAP05403 0.006790   CAP05804 0.014130
    X00804   CAP05704 0.024760   CAP05203 0.019580
    X00804   CAP04803 0.013070   CAP05103 0.022450
    X00804   CAP05604 0.008980   CAP05003 0.010340
    X00804   CAP05703 0.013090   CAP04903 0.013640
    X00804   CAP04104 0.000020   CAP03604 0.019340
    X00804   CAP05004 0.006780   CAP05903 0.018350
    X00804   CAP04404 0.012890   CAP04304 0.004890
    X00804   CAP04904 0.004530   CAP04804 0.004940
    X00804   CAP04403 0.005290   CAP05803 0.026110
    X00804   CAP04604 0.000370   CAP03304 0.002710
    X00804   CAP04303 0.032420
    X00805   CAP04105 0.000500   CAP04805 0.005420
    X00805   CAP05905 0.021310   CAP05604 0.032620
    X00805   CAP04605 0.000990   CAP04104 0.012460
    X00805   CAP05704 0.012600   CAP04604 0.016320
    X00805   CAP05804 0.025150   CAP04804 0.012580
    X00805   CAP04305 0.006090   INV00605 26.000000
    X00805   CAP05904 0.017670   CAP04404 0.005100
    X00805   CAP04405 0.013090   CAP03304 0.014930
    X00805   CAP05105 0.007760   CAP05805 0.015100
    X00805   CAP03604 0.030330   CAP05205 0.033030
    X00805   CAP03605 0.020500   CAP03305 0.003280
    X00805   CAP05005 0.007170   CAP05104 0.021610
    X00805   CAP03704 0.056120   CAP05004 0.009960
    X00805   CAP05204 0.018860   CAP04304 0.031220
    X00805   CAP03705 0.006130   CAP05405 0.011760
    X00805   CAP04904 0.013130   CAP04905 0.005030
    X00805   CAP05605 0.010240   CAP05404 0.006540
    X00805   CAP05705 0.025250
    X00806   CAP05705 0.013610   CAP04805 0.013590
    X00806   CAP05805 0.027160   CAP05605 0.035230
    X00806   CAP05405 0.007070   CAP05205 0.020370
    X00806   CAP05105 0.023340   CAP05005 0.010760
    X00806   CAP04905 0.014180   CAP04605 0.017630
    X00806   CAP05905 0.019080   CAP04405 0.005510
    X00806   CAP04305 0.033720   CAP04105 0.013460
    X00806   CAP03705 0.060610   CAP03605 0.032750
    X00806   CAP03305 0.016120   CAP03306 0.018210
    X00806   CAP04906 0.018170   CAP05806 0.040250
    X00806   CAP05706 0.037850   CAP05606 0.042860
    X00806   CAP05406 0.018310   CAP05206 0.051890
    X00806   CAP05106 0.029370   CAP05006 0.017130
    X00806   CAP04806 0.018000   CAP05906 0.038980
    X00806   CAP04606 0.017320   CAP04406 0.018180
    X00806   CAP04306 0.037310   CAP04106 0.012960
    X00806   CAP03706 0.062260   CAP03606 0.050830
    I00101   OBJECTIV 100.080000   INV00102 1.000000
    I00101   INV00101 -1.000000
    I00102   INV00102 -1.000000   INV00103 1.000000
    I00102   OBJECTIV 100.080000
    I00103   INV00103 -1.000000   INV00104 1.000000
    I00103   OBJECTIV 100.080000
    I00104   OBJECTIV 100.080000   INV00104 -1.000000
    I00104   INV00105 1.000000
    I00105   OBJECTIV 100.080000   INV00106 1.000000
    I00105   INV00105 -1.000000
    I00106   OBJECTIV 100.080000   INV00106 -1.000000
    I00201   INV00201 -1.000000   INV00202 1.000000
    I00201   OBJECTIV 100.080000
    I00202   OBJECTIV 100.080000   INV00203 1.000000
    I00202   INV00202 -1.000000
    I00203   INV00203 -1.000000   INV00204 1.000000
    I00203   OBJECTIV 100.080000
    I00204   INV00205 1.000000   INV00204 -1.000000
    I00204   OBJECTIV 100.080000
    I00205   OBJECTIV 100.080000   INV00205 -1.000000
    I00205   INV00206 1.000000
    I00206   INV00206 -1.000000   OBJECTIV 100.080000
    I00301   INV00302 1.000000   OBJECTIV 100.080000
    I00301   INV00301 -1.000000
    I00302   INV00303 1.000000   INV00302 -1.000000
    I00302   OBJECTIV 100.080000
    I00303   INV00304 1.000000   INV00303 -1.000000
    I00303   OBJECTIV 100.080000
    I00304   OBJECTIV 100.080000   INV00305 1.000000
    I00304   INV00304 -1.000000
    I00305   INV00306 1.000000   OBJECTIV 100.080000
    I00305   INV00305 -1.000000
    I00306   OBJECTIV 100.080000   INV00306 -1.000000
    I00401   INV00401 -1.000000   INV00402 1.000000
    I00401   OBJECTIV 100.080000
    I00402   INV00402 -1.000000   INV00403 1.000000
    I00402   OBJECTIV 100.080000
    I00403   OBJECTIV 100.080000   INV00404 1.000000
    I00403   INV00403 -1.000000
    I00404   OBJECTIV 100.080000   INV00404 -1.000000
    I00404   INV00405 1.000000
    I00405   INV00406 1.000000   INV00405 -1.000000
    I00405   OBJECTIV 100.080000
    I00406   OBJECTIV 100.080000   INV00406 -1.000000
    I00501   INV00502 1.000000   OBJECTIV 100.080000
    I00501   INV00501 -1.000000
    I00502   INV00503 1.000000   OBJECTIV 100.080000
    I00502   INV00502 -1.000000
    I00503   INV00503 -1.000000   INV00504 1.000000
    I00503   OBJECTIV 100.080000
    I00504   INV00504 -1.000000   OBJECTIV 100.080000
    I00504   INV00505 1.000000
    I00505   OBJECTIV 100.080000   INV00505 -1.000000
    I00505   INV00506 1.000000
    I00506   OBJECTIV 100.080000   INV00506 -1.000000
    I00601   INV00602 1.000000   OBJECTIV 100.080000
    I00601   INV00601 -1.000000
    I00602   INV00602 -1.000000   INV00603 1.000000
    I00602   OBJECTIV 100.080000
    I00603   INV00604 1.000000   INV00603 -1.000000
    I00603   OBJECTIV 100.080000
    I00604   INV00604 -1.000000   INV00605 1.000000
    I00604   OBJECTIV 100.080000
    I00605   INV00605 -1.000000   OBJECTIV 100.080000
    I00605   INV00606 1.000000
    I00606   INV00606 -1.000000   OBJECTIV 100.080000
    SLACK45929 CAP00101 1.000000
    SLACK45930 CAP00201 1.000000
    SLACK45931 CAP00301 1.000000
    SLACK45932 CAP00401 1.000000
    SLACK45933 CAP00501 1.000000
    SLACK45934 CAP00601 1.000000
    SLACK45935 CAP00701 1.000000
    SLACK45936 CAP00801 1.000000
    SLACK45937 CAP00901 1.000000
    SLACK45938 CAP01001 1.000000
    SLACK45939 CAP01101 1.000000
    SLACK45940 CAP01201 1.000000
    SLACK45941 CAP01301 1.000000
    SLACK45942 CAP01401 1.000000
    SLACK45943 CAP01501 1.000000
    SLACK45944 CAP01601 1.000000
    SLACK45945 CAP01701 1.000000
    SLACK45946 CAP01801 1.000000
    SLACK45947 CAP02001 1.000000
    SLACK45948 CAP02201 1.000000
    SLACK45949 CAP02501 1.000000
    SLACK45950 CAP02701 1.000000
    SLACK45951 CAP03101 1.000000
    SLACK45952 CAP03301 1.000000
    SLACK45953 CAP03701 1.000000
    SLACK45954 CAP04101 1.000000
    SLACK45955 CAP04301 1.000000
    SLACK45956 CAP04601 1.000000
    SLACK45957 CAP05501 1.000000
    SLACK45958 CAP06101 1.000000
    SLACK45959 CAP06201 1.000000
    SLACK45960 CAP06301 1.000000
    SLACK45961 CAP06501 1.000000
    SLACK45962 CAP00102 1.000000
    SLACK45963 CAP00202 1.000000
    SLACK45964 CAP00302 1.000000
    SLACK45965 CAP00402 1.000000
    SLACK45966 CAP00502 1.000000
    SLACK45967 CAP00602 1.000000
    SLACK45968 CAP00702 1.000000
    SLACK45969 CAP00802 1.000000
    SLACK45970 CAP00902 1.000000
    SLACK45971 CAP01002 1.000000
    SLACK45972 CAP01102 1.000000
    SLACK45973 CAP01202 1.000000
    SLACK45974 CAP01302 1.000000
    SLACK45975 CAP01402 1.000000
    SLACK45976 CAP01502 1.000000
    SLACK45977 CAP01602 1.000000
    SLACK45978 CAP01702 1.000000
    SLACK45979 CAP01802 1.000000
    SLACK45980 CAP01902 1.000000
    SLACK45981 CAP02002 1.000000
    SLACK45982 CAP02102 1.000000
    SLACK45983 CAP02202 1.000000
    SLACK45984 CAP02302 1.000000
    SLACK45985 CAP02402 1.000000
    SLACK45986 CAP02502 1.000000
    SLACK45987 CAP02602 1.000000
    SLACK45988 CAP02702 1.000000
    SLACK45989 CAP02802 1.000000
    SLACK45990 CAP02902 1.000000
    SLACK45991 CAP03002 1.000000
    SLACK45992 CAP03102 1.000000
    SLACK45993 CAP03202 1.000000
    SLACK45994 CAP03302 1.000000
    SLACK45995 CAP03402 1.000000
    SLACK45996 CAP03502 1.000000
    SLACK45997 CAP03602 1.000000
    SLACK45998 CAP03702 1.000000
    SLACK45999 CAP03802 1.000000
    SLACK46000 CAP03902 1.000000
    SLACK46001 CAP04002 1.000000
    SLACK46002 CAP04102 1.000000
    SLACK46003 CAP04202 1.000000
    SLACK46004 CAP04302 1.000000
    SLACK46005 CAP04402 1.000000
    SLACK46006 CAP04502 1.000000
    SLACK46007 CAP04602 1.000000
    SLACK46008 CAP04702 1.000000
    SLACK46009 CAP04802 1.000000
    SLACK46010 CAP04902 1.000000
    SLACK46011 CAP05002 1.000000
    SLACK46012 CAP05102 1.000000
    SLACK46013 CAP05202 1.000000
    SLACK46014 CAP05302 1.000000
    SLACK46015 CAP05402 1.000000
    SLACK46016 CAP05502 1.000000
    SLACK46017 CAP05602 1.000000
    SLACK46018 CAP05702 1.000000
    SLACK46019 CAP05802 1.000000
    SLACK46020 CAP05902 1.000000
    SLACK46021 CAP06002 1.000000
    SLACK46022 CAP06102 1.000000
    SLACK46023 CAP06202 1.000000
    SLACK46024 CAP06302 1.000000
    SLACK46025 CAP06402 1.000000
    SLACK46026 CAP06502 1.000000
    SLACK46027 CAP00103 1.000000
    SLACK46028 CAP00203 1.000000
    SLACK46029 CAP00303 1.000000
    SLACK46030 CAP00403 1.000000
    SLACK46031 CAP00503 1.000000
    SLACK46032 CAP00603 1.000000
    SLACK46033 CAP00703 1.000000
    SLACK46034 CAP00803 1.000000
    SLACK46035 CAP00903 1.000000
    SLACK46036 CAP01003 1.000000
    SLACK46037 CAP01103 1.000000
    SLACK46038 CAP01203 1.000000
    SLACK46039 CAP01303 1.000000
    SLACK46040 CAP01403 1.000000
    SLACK46041 CAP01503 1.000000
    SLACK46042 CAP01603 1.000000
    SLACK46043 CAP01703 1.000000
    SLACK46044 CAP01803 1.000000
    SLACK46045 CAP01903 1.000000
    SLACK46046 CAP02003 1.000000
    SLACK46047 CAP02103 1.000000
    SLACK46048 CAP02203 1.000000
    SLACK46049 CAP02303 1.000000
    SLACK46050 CAP02403 1.000000
    SLACK46051 CAP02503 1.000000
    SLACK46052 CAP02603 1.000000
    SLACK46053 CAP02703 1.000000
    SLACK46054 CAP02803 1.000000
    SLACK46055 CAP02903 1.000000
    SLACK46056 CAP03003 1.000000
    SLACK46057 CAP03103 1.000000
    SLACK46058 CAP03203 1.000000
    SLACK46059 CAP03303 1.000000
    SLACK46060 CAP03403 1.000000
    SLACK46061 CAP03503 1.000000
    SLACK46062 CAP03603 1.000000
    SLACK46063 CAP03703 1.000000
    SLACK46064 CAP03803 1.000000
    SLACK46065 CAP03903 1.000000
    SLACK46066 CAP04003 1.000000
    SLACK46067 CAP04103 1.000000
    SLACK46068 CAP04203 1.000000
    SLACK46069 CAP04303 1.000000
    SLACK46070 CAP04403 1.000000
    SLACK46071 CAP04503 1.000000
    SLACK46072 CAP04603 1.000000
    SLACK46073 CAP04703 1.000000
    SLACK46074 CAP04803 1.000000
    SLACK46075 CAP04903 1.000000
    SLACK46076 CAP05003 1.000000
    SLACK46077 CAP05103 1.000000
    SLACK46078 CAP05203 1.000000
    SLACK46079 CAP05303 1.000000
    SLACK46080 CAP05403 1.000000
    SLACK46081 CAP05503 1.000000
    SLACK46082 CAP05603 1.000000
    SLACK46083 CAP05703 1.000000
    SLACK46084 CAP05803 1.000000
    SLACK46085 CAP05903 1.000000
    SLACK46086 CAP06003 1.000000
    SLACK46087 CAP06103 1.000000
    SLACK46088 CAP06203 1.000000
    SLACK46089 CAP06303 1.000000
    SLACK46090 CAP06403 1.000000
    SLACK46091 CAP06503 1.000000
    SLACK46092 CAP00104 1.000000
    SLACK46093 CAP00204 1.000000
    SLACK46094 CAP00304 1.000000
    SLACK46095 CAP00404 1.000000
    SLACK46096 CAP00504 1.000000
    SLACK46097 CAP00604 1.000000
    SLACK46098 CAP00704 1.000000
    SLACK46099 CAP00804 1.000000
    SLACK46100 CAP00904 1.000000
    SLACK46101 CAP01004 1.000000
    SLACK46102 CAP01104 1.000000
    SLACK46103 CAP01204 1.000000
    SLACK46104 CAP01304 1.000000
    SLACK46105 CAP01404 1.000000
    SLACK46106 CAP01504 1.000000
    SLACK46107 CAP01604 1.000000
    SLACK46108 CAP01704 1.000000
    SLACK46109 CAP01804 1.000000
    SLACK46110 CAP01904 1.000000
    SLACK46111 CAP02004 1.000000
    SLACK46112 CAP02104 1.000000
    SLACK46113 CAP02204 1.000000
    SLACK46114 CAP02304 1.000000
    SLACK46115 CAP02404 1.000000
    SLACK46116 CAP02504 1.000000
    SLACK46117 CAP02604 1.000000
    SLACK46118 CAP02704 1.000000
    SLACK46119 CAP02804 1.000000
    SLACK46120 CAP02904 1.000000
    SLACK46121 CAP03004 1.000000
    SLACK46122 CAP03104 1.000000
    SLACK46123 CAP03204 1.000000
    SLACK46124 CAP03304 1.000000
    SLACK46125 CAP03404 1.000000
    SLACK46126 CAP03504 1.000000
    SLACK46127 CAP03604 1.000000
    SLACK46128 CAP03704 1.000000
    SLACK46129 CAP03804 1.000000
    SLACK46130 CAP03904 1.000000
    SLACK46131 CAP04004 1.000000
    SLACK46132 CAP04104 1.000000
    SLACK46133 CAP04204 1.000000
    SLACK46134 CAP04304 1.000000
    SLACK46135 CAP04404 1.000000
    SLACK46136 CAP04504 1.000000
    SLACK46137 CAP04604 1.000000
    SLACK46138 CAP04704 1.000000
    SLACK46139 CAP04804 1.000000
    SLACK46140 CAP04904 1.000000
    SLACK46141 CAP05004 1.000000
    SLACK46142 CAP05104 1.000000
    SLACK46143 CAP05204 1.000000
    SLACK46144 CAP05304 1.000000
    SLACK46145 CAP05404 1.000000
    SLACK46146 CAP05504 1.000000
    SLACK46147 CAP05604 1.000000
    SLACK46148 CAP05704 1.000000
    SLACK46149 CAP05804 1.000000
    SLACK46150 CAP05904 1.000000
    SLACK46151 CAP06004 1.000000
    SLACK46152 CAP06104 1.000000
    SLACK46153 CAP06204 1.000000
    SLACK46154 CAP06304 1.000000
    SLACK46155 CAP06404 1.000000
    SLACK46156 CAP06504 1.000000
    SLACK46157 CAP00105 1.000000
    SLACK46158 CAP00205 1.000000
    SLACK46159 CAP00305 1.000000
    SLACK46160 CAP00405 1.000000
    SLACK46161 CAP00505 1.000000
    SLACK46162 CAP00605 1.000000
    SLACK46163 CAP00705 1.000000
    SLACK46164 CAP00805 1.000000
    SLACK46165 CAP00905 1.000000
    SLACK46166 CAP01005 1.000000
    SLACK46167 CAP01105 1.000000
    SLACK46168 CAP01205 1.000000
    SLACK46169 CAP01305 1.000000
    SLACK46170 CAP01405 1.000000
    SLACK46171 CAP01505 1.000000
    SLACK46172 CAP01605 1.000000
    SLACK46173 CAP01705 1.000000
    SLACK46174 CAP01805 1.000000
    SLACK46175 CAP01905 1.000000
    SLACK46176 CAP02005 1.000000
    SLACK46177 CAP02105 1.000000
    SLACK46178 CAP02205 1.000000
    SLACK46179 CAP02305 1.000000
    SLACK46180 CAP02405 1.000000
    SLACK46181 CAP02505 1.000000
    SLACK46182 CAP02605 1.000000
    SLACK46183 CAP02705 1.000000
    SLACK46184 CAP02805 1.000000
    SLACK46185 CAP02905 1.000000
    SLACK46186 CAP03005 1.000000
    SLACK46187 CAP03105 1.000000
    SLACK46188 CAP03205 1.000000
    SLACK46189 CAP03305 1.000000
    SLACK46190 CAP03405 1.000000
    SLACK46191 CAP03505 1.000000
    SLACK46192 CAP03605 1.000000
    SLACK46193 CAP03705 1.000000
    SLACK46194 CAP03805 1.000000
    SLACK46195 CAP03905 1.000000
    SLACK46196 CAP04005 1.000000
    SLACK46197 CAP04105 1.000000
    SLACK46198 CAP04205 1.000000
    SLACK46199 CAP04305 1.000000
    SLACK46200 CAP04405 1.000000
    SLACK46201 CAP04505 1.000000
    SLACK46202 CAP04605 1.000000
    SLACK46203 CAP04705 1.000000
    SLACK46204 CAP04805 1.000000
    SLACK46205 CAP04905 1.000000
    SLACK46206 CAP05005 1.000000
    SLACK46207 CAP05105 1.000000
    SLACK46208 CAP05205 1.000000
    SLACK46209 CAP05305 1.000000
    SLACK46210 CAP05405 1.000000
    SLACK46211 CAP05505 1.000000
    SLACK46212 CAP05605 1.000000
    SLACK46213 CAP05705 1.000000
    SLACK46214 CAP05805 1.000000
    SLACK46215 CAP05905 1.000000
    SLACK46216 CAP06005 1.000000
    SLACK46217 CAP06105 1.000000
    SLACK46218 CAP06205 1.000000
    SLACK46219 CAP06305 1.000000
    SLACK46220 CAP06405 1.000000
    SLACK46221 CAP06505 1.000000
    SLACK46222 CAP00106 1.000000
    SLACK46223 CAP00206 1.000000
    SLACK46224 CAP00306 1.000000
    SLACK46225 CAP00406 1.000000
    SLACK46226 CAP00506 1.000000
    SLACK46227 CAP00606 1.000000
    SLACK46228 CAP00706 1.000000
    SLACK46229 CAP00806 1.000000
    SLACK46230 CAP00906 1.000000
    SLACK46231 CAP01006 1.000000
    SLACK46232 CAP01106 1.000000
    SLACK46233 CAP01206 1.000000
    SLACK46234 CAP01306 1.000000
    SLACK46235 CAP01406 1.000000
    SLACK46236 CAP01506 1.000000
    SLACK46237 CAP01606 1.000000
    SLACK46238 CAP01706 1.000000
    SLACK46239 CAP01806 1.000000
    SLACK46240 CAP01906 1.000000
    SLACK46241 CAP02006 1.000000
    SLACK46242 CAP02106 1.000000
    SLACK46243 CAP02206 1.000000
    SLACK46244 CAP02306 1.000000
    SLACK46245 CAP02406 1.000000
    SLACK46246 CAP02506 1.000000
    SLACK46247 CAP02606 1.000000
    SLACK46248 CAP02706 1.000000
    SLACK46249 CAP02806 1.000000
    SLACK46250 CAP02906 1.000000
    SLACK46251 CAP03006 1.000000
    SLACK46252 CAP03106 1.000000
    SLACK46253 CAP03206 1.000000
    SLACK46254 CAP03306 1.000000
    SLACK46255 CAP03406 1.000000
    SLACK46256 CAP03506 1.000000
    SLACK46257 CAP03606 1.000000
    SLACK46258 CAP03706 1.000000
    SLACK46259 CAP03806 1.000000
    SLACK46260 CAP03906 1.000000
    SLACK46261 CAP04006 1.000000
    SLACK46262 CAP04106 1.000000
    SLACK46263 CAP04206 1.000000
    SLACK46264 CAP04306 1.000000
    SLACK46265 CAP04406 1.000000
    SLACK46266 CAP04506 1.000000
    SLACK46267 CAP04606 1.000000
    SLACK46268 CAP04706 1.000000
    SLACK46269 CAP04806 1.000000
    SLACK46270 CAP04906 1.000000
    SLACK46271 CAP05006 1.000000
    SLACK46272 CAP05106 1.000000
    SLACK46273 CAP05206 1.000000
    SLACK46274 CAP05306 1.000000
    SLACK46275 CAP05406 1.000000
    SLACK46276 CAP05506 1.000000
    SLACK46277 CAP05606 1.000000
    SLACK46278 CAP05706 1.000000
    SLACK46279 CAP05806 1.000000
    SLACK46280 CAP05906 1.000000
    SLACK46281 CAP06006 1.000000
    SLACK46282 CAP06106 1.000000
    SLACK46283 CAP06206 1.000000
    SLACK46284 CAP06306 1.000000
    SLACK46285 CAP06406 1.000000
    SLACK46286 CAP06506 1.000000
    SLACK46287 MND00102 -1.000000
    SLACK46288 MXD00102 1.000000
    SLACK46289 MND00202 -1.000000
    SLACK46290 MXD00202 1.000000
    SLACK46291 MND00502 -1.000000
    SLACK46292 MXD00502 1.000000
    SLACK46293 MND00702 -1.000000
    SLACK46294 MXD00702 1.000000
    SLACK46295 MND00802 -1.000000
    SLACK46296 MXD00802 1.000000
    SLACK46297 MND00902 -1.000000
    SLACK46298 MXD00902 1.000000
    SLACK46299 MND01002 -1.000000
    SLACK46300 MXD01002 1.000000
    SLACK46301 MND00103 -1.000000
    SLACK46302 MXD00103 1.000000
    SLACK46303 MND00203 -1.000000
    SLACK46304 MXD00203 1.000000
    SLACK46305 MND00303 -1.000000
    SLACK46306 MXD00303 1.000000
    SLACK46307 MND00403 -1.000000
    SLACK46308 MXD00403 1.000000
    SLACK46309 MND00503 -1.000000
    SLACK46310 MXD00503 1.000000
    SLACK46311 MND00603 -1.000000
    SLACK46312 MXD00603 1.000000
    SLACK46313 MND00703 -1.000000
    SLACK46314 MXD00703 1.000000
    SLACK46315 MND00803 -1.000000
    SLACK46316 MXD00803 1.000000
    SLACK46317 MND00903 -1.000000
    SLACK46318 MXD00903 1.000000
    SLACK46319 MND01003 -1.000000
    SLACK46320 MXD01003 1.000000
    SLACK46321 MND00104 -1.000000
    SLACK46322 MXD00104 1.000000
    SLACK46323 MND00204 -1.000000
    SLACK46324 MXD00204 1.000000
    SLACK46325 MND00304 -1.000000
    SLACK46326 MXD00304 1.000000
    SLACK46327 MND00404 -1.000000
    SLACK46328 MXD00404 1.000000
    SLACK46329 MND00504 -1.000000
    SLACK46330 MXD00504 1.000000
    SLACK46331 MND00604 -1.000000
    SLACK46332 MXD00604 1.000000
    SLACK46333 MND00704 -1.000000
    SLACK46334 MXD00704 1.000000
    SLACK46335 MND00804 -1.000000
    SLACK46336 MXD00804 1.000000
    SLACK46337 MND00904 -1.000000
    SLACK46338 MXD00904 1.000000
    SLACK46339 MND01004 -1.000000
    SLACK46340 MXD01004 1.000000
    SLACK46341 MND00105 -1.000000
    SLACK46342 MXD00105 1.000000
    SLACK46343 MND00205 -1.000000
    SLACK46344 MXD00205 1.000000
    SLACK46345 MND00305 -1.000000
    SLACK46346 MXD00305 1.000000
    SLACK46347 MND00405 -1.000000
    SLACK46348 MXD00405 1.000000
    SLACK46349 MND00505 -1.000000
    SLACK46350 MXD00505 1.000000
    SLACK46351 MND00605 -1.000000
    SLACK46352 MXD00605 1.000000
    SLACK46353 MND00705 -1.000000
    SLACK46354 MXD00705 1.000000
    SLACK46355 MND00805 -1.000000
    SLACK46356 MXD00805 1.000000
    SLACK46357 MND00905 -1.000000
    SLACK46358 MXD00905 1.000000
    SLACK46359 MND01005 -1.000000
    SLACK46360 MXD01005 1.000000
    SLACK46361 MND00106 -1.000000
    SLACK46362 MXD00106 1.000000
    SLACK46363 MND00206 -1.000000
    SLACK46364 MXD00206 1.000000
    SLACK46365 MND00306 -1.000000
    SLACK46366 MXD00306 1.000000
    SLACK46367 MND00406 -1.000000
    SLACK46368 MXD00406 1.000000
    SLACK46369 MND00506 -1.000000
    SLACK46370 MXD00506 1.000000
    SLACK46371 MND00606 -1.000000
    SLACK46372 MXD00606 1.000000
    SLACK46373 MND00706 -1.000000
    SLACK46374 MXD00706 1.000000
    SLACK46375 MND00806 -1.000000
    SLACK46376 MXD00806 1.000000
    SLACK46377 MND00906 -1.000000
    SLACK46378 MXD00906 1.000000
    SLACK46379 MND01006 -1.000000
    SLACK46380 MXD01006 1.000000
RHS
    RHS      CAP00101 23995.800000
    RHS      CAP00201 2133.000000
    RHS      CAP00301 6398.900000
    RHS      CAP00401 7998.600000
    RHS      CAP00501 29328.100000
    RHS      CAP00601 7465.300000
    RHS      CAP00701 11731.300000
    RHS      CAP00801 1599.700000
    RHS      CAP00901 40824.000000
    RHS      CAP01001 27216.000000
    RHS      CAP01101 6237.000000
    RHS      CAP01201 2835.000000
    RHS      CAP01301 1701.000000
    RHS      CAP01401 6479.700000
    RHS      CAP01501 540.000000
    RHS      CAP01601 540.000000
    RHS      CAP01701 540.000000
    RHS      CAP01801 1080.000000
    RHS      CAP02001 993.600000
    RHS      CAP02201 441.600000
    RHS      CAP02501 552.000000
    RHS      CAP02701 2550.200000
    RHS      CAP03101 728.600000
    RHS      CAP03301 1296.000000
    RHS      CAP03701 3013.200000
    RHS      CAP04101 751.700000
    RHS      CAP04301 1224.700000
    RHS      CAP04601 1503.400000
    RHS      CAP05501 1769.000000
    RHS      CAP06101 3864.000000
    RHS      CAP06201 1449.000000
    RHS      CAP06301 3732.700000
    RHS      CAP06501 2649.600000
    RHS      CAP00102 21329.600000
    RHS      CAP00202 1896.000000
    RHS      CAP00302 5687.900000
    RHS      CAP00402 7109.900000
    RHS      CAP00502 26069.500000
    RHS      CAP00602 6635.900000
    RHS      CAP00702 10427.800000
    RHS      CAP00802 1422.000000
    RHS      CAP00902 36288.000000
    RHS      CAP01002 24192.000000
    RHS      CAP01102 5544.000000
    RHS      CAP01202 2520.000000
    RHS      CAP01302 1512.000000
    RHS      CAP01402 5759.800000
    RHS      CAP01502 480.000000
    RHS      CAP01602 480.000000
    RHS      CAP01702 480.000000
    RHS      CAP01802 960.000000
    RHS      CAP01902 652.800000
    RHS      CAP02002 864.000000
    RHS      CAP02102 859.700000
    RHS      CAP02202 384.000000
    RHS      CAP02302 573.100000
    RHS      CAP02402 576.000000
    RHS      CAP02502 480.000000
    RHS      CAP02602 1488.000000
    RHS      CAP02702 2217.600000
    RHS      CAP02802 1392.000000
    RHS      CAP02902 432.000000
    RHS      CAP03002 480.000000
    RHS      CAP03102 633.600000
    RHS      CAP03202 1219.200000
    RHS      CAP03302 1152.000000
    RHS      CAP03402 2102.400000
    RHS      CAP03502 115.200000
    RHS      CAP03602 1209.600000
    RHS      CAP03702 2678.400000
    RHS      CAP03802 1157.800000
    RHS      CAP03902 299.500000
    RHS      CAP04002 328.300000
    RHS      CAP04102 668.200000
    RHS      CAP04202 1036.800000
    RHS      CAP04302 1088.600000
    RHS      CAP04402 362.900000
    RHS      CAP04502 1002.200000
    RHS      CAP04602 1336.300000
    RHS      CAP04702 1336.300000
    RHS      CAP04802 668.200000
    RHS      CAP04902 668.200000
    RHS      CAP05002 668.200000
    RHS      CAP05102 679.700000
    RHS      CAP05202 1670.400000
    RHS      CAP05302 576.000000
    RHS      CAP05402 725.800000
    RHS      CAP05502 1572.500000
    RHS      CAP05602 985.000000
    RHS      CAP05702 898.600000
    RHS      CAP05802 985.000000
    RHS      CAP05902 673.900000
    RHS      CAP06002 3960.000000
    RHS      CAP06102 3360.000000
    RHS      CAP06202 1260.000000
    RHS      CAP06302 3317.900000
    RHS      CAP06402 1728.000000
    RHS      CAP06502 2304.000000
    RHS      CAP00103 23107.000000
    RHS      CAP00203 2054.000000
    RHS      CAP00303 6161.900000
    RHS      CAP00403 7702.300000
    RHS      CAP00503 28241.900000
    RHS      CAP00603 7188.900000
    RHS      CAP00703 11296.800000
    RHS      CAP00803 1540.500000
    RHS      CAP00903 39312.000000
    RHS      CAP01003 26208.000000
    RHS      CAP01103 6006.000000
    RHS      CAP01203 2730.000000
    RHS      CAP01303 1638.000000
    RHS      CAP01403 6239.700000
    RHS      CAP01503 520.000000
    RHS      CAP01603 520.000000
    RHS      CAP01703 520.000000
    RHS      CAP01803 1040.000000
    RHS      CAP01903 685.400000
    RHS      CAP02003 907.200000
    RHS      CAP02103 902.700000
    RHS      CAP02203 403.200000
    RHS      CAP02303 601.800000
    RHS      CAP02403 604.800000
    RHS      CAP02503 504.000000
    RHS      CAP02603 1562.400000
    RHS      CAP02703 2328.500000
    RHS      CAP02803 1461.600000
    RHS      CAP02903 453.600000
    RHS      CAP03003 504.000000
    RHS      CAP03103 665.300000
    RHS      CAP03203 1280.200000
    RHS      CAP03303 1248.000000
    RHS      CAP03403 2277.600000
    RHS      CAP03503 124.800000
    RHS      CAP03603 1310.400000
    RHS      CAP03703 2901.600000
    RHS      CAP03803 1254.200000
    RHS      CAP03903 324.500000
    RHS      CAP04003 355.700000
    RHS      CAP04103 723.800000
    RHS      CAP04203 1123.200000
    RHS      CAP04303 1179.400000
    RHS      CAP04403 393.100000
    RHS      CAP04503 1085.800000
    RHS      CAP04603 1447.700000
    RHS      CAP04703 1447.700000
    RHS      CAP04803 723.800000
    RHS      CAP04903 723.800000
    RHS      CAP05003 723.800000
    RHS      CAP05103 736.300000
    RHS      CAP05203 1809.600000
    RHS      CAP05303 624.000000
    RHS      CAP05403 786.200000
    RHS      CAP05503 1703.500000
    RHS      CAP05603 1067.000000
    RHS      CAP05703 973.400000
    RHS      CAP05803 1067.000000
    RHS      CAP05903 730.100000
    RHS      CAP06003 4158.000000
    RHS      CAP06103 3528.000000
    RHS      CAP06203 1323.000000
    RHS      CAP06303 3594.400000
    RHS      CAP06403 1814.400000
    RHS      CAP06503 2419.200000
    RHS      CAP00104 23107.000000
    RHS      CAP00204 2054.000000
    RHS      CAP00304 6161.900000
    RHS      CAP00404 7702.300000
    RHS      CAP00504 28241.900000
    RHS      CAP00604 7188.900000
    RHS      CAP00704 11296.800000
    RHS      CAP00804 1540.500000
    RHS      CAP00904 39312.000000
    RHS      CAP01004 26208.000000
    RHS      CAP01104 6006.000000
    RHS      CAP01204 2730.000000
    RHS      CAP01304 1638.000000
    RHS      CAP01404 6239.700000
    RHS      CAP01504 520.000000
    RHS      CAP01604 520.000000
    RHS      CAP01704 520.000000
    RHS      CAP01804 1040.000000
    RHS      CAP01904 718.100000
    RHS      CAP02004 950.400000
    RHS      CAP02104 945.600000
    RHS      CAP02204 422.400000
    RHS      CAP02304 630.400000
    RHS      CAP02404 633.600000
    RHS      CAP02504 528.000000
    RHS      CAP02604 1636.800000
    RHS      CAP02704 2439.400000
    RHS      CAP02804 1531.200000
    RHS      CAP02904 475.200000
    RHS      CAP03004 528.000000
    RHS      CAP03104 697.000000
    RHS      CAP03204 1341.100000
    RHS      CAP03304 1248.000000
    RHS      CAP03404 2277.600000
    RHS      CAP03504 124.800000
    RHS      CAP03604 1310.400000
    RHS      CAP03704 2901.600000
    RHS      CAP03804 1254.200000
    RHS      CAP03904 324.500000
    RHS      CAP04004 355.700000
    RHS      CAP04104 723.800000
    RHS      CAP04204 1123.200000
    RHS      CAP04304 1179.400000
    RHS      CAP04404 393.100000
    RHS      CAP04504 1085.800000
    RHS      CAP04604 1447.700000
    RHS      CAP04704 1447.700000
    RHS      CAP04804 723.800000
    RHS      CAP04904 723.800000
    RHS      CAP05004 723.800000
    RHS      CAP05104 736.300000
    RHS      CAP05204 1809.600000
    RHS      CAP05304 624.000000
    RHS      CAP05404 786.200000
    RHS      CAP05504 1703.500000
    RHS      CAP05604 1067.000000
    RHS      CAP05704 973.400000
    RHS      CAP05804 1067.000000
    RHS      CAP05904 730.100000
    RHS      CAP06004 4356.000000
    RHS      CAP06104 3696.000000
    RHS      CAP06204 1386.000000
    RHS      CAP06304 3594.400000
    RHS      CAP06404 1900.800000
    RHS      CAP06504 2534.400000
    RHS      CAP00105 23995.800000
    RHS      CAP00205 2133.000000
    RHS      CAP00305 6398.900000
    RHS      CAP00405 7998.600000
    RHS      CAP00505 29328.100000
    RHS      CAP00605 7465.300000
    RHS      CAP00705 11731.300000
    RHS      CAP00805 1599.700000
    RHS      CAP00905 40824.000000
    RHS      CAP01005 27216.000000
    RHS      CAP01105 6237.000000
    RHS      CAP01205 2835.000000
    RHS      CAP01305 1701.000000
    RHS      CAP01405 6479.700000
    RHS      CAP01505 540.000000
    RHS      CAP01605 540.000000
    RHS      CAP01705 540.000000
    RHS      CAP01805 1080.000000
    RHS      CAP01905 718.100000
    RHS      CAP02005 950.400000
    RHS      CAP02105 945.600000
    RHS      CAP02205 422.400000
    RHS      CAP02305 630.400000
    RHS      CAP02405 633.600000
    RHS      CAP02505 528.000000
    RHS      CAP02605 1636.800000
    RHS      CAP02705 2439.400000
    RHS      CAP02805 1531.200000
    RHS      CAP02905 475.200000
    RHS      CAP03005 528.000000
    RHS      CAP03105 697.000000
    RHS      CAP03205 1341.100000
    RHS      CAP03305 1296.000000
    RHS      CAP03405 2365.200000
    RHS      CAP03505 129.600000
    RHS      CAP03605 1360.800000
    RHS      CAP03705 3013.200000
    RHS      CAP03805 1302.500000
    RHS      CAP03905 337.000000
    RHS      CAP04005 369.400000
    RHS      CAP04105 751.700000
    RHS      CAP04205 1166.400000
    RHS      CAP04305 1224.700000
    RHS      CAP04405 408.200000
    RHS      CAP04505 1127.500000
    RHS      CAP04605 1503.400000
    RHS      CAP04705 1503.400000
    RHS      CAP04805 751.700000
    RHS      CAP04905 751.700000
    RHS      CAP05005 751.700000
    RHS      CAP05105 764.600000
    RHS      CAP05205 1879.200000
    RHS      CAP05305 648.000000
    RHS      CAP05405 816.500000
    RHS      CAP05505 1769.000000
    RHS      CAP05605 1108.100000
    RHS      CAP05705 1010.900000
    RHS      CAP05805 1108.100000
    RHS      CAP05905 758.200000
    RHS      CAP06005 4356.000000
    RHS      CAP06105 3696.000000
    RHS      CAP06205 1386.000000
    RHS      CAP06305 3732.700000
    RHS      CAP06405 1900.800000
    RHS      CAP06505 2534.400000
    RHS      CAP00106 22218.300000
    RHS      CAP00206 1975.000000
    RHS      CAP00306 5924.900000
    RHS      CAP00406 7406.100000
    RHS      CAP00506 27155.700000
    RHS      CAP00606 6912.400000
    RHS      CAP00706 10862.300000
    RHS      CAP00806 1481.200000
    RHS      CAP00906 37800.000000
    RHS      CAP01006 25200.000000
    RHS      CAP01106 5775.000000
    RHS      CAP01206 2625.000000
    RHS      CAP01306 1575.000000
    RHS      CAP01406 1999.900000
    RHS      CAP01506 166.700000
    RHS      CAP01606 166.700000
    RHS      CAP01706 166.700000
    RHS      CAP01806 333.300000
    RHS      CAP01906 685.400000
    RHS      CAP02006 907.200000
    RHS      CAP02106 902.700000
    RHS      CAP02206 403.200000
    RHS      CAP02306 601.800000
    RHS      CAP02406 604.800000
    RHS      CAP02506 504.000000
    RHS      CAP02606 1562.400000
    RHS      CAP02706 2328.500000
    RHS      CAP02806 1461.600000
    RHS      CAP02906 453.600000
    RHS      CAP03006 504.000000
    RHS      CAP03106 665.300000
    RHS      CAP03206 1280.200000
    RHS      CAP03306 1200.000000
    RHS      CAP03406 2190.000000
    RHS      CAP03506 120.000000
    RHS      CAP03606 1260.000000
    RHS      CAP03706 2790.000000
    RHS      CAP03806 1206.000000
    RHS      CAP03906 312.000000
    RHS      CAP04006 342.000000
    RHS      CAP04106 696.000000
    RHS      CAP04206 1080.000000
    RHS      CAP04306 1134.000000
    RHS      CAP04406 378.000000
    RHS      CAP04506 1044.000000
    RHS      CAP04606 1392.000000
    RHS      CAP04706 1392.000000
    RHS      CAP04806 696.000000
    RHS      CAP04906 696.000000
    RHS      CAP05006 696.000000
    RHS      CAP05106 708.000000
    RHS      CAP05206 1740.000000
    RHS      CAP05306 600.000000
    RHS      CAP05406 756.000000
    RHS      CAP05506 1638.000000
    RHS      CAP05606 1026.000000
    RHS      CAP05706 936.000000
    RHS      CAP05806 1026.000000
    RHS      CAP05906 702.000000
    RHS      CAP06006 4158.000000
    RHS      CAP06106 3528.000000
    RHS      CAP06206 1323.000000
    RHS      CAP06306 3456.200000
    RHS      CAP06406 1814.400000
    RHS      CAP06506 2419.200000
    RHS      MXD00102 56200.000000
    RHS      MXD00202 245714.000000
    RHS      MXD00502 1201600.000000
    RHS      MXD00702 78000.000000
    RHS      MXD00802 180000.000000
    RHS      MXD00902 1391199.000000
    RHS      MXD01002 450000.000000
    RHS      MXD00103 98200.000000
    RHS      MXD00203 377143.000000
    RHS      MXD00303 142824.000000
    RHS      MXD00403 16000.000000
    RHS      MXD00503 1984799.000000
    RHS      MXD00603 34200.000000
    RHS      MXD00703 155200.000000
    RHS      MXD00803 258000.000000
    RHS      MXD00903 2414999.000000
    RHS      MXD01003 706000.000000
    RHS      MND00104 89091.000000
    RHS      MXD00104 232200.000000
    RHS      MXD00204 491428.000000
    RHS      MND00304 13640.000000
    RHS      MXD00304 288706.000000
    RHS      MXD00404 20400.000000
    RHS      MND00504 433908.000000
    RHS      MXD00504 2669599.000000
    RHS      MXD00604 54200.000000
    RHS      MND00704 99890.000000
    RHS      MXD00704 214400.000000
    RHS      MND00804 149985.000000
    RHS      MXD00804 336000.000000
    RHS      MND00904 68537.000000
    RHS      MXD00904 3635799.000000
    RHS      MND01004 118071.000000
    RHS      MXD01004 966000.000000
    RHS      MND00105 129087.000000
    RHS      MXD00105 366200.000000
    RHS      MND00205 150791.000000
    RHS      MXD00205 492571.000000
    RHS      MND00305 200788.000000
    RHS      MXD00305 486353.000000
    RHS      MND00405 11699.000000
    RHS      MXD00405 25400.000000
    RHS      MND00505 884246.000000
    RHS      MXD00505 3241599.000000
    RHS      MND00605 24096.000000
    RHS      MXD00605 68200.000000
    RHS      MND00705 125187.000000
    RHS      MXD00705 273600.000000
    RHS      MND00805 179982.000000
    RHS      MXD00805 414000.000000
    RHS      MND00905 1849407.000000
    RHS      MXD00905 4798598.000000
    RHS      MND01005 334408.000000
    RHS      MXD01005 1226000.000000
    RHS      MND00106 169083.000000
    RHS      MXD00106 500200.000000
    RHS      MND00206 150791.000000
    RHS      MXD00206 493714.000000
    RHS      MND00306 233184.000000
    RHS      MXD00306 702823.000000
    RHS      MND00406 11699.000000
    RHS      MXD00406 30800.000000
    RHS      MND00506 1301415.000000
    RHS      MXD00506 3817599.000000
    RHS      MND00606 30096.000000
    RHS      MXD00606 80200.000000
    RHS      MND00706 125187.000000
    RHS      MXD00706 345200.000000
    RHS      MND00806 209979.000000
    RHS      MXD00806 492000.000000
    RHS      MND00906 1849407.000000
    RHS      MXD00906 6141396.000000
    RHS      MND01006 644932.000000
    RHS      MXD01006 1486000.000000
BOUNDS
ENDATA
