NAME          AGG3
ROWS
 E  CAP00101
 E  CAP00201
 E  CAP00301
 E  CAP00401
 E  CAP00501
 E  CAP00601
 E  CAP00701
 E  CAP00801
 E  CAP00901
 E  CAP01001
 E  CAP01101
 E  CAP01201
 E  CAP01301
 E  CAP01401
 E  CAP01501
 E  CAP01601
 E  CAP01701
 E  CAP01801
 E  CAP02001
 E  CAP02201
 E  CAP02501
 E  CAP02701
 E  CAP03101
 E  CAP03301
 E  CAP03401
 E  CAP03601
 E  CAP03701
 E  CAP03801
 E  CAP04001
 E  CAP04101
 E  CAP04201
 E  CAP04301
 E  CAP04401
 E  CAP04501
 E  CAP04601
 E  CAP04701
 E  CAP04801
 E  CAP04901
 E  CAP05001
 E  CAP05101
 E  CAP05201
 E  CAP05301
 E  CAP05401
 E  CAP05501
 E  CAP05601
 E  CAP05701
 E  CAP05801
 E  CAP05901
 E  CAP06001
 E  CAP06101
 E  CAP06201
 E  CAP06301
 E  CAP06501
 E  CAP00102
 E  CAP00202
 E  CAP00302
 E  CAP00402
 E  CAP00502
 E  CAP00602
 E  CAP00702
 E  CAP00802
 E  CAP00902
 E  CAP01002
 E  CAP01102
 E  CAP01202
 E  CAP01302
 E  CAP01402
 E  CAP01502
 E  CAP01602
 E  CAP01702
 E  CAP01802
 E  CAP01902
 E  CAP02002
 E  CAP02102
 E  CAP02202
 E  CAP02302
 E  CAP02402
 E  CAP02502
 E  CAP02602
 E  CAP02702
 E  CAP02802
 E  CAP02902
 E  CAP03002
 E  CAP03102
 E  CAP03202
 E  CAP03302
 E  CAP03402
 E  CAP03502
 E  CAP03602
 E  CAP03702
 E  CAP03802
 E  CAP03902
 E  CAP04002
 E  CAP04102
 E  CAP04202
 E  CAP04302
 E  CAP04402
 E  CAP04502
 E  CAP04602
 E  CAP04702
 E  CAP04802
 E  CAP04902
 E  CAP05002
 E  CAP05102
 E  CAP05202
 E  CAP05302
 E  CAP05402
 E  CAP05502
 E  CAP05602
 E  CAP05702
 E  CAP05802
 E  CAP05902
 E  CAP06002
 E  CAP06102
 E  CAP06202
 E  CAP06302
 E  CAP06402
 E  CAP06502
 E  CAP00103
 E  CAP00203
 E  CAP00303
 E  CAP00403
 E  CAP00503
 E  CAP00603
 E  CAP00703
 E  CAP00803
 E  CAP00903
 E  CAP01003
 E  CAP01103
 E  CAP01203
 E  CAP01303
 E  CAP01403
 E  CAP01503
 E  CAP01603
 E  CAP01703
 E  CAP01803
 E  CAP01903
 E  CAP02003
 E  CAP02103
 E  CAP02203
 E  CAP02303
 E  CAP02403
 E  CAP02503
 E  CAP02603
 E  CAP02703
 E  CAP02803
 E  CAP02903
 E  CAP03003
 E  CAP03103
 E  CAP03203
 E  CAP03303
 E  CAP03403
 E  CAP03503
 E  CAP03603
 E  CAP03703
 E  CAP03803
 E  CAP03903
 E  CAP04003
 E  CAP04103
 E  CAP04203
 E  CAP04303
 E  CAP04403
 E  CAP04503
 E  CAP04603
 E  CAP04703
 E  CAP04803
 E  CAP04903
 E  CAP05003
 E  CAP05103
 E  CAP05203
 E  CAP05303
 E  CAP05403
 E  CAP05503
 E  CAP05603
 E  CAP05703
 E  CAP05803
 E  CAP05903
 E  CAP06003
 E  CAP06103
 E  CAP06203
 E  CAP06303
 E  CAP06403
 E  CAP06503
 E  CAP00104
 E  CAP00204
 E  CAP00304
 E  CAP00404
 E  CAP00504
 E  CAP00604
 E  CAP00704
 E  CAP00804
 E  CAP00904
 E  CAP01004
 E  CAP01104
 E  CAP01204
 E  CAP01304
 E  CAP01404
 E  CAP01504
 E  CAP01604
 E  CAP01704
 E  CAP01804
 E  CAP01904
 E  CAP02004
 E  CAP02104
 E  CAP02204
 E  CAP02304
 E  CAP02404
 E  CAP02504
 E  CAP02604
 E  CAP02704
 E  CAP02804
 E  CAP02904
 E  CAP03004
 E  CAP03104
 E  CAP03204
 E  CAP03304
 E  CAP03404
 E  CAP03504
 E  CAP03604
 E  CAP03704
 E  CAP03804
 E  CAP03904
 E  CAP04004
 E  CAP04104
 E  CAP04204
 E  CAP04304
 E  CAP04404
 E  CAP04504
 E  CAP04604
 E  CAP04704
 E  CAP04804
 E  CAP04904
 E  CAP05004
 E  CAP05104
 E  CAP05204
 E  CAP05304
 E  CAP05404
 E  CAP05504
 E  CAP05604
 E  CAP05704
 E  CAP05804
 E  CAP05904
 E  CAP06004
 E  CAP06104
 E  CAP06204
 E  CAP06304
 E  CAP06404
 E  CAP06504
 E  CAP00105
 E  CAP00205
 E  CAP00305
 E  CAP00405
 E  CAP00505
 E  CAP00605
 E  CAP00705
 E  CAP00805
 E  CAP00905
 E  CAP01005
 E  CAP01105
 E  CAP01205
 E  CAP01305
 E  CAP01405
 E  CAP01505
 E  CAP01605
 E  CAP01705
 E  CAP01805
 E  CAP01905
 E  CAP02005
 E  CAP02105
 E  CAP02205
 E  CAP02305
 E  CAP02405
 E  CAP02505
 E  CAP02605
 E  CAP02705
 E  CAP02805
 E  CAP02905
 E  CAP03005
 E  CAP03105
 E  CAP03205
 E  CAP03305
 E  CAP03405
 E  CAP03505
 E  CAP03605
 E  CAP03705
 E  CAP03805
 E  CAP03905
 E  CAP04005
 E  CAP04105
 E  CAP04205
 E  CAP04305
 E  CAP04405
 E  CAP04505
 E  CAP04605
 E  CAP04705
 E  CAP04805
 E  CAP04905
 E  CAP05005
 E  CAP05105
 E  CAP05205
 E  CAP05305
 E  CAP05405
 E  CAP05505
 E  CAP05605
 E  CAP05705
 E  CAP05805
 E  CAP05905
 E  CAP06005
 E  CAP06105
 E  CAP06205
 E  CAP06305
 E  CAP06405
 E  CAP06505
 E  CAP00106
 E  CAP00206
 E  CAP00306
 E  CAP00406
 E  CAP00506
 E  CAP00606
 E  CAP00706
 E  CAP00806
 E  CAP00906
 E  CAP01006
 E  CAP01106
 E  CAP01206
 E  CAP01306
 E  CAP01406
 E  CAP01506
 E  CAP01606
 E  CAP01706
 E  CAP01806
 E  CAP01906
 E  CAP02006
 E  CAP02106
 E  CAP02206
 E  CAP02306
 E  CAP02406
 E  CAP02506
 E  CAP02606
 E  CAP02706
 E  CAP02806
 E  CAP02906
 E  CAP03006
 E  CAP03106
 E  CAP03206
 E  CAP03306
 E  CAP03406
 E  CAP03506
 E  CAP03606
 E  CAP03706
 E  CAP03806
 E  CAP03906
 E  CAP04006
 E  CAP04106
 E  CAP04206
 E  CAP04306
 E  CAP04406
 E  CAP04506
 E  CAP04606
 E  CAP04706
 E  CAP04806
 E  CAP04906
 E  CAP05006
 E  CAP05106
 E  CAP05206
 E  CAP05306
 E  CAP05406
 E  CAP05506
 E  CAP05606
 E  CAP05706
 E  CAP05806
 E  CAP05906
 E  CAP06006
 E  CAP06106
 E  CAP06206
 E  CAP06306
 E  CAP06406
 E  CAP06506
 E  U0010102
 E  U0020102
 E  U0030102
 E  U0050102
 E  U0070102
 E  U0080102
 E  U0090102
 E  U0100102
 E  U0110102
 E  U0120102
 E  U0130102
 E  U0140102
 E  U0150102
 E  U0160102
 E  U0010103
 E  U0020103
 E  U0030103
 E  U0040103
 E  U0050103
 E  U0060103
 E  U0070103
 E  U0080103
 E  U0090103
 E  U0100103
 E  U0110103
 E  U0120103
 E  U0130103
 E  U0140103
 E  U0150103
 E  U0160103
 E  U0010104
 E  U0020104
 E  U0030104
 E  U0040104
 E  U0050104
 E  U0060104
 E  U0070104
 E  U0080104
 E  U0090104
 E  U0100104
 E  U0110104
 E  U0120104
 E  U0130104
 E  U0140104
 E  U0150104
 E  U0160104
 E  U0010105
 E  U0020105
 E  U0030105
 E  U0040105
 E  U0050105
 E  U0060105
 E  U0070105
 E  U0080105
 E  U0090105
 E  U0100105
 E  U0110105
 E  U0120105
 E  U0130105
 E  U0140105
 E  U0150105
 E  U0160105
 E  U0010106
 E  U0020106
 E  U0030106
 E  U0040106
 E  U0050106
 E  U0060106
 E  U0070106
 E  U0080106
 E  U0090106
 E  U0100106
 E  U0110106
 E  U0120106
 E  U0130106
 E  U0140106
 E  U0150106
 E  U0160106
 E  I0010101
 E  I0010102
 E  I0010103
 E  I0010104
 E  I0010105
 E  I0010106
 E  I0020101
 E  I0020102
 E  I0020103
 E  I0020104
 E  I0020105
 E  I0020106
 E  I0030101
 E  I0030102
 E  I0030103
 E  I0030104
 E  I0030105
 E  I0030106
 E  I0040101
 E  I0040102
 E  I0040103
 E  I0040104
 E  I0040105
 E  I0040106
 E  I0050101
 E  I0050201
 E  I0050102
 E  I0050202
 E  I0050103
 E  I0050203
 E  I0050104
 E  I0050204
 E  I0050105
 E  I0050205
 E  I0050106
 E  I0050206
 E  I0060101
 E  I0060201
 E  I0060102
 E  I0060202
 E  I0060103
 E  I0060203
 E  I0060104
 E  I0060204
 E  I0060105
 E  I0060205
 E  I0060106
 E  I0060206
 E  I0070101
 E  I0070102
 E  I0070103
 E  I0070104
 E  I0070105
 E  I0070106
 E  I0080101
 E  I0080102
 E  I0080103
 E  I0080104
 E  I0080105
 E  I0080106
 N  OBJECTIV
COLUMNS
    Y0010102 CAP01502 0.012480   U0010103 1.000000
    Y0010102 CAP06302 0.001320   U0010102 1.000000
    Y0010102 CAP01501 0.017750   CAP01401 0.017730
    Y0010102 OBJECTIV -31.093000   CAP06301 0.001410
    Y0010102 U0010105 1.000000   I0040102 -0.768290
    Y0010102 U0010104 1.000000   I0040101 -1.140500
    Y0010102 CAP01402 0.013010   U0010106 1.000000
    Y0010103 CAP01403 0.014380   U0010104 1.000000
    Y0010103 CAP01503 0.013850   CAP06302 0.001300
    Y0010103 U0010106 1.000000   U0010105 1.000000
    Y0010103 OBJECTIV -29.519000   I0040103 -0.856020
    Y0010103 CAP01502 0.016390   U0010103 1.000000
    Y0010103 CAP01402 0.016360   I0040102 -1.052770
    Y0010103 CAP06303 0.001430
    Y0010104 U0010106 1.000000   CAP01404 0.014380
    Y0010104 OBJECTIV -28.026000   U0010105 1.000000
    Y0010104 CAP01403 0.016360   CAP01503 0.016390
    Y0010104 CAP01504 0.013850   CAP06303 0.001300
    Y0010104 U0010104 1.000000   CAP06304 0.001430
    Y0010104 I0040104 -0.856020   I0040103 -1.052770
    Y0010105 OBJECTIV -26.607000   U0010105 1.000000
    Y0010105 CAP01504 0.015780   CAP06304 0.001250
    Y0010105 I0040104 -1.013780   I0040105 -0.895010
    Y0010105 CAP01505 0.014460   CAP01405 0.014980
    Y0010105 CAP06305 0.001470   CAP01404 0.015760
    Y0010105 U0010106 1.000000
    Y0010106 CAP06305 0.001350   I0040105 -1.094880
    Y0010106 OBJECTIV -25.261000   I0040106 -1.908790
    Y0010106 CAP01406 0.030740   CAP06306 0.002720
    Y0010106 CAP01506 0.030240   CAP01505 0.017040
    Y0010106 U0010106 1.000000   CAP01405 0.017020
    Y0020102 CAP06302 0.001320   CAP00302 0.009650
    Y0020102 I0040102 -0.529690   OBJECTIV -31.150000
    Y0020102 CAP06301 0.001410   CAP00102 0.011760
    Y0020102 CAP00301 0.020590   U0010105 1.000000
    Y0020102 U0010103 1.000000   I0040101 -1.379100
    Y0020102 U0010104 1.000000   U0010106 1.000000
    Y0020102 CAP00101 0.020830   U0010102 1.000000
    Y0020103 CAP06303 0.001430   I0040102 -1.273020
    Y0020103 CAP00102 0.019230   U0010103 1.000000
    Y0020103 U0010105 1.000000   U0010104 1.000000
    Y0020103 CAP00103 0.013360   U0010106 1.000000
    Y0020103 CAP00303 0.011230   I0040103 -0.635780
    Y0020103 OBJECTIV -29.573000   CAP06302 0.001300
    Y0020103 CAP00302 0.019000
    Y0020104 U0010106 1.000000   CAP00104 0.013360
    Y0020104 CAP06304 0.001430   I0040104 -0.635780
    Y0020104 CAP00103 0.019230   I0040103 -1.273020
    Y0020104 CAP06303 0.001300   CAP00303 0.019000
    Y0020104 U0010105 1.000000   OBJECTIV -28.077000
    Y0020104 CAP00304 0.011230   U0010104 1.000000
    Y0020105 CAP00104 0.018520   I0040105 -0.682920
    Y0020105 I0040104 -1.225870   CAP00304 0.018300
    Y0020105 CAP06305 0.001470   CAP00105 0.014080
    Y0020105 OBJECTIV -26.656000   CAP00305 0.011940
    Y0020105 CAP06304 0.001250   U0010105 1.000000
    Y0020105 U0010106 1.000000
    Y0020106 CAP00106 0.032590   OBJECTIV -25.307000
    Y0020106 I0040106 -1.908790   CAP00306 0.030240
    Y0020106 I0040105 -1.323940   U0010106 1.000000
    Y0020106 CAP00305 0.019760   CAP06305 0.001350
    Y0020106 CAP06306 0.002720   CAP00105 0.020000
    Y0030102 U0020104 1.000000   CAP01701 0.009280
    Y0030102 U0020102 1.000000   CAP01601 0.008600
    Y0030102 U0020105 1.000000   U0020103 1.000000
    Y0030102 CAP01702 0.061000   CAP01602 0.051770
    Y0030102 U0020106 1.000000   I0030101 -0.372980
    Y0030102 I0030102 -2.066130   OBJECTIV -25.415000
    Y0030102 CAP06302 0.001650   CAP06301 0.000150
    Y0030103 CAP01702 0.008570   CAP01703 0.061710
    Y0030103 OBJECTIV -29.997000   U0020103 1.000000
    Y0030103 CAP01603 0.052430   CAP01602 0.007940
    Y0030103 U0020104 1.000000   CAP06303 0.001660
    Y0030103 U0020106 1.000000   I0030102 -0.344290
    Y0030103 I0030103 -2.094820   CAP06302 0.000140
    Y0030103 U0020105 1.000000
    Y0030104 CAP06304 0.001660   OBJECTIV -28.479000
    Y0030104 CAP01703 0.008570   U0020106 1.000000
    Y0030104 I0030104 -2.094820   CAP01603 0.007940
    Y0030104 I0030103 -0.344290   U0020105 1.000000
    Y0030104 U0020104 1.000000   CAP01604 0.052430
    Y0030104 CAP06303 0.000140   CAP01704 0.061710
    Y0030105 CAP06304 0.000130   CAP01704 0.008250
    Y0030105 I0030105 -2.107580   OBJECTIV -27.038000
    Y0030105 CAP01605 0.052720   CAP01604 0.007650
    Y0030105 CAP06305 0.001670   CAP01705 0.062030
    Y0030105 I0030104 -0.331540   U0020106 1.000000
    Y0030105 U0020105 1.000000
    Y0030106 CAP01706 0.070280   U0020106 1.000000
    Y0030106 I0030106 -2.439110   CAP01606 0.060370
    Y0030106 OBJECTIV -25.670000   CAP06305 0.000140
    Y0030106 I0030105 -0.358060   CAP06306 0.001800
    Y0030106 CAP01705 0.008910   CAP01605 0.008260
    Y0040102 CAP00501 0.014550   CAP00401 0.014260
    Y0040102 CAP06301 0.000150   U0020106 1.000000
    Y0040102 I0030101 -0.677870   U0020105 1.000000
    Y0040102 U0020102 1.000000   CAP00502 0.060230
    Y0040102 U0020104 1.000000   OBJECTIV -25.463000
    Y0040102 CAP00402 0.046110   I0030102 -1.761240
    Y0040102 U0020103 1.000000   CAP06302 0.001650
    Y0040103 I0030103 -1.813390   I0030102 -0.625730
    Y0040103 U0020106 1.000000   CAP06303 0.001660
    Y0040103 U0020104 1.000000   CAP00402 0.013160
    Y0040103 U0020105 1.000000   U0020103 1.000000
    Y0040103 OBJECTIV -30.042000   CAP00502 0.013430
    Y0040103 CAP06302 0.000140   CAP00403 0.047200
    Y0040103 CAP00503 0.061350
    Y0040104 U0020104 1.000000   CAP00403 0.013160
    Y0040104 U0020105 1.000000   I0030103 -0.625730
    Y0040104 CAP00503 0.013430   CAP06303 0.000140
    Y0040104 U0020106 1.000000   OBJECTIV -28.522000
    Y0040104 I0030104 -1.813390   CAP00504 0.061350
    Y0040104 CAP06304 0.001660   CAP00404 0.047200
    Y0040105 CAP00404 0.012680   CAP00504 0.012930
    Y0040105 CAP06305 0.001670   OBJECTIV -27.079000
    Y0040105 U0020105 1.000000   CAP06304 0.000130
    Y0040105 CAP00505 0.061840   CAP00405 0.047690
    Y0040105 U0020106 1.000000   I0030104 -0.602550
    Y0040105 I0030105 -1.836560
    Y0040106 CAP00405 0.013690   CAP00506 0.074780
    Y0040106 CAP00406 0.060370   CAP06305 0.000140
    Y0040106 CAP00505 0.013970   CAP06306 0.001800
    Y0040106 OBJECTIV -25.708000   I0030105 -0.650750
    Y0040106 I0030106 -2.439110   U0020106 1.000000
    Y0050103 I0040102 -1.188010   CAP00402 0.030740
    Y0050103 CAP00502 0.039730   U0030105 1.000000
    Y0050103 I0040101 -0.216000   OBJECTIV -33.206000
    Y0050103 U0030106 1.000000   U0030104 1.000000
    Y0050103 U0030103 1.000000   CAP00501 0.003310
    Y0050103 CAP00401 0.004010   CAP06002 0.002250
    Y0050103 CAP06003 0.001240
    Y0050104 CAP00503 0.043040   U0030106 1.000000
    Y0050104 I0040103 -1.296010   CAP00403 0.033410
    Y0050104 OBJECTIV -28.736000   CAP06003 0.002250
    Y0050104 CAP00402 0.001340   U0030104 1.000000
    Y0050104 CAP06004 0.001240   U0030105 1.000000
    Y0050104 I0040102 -0.108000
    Y0050105 CAP06005 0.001330   CAP06004 0.002160
    Y0050105 U0030105 1.000000   OBJECTIV -27.282000
    Y0050105 CAP00505 0.001590   I0040103 -0.104000
    Y0050105 I0040104 -1.300010   CAP00403 0.001290
    Y0050105 CAP00504 0.041450   CAP00404 0.033460
    Y0050105 U0030106 1.000000
    Y0050106 CAP00506 0.043040   I0040104 -0.056160
    Y0050106 CAP06005 0.002340   U0030106 1.000000
    Y0050106 I0040105 -1.516330   CAP00405 0.037530
    Y0050106 CAP00406 0.034750   CAP00505 0.044770
    Y0050106 CAP06006 0.003490   OBJECTIV -25.901000
    Y0050106 I0040106 -1.404010
    Y0060102 I0040101 -1.404010   U0030105 1.000000
    Y0060102 U0030106 1.000000   CAP01601 0.034750
    Y0060102 CAP01701 0.040460   CAP06001 0.002430
    Y0060102 U0030102 1.000000   U0030103 1.000000
    Y0060102 U0030104 1.000000   OBJECTIV -37.121000
    Y0060102 CAP06002 0.001060
    Y0060103 I0040103 -0.054000   U0030103 1.000000
    Y0060103 CAP01702 0.037340   CAP06002 0.002250
    Y0060103 U0030106 1.000000   I0040102 -1.296010
    Y0060103 OBJECTIV -33.206000   U0030104 1.000000
    Y0060103 CAP06003 0.001240   U0030105 1.000000
    Y0060103 CAP01602 0.032080   I0040101 -0.054000
    Y0060103 CAP01601 0.001000   CAP01701 0.000780
    Y0060103 CAP01603 0.001670   CAP01703 0.002330
    Y0060104 I0040104 -0.054000   CAP01604 0.001670
    Y0060104 CAP06003 0.002250   CAP01704 0.002330
    Y0060104 CAP06004 0.001240   U0030106 1.000000
    Y0060104 CAP01703 0.038120   U0030104 1.000000
    Y0060104 CAP01603 0.033080   U0030105 1.000000
    Y0060104 OBJECTIV -28.736000   I0040103 -1.350010
    Y0060105 OBJECTIV -27.282000   CAP06005 0.001330
    Y0060105 I0040105 -1.404010   U0030106 1.000000
    Y0060105 CAP01704 0.036710   CAP06004 0.002160
    Y0060105 CAP01604 0.031850   CAP01705 0.003750
    Y0060105 I0040104 -1.300010   CAP01605 0.002900
    Y0060105 U0030105 1.000000
    Y0060106 U0030106 1.000000   CAP01705 0.039650
    Y0060106 CAP06006 0.003490   CAP01706 0.040460
    Y0060106 CAP01606 0.034750   OBJECTIV -25.901000
    Y0060106 CAP06005 0.002340   CAP01605 0.034400
    Y0070103 I0080102 -1.241420   CAP06403 0.000900
    Y0070103 U0040103 1.000000   CAP00201 0.002640
    Y0070103 CAP00101 0.002170   OBJECTIV -87.071000
    Y0070103 CAP06402 0.001000   U0040105 1.000000
    Y0070103 U0040104 1.000000   U0040106 1.000000
    Y0070103 I0080101 -0.372430   CAP00102 0.011920
    Y0070103 CAP00202 0.011100
    Y0070104 U0040105 1.000000   U0040104 1.000000
    Y0070104 CAP06403 0.001000   CAP06404 0.000900
    Y0070104 OBJECTIV -82.665000   CAP00103 0.013010
    Y0070104 U0040106 1.000000   I0080103 -1.365560
    Y0070104 I0080102 -0.248280   CAP00102 0.001080
    Y0070104 CAP00203 0.012150   CAP00202 0.001590
    Y0070105 CAP00104 0.013050   CAP00103 0.001040
    Y0070105 U0040105 1.000000   CAP00204 0.012210
    Y0070105 CAP06405 0.000940   I0080103 -0.239090
    Y0070105 I0080104 -1.374760   OBJECTIV -78.482000
    Y0070105 CAP06404 0.000970   CAP00203 0.001530
    Y0070105 U0040106 1.000000
    Y0070106 CAP00106 0.014090   CAP06405 0.001040
    Y0070106 U0040106 1.000000   I0080106 -1.613850
    Y0070106 I0080105 -1.742960   I0080104 -0.193660
    Y0070106 CAP00204 0.001100   CAP00104 0.000560
    Y0070106 CAP06406 0.001910   CAP00105 0.015220
    Y0070106 CAP00206 0.013740   OBJECTIV -74.510000
    Y0070106 CAP00205 0.014840
    Y0080102 CAP01102 0.017740   U0050105 1.000000
    Y0080102 U0050106 1.000000   CAP01001 0.002410
    Y0080102 CAP06502 0.002300   I0010102 -0.640040
    Y0080102 I0010101 -0.541570   U0050104 1.000000
    Y0080102 U0050102 1.000000   CAP01002 0.004010
    Y0080102 CAP01101 0.012670   OBJECTIV -4.063000
    Y0080102 CAP06501 0.000330   U0050103 1.000000
    Y0080103 CAP06503 0.002320   CAP01002 0.002220
    Y0080103 CAP01102 0.011700   CAP01103 0.018720
    Y0080103 CAP06502 0.000300   U0050103 1.000000
    Y0080103 U0050104 1.000000   OBJECTIV -3.858000
    Y0080103 U0050105 1.000000   I0010103 -0.681690
    Y0080103 U0050106 1.000000   CAP01003 0.004200
    Y0080103 I0010102 -0.499910
    Y0080104 I0010103 -0.499910   CAP06504 0.002320
    Y0080104 OBJECTIV -3.663000   I0010104 -0.681690
    Y0080104 CAP01003 0.002220   U0050104 1.000000
    Y0080104 CAP01004 0.004200   CAP01104 0.018720
    Y0080104 CAP06503 0.000300   U0050105 1.000000
    Y0080104 U0050106 1.000000   CAP01103 0.011700
    Y0080105 U0050106 1.000000   CAP06505 0.002330
    Y0080105 CAP01104 0.011260   CAP01105 0.019150
    Y0080105 CAP06504 0.000290   OBJECTIV -3.477000
    Y0080105 U0050105 1.000000   I0010104 -0.481390
    Y0080105 I0010105 -0.700210   CAP01005 0.004280
    Y0080106 I0010106 -1.181600   CAP01005 0.002310
    Y0080106 CAP01106 0.030410   CAP06506 0.002620
    Y0080106 CAP01006 0.006420   CAP06505 0.000310
    Y0080106 CAP01105 0.012170   OBJECTIV -3.301000
    Y0080106 I0010105 -0.519910   U0050106 1.000000
    Y0090102 U0050104 1.000000   CAP00602 0.017740
    Y0090102 U0050102 1.000000   U0050103 1.000000
    Y0090102 I0010101 -0.541570   U0050106 1.000000
    Y0090102 U0050105 1.000000   CAP00601 0.012670
    Y0090102 CAP00201 0.002410   OBJECTIV -4.063000
    Y0090102 CAP00202 0.004010   CAP06502 0.002300
    Y0090102 I0010102 -0.640040   CAP06501 0.000330
    Y0090103 U0050106 1.000000   CAP00203 0.004200
    Y0090103 U0050105 1.000000   CAP06502 0.000300
    Y0090103 OBJECTIV -3.858000   CAP06503 0.002320
    Y0090103 CAP00603 0.018720   I0010102 -0.499910
    Y0090103 U0050103 1.000000   CAP00602 0.011700
    Y0090103 I0010103 -0.681690   CAP00202 0.002220
    Y0090103 U0050104 1.000000
    Y0090104 I0010103 -0.499910   OBJECTIV -3.663000
    Y0090104 CAP06503 0.000300   U0050105 1.000000
    Y0090104 CAP00604 0.018720   CAP00603 0.011700
    Y0090104 CAP06504 0.002320   U0050104 1.000000
    Y0090104 CAP00203 0.002220   U0050106 1.000000
    Y0090104 I0010104 -0.681690   CAP00204 0.004200
    Y0090105 CAP00604 0.011260   CAP00205 0.004280
    Y0090105 U0050106 1.000000   CAP00605 0.019150
    Y0090105 CAP00204 0.002140   CAP06504 0.000290
    Y0090105 CAP06505 0.002330   U0050105 1.000000
    Y0090105 I0010104 -0.481390   I0010105 -0.700210
    Y0090105 OBJECTIV -3.477000
    Y0090106 CAP00206 0.006420   CAP00606 0.030410
    Y0090106 CAP06505 0.000310   CAP06506 0.002620
    Y0090106 CAP00605 0.012170   U0050106 1.000000
    Y0090106 I0010106 -1.181600   CAP00205 0.002310
    Y0090106 I0010105 -0.519910   OBJECTIV -3.301000
    Y0100103 U0060105 1.000000   U0060106 1.000000
    Y0100103 CAP01002 0.013830   CAP01001 0.001150
    Y0100103 I0020101 -0.224110   I0020102 -1.232600
    Y0100103 CAP01202 0.009950   U0060104 1.000000
    Y0100103 OBJECTIV -33.098000   CAP06003 0.003840
    Y0100103 CAP06002 0.006990   U0060103 1.000000
    Y0100103 CAP01201 0.001300
    Y0100104 CAP06003 0.006990   I0020102 -0.112050
    Y0100104 U0060106 1.000000   CAP06004 0.003840
    Y0100104 OBJECTIV -31.423000   U0060104 1.000000
    Y0100104 U0060105 1.000000   CAP01202 0.000430
    Y0100104 CAP01003 0.014980   I0020103 -1.344660
    Y0100104 CAP01203 0.010820
    Y0100105 CAP01203 0.000420   U0060106 1.000000
    Y0100105 CAP01204 0.010830   U0060105 1.000000
    Y0100105 CAP01004 0.014430   I0020104 -1.348810
    Y0100105 CAP06004 0.006740   CAP06005 0.004100
    Y0100105 OBJECTIV -29.833000   I0020103 -0.107900
    Y0100105 CAP01005 0.000550
    Y0100106 I0020104 -0.058270   OBJECTIV -28.323000
    Y0100106 CAP01205 0.012150   CAP01006 0.014980
    Y0100106 CAP01206 0.011250   CAP06005 0.007270
    Y0100106 CAP06006 0.010840   CAP01005 0.015580
    Y0100106 U0060106 1.000000   I0020106 -1.456710
    Y0100106 I0020105 -1.573250
    Y0110103 CAP00701 0.001300   U0060103 1.000000
    Y0110103 I0020102 -1.232600   CAP06002 0.006990
    Y0110103 CAP00502 0.013830   CAP06003 0.003840
    Y0110103 I0020101 -0.224110   U0060104 1.000000
    Y0110103 U0060106 1.000000   OBJECTIV -33.098000
    Y0110103 CAP00501 0.001150   CAP00702 0.009950
    Y0110103 U0060105 1.000000
    Y0110104 OBJECTIV -31.423000   CAP00503 0.014980
    Y0110104 CAP00703 0.010820   U0060106 1.000000
    Y0110104 U0060105 1.000000   CAP06004 0.003840
    Y0110104 I0020103 -1.344660   U0060104 1.000000
    Y0110104 I0020102 -0.112050   CAP06003 0.006990
    Y0110104 CAP00702 0.000430
    Y0110105 U0060106 1.000000   CAP00504 0.014430
    Y0110105 U0060105 1.000000   CAP06005 0.004100
    Y0110105 I0020103 -0.107900   CAP00703 0.000420
    Y0110105 CAP00704 0.010830   OBJECTIV -29.833000
    Y0110105 CAP00505 0.000550   CAP06004 0.006740
    Y0110105 I0020104 -1.348810
    Y0110106 U0060106 1.000000   I0020106 -1.456710
    Y0110106 OBJECTIV -28.323000   CAP00705 0.012150
    Y0110106 I0020105 -1.573250   CAP06005 0.007270
    Y0110106 I0020104 -0.058270   CAP06006 0.010840
    Y0110106 CAP00706 0.011250   CAP00506 0.014980
    Y0110106 CAP00505 0.015580
    Y0120102 CAP06302 0.000400   U0070106 1.000000
    Y0120102 U0070102 1.000000   CAP00501 0.001980
    Y0120102 OBJECTIV -4.737000   U0070103 1.000000
    Y0120102 CAP00502 0.009900   U0070105 1.000000
    Y0120102 U0070104 1.000000   CAP00702 0.007060
    Y0120102 CAP06301 0.000020   CAP00701 0.001860
    Y0120102 I0050101 -0.288690   I0050102 -0.866060
    Y0120103 CAP00502 0.001830   CAP00503 0.010050
    Y0120103 I0050103 -0.888270   OBJECTIV -4.498000
    Y0120103 U0070105 1.000000   U0070103 1.000000
    Y0120103 CAP00703 0.007200   U0070106 1.000000
    Y0120103 CAP00702 0.001710   I0050102 -0.266480
    Y0120103 U0070104 1.000000   CAP06302 0.000020
    Y0120103 CAP06303 0.000400
    Y0120104 CAP06304 0.000400   OBJECTIV -4.270000
    Y0120104 CAP00703 0.001710   U0070106 1.000000
    Y0120104 CAP00704 0.007200   CAP00503 0.001830
    Y0120104 I0050103 -0.266480   I0050104 -0.888270
    Y0120104 CAP06303 0.000020   U0070104 1.000000
    Y0120104 CAP00504 0.010050   U0070105 1.000000
    Y0120105 CAP06304 0.000020   CAP00504 0.001760
    Y0120105 CAP00704 0.001650   U0070105 1.000000
    Y0120105 CAP00705 0.007270   I0050104 -0.256610
    Y0120105 CAP06305 0.000400   OBJECTIV -4.054000
    Y0120105 U0070106 1.000000   I0050105 -0.898140
    Y0120105 CAP00505 0.010120
    Y0120106 U0070106 1.000000   CAP06306 0.000420
    Y0120106 I0050106 -1.154750   OBJECTIV -3.849000
    Y0120106 CAP00705 0.001780   I0050105 -0.277140
    Y0120106 CAP00505 0.001900   CAP06305 0.000020
    Y0120106 CAP00706 0.008920   CAP00506 0.011880
    Y0130102 CAP06302 0.000400   U0070104 1.000000
    Y0130102 U0070105 1.000000   U0070106 1.000000
    Y0130102 I0050101 -0.288690   U0070102 1.000000
    Y0130102 CAP01202 0.007060   U0070103 1.000000
    Y0130102 CAP01002 0.009900   CAP01001 0.001980
    Y0130102 CAP06301 0.000020   I0050102 -0.866060
    Y0130102 OBJECTIV -4.719000   CAP01201 0.001860
    Y0130103 CAP06303 0.000400   CAP01003 0.010050
    Y0130103 CAP01203 0.007200   CAP06302 0.000020
    Y0130103 OBJECTIV -4.480000   U0070103 1.000000
    Y0130103 U0070104 1.000000   U0070106 1.000000
    Y0130103 I0050102 -0.266480   I0050103 -0.888270
    Y0130103 CAP01002 0.001830   U0070105 1.000000
    Y0130103 CAP01202 0.001710
    Y0130104 U0070104 1.000000   U0070105 1.000000
    Y0130104 CAP01204 0.007200   U0070106 1.000000
    Y0130104 CAP01203 0.001710   I0050104 -0.888270
    Y0130104 CAP06304 0.000400   OBJECTIV -4.253000
    Y0130104 CAP01004 0.010050   CAP01003 0.001830
    Y0130104 I0050103 -0.266480   CAP06303 0.000020
    Y0130105 CAP06305 0.000400   I0050105 -0.898140
    Y0130105 U0070105 1.000000   CAP01204 0.001650
    Y0130105 CAP06304 0.000020   I0050104 -0.256610
    Y0130105 CAP01205 0.007270   CAP01004 0.001760
    Y0130105 OBJECTIV -4.038000   U0070106 1.000000
    Y0130105 CAP01005 0.010120
    Y0130106 CAP01206 0.008920   CAP01205 0.001780
    Y0130106 CAP01005 0.001900   I0050106 -1.154750
    Y0130106 CAP01006 0.011880   OBJECTIV -3.834000
    Y0130106 I0050105 -0.277140   CAP06305 0.000020
    Y0130106 U0070106 1.000000   CAP06306 0.000420
    Y0140102 CAP01201 0.001860   U0080106 1.000000
    Y0140102 U0080102 1.000000   OBJECTIV -4.719000
    Y0140102 CAP06301 0.000020   U0080103 1.000000
    Y0140102 I0060102 -0.866060   I0060101 -0.288690
    Y0140102 U0080104 1.000000   CAP01202 0.007060
    Y0140102 CAP06302 0.000400   CAP01001 0.001980
    Y0140102 CAP01002 0.009900   U0080105 1.000000
    Y0140103 CAP01203 0.007200   U0080105 1.000000
    Y0140103 U0080103 1.000000   U0080104 1.000000
    Y0140103 I0060102 -0.266480   CAP06303 0.000400
    Y0140103 I0060103 -0.888270   CAP01003 0.010050
    Y0140103 CAP01002 0.001830   CAP06302 0.000020
    Y0140103 U0080106 1.000000   CAP01202 0.001710
    Y0140103 OBJECTIV -4.480000
    Y0140104 I0060104 -0.888270   U0080105 1.000000
    Y0140104 CAP01203 0.001710   CAP06304 0.000400
    Y0140104 U0080104 1.000000   CAP01003 0.001830
    Y0140104 OBJECTIV -4.253000   CAP06303 0.000020
    Y0140104 I0060103 -0.266480   CAP01004 0.010050
    Y0140104 CAP01204 0.007200   U0080106 1.000000
    Y0140105 CAP01204 0.001650   I0060105 -0.898140
    Y0140105 CAP01004 0.001760   OBJECTIV -4.038000
    Y0140105 CAP01005 0.010120   CAP06305 0.000400
    Y0140105 CAP01205 0.007270   CAP06304 0.000020
    Y0140105 U0080105 1.000000   I0060104 -0.256610
    Y0140105 U0080106 1.000000
    Y0140106 CAP06306 0.000420   CAP01005 0.001900
    Y0140106 CAP06305 0.000020   U0080106 1.000000
    Y0140106 CAP01006 0.011880   CAP01206 0.008920
    Y0140106 CAP01205 0.001780   I0060105 -0.277140
    Y0140106 OBJECTIV -3.834000   I0060106 -1.154750
    Y0150102 OBJECTIV -4.737000   CAP06302 0.000400
    Y0150102 U0080105 1.000000   I0060101 -0.288690
    Y0150102 CAP00501 0.001980   U0080104 1.000000
    Y0150102 CAP00701 0.001860   U0080106 1.000000
    Y0150102 CAP00502 0.009900   U0080102 1.000000
    Y0150102 I0060102 -0.866060   U0080103 1.000000
    Y0150102 CAP00702 0.007060   CAP06301 0.000020
    Y0150103 U0080105 1.000000   CAP00502 0.001830
    Y0150103 U0080106 1.000000   I0060103 -0.888270
    Y0150103 I0060102 -0.266480   OBJECTIV -4.498000
    Y0150103 U0080104 1.000000   CAP06303 0.000400
    Y0150103 CAP06302 0.000020   U0080103 1.000000
    Y0150103 CAP00702 0.001710   CAP00703 0.007200
    Y0150103 CAP00503 0.010050
    Y0150104 OBJECTIV -4.270000   I0060104 -0.888270
    Y0150104 U0080105 1.000000   U0080106 1.000000
    Y0150104 CAP00704 0.007200   CAP00504 0.010050
    Y0150104 CAP00503 0.001830   CAP00703 0.001710
    Y0150104 CAP06303 0.000020   I0060103 -0.266480
    Y0150104 U0080104 1.000000   CAP06304 0.000400
    Y0150105 I0060104 -0.256610   CAP00704 0.001650
    Y0150105 U0080105 1.000000   CAP06304 0.000020
    Y0150105 OBJECTIV -4.054000   CAP00505 0.010120
    Y0150105 U0080106 1.000000   CAP00504 0.001760
    Y0150105 CAP00705 0.007270   CAP06305 0.000400
    Y0150105 I0060105 -0.898140
    Y0150106 CAP06305 0.000020   CAP06306 0.000420
    Y0150106 CAP00705 0.001780   I0060106 -1.154750
    Y0150106 I0060105 -0.277140   CAP00706 0.008920
    Y0150106 CAP00505 0.001900   CAP00506 0.011880
    Y0150106 U0080106 1.000000   OBJECTIV -3.849000
    Y0160102 U0090106 1.000000   CAP06302 0.000400
    Y0160102 CAP01201 0.001860   CAP01202 0.007060
    Y0160102 CAP01001 0.001980   I0050201 -0.288690
    Y0160102 U0090103 1.000000   OBJECTIV -6.494000
    Y0160102 I0050202 -0.866060   CAP01002 0.009900
    Y0160102 U0090104 1.000000   CAP06301 0.000020
    Y0160102 U0090105 1.000000   U0090102 1.000000
    Y0160103 CAP06302 0.000020   I0050203 -0.888270
    Y0160103 CAP06303 0.000400   CAP01003 0.010050
    Y0160103 U0090103 1.000000   U0090106 1.000000
    Y0160103 CAP01203 0.007200   OBJECTIV -6.165000
    Y0160103 U0090105 1.000000   U0090104 1.000000
    Y0160103 CAP01002 0.001830   CAP01202 0.001710
    Y0160103 I0050202 -0.266480
    Y0160104 CAP01004 0.010050   U0090104 1.000000
    Y0160104 I0050204 -0.888270   U0090105 1.000000
    Y0160104 CAP06304 0.000400   CAP01204 0.007200
    Y0160104 OBJECTIV -5.853000   CAP01203 0.001710
    Y0160104 U0090106 1.000000   CAP06303 0.000020
    Y0160104 I0050203 -0.266480   CAP01003 0.001830
    Y0160105 I0050204 -0.256610   U0090106 1.000000
    Y0160105 CAP01005 0.010120   OBJECTIV -5.557000
    Y0160105 CAP01004 0.001760   I0050205 -0.898140
    Y0160105 CAP01204 0.001650   CAP06304 0.000020
    Y0160105 CAP01205 0.007270   U0090105 1.000000
    Y0160106 I0050206 -1.154750   CAP01006 0.011880
    Y0160106 CAP06305 0.000020   U0090106 1.000000
    Y0160106 CAP01205 0.001780   I0050205 -0.277140
    Y0160106 CAP01005 0.001900   CAP06306 0.000420
    Y0160106 CAP01206 0.008920   OBJECTIV -5.276000
    Y0170102 CAP00701 0.001860   I0050201 -0.288690
    Y0170102 U0090102 1.000000   CAP00501 0.001980
    Y0170102 CAP00502 0.009900   I0050202 -0.866060
    Y0170102 U0090103 1.000000   U0090104 1.000000
    Y0170102 CAP00702 0.007060   CAP06302 0.000400
    Y0170102 CAP06301 0.000020   OBJECTIV -6.513000
    Y0170102 U0090106 1.000000   U0090105 1.000000
    Y0170103 U0090105 1.000000   U0090106 1.000000
    Y0170103 I0050202 -0.266480   CAP00703 0.007200
    Y0170103 I0050203 -0.888270   U0090103 1.000000
    Y0170103 CAP06303 0.000400   OBJECTIV -6.183000
    Y0170103 CAP06302 0.000020   CAP00503 0.010050
    Y0170103 U0090104 1.000000   CAP00502 0.001830
    Y0170104 CAP00503 0.001830   U0090104 1.000000
    Y0170104 CAP00704 0.007200   U0090106 1.000000
    Y0170104 CAP00703 0.001710   CAP06303 0.000020
    Y0170104 OBJECTIV -5.870000   I0050203 -0.266480
    Y0170104 I0050204 -0.888270   CAP06304 0.000400
    Y0170104 U0090105 1.000000   CAP00504 0.010050
    Y0170105 CAP06305 0.000400   CAP00705 0.007270
    Y0170105 OBJECTIV -5.573000   I0050205 -0.898140
    Y0170105 CAP00504 0.001760   U0090105 1.000000
    Y0170105 CAP00704 0.001650   I0050204 -0.256610
    Y0170105 CAP00505 0.010120   CAP06304 0.000020
    Y0170105 U0090106 1.000000
    Y0170106 I0050205 -0.277140   CAP00506 0.011880
    Y0170106 U0090106 1.000000   CAP00505 0.001900
    Y0170106 OBJECTIV -5.291000   CAP00705 0.001780
    Y0170106 CAP06306 0.000420   CAP00706 0.008920
    Y0170106 I0050206 -1.154750   CAP06305 0.000020
    Y0180102 I0060201 -0.288690   U0100104 1.000000
    Y0180102 CAP06301 0.000020   I0060202 -0.866060
    Y0180102 CAP06302 0.000400   OBJECTIV -6.494000
    Y0180102 CAP01202 0.007060   CAP01201 0.001860
    Y0180102 CAP01001 0.001980   U0100106 1.000000
    Y0180102 U0100105 1.000000   U0100102 1.000000
    Y0180102 U0100103 1.000000   CAP01002 0.009900
    Y0180103 OBJECTIV -6.165000   U0100103 1.000000
    Y0180103 I0060202 -0.266480   CAP01003 0.010050
    Y0180103 CAP06303 0.000400   CAP06302 0.000020
    Y0180103 U0100106 1.000000   CAP01203 0.007200
    Y0180103 CAP01002 0.001830   U0100105 1.000000
    Y0180103 I0060203 -0.888270   CAP01202 0.001710
    Y0180103 U0100104 1.000000
    Y0180104 I0060204 -0.888270   CAP06304 0.000400
    Y0180104 CAP01203 0.001710   I0060203 -0.266480
    Y0180104 U0100104 1.000000   U0100105 1.000000
    Y0180104 CAP01003 0.001830   CAP01004 0.010050
    Y0180104 U0100106 1.000000   OBJECTIV -5.853000
    Y0180104 CAP01204 0.007200   CAP06303 0.000020
    Y0180105 CAP06305 0.000400   OBJECTIV -5.557000
    Y0180105 CAP01005 0.010120   CAP01205 0.007270
    Y0180105 I0060204 -0.256610   CAP06304 0.000020
    Y0180105 CAP01004 0.001760   I0060205 -0.898140
    Y0180105 CAP01204 0.001650   U0100105 1.000000
    Y0180105 U0100106 1.000000
    Y0180106 CAP01205 0.001780   I0060206 -1.154750
    Y0180106 CAP06306 0.000420   CAP06305 0.000020
    Y0180106 CAP01005 0.001900   U0100106 1.000000
    Y0180106 I0060205 -0.277140   CAP01006 0.011880
    Y0180106 OBJECTIV -5.276000   CAP01206 0.008920
    Y0190102 CAP00501 0.001980   OBJECTIV -6.513000
    Y0190102 U0100103 1.000000   U0100106 1.000000
    Y0190102 U0100105 1.000000   I0060201 -0.288690
    Y0190102 CAP00502 0.009900   U0100102 1.000000
    Y0190102 CAP00701 0.001860   CAP00702 0.007060
    Y0190102 U0100104 1.000000   I0060202 -0.866060
    Y0190102 CAP06302 0.000400   CAP06301 0.000020
    Y0190103 CAP06303 0.000400   I0060202 -0.266480
    Y0190103 U0100105 1.000000   I0060203 -0.888270
    Y0190103 CAP00703 0.007200   U0100103 1.000000
    Y0190103 CAP06302 0.000020   OBJECTIV -6.183000
    Y0190103 CAP00702 0.001710   CAP00502 0.001830
    Y0190103 CAP00503 0.010050   U0100104 1.000000
    Y0190103 U0100106 1.000000
    Y0190104 OBJECTIV -5.870000   CAP00504 0.010050
    Y0190104 U0100106 1.000000   U0100104 1.000000
    Y0190104 I0060203 -0.266480   I0060204 -0.888270
    Y0190104 CAP06303 0.000020   CAP06304 0.000400
    Y0190104 U0100105 1.000000   CAP00704 0.007200
    Y0190104 CAP00503 0.001830   CAP00703 0.001710
    Y0190105 CAP06304 0.000020   OBJECTIV -5.573000
    Y0190105 CAP00505 0.010120   CAP06305 0.000400
    Y0190105 CAP00704 0.001650   CAP00705 0.007270
    Y0190105 U0100106 1.000000   I0060204 -0.256610
    Y0190105 I0060205 -0.898140   CAP00504 0.001760
    Y0190105 U0100105 1.000000
    Y0190106 CAP00505 0.001900   CAP06306 0.000420
    Y0190106 CAP00706 0.008920   U0100106 1.000000
    Y0190106 I0060206 -1.154750   OBJECTIV -5.291000
    Y0190106 CAP00705 0.001780   I0060205 -0.277140
    Y0190106 CAP06305 0.000020   CAP00506 0.011880
    Y0200102 U0110104 1.000000   CAP06202 0.004420
    Y0200102 CAP06102 0.000660   CAP00701 0.003480
    Y0200102 CAP00501 0.004120   CAP06101 0.000060
    Y0200102 CAP06201 0.000830   U0110103 1.000000
    Y0200102 I0070101 -0.501000   CAP00502 0.008240
    Y0200102 U0110105 1.000000   OBJECTIV -5.459000
    Y0200102 U0110106 1.000000   I0070102 -0.701400
    Y0200102 U0110102 1.000000   CAP00702 0.005800
    Y0200103 U0110103 1.000000   CAP06203 0.004490
    Y0200103 I0070103 -0.739940   I0070102 -0.462460
    Y0200103 U0110104 1.000000   U0110106 1.000000
    Y0200103 CAP00702 0.003210   CAP00503 0.008560
    Y0200103 OBJECTIV -5.183000   U0110105 1.000000
    Y0200103 CAP06103 0.000670   CAP00703 0.006070
    Y0200103 CAP06102 0.000060   CAP00502 0.003800
    Y0200103 CAP06202 0.000770
    Y0200104 U0110106 1.000000   CAP06204 0.004490
    Y0200104 OBJECTIV -4.921000   CAP06103 0.000060
    Y0200104 U0110104 1.000000   CAP00703 0.003210
    Y0200104 CAP00503 0.003800   U0110105 1.000000
    Y0200104 CAP06104 0.000670   CAP00504 0.008560
    Y0200104 I0070104 -0.739940   I0070103 -0.462460
    Y0200104 CAP06203 0.000770   CAP00704 0.006070
    Y0200105 OBJECTIV -4.672000   CAP00704 0.003100
    Y0200105 CAP00705 0.006190   I0070105 -0.757070
    Y0200105 CAP06105 0.000670   CAP06205 0.004520
    Y0200105 CAP06104 0.000050   CAP00505 0.008700
    Y0200105 U0110106 1.000000   CAP00504 0.003660
    Y0200105 I0070104 -0.445340   U0110105 1.000000
    Y0200105 CAP06204 0.000740
    Y0200106 I0070105 -0.480960   I0070106 -1.202410
    Y0200106 CAP00705 0.003340   CAP06105 0.000060
    Y0200106 CAP00506 0.012370   U0110106 1.000000
    Y0200106 CAP06106 0.000720   CAP06206 0.005250
    Y0200106 CAP00706 0.009290   CAP06205 0.000800
    Y0200106 OBJECTIV -4.435000   CAP00505 0.003960
    Y0210102 U0110106 1.000000   CAP06202 0.004420
    Y0210102 CAP01001 0.004120   CAP01201 0.003480
    Y0210102 CAP01202 0.005800   U0110104 1.000000
    Y0210102 CAP06102 0.000660   CAP06101 0.000060
    Y0210102 I0070102 -0.701400   U0110103 1.000000
    Y0210102 U0110102 1.000000   CAP01002 0.008240
    Y0210102 OBJECTIV -5.459000   U0110105 1.000000
    Y0210102 I0070101 -0.501000   CAP06201 0.000830
    Y0210103 CAP06203 0.004490   CAP06103 0.000670
    Y0210103 I0070102 -0.462460   CAP06102 0.000060
    Y0210103 U0110106 1.000000   OBJECTIV -5.183000
    Y0210103 I0070103 -0.739940   U0110105 1.000000
    Y0210103 CAP01002 0.003800   CAP01003 0.008560
    Y0210103 CAP01202 0.003210   CAP01203 0.006070
    Y0210103 U0110103 1.000000   U0110104 1.000000
    Y0210103 CAP06202 0.000770
    Y0210104 U0110106 1.000000   CAP01204 0.006070
    Y0210104 OBJECTIV -4.921000   CAP01004 0.008560
    Y0210104 CAP06204 0.004490   CAP06104 0.000670
    Y0210104 U0110105 1.000000   CAP06103 0.000060
    Y0210104 CAP01003 0.003800   CAP01203 0.003210
    Y0210104 CAP06203 0.000770   U0110104 1.000000
    Y0210104 I0070104 -0.739940   I0070103 -0.462460
    Y0210105 U0110105 1.000000   U0110106 1.000000
    Y0210105 CAP06104 0.000050   CAP06205 0.004520
    Y0210105 CAP01004 0.003660   CAP06204 0.000740
    Y0210105 CAP01205 0.006190   CAP01204 0.003100
    Y0210105 OBJECTIV -4.672000   I0070105 -0.757070
    Y0210105 I0070104 -0.445340   CAP06105 0.000670
    Y0210105 CAP01005 0.008700
    Y0210106 CAP01206 0.009290   CAP01006 0.012370
    Y0210106 CAP01205 0.003340   CAP06106 0.000720
    Y0210106 CAP06205 0.000800   CAP06206 0.005250
    Y0210106 OBJECTIV -4.435000   CAP06105 0.000060
    Y0210106 I0070105 -0.480960   I0070106 -1.202410
    Y0210106 U0110106 1.000000   CAP01005 0.003960
    Y0220102 CAP06302 0.000400   OBJECTIV -3.579000
    Y0220102 CAP01802 0.000710   CAP01402 0.006620
    Y0220102 I0050102 -1.010400   CAP06301 0.000020
    Y0220102 U0120106 1.000000   U0120104 1.000000
    Y0220102 CAP01401 0.000770   U0120103 1.000000
    Y0220102 CAP01801 0.000090   U0120105 1.000000
    Y0220102 I0050101 -0.144340   U0120102 1.000000
    Y0220103 U0120106 1.000000   U0120105 1.000000
    Y0220103 CAP01802 0.000080   CAP01402 0.000710
    Y0220103 U0120103 1.000000   CAP01803 0.000720
    Y0220103 CAP06302 0.000020   I0050102 -0.133240
    Y0220103 I0050103 -1.021510   CAP01403 0.006680
    Y0220103 OBJECTIV -3.398000   CAP06303 0.000400
    Y0220103 U0120104 1.000000
    Y0220104 CAP01403 0.000710   CAP06303 0.000020
    Y0220104 U0120106 1.000000   U0120105 1.000000
    Y0220104 CAP01404 0.006680   U0120104 1.000000
    Y0220104 CAP01803 0.000080   I0050103 -0.133240
    Y0220104 CAP06304 0.000400   I0050104 -1.021510
    Y0220104 CAP01804 0.000720   OBJECTIV -3.226000
    Y0220105 OBJECTIV -3.063000   CAP06305 0.000400
    Y0220105 CAP01805 0.000720   U0120105 1.000000
    Y0220105 CAP01404 0.000680   CAP06304 0.000020
    Y0220105 I0050104 -0.128310   U0120106 1.000000
    Y0220105 I0050105 -1.026440   CAP01804 0.000080
    Y0220105 CAP01405 0.006710
    Y0220106 I0050105 -0.138570   CAP01405 0.000740
    Y0220106 CAP06305 0.000020   CAP06306 0.000420
    Y0220106 CAP01806 0.000800   OBJECTIV -2.908000
    Y0220106 CAP01805 0.000090   I0050106 -1.154750
    Y0220106 CAP01406 0.007390   U0120106 1.000000
    Y0230102 U0120104 1.000000   U0120102 1.000000
    Y0230102 I0050101 -0.288690   CAP00102 0.006540
    Y0230102 CAP00801 0.000170   CAP00802 0.000630
    Y0230102 CAP06301 0.000020   U0120105 1.000000
    Y0230102 U0120103 1.000000   I0050102 -0.866060
    Y0230102 CAP00101 0.001310   OBJECTIV -3.636000
    Y0230102 CAP06302 0.000400   U0120106 1.000000
    Y0230103 CAP00103 0.006640   U0120105 1.000000
    Y0230103 I0050103 -0.888270   CAP06302 0.000020
    Y0230103 CAP00102 0.001210   CAP00803 0.000650
    Y0230103 OBJECTIV -3.452000   CAP06303 0.000400
    Y0230103 I0050102 -0.266480   U0120104 1.000000
    Y0230103 U0120103 1.000000   U0120106 1.000000
    Y0230103 CAP00802 0.000150
    Y0230104 I0050103 -0.266480   CAP00804 0.000650
    Y0230104 U0120105 1.000000   U0120106 1.000000
    Y0230104 CAP06304 0.000400   OBJECTIV -3.278000
    Y0230104 I0050104 -0.888270   CAP00803 0.000150
    Y0230104 U0120104 1.000000   CAP00103 0.001210
    Y0230104 CAP06303 0.000020   CAP00104 0.006640
    Y0230105 U0120105 1.000000   I0050105 -0.898140
    Y0230105 CAP06304 0.000020   CAP00804 0.000150
    Y0230105 U0120106 1.000000   CAP00805 0.000650
    Y0230105 CAP00105 0.006680   I0050104 -0.256610
    Y0230105 CAP00104 0.001160   CAP06305 0.000400
    Y0230105 OBJECTIV -3.112000
    Y0230106 CAP00806 0.000800   U0120106 1.000000
    Y0230106 CAP00105 0.001250   CAP06306 0.000420
    Y0230106 CAP00106 0.007840   I0050106 -1.154750
    Y0230106 CAP00805 0.000160   OBJECTIV -2.954000
    Y0230106 I0050105 -0.277140   CAP06305 0.000020
    Y0240102 CAP01301 0.000170   CAP06302 0.000400
    Y0240102 U0120106 1.000000   CAP00902 0.006540
    Y0240102 CAP06301 0.000020   U0120102 1.000000
    Y0240102 U0120103 1.000000   CAP01302 0.000630
    Y0240102 I0050101 -0.288690   U0120104 1.000000
    Y0240102 CAP00901 0.001310   OBJECTIV -3.617000
    Y0240102 U0120105 1.000000   I0050102 -0.866060
    Y0240103 U0120105 1.000000   U0120104 1.000000
    Y0240103 U0120103 1.000000   U0120106 1.000000
    Y0240103 CAP06302 0.000020   CAP01303 0.000650
    Y0240103 CAP00902 0.001210   CAP00903 0.006640
    Y0240103 I0050103 -0.888270   CAP06303 0.000400
    Y0240103 I0050102 -0.266480   OBJECTIV -3.434000
    Y0240103 CAP01302 0.000150
    Y0240104 CAP00904 0.006640   U0120106 1.000000
    Y0240104 CAP06304 0.000400   U0120104 1.000000
    Y0240104 CAP00903 0.001210   OBJECTIV -3.260000
    Y0240104 I0050103 -0.266480   CAP01303 0.000150
    Y0240104 U0120105 1.000000   CAP01304 0.000650
    Y0240104 I0050104 -0.888270   CAP06303 0.000020
    Y0240105 I0050104 -0.256610   I0050105 -0.898140
    Y0240105 U0120105 1.000000   OBJECTIV -3.095000
    Y0240105 CAP06304 0.000020   CAP00905 0.006680
    Y0240105 U0120106 1.000000   CAP06305 0.000400
    Y0240105 CAP00904 0.001160   CAP01304 0.000150
    Y0240105 CAP01305 0.000650
    Y0240106 I0050105 -0.277140   CAP01306 0.000800
    Y0240106 CAP01305 0.000160   CAP00905 0.001250
    Y0240106 CAP00906 0.007840   OBJECTIV -2.939000
    Y0240106 CAP06305 0.000020   CAP06306 0.000420
    Y0240106 I0050106 -1.154750   U0120106 1.000000
    Y0250102 I0060101 -0.288690   U0130104 1.000000
    Y0250102 CAP06301 0.000020   U0130105 1.000000
    Y0250102 CAP01302 0.000630   CAP01301 0.000170
    Y0250102 OBJECTIV -3.617000   U0130102 1.000000
    Y0250102 I0060102 -0.866060   U0130106 1.000000
    Y0250102 CAP06302 0.000400   CAP00902 0.006540
    Y0250102 CAP00901 0.001310   U0130103 1.000000
    Y0250103 CAP01302 0.000150   CAP06302 0.000020
    Y0250103 I0060102 -0.266480   U0130103 1.000000
    Y0250103 CAP01303 0.000650   I0060103 -0.888270
    Y0250103 CAP06303 0.000400   CAP00903 0.006640
    Y0250103 CAP00902 0.001210   OBJECTIV -3.434000
    Y0250103 U0130104 1.000000   U0130105 1.000000
    Y0250103 U0130106 1.000000
    Y0250104 CAP06304 0.000400   OBJECTIV -3.260000
    Y0250104 U0130106 1.000000   CAP01304 0.000650
    Y0250104 CAP00904 0.006640   U0130105 1.000000
    Y0250104 CAP00903 0.001210   I0060103 -0.266480
    Y0250104 U0130104 1.000000   CAP06303 0.000020
    Y0250104 CAP01303 0.000150   I0060104 -0.888270
    Y0250105 CAP06305 0.000400   I0060105 -0.898140
    Y0250105 CAP00905 0.006680   U0130105 1.000000
    Y0250105 CAP01305 0.000650   CAP06304 0.000020
    Y0250105 U0130106 1.000000   I0060104 -0.256610
    Y0250105 CAP00904 0.001160   OBJECTIV -3.095000
    Y0250105 CAP01304 0.000150
    Y0250106 CAP06306 0.000420   CAP01305 0.000160
    Y0250106 I0060106 -1.154750   CAP00905 0.001250
    Y0250106 I0060105 -0.277140   CAP01306 0.000800
    Y0250106 U0130106 1.000000   CAP00906 0.007840
    Y0250106 OBJECTIV -2.939000   CAP06305 0.000020
    Y0260102 OBJECTIV -3.579000   CAP06301 0.000020
    Y0260102 CAP01401 0.000770   I0060101 -0.144340
    Y0260102 U0130102 1.000000   U0130103 1.000000
    Y0260102 CAP01801 0.000090   U0130105 1.000000
    Y0260102 U0130106 1.000000   CAP01802 0.000710
    Y0260102 I0060102 -1.010400   CAP01402 0.006620
    Y0260102 U0130104 1.000000   CAP06302 0.000400
    Y0260103 U0130106 1.000000   CAP01802 0.000080
    Y0260103 CAP01803 0.000720   I0060103 -1.021510
    Y0260103 I0060102 -0.133240   CAP01403 0.006680
    Y0260103 CAP06303 0.000400   CAP01402 0.000710
    Y0260103 U0130103 1.000000   U0130104 1.000000
    Y0260103 CAP06302 0.000020   OBJECTIV -3.398000
    Y0260103 U0130105 1.000000
    Y0260104 I0060104 -1.021510   U0130106 1.000000
    Y0260104 CAP01403 0.000710   CAP01803 0.000080
    Y0260104 U0130104 1.000000   CAP01404 0.006680
    Y0260104 CAP06303 0.000020   OBJECTIV -3.226000
    Y0260104 CAP06304 0.000400   U0130105 1.000000
    Y0260104 I0060103 -0.133240   CAP01804 0.000720
    Y0260105 CAP01804 0.000080   U0130105 1.000000
    Y0260105 CAP06304 0.000020   U0130106 1.000000
    Y0260105 CAP01805 0.000720   OBJECTIV -3.063000
    Y0260105 CAP01404 0.000680   I0060104 -0.128310
    Y0260105 CAP01405 0.006710   CAP06305 0.000400
    Y0260105 I0060105 -1.026440
    Y0260106 CAP01406 0.007390   CAP01805 0.000090
    Y0260106 CAP06305 0.000020   U0130106 1.000000
    Y0260106 CAP01405 0.000740   OBJECTIV -2.908000
    Y0260106 CAP01806 0.000800   I0060105 -0.138570
    Y0260106 CAP06306 0.000420   I0060106 -1.154750
    Y0270102 CAP00801 0.000170   CAP00102 0.006540
    Y0270102 CAP00802 0.000630   CAP00101 0.001310
    Y0270102 U0130104 1.000000   CAP06301 0.000020
    Y0270102 U0130102 1.000000   CAP06302 0.000400
    Y0270102 U0130106 1.000000   I0060101 -0.288690
    Y0270102 I0060102 -0.866060   OBJECTIV -3.636000
    Y0270102 U0130103 1.000000   U0130105 1.000000
    Y0270103 I0060102 -0.266480   OBJECTIV -3.452000
    Y0270103 CAP06302 0.000020   CAP06303 0.000400
    Y0270103 CAP00103 0.006640   CAP00802 0.000150
    Y0270103 I0060103 -0.888270   CAP00102 0.001210
    Y0270103 U0130104 1.000000   U0130103 1.000000
    Y0270103 U0130105 1.000000   CAP00803 0.000650
    Y0270103 U0130106 1.000000
    Y0270104 CAP06303 0.000020   CAP00803 0.000150
    Y0270104 I0060104 -0.888270   CAP00104 0.006640
    Y0270104 OBJECTIV -3.278000   I0060103 -0.266480
    Y0270104 CAP00103 0.001210   CAP00804 0.000650
    Y0270104 U0130105 1.000000   CAP06304 0.000400
    Y0270104 U0130106 1.000000   U0130104 1.000000
    Y0270105 I0060105 -0.898140   CAP00105 0.006680
    Y0270105 CAP06305 0.000400   U0130105 1.000000
    Y0270105 OBJECTIV -3.112000   U0130106 1.000000
    Y0270105 CAP00104 0.001160   CAP00804 0.000150
    Y0270105 CAP06304 0.000020   CAP00805 0.000650
    Y0270105 I0060104 -0.256610
    Y0270106 U0130106 1.000000   CAP00106 0.007840
    Y0270106 CAP06306 0.000420   CAP06305 0.000020
    Y0270106 OBJECTIV -2.954000   CAP00806 0.000800
    Y0270106 CAP00105 0.001250   I0060105 -0.277140
    Y0270106 CAP00805 0.000160   I0060106 -1.154750
    Y0280102 U0140103 1.000000   U0140106 1.000000
    Y0280102 CAP01801 0.000090   U0140105 1.000000
    Y0280102 I0050201 -0.144340   CAP01402 0.006620
    Y0280102 CAP06302 0.000400   CAP01401 0.000770
    Y0280102 CAP01802 0.000710   I0050202 -1.010400
    Y0280102 OBJECTIV -4.282000   CAP06301 0.000020
    Y0280102 U0140104 1.000000   U0140102 1.000000
    Y0280103 CAP01402 0.000710   U0140105 1.000000
    Y0280103 I0050202 -0.133240   CAP06303 0.000400
    Y0280103 CAP01403 0.006680   CAP01803 0.000720
    Y0280103 U0140104 1.000000   U0140103 1.000000
    Y0280103 U0140106 1.000000   OBJECTIV -4.065000
    Y0280103 CAP06302 0.000020   CAP01802 0.000080
    Y0280103 I0050203 -1.021510
    Y0280104 CAP01803 0.000080   I0050204 -1.021510
    Y0280104 OBJECTIV -3.859000   CAP06303 0.000020
    Y0280104 U0140104 1.000000   CAP01804 0.000720
    Y0280104 CAP01404 0.006680   CAP06304 0.000400
    Y0280104 I0050203 -0.133240   CAP01403 0.000710
    Y0280104 U0140106 1.000000   U0140105 1.000000
    Y0280105 CAP01405 0.006710   OBJECTIV -3.664000
    Y0280105 CAP06304 0.000020   I0050204 -0.128310
    Y0280105 CAP06305 0.000400   U0140105 1.000000
    Y0280105 U0140106 1.000000   CAP01404 0.000680
    Y0280105 I0050205 -1.026440   CAP01805 0.000720
    Y0280105 CAP01804 0.000080
    Y0280106 CAP06305 0.000020   I0050205 -0.138570
    Y0280106 U0140106 1.000000   I0050206 -1.154750
    Y0280106 OBJECTIV -3.479000   CAP01406 0.007390
    Y0280106 CAP06306 0.000420   CAP01806 0.000800
    Y0280106 CAP01805 0.000090   CAP01405 0.000740
    Y0290102 U0140103 1.000000   I0050202 -0.866060
    Y0290102 CAP00802 0.000630   U0140106 1.000000
    Y0290102 U0140104 1.000000   CAP00102 0.006540
    Y0290102 OBJECTIV -4.339000   CAP06302 0.000400
    Y0290102 U0140102 1.000000   CAP00101 0.001310
    Y0290102 I0050201 -0.288690   CAP00801 0.000170
    Y0290102 U0140105 1.000000   CAP06301 0.000020
    Y0290103 I0050202 -0.266480   U0140106 1.000000
    Y0290103 U0140105 1.000000   U0140103 1.000000
    Y0290103 CAP06303 0.000400   OBJECTIV -4.119000
    Y0290103 CAP00803 0.000650   I0050203 -0.888270
    Y0290103 CAP00103 0.006640   CAP06302 0.000020
    Y0290103 CAP00802 0.000150   U0140104 1.000000
    Y0290103 CAP00102 0.001210
    Y0290104 OBJECTIV -3.911000   I0050203 -0.266480
    Y0290104 I0050204 -0.888270   CAP00803 0.000150
    Y0290104 CAP00804 0.000650   CAP06304 0.000400
    Y0290104 CAP00103 0.001210   CAP00104 0.006640
    Y0290104 U0140104 1.000000   CAP06303 0.000020
    Y0290104 U0140106 1.000000   U0140105 1.000000
    Y0290105 CAP00805 0.000650   CAP06305 0.000400
    Y0290105 CAP00105 0.006680   U0140105 1.000000
    Y0290105 CAP00104 0.001160   CAP06304 0.000020
    Y0290105 I0050204 -0.256610   U0140106 1.000000
    Y0290105 CAP00804 0.000150   I0050205 -0.898140
    Y0290105 OBJECTIV -3.713000
    Y0290106 CAP06305 0.000020   U0140106 1.000000
    Y0290106 CAP00105 0.001250   I0050205 -0.277140
    Y0290106 I0050206 -1.154750   CAP00805 0.000160
    Y0290106 CAP00806 0.000800   CAP00106 0.007840
    Y0290106 CAP06306 0.000420   OBJECTIV -3.525000
    Y0300102 CAP00901 0.001310   I0050202 -0.866060
    Y0300102 CAP01301 0.000170   OBJECTIV -4.320000
    Y0300102 U0140103 1.000000   U0140104 1.000000
    Y0300102 U0140106 1.000000   CAP01302 0.000630
    Y0300102 CAP06302 0.000400   CAP00902 0.006540
    Y0300102 I0050201 -0.288690   CAP06301 0.000020
    Y0300102 U0140105 1.000000   U0140102 1.000000
    Y0300103 CAP00903 0.006640   CAP01302 0.000150
    Y0300103 I0050203 -0.888270   CAP06302 0.000020
    Y0300103 U0140104 1.000000   CAP06303 0.000400
    Y0300103 U0140106 1.000000   U0140105 1.000000
    Y0300103 CAP01303 0.000650   CAP00902 0.001210
    Y0300103 I0050202 -0.266480   OBJECTIV -4.101000
    Y0300103 U0140103 1.000000
    Y0300104 U0140106 1.000000   CAP06303 0.000020
    Y0300104 CAP00903 0.001210   U0140104 1.000000
    Y0300104 CAP06304 0.000400   CAP00904 0.006640
    Y0300104 CAP01303 0.000150   I0050203 -0.266480
    Y0300104 U0140105 1.000000   OBJECTIV -3.894000
    Y0300104 CAP01304 0.000650   I0050204 -0.888270
    Y0300105 U0140105 1.000000   I0050205 -0.898140
    Y0300105 OBJECTIV -3.697000   CAP06304 0.000020
    Y0300105 CAP00905 0.006680   CAP06305 0.000400
    Y0300105 CAP00904 0.001160   I0050204 -0.256610
    Y0300105 CAP01305 0.000650   CAP01304 0.000150
    Y0300105 U0140106 1.000000
    Y0300106 I0050206 -1.154750   CAP01306 0.000800
    Y0300106 CAP00905 0.001250   CAP01305 0.000160
    Y0300106 I0050205 -0.277140   CAP06305 0.000020
    Y0300106 CAP06306 0.000420   OBJECTIV -3.510000
    Y0300106 U0140106 1.000000   CAP00906 0.007840
    Y0310102 I0060201 -0.288690   U0150105 1.000000
    Y0310102 I0060202 -0.866060   U0150103 1.000000
    Y0310102 OBJECTIV -4.320000   CAP01302 0.000630
    Y0310102 CAP06301 0.000020   CAP00902 0.006540
    Y0310102 U0150102 1.000000   CAP01301 0.000170
    Y0310102 CAP00901 0.001310   U0150106 1.000000
    Y0310102 CAP06302 0.000400   U0150104 1.000000
    Y0310103 I0060202 -0.266480   U0150105 1.000000
    Y0310103 CAP00903 0.006640   OBJECTIV -4.101000
    Y0310103 CAP06303 0.000400   U0150104 1.000000
    Y0310103 U0150103 1.000000   I0060203 -0.888270
    Y0310103 CAP01303 0.000650   CAP00902 0.001210
    Y0310103 CAP06302 0.000020   CAP01302 0.000150
    Y0310103 U0150106 1.000000
    Y0310104 U0150106 1.000000   CAP01303 0.000150
    Y0310104 I0060204 -0.888270   OBJECTIV -3.894000
    Y0310104 CAP06303 0.000020   I0060203 -0.266480
    Y0310104 CAP00903 0.001210   CAP06304 0.000400
    Y0310104 CAP01304 0.000650   U0150105 1.000000
    Y0310104 CAP00904 0.006640   U0150104 1.000000
    Y0310105 CAP06305 0.000400   CAP00904 0.001160
    Y0310105 OBJECTIV -3.697000   CAP01304 0.000150
    Y0310105 I0060204 -0.256610   U0150105 1.000000
    Y0310105 I0060205 -0.898140   CAP06304 0.000020
    Y0310105 CAP01305 0.000650   CAP00905 0.006680
    Y0310105 U0150106 1.000000
    Y0310106 U0150106 1.000000   CAP00906 0.007840
    Y0310106 I0060206 -1.154750   CAP01305 0.000160
    Y0310106 CAP06305 0.000020   I0060205 -0.277140
    Y0310106 CAP00905 0.001250   CAP06306 0.000420
    Y0310106 OBJECTIV -3.510000   CAP01306 0.000800
    Y0320102 CAP06302 0.000400   U0150104 1.000000
    Y0320102 U0150103 1.000000   CAP01401 0.000770
    Y0320102 CAP06301 0.000020   U0150102 1.000000
    Y0320102 CAP01802 0.000710   CAP01402 0.006620
    Y0320102 OBJECTIV -4.282000   CAP01801 0.000090
    Y0320102 U0150106 1.000000   I0060202 -1.010400
    Y0320102 U0150105 1.000000   I0060201 -0.144340
    Y0320103 U0150103 1.000000   CAP01803 0.000720
    Y0320103 CAP06302 0.000020   U0150106 1.000000
    Y0320103 CAP01403 0.006680   CAP06303 0.000400
    Y0320103 I0060203 -1.021510   CAP01802 0.000080
    Y0320103 OBJECTIV -4.065000   CAP01402 0.000710
    Y0320103 U0150104 1.000000   U0150105 1.000000
    Y0320103 I0060202 -0.133240
    Y0320104 CAP01404 0.006680   CAP01403 0.000710
    Y0320104 OBJECTIV -3.859000   U0150106 1.000000
    Y0320104 CAP01804 0.000720   U0150105 1.000000
    Y0320104 U0150104 1.000000   CAP01803 0.000080
    Y0320104 I0060204 -1.021510   CAP06304 0.000400
    Y0320104 I0060203 -0.133240   CAP06303 0.000020
    Y0320105 U0150105 1.000000   CAP01404 0.000680
    Y0320105 OBJECTIV -3.664000   CAP06304 0.000020
    Y0320105 U0150106 1.000000   CAP06305 0.000400
    Y0320105 CAP01804 0.000080   CAP01405 0.006710
    Y0320105 CAP01805 0.000720   I0060205 -1.026440
    Y0320105 I0060204 -0.128310
    Y0320106 CAP06305 0.000020   OBJECTIV -3.479000
    Y0320106 CAP06306 0.000420   CAP01405 0.000740
    Y0320106 U0150106 1.000000   I0060206 -1.154750
    Y0320106 CAP01806 0.000800   CAP01406 0.007390
    Y0320106 I0060205 -0.138570   CAP01805 0.000090
    Y0330102 U0150102 1.000000   CAP00101 0.001310
    Y0330102 CAP06302 0.000400   CAP06301 0.000020
    Y0330102 CAP00801 0.000170   CAP00102 0.006540
    Y0330102 I0060202 -0.866060   I0060201 -0.288690
    Y0330102 U0150103 1.000000   U0150105 1.000000
    Y0330102 OBJECTIV -4.339000   U0150104 1.000000
    Y0330102 U0150106 1.000000   CAP00802 0.000630
    Y0330103 CAP00102 0.001210   CAP00802 0.000150
    Y0330103 U0150105 1.000000   I0060202 -0.266480
    Y0330103 OBJECTIV -4.119000   U0150104 1.000000
    Y0330103 CAP06303 0.000400   I0060203 -0.888270
    Y0330103 U0150103 1.000000   CAP06302 0.000020
    Y0330103 U0150106 1.000000   CAP00103 0.006640
    Y0330104 CAP06303 0.000020   U0150105 1.000000
    Y0330104 U0150106 1.000000   I0060204 -0.888270
    Y0330104 CAP00104 0.006640   OBJECTIV -3.911000
    Y0330104 U0150104 1.000000   I0060203 -0.266480
    Y0330104 CAP00804 0.000650   CAP00803 0.000150
    Y0330104 CAP06304 0.000400   CAP00103 0.001210
    Y0330105 I0060204 -0.256610   U0150105 1.000000
    Y0330105 CAP06305 0.000400   U0150106 1.000000
    Y0330105 CAP00804 0.000150   CAP00805 0.000650
    Y0330105 CAP00105 0.006680   CAP00104 0.001160
    Y0330105 CAP06304 0.000020   OBJECTIV -3.713000
    Y0330105 I0060205 -0.898140
    Y0330106 CAP00805 0.000160   CAP00105 0.001250
    Y0330106 OBJECTIV -3.525000   CAP00106 0.007840
    Y0330106 I0060206 -1.154750   I0060205 -0.277140
    Y0330106 U0150106 1.000000   CAP06305 0.000020
    Y0330106 CAP00806 0.000800
    Y0340102 CAP00901 0.002720   U0160104 1.000000
    Y0340102 I0070101 -0.501000   CAP00902 0.005440
    Y0340102 I0070102 -0.701400   CAP06201 0.000830
    Y0340102 CAP01302 0.000520   U0160105 1.000000
    Y0340102 CAP01301 0.000310   CAP06102 0.000660
    Y0340102 CAP06202 0.004420   U0160103 1.000000
    Y0340102 CAP06101 0.000060   OBJECTIV -3.674000
    Y0340102 U0160102 1.000000   U0160106 1.000000
    Y0340103 OBJECTIV -3.488000   I0070103 -0.739940
    Y0340103 CAP06203 0.004490   CAP06103 0.000670
    Y0340103 U0160104 1.000000   I0070102 -0.462460
    Y0340103 CAP01302 0.000290   CAP06202 0.000770
    Y0340103 CAP00902 0.002510   CAP01303 0.000540
    Y0340103 CAP00903 0.005650   U0160105 1.000000
    Y0340103 CAP06102 0.000060   U0160106 1.000000
    Y0340103 U0160103 1.000000
    Y0340104 CAP01304 0.000540   I0070103 -0.462460
    Y0340104 CAP06203 0.000770   I0070104 -0.739940
    Y0340104 OBJECTIV -3.312000   CAP06103 0.000060
    Y0340104 U0160104 1.000000   CAP06104 0.000670
    Y0340104 CAP01303 0.000290   CAP00903 0.002510
    Y0340104 U0160105 1.000000   U0160106 1.000000
    Y0340104 CAP06204 0.004490   CAP00904 0.005650
    Y0340105 CAP06105 0.000670   CAP01305 0.000560
    Y0340105 CAP06104 0.000050   CAP00904 0.002420
    Y0340105 OBJECTIV -3.144000   CAP06205 0.004520
    Y0340105 CAP00905 0.005750   U0160105 1.000000
    Y0340105 U0160106 1.000000   I0070104 -0.445340
    Y0340105 CAP06204 0.000740   CAP01304 0.000280
    Y0340105 I0070105 -0.757070
    Y0340106 CAP00906 0.008170   CAP06206 0.005250
    Y0340106 CAP06205 0.000800   CAP01305 0.000300
    Y0340106 CAP06106 0.000720   I0070105 -0.480960
    Y0340106 U0160106 1.000000   I0070106 -1.202410
    Y0340106 CAP01306 0.000830   CAP00905 0.002610
    Y0340106 OBJECTIV -2.985000   CAP06105 0.000060
    Y0350102 U0160106 1.000000   CAP01402 0.005610
    Y0350102 CAP01801 0.000230   CAP06101 0.000060
    Y0350102 U0160105 1.000000   U0160103 1.000000
    Y0350102 OBJECTIV -3.646000   CAP06201 0.000830
    Y0350102 U0160104 1.000000   U0160102 1.000000
    Y0350102 I0070102 -0.851710   CAP01802 0.000600
    Y0350102 CAP06102 0.000660   I0070101 -0.350700
    Y0350102 CAP01401 0.002090   CAP06202 0.004420
    Y0350103 I0070103 -0.878680   CAP06202 0.000770
    Y0350103 U0160105 1.000000   CAP01403 0.005770
    Y0350103 OBJECTIV -3.461000   U0160103 1.000000
    Y0350103 I0070102 -0.323730   CAP06203 0.004490
    Y0350103 CAP06102 0.000060   U0160106 1.000000
    Y0350103 CAP01402 0.001920   CAP06103 0.000670
    Y0350103 CAP01803 0.000620   CAP01802 0.000220
    Y0350103 U0160104 1.000000
    Y0350104 CAP06204 0.004490   I0070103 -0.323730
    Y0350104 I0070104 -0.878680   U0160105 1.000000
    Y0350104 OBJECTIV -3.286000   CAP01403 0.001920
    Y0350104 U0160106 1.000000   CAP06103 0.000060
    Y0350104 U0160104 1.000000   CAP01804 0.000620
    Y0350104 CAP01404 0.005770   CAP06104 0.000670
    Y0350104 CAP01803 0.000220   CAP06203 0.000770
    Y0350105 U0160106 1.000000   CAP06204 0.000740
    Y0350105 CAP01404 0.001850   U0160105 1.000000
    Y0350105 OBJECTIV -3.120000   CAP06104 0.000050
    Y0350105 CAP01804 0.000210   CAP01405 0.005850
    Y0350105 CAP06205 0.004520   CAP01805 0.000620
    Y0350105 I0070105 -0.890670   I0070104 -0.311740
    Y0350105 CAP06105 0.000670
    Y0350106 CAP06106 0.000720   CAP06206 0.005250
    Y0350106 CAP01406 0.007700   CAP01806 0.000830
    Y0350106 I0070106 -1.202410   OBJECTIV -2.962000
    Y0350106 CAP06105 0.000060   I0070105 -0.336670
    Y0350106 CAP06205 0.000800   CAP01805 0.000220
    Y0350106 U0160106 1.000000   CAP01405 0.002000
    X0010103 CAP02102 0.005460   CAP02701 0.003560
    X0010103 CAP02702 0.100130   CAP02001 0.000720
    X0010103 CAP02502 0.012410   CAP02103 0.006770
    X0010103 CAP02501 0.002940   I0010103 280.000000
    X0010103 CAP02003 0.001300   CAP01903 0.021090
    X0010103 CAP03101 0.003300   CAP02703 0.048250
    X0010103 CAP02803 0.011420   CAP01902 0.012850
    X0010103 CAP02002 0.009360   CAP03103 0.039500
    X0010103 CAP03102 0.084140   CAP02802 0.064790
    X0010104 CAP01903 0.012260   CAP02702 0.002260
    X0010104 CAP02704 0.051830   CAP02104 0.007020
    X0010104 CAP02804 0.014370   CAP02003 0.009470
    X0010104 CAP02502 0.002110   CAP02103 0.005210
    X0010104 I0010104 280.000000   CAP03104 0.042420
    X0010104 CAP02503 0.013240   CAP02002 0.000420
    X0010104 CAP03103 0.082410   CAP02803 0.061850
    X0010104 CAP02703 0.097840   CAP02004 0.001490
    X0010104 CAP03102 0.002100   CAP01904 0.021670
    X0010105 CAP01905 0.021670   CAP03105 0.042420
    X0010105 CAP03104 0.083460   CAP02804 0.061850
    X0010105 CAP02005 0.001490   CAP02004 0.009730
    X0010105 CAP02504 0.013940   I0010105 280.000000
    X0010105 CAP02003 0.000160   CAP02104 0.005210
    X0010105 CAP02503 0.001410   CAP02705 0.051830
    X0010105 CAP02704 0.098970   CAP01904 0.012260
    X0010105 CAP02703 0.001130   CAP03103 0.001050
    X0010105 CAP02805 0.014370   CAP02105 0.007020
    X0010106 CAP02505 0.016080   CAP02704 0.001190
    X0010106 CAP03105 0.088540   CAP02005 0.010360
    X0010106 CAP01906 0.033940   I0010106 280.000000
    X0010106 CAP02004 0.000160   CAP01905 0.012850
    X0010106 CAP03104 0.001100   CAP02106 0.012230
    X0010106 CAP02806 0.076210   CAP02805 0.064790
    X0010106 CAP02006 0.011390   CAP03106 0.126940
    X0010106 CAP02706 0.151930   CAP02504 0.001480
    X0010106 CAP02506 0.015350   CAP02105 0.005460
    X0010106 CAP02705 0.104870
    X0020103 CAP02502 0.011610   CAP02003 0.000510
    X0020103 CAP02802 0.017220   CAP02803 0.003420
    X0020103 CAP03103 0.030820   CAP02102 0.007660
    X0020103 CAP03101 0.000080   CAP02603 0.021570
    X0020103 CAP02302 0.015510   CAP02501 0.002960
    X0020103 CAP01902 0.017680   I0020103 75.000000
    X0020103 CAP02103 0.004590   CAP03203 0.014870
    X0020103 CAP02703 0.020940   CAP02702 0.086080
    X0020103 CAP02001 0.000790   CAP02701 0.003330
    X0020103 CAP03202 0.025050   CAP02602 0.023730
    X0020103 CAP02002 0.009800   CAP02303 0.020600
    X0020103 CAP01903 0.014920   CAP03102 0.068790
    X0020104 CAP02503 0.012410   CAP02103 0.007310
    X0020104 CAP03203 0.023910   CAP02304 0.021310
    X0020104 CAP01904 0.015720   CAP02002 0.000500
    X0020104 CAP03104 0.033950   CAP03204 0.016010
    X0020104 CAP03103 0.065740   CAP02303 0.014810
    X0020104 CAP02603 0.022650   CAP01903 0.016880
    X0020104 CAP02704 0.024000   CAP02804 0.004200
    X0020104 CAP02604 0.022650   CAP02003 0.009870
    X0020104 CAP02502 0.002160   CAP02702 0.002170
    X0020104 CAP02004 0.000730   CAP02703 0.084180
    X0020104 CAP02803 0.016440   CAP02104 0.004940
    X0020104 I0020104 75.000000
    X0020105 CAP02605 0.022650   CAP02705 0.024000
    X0020105 CAP02104 0.007310   CAP02703 0.001170
    X0020105 CAP02503 0.001500   CAP01904 0.016880
    X0020105 CAP02105 0.004940   CAP02305 0.021310
    X0020105 CAP02005 0.000730   CAP02004 0.010120
    X0020105 CAP02804 0.016440   CAP03205 0.016010
    X0020105 I0020105 75.000000   CAP02504 0.013070
    X0020105 CAP01905 0.015720   CAP02704 0.085190
    X0020105 CAP02003 0.000250   CAP02304 0.014810
    X0020105 CAP03204 0.023910   CAP03105 0.033950
    X0020105 CAP02805 0.004200   CAP03104 0.065740
    X0020105 CAP02604 0.022650
    X0020106 CAP01906 0.032600   CAP03206 0.039920
    X0020106 CAP03106 0.099690   CAP02606 0.045290
    X0020106 CAP02305 0.015510   CAP02706 0.110360
    X0020106 CAP02105 0.007660   CAP02505 0.015260
    X0020106 CAP01905 0.017680   CAP02106 0.012250
    X0020106 CAP02506 0.014570   CAP02006 0.011100
    X0020106 CAP02005 0.010860   CAP02306 0.036110
    X0020106 CAP02605 0.023730   CAP02806 0.020640
    X0020106 CAP02705 0.090470   CAP02704 0.001220
    X0020106 CAP02805 0.017220   CAP02504 0.001570
    X0020106 CAP02004 0.000260   CAP03205 0.025050
    X0020106 CAP03105 0.068870   I0020106 75.000000
    X0030103 CAP02403 0.008370   CAP02502 0.011870
    X0030103 CAP03203 0.020770   CAP02203 0.025130
    X0030103 CAP02002 0.009770   CAP02701 0.005760
    X0030103 CAP02102 0.020410   CAP03202 0.018310
    X0030103 CAP02802 0.016640   CAP03002 0.009980
    X0030103 I0030103 43.000000   CAP02103 0.029730
    X0030103 CAP02202 0.123490   CAP02501 0.002850
    X0030103 CAP02402 0.013630   CAP02003 0.000540
    X0030103 CAP01902 0.012550   CAP02703 0.020050
    X0030103 CAP03102 0.005940   CAP02603 0.028000
    X0030103 CAP02602 0.016080   CAP02803 0.003920
    X0030103 CAP02902 0.015930   CAP02702 0.110340
    X0030103 CAP02903 0.007190   CAP02001 0.000790
    X0030103 CAP01903 0.019790   CAP03103 0.011980
    X0030103 CAP03003 0.010770   CAP02201 0.000770
    X0030104 CAP02003 0.009830   CAP02502 0.002050
    X0030104 CAP02704 0.024090   CAP02004 0.000770
    X0030104 CAP01903 0.011980   I0030104 43.000000
    X0030104 CAP02904 0.007910   CAP02804 0.004670
    X0030104 CAP02702 0.003760   CAP02604 0.028730
    X0030104 CAP03003 0.009530   CAP02403 0.013010
    X0030104 CAP02002 0.000500   CAP03103 0.005670
    X0030104 CAP01904 0.020360   CAP02204 0.030780
    X0030104 CAP03203 0.017480   CAP02903 0.015200
    X0030104 CAP02503 0.012660   CAP02803 0.015890
    X0030104 CAP02703 0.108300   CAP02603 0.015350
    X0030104 CAP03004 0.011220   CAP02203 0.118610
    X0030104 CAP03204 0.021600   CAP02104 0.030660
    X0030104 CAP03104 0.012250   CAP02103 0.019480
    X0030104 CAP02404 0.008990
    X0030105 CAP02105 0.030660   CAP02005 0.000770
    X0030105 CAP03105 0.012250   CAP02205 0.030780
    X0030105 CAP02404 0.013010   CAP02104 0.019480
    X0030105 CAP03205 0.021600   CAP02004 0.010090
    X0030105 CAP02204 0.118610   CAP02504 0.013330
    X0030105 CAP01905 0.020360   CAP02705 0.024090
    X0030105 CAP02503 0.001380   CAP03204 0.017480
    X0030105 CAP03104 0.005670   CAP02805 0.004670
    X0030105 CAP01904 0.011980   CAP03004 0.009530
    X0030105 CAP02604 0.015350   CAP02605 0.028730
    X0030105 CAP02905 0.007910   CAP02904 0.015200
    X0030105 CAP02703 0.002530   CAP02003 0.000250
    X0030105 I0030105 43.000000   CAP02804 0.015890
    X0030105 CAP03005 0.011220   CAP02405 0.008990
    X0030105 CAP02704 0.109540
    X0030106 CAP02605 0.016080   CAP02205 0.124250
    X0030106 CAP02006 0.011100   CAP02505 0.015420
    X0030106 CAP01906 0.032340   CAP02206 0.149390
    X0030106 CAP03205 0.018310   CAP02004 0.000260
    X0030106 CAP02106 0.050140   CAP02405 0.013630
    X0030106 CAP02606 0.044080   CAP02806 0.020560
    X0030106 CAP02105 0.020410   CAP02905 0.015930
    X0030106 CAP02706 0.136160   CAP02805 0.016640
    X0030106 CAP02705 0.117400   I0030106 43.000000
    X0030106 CAP02906 0.023120   CAP03006 0.020750
    X0030106 CAP03106 0.017930   CAP03206 0.039080
    X0030106 CAP01905 0.012550   CAP02506 0.014720
    X0030106 CAP02005 0.010830   CAP03105 0.005940
    X0030106 CAP02504 0.001450   CAP02406 0.022010
    X0030106 CAP02704 0.002650   CAP03005 0.009980
    X0040102 CAP03802 0.014780   CAP03402 0.029790
    X0040102 CAP04202 0.022990   CAP04702 0.014990
    X0040102 CAP05102 0.003290   CAP04402 0.012430
    X0040102 CAP04502 0.015010   CAP03702 0.000870
    X0040102 CAP05002 0.005490   CAP04902 0.003150
    X0040102 CAP04302 0.003470   CAP04002 0.024210
    X0040102 CAP04301 0.029720   CAP03801 0.029610
    X0040102 CAP04601 0.016960   CAP04501 0.024400
    X0040102 CAP04401 0.005650   I0030102 43.000000
    X0040102 CAP04201 0.012200   CAP04701 0.010870
    X0040102 CAP03401 0.027720   CAP03701 0.035790
    X0040102 CAP04101 0.012670   CAP04001 0.017560
    X0040102 CAP03301 0.016760   CAP05001 0.017690
    X0040102 CAP05302 0.004960   CAP05402 0.010230
    X0040102 CAP05401 0.008510   CAP05301 0.012440
    X0040102 CAP05101 0.014300   CAP03302 0.001330
    X0040102 CAP04901 0.015090
    X0040103 CAP04302 0.027430   CAP04202 0.011260
    X0040103 CAP04502 0.022520   CAP05103 0.004390
    X0040103 CAP04603 0.001040   CAP04002 0.016210
    X0040103 CAP04102 0.011700   CAP05003 0.006850
    X0040103 CAP05303 0.005910   CAP04703 0.015830
    X0040103 CAP04903 0.004310   CAP04402 0.005210
    X0040103 CAP04702 0.010040   CAP04003 0.025560
    X0040103 CAP05302 0.011480   CAP05402 0.007860
    X0040103 CAP05002 0.016330   CAP03303 0.002550
    X0040103 CAP03403 0.031920   CAP03703 0.003620
    X0040103 CAP03803 0.017060   CAP04902 0.013930
    X0040103 CAP04503 0.016880   CAP04103 0.000500
    X0040103 CAP05102 0.013200   CAP04203 0.023930
    X0040103 CAP04602 0.015660   CAP04303 0.005760
    X0040103 CAP04403 0.012860   CAP05403 0.010890
    X0040103 I0030103 43.000000   CAP04101 0.000470
    X0040103 CAP03302 0.015480   CAP03702 0.033040
    X0040103 CAP03402 0.025580   CAP03802 0.027330
    X0040103 CAP03301 0.000060   CAP04601 0.000270
    X0040104 CAP04704 0.015830   CAP03403 0.025580
    X0040104 CAP03704 0.003620   CAP05104 0.004390
    X0040104 CAP03804 0.017060   CAP03404 0.031920
    X0040104 CAP04904 0.004310   CAP04004 0.025560
    X0040104 CAP04104 0.000500   CAP03303 0.015540
    X0040104 CAP04204 0.023930   CAP04304 0.005760
    X0040104 CAP05404 0.010890   CAP04404 0.012860
    X0040104 CAP04604 0.001040   CAP04504 0.016880
    X0040104 CAP05304 0.005910   CAP04603 0.015930
    X0040104 CAP05403 0.007860   CAP05303 0.011480
    X0040104 CAP05103 0.013200   CAP05003 0.016330
    X0040104 CAP05004 0.006850   CAP04903 0.013930
    X0040104 CAP04703 0.010040   CAP04503 0.022520
    X0040104 CAP03304 0.002550   CAP04403 0.005210
    X0040104 CAP04303 0.027430   CAP04203 0.011260
    X0040104 I0030104 43.000000   CAP04103 0.012170
    X0040104 CAP04003 0.016210   CAP03803 0.027330
    X0040104 CAP03703 0.033040
    X0040105 CAP05104 0.012710   CAP05004 0.015730
    X0040105 CAP05304 0.011060   CAP05404 0.007570
    X0040105 CAP05405 0.011180   CAP05305 0.006340
    X0040105 CAP05105 0.004880   CAP05005 0.007450
    X0040105 CAP03804 0.026320   CAP04004 0.015610
    X0040105 I0030105 43.000000   CAP03304 0.014960
    X0040105 CAP03404 0.024640   CAP03704 0.031810
    X0040105 CAP04905 0.004830   CAP04104 0.011720
    X0040105 CAP04704 0.009670   CAP04204 0.010840
    X0040105 CAP04304 0.026420   CAP04404 0.005020
    X0040105 CAP04504 0.021690   CAP04604 0.015340
    X0040105 CAP04904 0.013410   CAP04405 0.013060
    X0040105 CAP04205 0.024350   CAP04105 0.000950
    X0040105 CAP03705 0.004850   CAP04605 0.001630
    X0040105 CAP04305 0.006780   CAP03405 0.032870
    X0040105 CAP03305 0.003130   CAP04705 0.016200
    X0040105 CAP04505 0.017720   CAP03805 0.018070
    X0040105 CAP04005 0.026160
    X0040106 CAP03806 0.044390   CAP03706 0.036660
    X0040106 CAP04105 0.012660   CAP05305 0.011940
    X0040106 CAP04005 0.016860   CAP05405 0.008170
    X0040106 CAP04106 0.012670   CAP05106 0.017590
    X0040106 CAP04706 0.025860   CAP04205 0.011710
    X0040106 CAP04906 0.018240   CAP03805 0.028430
    X0040106 CAP03306 0.018090   CAP03406 0.057510
    X0040106 CAP05006 0.023180   CAP04605 0.016560
    X0040106 CAP04305 0.028530   CAP03705 0.034360
    X0040106 CAP04405 0.005420   CAP05105 0.013730
    X0040106 CAP04006 0.041770   CAP05306 0.017400
    X0040106 CAP04505 0.023420   CAP05005 0.016990
    X0040106 CAP04506 0.039400   CAP04705 0.010440
    X0040106 CAP03305 0.016160   CAP04905 0.014480
    X0040106 CAP04606 0.016960   CAP05406 0.018750
    X0040106 CAP04406 0.018080   CAP04206 0.035190
    X0040106 CAP04306 0.033190   CAP03405 0.026610
    X0050103 CAP02203 0.025130   CAP03002 0.009980
    X0050103 CAP03003 0.010770   CAP02702 0.110340
    X0050103 CAP02201 0.000770   I0040103 43.000000
    X0050103 CAP02703 0.020050   CAP02002 0.009770
    X0050103 CAP02403 0.008370   CAP02001 0.000790
    X0050103 CAP02802 0.016640   CAP03202 0.018310
    X0050103 CAP01903 0.019790   CAP02202 0.123490
    X0050103 CAP02003 0.000540   CAP02701 0.005760
    X0050103 CAP02902 0.015930   CAP03103 0.011980
    X0050103 CAP01902 0.012550   CAP02903 0.007190
    X0050103 CAP02103 0.029730   CAP02501 0.002850
    X0050103 CAP03203 0.020770   CAP03102 0.005940
    X0050103 CAP02602 0.016080   CAP02803 0.003920
    X0050103 CAP02102 0.020410   CAP02402 0.013630
    X0050103 CAP02603 0.028000   CAP02502 0.011870
    X0050104 I0040104 43.000000   CAP02502 0.002050
    X0050104 CAP02404 0.008990   CAP01903 0.011980
    X0050104 CAP02604 0.028730   CAP02603 0.015350
    X0050104 CAP03204 0.021600   CAP02704 0.024090
    X0050104 CAP02503 0.012660   CAP03104 0.012250
    X0050104 CAP02702 0.003760   CAP03203 0.017480
    X0050104 CAP02004 0.000770   CAP02002 0.000500
    X0050104 CAP02904 0.007910   CAP02103 0.019480
    X0050104 CAP02903 0.015200   CAP02403 0.013010
    X0050104 CAP02803 0.015890   CAP03004 0.011220
    X0050104 CAP02104 0.030660   CAP01904 0.020360
    X0050104 CAP02804 0.004670   CAP03003 0.009530
    X0050104 CAP02204 0.030780   CAP02203 0.118610
    X0050104 CAP02703 0.108300   CAP02003 0.009830
    X0050104 CAP03103 0.005670
    X0050105 CAP03204 0.017480   CAP02503 0.001380
    X0050105 I0040105 43.000000   CAP02704 0.109540
    X0050105 CAP02003 0.000250   CAP03104 0.005670
    X0050105 CAP01905 0.020360   CAP02804 0.015890
    X0050105 CAP02904 0.015200   CAP03004 0.009530
    X0050105 CAP02404 0.013010   CAP02405 0.008990
    X0050105 CAP02204 0.118610   CAP02703 0.002530
    X0050105 CAP02104 0.019480   CAP02605 0.028730
    X0050105 CAP02705 0.024090   CAP02205 0.030780
    X0050105 CAP02004 0.010090   CAP02805 0.004670
    X0050105 CAP02905 0.007910   CAP01904 0.011980
    X0050105 CAP03005 0.011220   CAP03205 0.021600
    X0050105 CAP03105 0.012250   CAP02005 0.000770
    X0050105 CAP02604 0.015350   CAP02105 0.030660
    X0050105 CAP02504 0.013330
    X0050106 CAP02504 0.001450   CAP02004 0.000260
    X0050106 CAP02705 0.117400   CAP03105 0.005940
    X0050106 CAP02706 0.136160   CAP03006 0.020750
    X0050106 I0040106 43.000000   CAP02005 0.010830
    X0050106 CAP02805 0.016640   CAP01906 0.032340
    X0050106 CAP02905 0.015930   CAP02806 0.020560
    X0050106 CAP02406 0.022010   CAP03005 0.009980
    X0050106 CAP02606 0.044080   CAP03205 0.018310
    X0050106 CAP02506 0.014720   CAP02605 0.016080
    X0050106 CAP02704 0.002650   CAP02205 0.124250
    X0050106 CAP03206 0.039080   CAP02105 0.020410
    X0050106 CAP02405 0.013630   CAP02106 0.050140
    X0050106 CAP03106 0.017930   CAP02206 0.149390
    X0050106 CAP02505 0.015420   CAP02906 0.023120
    X0050106 CAP02006 0.011100   CAP01905 0.012550
    X0060102 CAP04601 0.016960   CAP05301 0.012440
    X0060102 CAP04202 0.022990   CAP04402 0.012430
    X0060102 CAP05401 0.008510   CAP05001 0.017690
    X0060102 CAP04302 0.003470   CAP03802 0.014780
    X0060102 CAP04701 0.010870   CAP05101 0.014300
    X0060102 CAP04901 0.015090   CAP04101 0.012670
    X0060102 CAP03301 0.016760   CAP03701 0.035790
    X0060102 CAP05002 0.005490   CAP05402 0.010230
    X0060102 CAP04002 0.024210   CAP03702 0.000870
    X0060102 CAP03401 0.027720   CAP04702 0.014990
    X0060102 CAP04902 0.003150   CAP04502 0.015010
    X0060102 CAP04001 0.017560   CAP03402 0.029790
    X0060102 CAP03801 0.029610   I0040102 43.000000
    X0060102 CAP04201 0.012200   CAP05102 0.003290
    X0060102 CAP03302 0.001330   CAP04301 0.029720
    X0060102 CAP05302 0.004960   CAP04501 0.024400
    X0060102 CAP04401 0.005650
    X0060103 CAP04902 0.013930   CAP04002 0.016210
    X0060103 CAP03303 0.002550   CAP04302 0.027430
    X0060103 CAP03402 0.025580   CAP05103 0.004390
    X0060103 CAP03403 0.031920   CAP04903 0.004310
    X0060103 CAP04402 0.005210   CAP04603 0.001040
    X0060103 CAP03302 0.015480   CAP05003 0.006850
    X0060103 CAP05402 0.007860   CAP05302 0.011480
    X0060103 CAP05002 0.016330   CAP04703 0.015830
    X0060103 CAP04403 0.012860   CAP04602 0.015660
    X0060103 CAP04203 0.023930   CAP03802 0.027330
    X0060103 CAP05102 0.013200   CAP03803 0.017060
    X0060103 CAP03301 0.000060   CAP05303 0.005910
    X0060103 CAP04103 0.000500   CAP04601 0.000270
    X0060103 CAP05403 0.010890   CAP04003 0.025560
    X0060103 I0040103 43.000000   CAP04503 0.016880
    X0060103 CAP04202 0.011260   CAP04702 0.010040
    X0060103 CAP03703 0.003620   CAP04102 0.011700
    X0060103 CAP04101 0.000470   CAP03702 0.033040
    X0060103 CAP04502 0.022520   CAP04303 0.005760
    X0060104 CAP04104 0.000500   CAP04004 0.025560
    X0060104 CAP03303 0.015540   CAP04604 0.001040
    X0060104 CAP05003 0.016330   CAP04204 0.023930
    X0060104 CAP04504 0.016880   CAP05103 0.013200
    X0060104 CAP04404 0.012860   CAP04304 0.005760
    X0060104 CAP05303 0.011480   CAP05403 0.007860
    X0060104 CAP05404 0.010890   CAP04303 0.027430
    X0060104 CAP03403 0.025580   CAP04603 0.015930
    X0060104 CAP04904 0.004310   I0040104 43.000000
    X0060104 CAP03404 0.031920   CAP03304 0.002550
    X0060104 CAP04203 0.011260   CAP04503 0.022520
    X0060104 CAP05004 0.006850   CAP04403 0.005210
    X0060104 CAP03703 0.033040   CAP05104 0.004390
    X0060104 CAP03803 0.027330   CAP04003 0.016210
    X0060104 CAP04704 0.015830   CAP04103 0.012170
    X0060104 CAP03804 0.017060   CAP04903 0.013930
    X0060104 CAP05304 0.005910   CAP03704 0.003620
    X0060104 CAP04703 0.010040
    X0060105 CAP04405 0.013060   CAP04005 0.026160
    X0060105 CAP04204 0.010840   I0040105 43.000000
    X0060105 CAP04105 0.000950   CAP03805 0.018070
    X0060105 CAP03704 0.031810   CAP04004 0.015610
    X0060105 CAP04505 0.017720   CAP03804 0.026320
    X0060105 CAP03705 0.004850   CAP04104 0.011720
    X0060105 CAP04205 0.024350   CAP03405 0.032870
    X0060105 CAP03404 0.024640   CAP04305 0.006780
    X0060105 CAP03304 0.014960   CAP04404 0.005020
    X0060105 CAP05105 0.004880   CAP05304 0.011060
    X0060105 CAP05404 0.007570   CAP04605 0.001630
    X0060105 CAP05104 0.012710   CAP05405 0.011180
    X0060105 CAP05004 0.015730   CAP05305 0.006340
    X0060105 CAP04904 0.013410   CAP04504 0.021690
    X0060105 CAP04704 0.009670   CAP03305 0.003130
    X0060105 CAP04304 0.026420   CAP04905 0.004830
    X0060105 CAP04705 0.016200   CAP05005 0.007450
    X0060105 CAP04604 0.015340
    X0060106 CAP04706 0.025860   CAP03306 0.018090
    X0060106 CAP04906 0.018240   CAP05006 0.023180
    X0060106 CAP03805 0.028430   CAP05106 0.017590
    X0060106 CAP05306 0.017400   CAP03705 0.034360
    X0060106 CAP05305 0.011940   CAP04705 0.010440
    X0060106 CAP04905 0.014480   CAP05005 0.016990
    X0060106 CAP05105 0.013730   CAP04605 0.016560
    X0060106 CAP04305 0.028530   CAP05406 0.018750
    X0060106 CAP05405 0.008170   CAP04205 0.011710
    X0060106 CAP04405 0.005420   CAP03406 0.057510
    X0060106 CAP04105 0.012660   CAP04005 0.016860
    X0060106 CAP04306 0.033190   CAP04406 0.018080
    X0060106 CAP04106 0.012670   CAP04506 0.039400
    X0060106 CAP04006 0.041770   CAP03405 0.026610
    X0060106 CAP04606 0.016960   CAP03305 0.016160
    X0060106 CAP03706 0.036660   CAP03806 0.044390
    X0060106 CAP04505 0.023420   CAP04206 0.035190
    X0070103 CAP02202 0.123490   CAP01903 0.019790
    X0070103 I0050103 153.000000   CAP02602 0.016080
    X0070103 CAP02402 0.013630   CAP03003 0.010770
    X0070103 CAP02103 0.029730   CAP02201 0.000770
    X0070103 CAP02702 0.110340   CAP02502 0.011870
    X0070103 CAP02003 0.000540   CAP03002 0.009980
    X0070103 CAP02403 0.008370   CAP02703 0.020050
    X0070103 CAP02002 0.009770   CAP01902 0.012550
    X0070103 CAP03202 0.018310   CAP03102 0.005940
    X0070103 CAP02802 0.016640   CAP02603 0.028000
    X0070103 CAP02102 0.020410   CAP02903 0.007190
    X0070103 CAP02501 0.002850   CAP02001 0.000790
    X0070103 CAP03203 0.020770   CAP02203 0.025130
    X0070103 CAP02902 0.015930   CAP02803 0.003920
    X0070103 CAP03103 0.011980   CAP02701 0.005760
    X0070104 CAP02804 0.004670   CAP02004 0.000770
    X0070104 CAP02103 0.019480   CAP02904 0.007910
    X0070104 CAP03003 0.009530   CAP02104 0.030660
    X0070104 CAP02204 0.030780   I0050104 153.000000
    X0070104 CAP02604 0.028730   CAP02702 0.003760
    X0070104 CAP01903 0.011980   CAP02003 0.009830
    X0070104 CAP03203 0.017480   CAP02903 0.015200
    X0070104 CAP02502 0.002050   CAP02704 0.024090
    X0070104 CAP02404 0.008990   CAP03004 0.011220
    X0070104 CAP02002 0.000500   CAP01904 0.020360
    X0070104 CAP02503 0.012660   CAP02603 0.015350
    X0070104 CAP02403 0.013010   CAP03204 0.021600
    X0070104 CAP03103 0.005670   CAP02803 0.015890
    X0070104 CAP02203 0.118610   CAP03104 0.012250
    X0070104 CAP02703 0.108300
    X0070105 CAP02605 0.028730   CAP03005 0.011220
    X0070105 CAP03104 0.005670   CAP02104 0.019480
    X0070105 CAP02604 0.015350   CAP02503 0.001380
    X0070105 CAP02204 0.118610   CAP02404 0.013010
    X0070105 CAP02205 0.030780   CAP02703 0.002530
    X0070105 CAP02105 0.030660   CAP03205 0.021600
    X0070105 CAP03204 0.017480   CAP02504 0.013330
    X0070105 I0050105 153.000000   CAP02405 0.008990
    X0070105 CAP02005 0.000770   CAP02904 0.015200
    X0070105 CAP01905 0.020360   CAP02004 0.010090
    X0070105 CAP03004 0.009530   CAP02705 0.024090
    X0070105 CAP02003 0.000250   CAP01904 0.011980
    X0070105 CAP02804 0.015890   CAP02905 0.007910
    X0070105 CAP03105 0.012250   CAP02805 0.004670
    X0070105 CAP02704 0.109540
    X0070106 CAP02504 0.001450   CAP03105 0.005940
    X0070106 CAP03006 0.020750   CAP02906 0.023120
    X0070106 CAP02005 0.010830   CAP03106 0.017930
    X0070106 CAP02705 0.117400   CAP02706 0.136160
    X0070106 CAP03206 0.039080   CAP02106 0.050140
    X0070106 I0050106 153.000000   CAP02206 0.149390
    X0070106 CAP02805 0.016640   CAP02205 0.124250
    X0070106 CAP02105 0.020410   CAP02905 0.015930
    X0070106 CAP02006 0.011100   CAP02506 0.014720
    X0070106 CAP01905 0.012550   CAP02605 0.016080
    X0070106 CAP01906 0.032340   CAP02704 0.002650
    X0070106 CAP02406 0.022010   CAP02806 0.020560
    X0070106 CAP02004 0.000260   CAP03205 0.018310
    X0070106 CAP02606 0.044080   CAP02505 0.015420
    X0070106 CAP03005 0.009980   CAP02405 0.013630
    X0070203 CAP03003 0.010770   CAP02501 0.002850
    X0070203 CAP03103 0.011980   CAP03002 0.009980
    X0070203 CAP02701 0.005760   CAP02201 0.000770
    X0070203 CAP02903 0.007190   CAP03102 0.005940
    X0070203 CAP03202 0.018310   CAP02001 0.000790
    X0070203 CAP02703 0.020050   CAP02402 0.013630
    X0070203 CAP02403 0.008370   CAP02002 0.009770
    X0070203 CAP02702 0.110340   CAP02602 0.016080
    X0070203 CAP02203 0.025130   CAP02103 0.029730
    X0070203 CAP02102 0.020410   I0050203 137.699980
    X0070203 CAP03203 0.020770   I0050103 15.299990
    X0070203 CAP01903 0.019790   CAP02202 0.123490
    X0070203 CAP02803 0.003920   CAP01902 0.012550
    X0070203 CAP02802 0.016640   CAP02502 0.011870
    X0070203 CAP02003 0.000540   CAP02902 0.015930
    X0070203 CAP02603 0.028000
    X0070204 CAP02904 0.007910   CAP02004 0.000770
    X0070204 CAP03203 0.017480   CAP02804 0.004670
    X0070204 CAP02103 0.019480   CAP02203 0.118610
    X0070204 CAP02803 0.015890   CAP02404 0.008990
    X0070204 CAP02603 0.015350   CAP03204 0.021600
    X0070204 CAP02503 0.012660   CAP03104 0.012250
    X0070204 CAP02403 0.013010   CAP02002 0.000500
    X0070204 CAP01904 0.020360   CAP03004 0.011220
    X0070204 CAP03103 0.005670   CAP03003 0.009530
    X0070204 CAP02703 0.108300   CAP02702 0.003760
    X0070204 CAP02104 0.030660   I0050104 15.299990
    X0070204 CAP01903 0.011980   CAP02502 0.002050
    X0070204 CAP02204 0.030780   CAP02704 0.024090
    X0070204 CAP02903 0.015200   CAP02604 0.028730
    X0070204 I0050204 137.699980   CAP02003 0.009830
    X0070205 CAP02005 0.000770   CAP02504 0.013330
    X0070205 CAP03205 0.021600   CAP03104 0.005670
    X0070205 CAP02905 0.007910   I0050105 15.299990
    X0070205 CAP03005 0.011220   CAP02204 0.118610
    X0070205 I0050205 137.699980   CAP03204 0.017480
    X0070205 CAP02105 0.030660   CAP02404 0.013010
    X0070205 CAP02205 0.030780   CAP03004 0.009530
    X0070205 CAP02904 0.015200   CAP02705 0.024090
    X0070205 CAP02004 0.010090   CAP02704 0.109540
    X0070205 CAP02605 0.028730   CAP03105 0.012250
    X0070205 CAP02405 0.008990   CAP02604 0.015350
    X0070205 CAP02805 0.004670   CAP02104 0.019480
    X0070205 CAP01905 0.020360   CAP01904 0.011980
    X0070205 CAP02804 0.015890   CAP02703 0.002530
    X0070205 CAP02503 0.001380   CAP02003 0.000250
    X0070206 CAP03106 0.017930   CAP01906 0.032340
    X0070206 CAP02206 0.149390   CAP02905 0.015930
    X0070206 CAP02004 0.000260   CAP02105 0.020410
    X0070206 CAP02506 0.014720   CAP02606 0.044080
    X0070206 CAP03005 0.009980   CAP01905 0.012550
    X0070206 CAP02805 0.016640   CAP02706 0.136160
    X0070206 CAP02005 0.010830   CAP02705 0.117400
    X0070206 CAP02605 0.016080   CAP03206 0.039080
    X0070206 CAP02406 0.022010   CAP02405 0.013630
    X0070206 CAP02806 0.020560   I0050206 137.699980
    X0070206 CAP02704 0.002650   CAP03205 0.018310
    X0070206 CAP02106 0.050140   CAP02504 0.001450
    X0070206 CAP03006 0.020750   CAP02906 0.023120
    X0070206 CAP03105 0.005940   CAP02006 0.011100
    X0070206 I0050106 15.299990   CAP02205 0.124250
    X0070206 CAP02505 0.015420
    X0080102 CAP05301 0.012440   CAP05102 0.003290
    X0080102 CAP04401 0.005650   CAP04701 0.010870
    X0080102 CAP05401 0.008510   CAP05302 0.004960
    X0080102 CAP04501 0.024400   CAP04901 0.015090
    X0080102 CAP03301 0.016760   CAP05001 0.017690
    X0080102 CAP04402 0.012430   CAP03801 0.029610
    X0080102 CAP04502 0.015010   CAP03702 0.000870
    X0080102 CAP05002 0.005490   CAP05101 0.014300
    X0080102 CAP04101 0.012670   CAP03802 0.014780
    X0080102 CAP04702 0.014990   CAP04202 0.022990
    X0080102 CAP04902 0.003150   CAP04302 0.003470
    X0080102 CAP05402 0.010230   CAP04201 0.012200
    X0080102 CAP04002 0.024210   CAP03402 0.029790
    X0080102 CAP03401 0.027720   CAP03302 0.001330
    X0080102 CAP03701 0.035790   CAP04301 0.029720
    X0080102 I0050102 143.000000   CAP04601 0.016960
    X0080102 CAP04001 0.017560
    X0080103 CAP04703 0.015830   CAP04002 0.016210
    X0080103 CAP04602 0.015660   CAP04503 0.016880
    X0080103 CAP04202 0.011260   I0050103 143.000000
    X0080103 CAP04403 0.012860   CAP03302 0.015480
    X0080103 CAP05103 0.004390   CAP04003 0.025560
    X0080103 CAP03702 0.033040   CAP04302 0.027430
    X0080103 CAP04303 0.005760   CAP03301 0.000060
    X0080103 CAP05403 0.010890   CAP04203 0.023930
    X0080103 CAP04502 0.022520   CAP04603 0.001040
    X0080103 CAP04402 0.005210   CAP04103 0.000500
    X0080103 CAP04601 0.000270   CAP03803 0.017060
    X0080103 CAP05402 0.007860   CAP04102 0.011700
    X0080103 CAP05002 0.016330   CAP03403 0.031920
    X0080103 CAP05003 0.006850   CAP05303 0.005910
    X0080103 CAP05102 0.013200   CAP03303 0.002550
    X0080103 CAP04902 0.013930   CAP03402 0.025580
    X0080103 CAP04101 0.000470   CAP04903 0.004310
    X0080103 CAP03703 0.003620   CAP05302 0.011480
    X0080103 CAP04702 0.010040   CAP03802 0.027330
    X0080104 CAP04704 0.015830   CAP03404 0.031920
    X0080104 CAP04203 0.011260   CAP04303 0.027430
    X0080104 CAP03704 0.003620   CAP05004 0.006850
    X0080104 CAP03804 0.017060   CAP04403 0.005210
    X0080104 CAP04904 0.004310   CAP04304 0.005760
    X0080104 CAP04003 0.016210   CAP03703 0.033040
    X0080104 CAP04404 0.012860   CAP04204 0.023930
    X0080104 CAP04104 0.000500   CAP03304 0.002550
    X0080104 CAP05404 0.010890   CAP03303 0.015540
    X0080104 CAP05104 0.004390   CAP04504 0.016880
    X0080104 CAP05304 0.005910   CAP04103 0.012170
    X0080104 CAP04004 0.025560   CAP04604 0.001040
    X0080104 CAP03403 0.025580   CAP03803 0.027330
    X0080104 I0050104 143.000000   CAP05103 0.013200
    X0080104 CAP05303 0.011480   CAP04503 0.022520
    X0080104 CAP05003 0.016330   CAP04903 0.013930
    X0080104 CAP05403 0.007860   CAP04703 0.010040
    X0080104 CAP04603 0.015930
    X0080105 CAP05305 0.006340   CAP04104 0.011720
    X0080105 CAP05405 0.011180   CAP05104 0.012710
    X0080105 CAP04105 0.000950   CAP03305 0.003130
    X0080105 CAP03705 0.004850   CAP04605 0.001630
    X0080105 CAP04305 0.006780   CAP05105 0.004880
    X0080105 CAP04504 0.021690   CAP04505 0.017720
    X0080105 CAP05304 0.011060   CAP05404 0.007570
    X0080105 CAP03304 0.014960   CAP04604 0.015340
    X0080105 CAP03404 0.024640   CAP04005 0.026160
    X0080105 CAP04905 0.004830   CAP04204 0.010840
    X0080105 CAP04004 0.015610   CAP05005 0.007450
    X0080105 CAP03805 0.018070   CAP04304 0.026420
    X0080105 CAP04904 0.013410   CAP04705 0.016200
    X0080105 CAP03405 0.032870   CAP05004 0.015730
    X0080105 I0050105 143.000000   CAP04205 0.024350
    X0080105 CAP04405 0.013060   CAP03704 0.031810
    X0080105 CAP04704 0.009670   CAP03804 0.026320
    X0080105 CAP04404 0.005020
    X0080106 CAP05406 0.018750   CAP04406 0.018080
    X0080106 CAP04005 0.016860   CAP05106 0.017590
    X0080106 CAP03806 0.044390   CAP05405 0.008170
    X0080106 CAP03406 0.057510   CAP03306 0.018090
    X0080106 CAP04505 0.023420   CAP04906 0.018240
    X0080106 CAP03805 0.028430   CAP03706 0.036660
    X0080106 CAP05006 0.023180   CAP04506 0.039400
    X0080106 CAP05005 0.016990   CAP04206 0.035190
    X0080106 CAP03705 0.034360   CAP05105 0.013730
    X0080106 CAP04306 0.033190   CAP04106 0.012670
    X0080106 CAP04606 0.016960   CAP03405 0.026610
    X0080106 CAP03305 0.016160   CAP04405 0.005420
    X0080106 CAP04105 0.012660   CAP04706 0.025860
    X0080106 CAP05306 0.017400   CAP04705 0.010440
    X0080106 CAP04205 0.011710   CAP04305 0.028530
    X0080106 CAP05305 0.011940   CAP04905 0.014480
    X0080106 CAP04006 0.041770   CAP04605 0.016560
    X0080202 CAP03402 0.029790   CAP05301 0.012440
    X0080202 I0050102 14.299990   CAP03401 0.027720
    X0080202 CAP04201 0.012200   CAP04202 0.022990
    X0080202 CAP04701 0.010870   I0050202 128.699980
    X0080202 CAP05002 0.005490   CAP05302 0.004960
    X0080202 CAP05401 0.008510   CAP04001 0.017560
    X0080202 CAP04902 0.003150   CAP04401 0.005650
    X0080202 CAP03801 0.029610   CAP04101 0.012670
    X0080202 CAP05102 0.003290   CAP05402 0.010230
    X0080202 CAP04601 0.016960   CAP04502 0.015010
    X0080202 CAP04501 0.024400   CAP04302 0.003470
    X0080202 CAP04002 0.024210   CAP03702 0.000870
    X0080202 CAP03302 0.001330   CAP04402 0.012430
    X0080202 CAP03701 0.035790   CAP04901 0.015090
    X0080202 CAP04301 0.029720   CAP05101 0.014300
    X0080202 CAP03301 0.016760   CAP05001 0.017690
    X0080202 CAP03802 0.014780   CAP04702 0.014990
    X0080203 CAP05303 0.005910   I0050203 128.699980
    X0080203 CAP03403 0.031920   CAP04102 0.011700
    X0080203 CAP05403 0.010890   CAP03802 0.027330
    X0080203 CAP03702 0.033040   CAP05102 0.013200
    X0080203 CAP05003 0.006850   CAP04203 0.023930
    X0080203 CAP05302 0.011480   CAP05402 0.007860
    X0080203 CAP04403 0.012860   CAP04101 0.000470
    X0080203 CAP04503 0.016880   CAP04303 0.005760
    X0080203 CAP05103 0.004390   CAP03402 0.025580
    X0080203 CAP04302 0.027430   CAP03303 0.002550
    X0080203 CAP04702 0.010040   CAP04402 0.005210
    X0080203 CAP04602 0.015660   CAP04703 0.015830
    X0080203 CAP04502 0.022520   CAP04202 0.011260
    X0080203 CAP04003 0.025560   CAP03301 0.000060
    X0080203 I0050103 14.299990   CAP04601 0.000270
    X0080203 CAP05002 0.016330   CAP04902 0.013930
    X0080203 CAP03703 0.003620   CAP04103 0.000500
    X0080203 CAP03803 0.017060   CAP04002 0.016210
    X0080203 CAP03302 0.015480   CAP04603 0.001040
    X0080203 CAP04903 0.004310
    X0080204 CAP05004 0.006850   CAP04904 0.004310
    X0080204 CAP04404 0.012860   CAP03303 0.015540
    X0080204 CAP04304 0.005760   CAP05404 0.010890
    X0080204 CAP04004 0.025560   CAP05303 0.011480
    X0080204 CAP04704 0.015830   CAP04504 0.016880
    X0080204 CAP04104 0.000500   CAP04204 0.023930
    X0080204 CAP05104 0.004390   CAP05403 0.007860
    X0080204 CAP05304 0.005910   CAP04604 0.001040
    X0080204 CAP03704 0.003620   CAP04003 0.016210
    X0080204 CAP05003 0.016330   CAP04403 0.005210
    X0080204 CAP03404 0.031920   CAP03403 0.025580
    X0080204 CAP04603 0.015930   CAP04203 0.011260
    X0080204 CAP04303 0.027430   CAP04103 0.012170
    X0080204 CAP03304 0.002550   CAP04903 0.013930
    X0080204 CAP04503 0.022520   CAP03703 0.033040
    X0080204 I0050104 14.299990   CAP04703 0.010040
    X0080204 CAP03803 0.027330   CAP03804 0.017060
    X0080204 CAP05103 0.013200   I0050204 128.699980
    X0080205 CAP04905 0.004830   CAP04405 0.013060
    X0080205 CAP04604 0.015340   CAP04704 0.009670
    X0080205 CAP05004 0.015730   CAP03304 0.014960
    X0080205 CAP04705 0.016200   CAP04005 0.026160
    X0080205 CAP05405 0.011180   CAP04304 0.026420
    X0080205 CAP04204 0.010840   CAP03804 0.026320
    X0080205 I0050205 128.699980   CAP05404 0.007570
    X0080205 CAP05005 0.007450   CAP03805 0.018070
    X0080205 CAP04404 0.005020   I0050105 14.299990
    X0080205 CAP03705 0.004850   CAP05104 0.012710
    X0080205 CAP05305 0.006340   CAP03404 0.024640
    X0080205 CAP03305 0.003130   CAP05105 0.004880
    X0080205 CAP05304 0.011060   CAP04904 0.013410
    X0080205 CAP04004 0.015610   CAP04504 0.021690
    X0080205 CAP04104 0.011720   CAP04205 0.024350
    X0080205 CAP04305 0.006780   CAP04105 0.000950
    X0080205 CAP03405 0.032870   CAP03704 0.031810
    X0080205 CAP04605 0.001630   CAP04505 0.017720
    X0080206 CAP05006 0.023180   CAP03705 0.034360
    X0080206 CAP03305 0.016160   CAP03706 0.036660
    X0080206 CAP04905 0.014480   CAP05106 0.017590
    X0080206 CAP04006 0.041770   CAP04406 0.018080
    X0080206 CAP03806 0.044390   CAP04306 0.033190
    X0080206 CAP04605 0.016560   CAP04206 0.035190
    X0080206 CAP03805 0.028430   CAP04506 0.039400
    X0080206 CAP03405 0.026610   CAP05305 0.011940
    X0080206 CAP04705 0.010440   CAP05105 0.013730
    X0080206 CAP05406 0.018750   CAP04606 0.016960
    X0080206 CAP05306 0.017400   CAP04105 0.012660
    X0080206 CAP04706 0.025860   CAP04405 0.005420
    X0080206 CAP04305 0.028530   CAP03306 0.018090
    X0080206 CAP04505 0.023420   CAP05405 0.008170
    X0080206 CAP05005 0.016990   CAP04906 0.018240
    X0080206 CAP03406 0.057510   CAP04106 0.012670
    X0080206 CAP04205 0.011710   CAP04005 0.016860
    X0090103 CAP03102 0.005940   CAP02902 0.015930
    X0090103 CAP02703 0.020050   CAP02603 0.028000
    X0090103 CAP02802 0.016640   CAP03002 0.009980
    X0090103 CAP03003 0.010770   CAP02202 0.123490
    X0090103 CAP02103 0.029730   CAP02003 0.000540
    X0090103 CAP03203 0.020770   CAP01903 0.019790
    X0090103 CAP02402 0.013630   CAP02001 0.000790
    X0090103 CAP03103 0.011980   CAP02201 0.000770
    X0090103 CAP02102 0.020410   CAP02501 0.002850
    X0090103 CAP02701 0.005760   CAP03202 0.018310
    X0090103 CAP01902 0.012550   CAP02403 0.008370
    X0090103 CAP02903 0.007190   CAP02203 0.025130
    X0090103 CAP02702 0.110340   CAP02602 0.016080
    X0090103 CAP02002 0.009770   CAP02803 0.003920
    X0090103 CAP02502 0.011870   I0060103 153.000000
    X0090104 I0060104 153.000000   CAP02403 0.013010
    X0090104 CAP02103 0.019480   CAP02203 0.118610
    X0090104 CAP02503 0.012660   CAP01903 0.011980
    X0090104 CAP02003 0.009830   CAP02702 0.003760
    X0090104 CAP02803 0.015890   CAP03004 0.011220
    X0090104 CAP01904 0.020360   CAP02903 0.015200
    X0090104 CAP03003 0.009530   CAP02704 0.024090
    X0090104 CAP02502 0.002050   CAP02004 0.000770
    X0090104 CAP03103 0.005670   CAP02904 0.007910
    X0090104 CAP03203 0.017480   CAP03204 0.021600
    X0090104 CAP02104 0.030660   CAP02604 0.028730
    X0090104 CAP02002 0.000500   CAP02204 0.030780
    X0090104 CAP02404 0.008990   CAP03104 0.012250
    X0090104 CAP02804 0.004670   CAP02603 0.015350
    X0090104 CAP02703 0.108300
    X0090105 CAP02705 0.024090   CAP02503 0.001380
    X0090105 CAP03004 0.009530   CAP02104 0.019480
    X0090105 CAP01904 0.011980   CAP03005 0.011220
    X0090105 CAP02604 0.015350   CAP02105 0.030660
    X0090105 CAP03205 0.021600   I0060105 153.000000
    X0090105 CAP03104 0.005670   CAP02003 0.000250
    X0090105 CAP02805 0.004670   CAP02804 0.015890
    X0090105 CAP02004 0.010090   CAP02704 0.109540
    X0090105 CAP02905 0.007910   CAP03204 0.017480
    X0090105 CAP02005 0.000770   CAP02205 0.030780
    X0090105 CAP01905 0.020360   CAP02904 0.015200
    X0090105 CAP03105 0.012250   CAP02204 0.118610
    X0090105 CAP02405 0.008990   CAP02605 0.028730
    X0090105 CAP02404 0.013010   CAP02703 0.002530
    X0090105 CAP02504 0.013330
    X0090106 CAP02905 0.015930   CAP02005 0.010830
    X0090106 CAP02405 0.013630   CAP03205 0.018310
    X0090106 CAP02106 0.050140   CAP03106 0.017930
    X0090106 CAP02505 0.015420   I0060106 153.000000
    X0090106 CAP02206 0.149390   CAP03006 0.020750
    X0090106 CAP02606 0.044080   CAP01905 0.012550
    X0090106 CAP02805 0.016640   CAP02504 0.001450
    X0090106 CAP02004 0.000260   CAP02006 0.011100
    X0090106 CAP02205 0.124250   CAP03105 0.005940
    X0090106 CAP02105 0.020410   CAP03206 0.039080
    X0090106 CAP02605 0.016080   CAP02406 0.022010
    X0090106 CAP03005 0.009980   CAP02704 0.002650
    X0090106 CAP02706 0.136160   CAP02806 0.020560
    X0090106 CAP02705 0.117400   CAP01906 0.032340
    X0090106 CAP02906 0.023120   CAP02506 0.014720
    X0090203 CAP02603 0.028000   CAP01902 0.012550
    X0090203 CAP02002 0.009770   CAP01903 0.019790
    X0090203 I0060203 137.699980   CAP03203 0.020770
    X0090203 CAP02701 0.005760   I0060103 15.299990
    X0090203 CAP02202 0.123490   CAP02102 0.020410
    X0090203 CAP02003 0.000540   CAP03202 0.018310
    X0090203 CAP02501 0.002850   CAP02502 0.011870
    X0090203 CAP02403 0.008370   CAP02803 0.003920
    X0090203 CAP02902 0.015930   CAP02802 0.016640
    X0090203 CAP03102 0.005940   CAP02703 0.020050
    X0090203 CAP02203 0.025130   CAP03003 0.010770
    X0090203 CAP02903 0.007190   CAP02602 0.016080
    X0090203 CAP02702 0.110340   CAP02201 0.000770
    X0090203 CAP02001 0.000790   CAP02402 0.013630
    X0090203 CAP02103 0.029730   CAP03002 0.009980
    X0090203 CAP03103 0.011980
    X0090204 CAP02103 0.019480   CAP02404 0.008990
    X0090204 I0060104 15.299990   CAP02604 0.028730
    X0090204 CAP02002 0.000500   CAP02703 0.108300
    X0090204 CAP02702 0.003760   CAP02803 0.015890
    X0090204 CAP01904 0.020360   CAP02503 0.012660
    X0090204 CAP02204 0.030780   CAP02203 0.118610
    X0090204 CAP02904 0.007910   CAP01903 0.011980
    X0090204 CAP02704 0.024090   CAP03204 0.021600
    X0090204 CAP02004 0.000770   CAP02804 0.004670
    X0090204 CAP02603 0.015350   CAP02502 0.002050
    X0090204 CAP03104 0.012250   CAP02003 0.009830
    X0090204 CAP03103 0.005670   CAP03003 0.009530
    X0090204 CAP03203 0.017480   CAP02403 0.013010
    X0090204 CAP02104 0.030660   CAP03004 0.011220
    X0090204 I0060204 137.699980   CAP02903 0.015200
    X0090205 CAP02805 0.004670   CAP02404 0.013010
    X0090205 CAP03104 0.005670   CAP03105 0.012250
    X0090205 CAP02605 0.028730   CAP02804 0.015890
    X0090205 CAP03204 0.017480   CAP02905 0.007910
    X0090205 CAP02904 0.015200   CAP02604 0.015350
    X0090205 CAP02504 0.013330   CAP03004 0.009530
    X0090205 CAP02704 0.109540   CAP02705 0.024090
    X0090205 CAP03005 0.011220   CAP03205 0.021600
    X0090205 I0060105 15.299990   CAP02205 0.030780
    X0090205 CAP02105 0.030660   CAP02104 0.019480
    X0090205 CAP02005 0.000770   CAP02703 0.002530
    X0090205 I0060205 137.699980   CAP01905 0.020360
    X0090205 CAP02004 0.010090   CAP02003 0.000250
    X0090205 CAP01904 0.011980   CAP02405 0.008990
    X0090205 CAP02503 0.001380   CAP02204 0.118610
    X0090206 CAP02704 0.002650   I0060106 15.299990
    X0090206 CAP02004 0.000260   CAP01905 0.012550
    X0090206 CAP01906 0.032340   CAP03206 0.039080
    X0090206 CAP02806 0.020560   CAP02005 0.010830
    X0090206 CAP02805 0.016640   CAP03006 0.020750
    X0090206 CAP02506 0.014720   CAP03205 0.018310
    X0090206 CAP02606 0.044080   CAP02405 0.013630
    X0090206 CAP02505 0.015420   CAP02905 0.015930
    X0090206 I0060206 137.699980   CAP03105 0.005940
    X0090206 CAP02705 0.117400   CAP02106 0.050140
    X0090206 CAP02406 0.022010   CAP02605 0.016080
    X0090206 CAP02205 0.124250   CAP02706 0.136160
    X0090206 CAP03106 0.017930   CAP02504 0.001450
    X0090206 CAP02206 0.149390   CAP02006 0.011100
    X0090206 CAP03005 0.009980   CAP02105 0.020410
    X0090206 CAP02906 0.023120
    X0100102 CAP03302 0.001330   CAP03801 0.029610
    X0100102 CAP03802 0.014780   CAP03701 0.035790
    X0100102 I0060102 143.000000   CAP04502 0.015010
    X0100102 CAP04201 0.012200   CAP03702 0.000870
    X0100102 CAP05001 0.017690   CAP03401 0.027720
    X0100102 CAP03301 0.016760   CAP05002 0.005490
    X0100102 CAP04601 0.016960   CAP05402 0.010230
    X0100102 CAP04501 0.024400   CAP05301 0.012440
    X0100102 CAP04202 0.022990   CAP04001 0.017560
    X0100102 CAP05302 0.004960   CAP04301 0.029720
    X0100102 CAP05401 0.008510   CAP05102 0.003290
    X0100102 CAP03402 0.029790   CAP04902 0.003150
    X0100102 CAP04101 0.012670   CAP05101 0.014300
    X0100102 CAP04702 0.014990   CAP04302 0.003470
    X0100102 CAP04402 0.012430   CAP04901 0.015090
    X0100102 CAP04401 0.005650   CAP04002 0.024210
    X0100102 CAP04701 0.010870
    X0100103 CAP05403 0.010890   CAP04302 0.027430
    X0100103 CAP04603 0.001040   CAP04303 0.005760
    X0100103 CAP04202 0.011260   CAP04503 0.016880
    X0100103 CAP03702 0.033040   CAP04403 0.012860
    X0100103 CAP04703 0.015830   CAP04903 0.004310
    X0100103 CAP04203 0.023930   CAP04601 0.000270
    X0100103 CAP03802 0.027330   CAP04102 0.011700
    X0100103 CAP05003 0.006850   CAP05103 0.004390
    X0100103 CAP04002 0.016210   CAP05303 0.005910
    X0100103 CAP05102 0.013200   CAP04602 0.015660
    X0100103 CAP03803 0.017060   CAP03301 0.000060
    X0100103 CAP05402 0.007860   I0060103 143.000000
    X0100103 CAP03303 0.002550   CAP03703 0.003620
    X0100103 CAP05302 0.011480   CAP04702 0.010040
    X0100103 CAP04902 0.013930   CAP04003 0.025560
    X0100103 CAP04103 0.000500   CAP03402 0.025580
    X0100103 CAP05002 0.016330   CAP03403 0.031920
    X0100103 CAP03302 0.015480   CAP04402 0.005210
    X0100103 CAP04101 0.000470   CAP04502 0.022520
    X0100104 CAP05304 0.005910   CAP03404 0.031920
    X0100104 CAP04503 0.022520   CAP03704 0.003620
    X0100104 CAP04504 0.016880   CAP05404 0.010890
    X0100104 CAP04004 0.025560   CAP04204 0.023930
    X0100104 CAP04304 0.005760   CAP04703 0.010040
    X0100104 CAP04104 0.000500   CAP03303 0.015540
    X0100104 CAP04603 0.015930   CAP04404 0.012860
    X0100104 CAP03804 0.017060   CAP05003 0.016330
    X0100104 I0060104 143.000000   CAP05103 0.013200
    X0100104 CAP03803 0.027330   CAP04303 0.027430
    X0100104 CAP04903 0.013930   CAP04203 0.011260
    X0100104 CAP03703 0.033040   CAP05004 0.006850
    X0100104 CAP05303 0.011480   CAP05104 0.004390
    X0100104 CAP05403 0.007860   CAP04103 0.012170
    X0100104 CAP04904 0.004310   CAP04003 0.016210
    X0100104 CAP04704 0.015830   CAP03304 0.002550
    X0100104 CAP04403 0.005210   CAP03403 0.025580
    X0100104 CAP04604 0.001040
    X0100105 CAP04704 0.009670   CAP04204 0.010840
    X0100105 CAP04504 0.021690   CAP04005 0.026160
    X0100105 CAP04304 0.026420   CAP05405 0.011180
    X0100105 CAP04205 0.024350   CAP04405 0.013060
    X0100105 CAP05304 0.011060   CAP05004 0.015730
    X0100105 CAP04604 0.015340   CAP04105 0.000950
    X0100105 CAP05404 0.007570   CAP04305 0.006780
    X0100105 CAP04404 0.005020   CAP05104 0.012710
    X0100105 CAP04904 0.013410   CAP03405 0.032870
    X0100105 CAP03404 0.024640   CAP03305 0.003130
    X0100105 CAP04605 0.001630   CAP03704 0.031810
    X0100105 CAP05105 0.004880   CAP05005 0.007450
    X0100105 CAP04705 0.016200   CAP03804 0.026320
    X0100105 CAP03304 0.014960   CAP03805 0.018070
    X0100105 CAP03705 0.004850   CAP04004 0.015610
    X0100105 CAP04905 0.004830   CAP04104 0.011720
    X0100105 CAP04505 0.017720   I0060105 143.000000
    X0100105 CAP05305 0.006340
    X0100106 CAP04006 0.041770   CAP04906 0.018240
    X0100106 CAP03306 0.018090   CAP04106 0.012670
    X0100106 CAP05006 0.023180   CAP04305 0.028530
    X0100106 CAP03406 0.057510   CAP03706 0.036660
    X0100106 CAP04905 0.014480   CAP05106 0.017590
    X0100106 CAP03806 0.044390   CAP04606 0.016960
    X0100106 CAP04605 0.016560   CAP04505 0.023420
    X0100106 CAP05405 0.008170   CAP04406 0.018080
    X0100106 CAP04506 0.039400   CAP05105 0.013730
    X0100106 CAP04306 0.033190   CAP04405 0.005420
    X0100106 CAP05005 0.016990   CAP05305 0.011940
    X0100106 CAP05406 0.018750   CAP04206 0.035190
    X0100106 CAP04705 0.010440   CAP04706 0.025860
    X0100106 CAP05306 0.017400   CAP03805 0.028430
    X0100106 CAP03305 0.016160   CAP04205 0.011710
    X0100106 CAP04005 0.016860   CAP03405 0.026610
    X0100106 CAP04105 0.012660   CAP03705 0.034360
    X0100202 I0060102 14.299990   CAP04202 0.022990
    X0100202 CAP04302 0.003470   CAP05401 0.008510
    X0100202 CAP05301 0.012440   CAP03702 0.000870
    X0100202 CAP04401 0.005650   CAP05001 0.017690
    X0100202 CAP03301 0.016760   CAP05101 0.014300
    X0100202 CAP04301 0.029720   CAP05302 0.004960
    X0100202 CAP03302 0.001330   CAP03701 0.035790
    X0100202 CAP04101 0.012670   CAP03401 0.027720
    X0100202 CAP03402 0.029790   CAP05402 0.010230
    X0100202 CAP05102 0.003290   CAP04402 0.012430
    X0100202 CAP05002 0.005490   CAP04902 0.003150
    X0100202 CAP04702 0.014990   I0060202 128.699980
    X0100202 CAP04502 0.015010   CAP04001 0.017560
    X0100202 CAP04201 0.012200   CAP03802 0.014780
    X0100202 CAP03801 0.029610   CAP04701 0.010870
    X0100202 CAP04501 0.024400   CAP04601 0.016960
    X0100202 CAP04901 0.015090   CAP04002 0.024210
    X0100203 CAP04702 0.010040   CAP04902 0.013930
    X0100203 CAP04002 0.016210   CAP05103 0.004390
    X0100203 CAP03303 0.002550   CAP04602 0.015660
    X0100203 CAP04502 0.022520   CAP05003 0.006850
    X0100203 CAP04402 0.005210   CAP04903 0.004310
    X0100203 CAP03301 0.000060   CAP05002 0.016330
    X0100203 CAP05302 0.011480   CAP04101 0.000470
    X0100203 CAP03302 0.015480   CAP05303 0.005910
    X0100203 CAP05403 0.010890   CAP05402 0.007860
    X0100203 CAP04601 0.000270   I0060103 14.299990
    X0100203 CAP05102 0.013200   CAP03802 0.027330
    X0100203 I0060203 128.699980   CAP04302 0.027430
    X0100203 CAP03402 0.025580   CAP04303 0.005760
    X0100203 CAP04203 0.023930   CAP04403 0.012860
    X0100203 CAP03703 0.003620   CAP03702 0.033040
    X0100203 CAP04103 0.000500   CAP04003 0.025560
    X0100203 CAP03403 0.031920   CAP04503 0.016880
    X0100203 CAP04603 0.001040   CAP04703 0.015830
    X0100203 CAP04102 0.011700   CAP04202 0.011260
    X0100203 CAP03803 0.017060
    X0100204 CAP03803 0.027330   CAP04304 0.005760
    X0100204 CAP04403 0.005210   CAP04003 0.016210
    X0100204 CAP05403 0.007860   I0060204 128.699980
    X0100204 CAP04404 0.012860   CAP04703 0.010040
    X0100204 CAP05104 0.004390   CAP04303 0.027430
    X0100204 CAP04203 0.011260   CAP05303 0.011480
    X0100204 CAP05404 0.010890   CAP05304 0.005910
    X0100204 CAP04103 0.012170   CAP04504 0.016880
    X0100204 CAP05004 0.006850   CAP04904 0.004310
    X0100204 CAP04704 0.015830   CAP04604 0.001040
    X0100204 CAP04204 0.023930   CAP03704 0.003620
    X0100204 CAP05003 0.016330   CAP03404 0.031920
    X0100204 CAP03303 0.015540   CAP03804 0.017060
    X0100204 CAP04603 0.015930   CAP03304 0.002550
    X0100204 CAP03403 0.025580   CAP04903 0.013930
    X0100204 CAP05103 0.013200   I0060104 14.299990
    X0100204 CAP03703 0.033040   CAP04004 0.025560
    X0100204 CAP04104 0.000500   CAP04503 0.022520
    X0100205 CAP03404 0.024640   CAP04104 0.011720
    X0100205 CAP05404 0.007570   CAP03704 0.031810
    X0100205 CAP05304 0.011060   CAP04204 0.010840
    X0100205 CAP05104 0.012710   CAP04404 0.005020
    X0100205 CAP04304 0.026420   CAP05004 0.015730
    X0100205 CAP04004 0.015610   CAP04904 0.013410
    X0100205 CAP03304 0.014960   CAP04704 0.009670
    X0100205 CAP04604 0.015340   CAP04504 0.021690
    X0100205 CAP03804 0.026320   CAP04305 0.006780
    X0100205 I0060205 128.699980   CAP05305 0.006340
    X0100205 CAP05405 0.011180   CAP03805 0.018070
    X0100205 CAP05005 0.007450   CAP04005 0.026160
    X0100205 CAP04205 0.024350   CAP04605 0.001630
    X0100205 CAP03705 0.004850   CAP04505 0.017720
    X0100205 CAP04905 0.004830   CAP05105 0.004880
    X0100205 CAP03305 0.003130   CAP04405 0.013060
    X0100205 I0060105 14.299990   CAP03405 0.032870
    X0100205 CAP04705 0.016200   CAP04105 0.000950
    X0100206 CAP04306 0.033190   CAP04206 0.035190
    X0100206 CAP04005 0.016860   CAP05305 0.011940
    X0100206 CAP04406 0.018080   CAP04405 0.005420
    X0100206 CAP04905 0.014480   CAP03405 0.026610
    X0100206 CAP03406 0.057510   CAP04705 0.010440
    X0100206 CAP03305 0.016160   CAP03706 0.036660
    X0100206 CAP04605 0.016560   CAP03705 0.034360
    X0100206 CAP04505 0.023420   CAP03806 0.044390
    X0100206 CAP04006 0.041770   CAP05005 0.016990
    X0100206 CAP03805 0.028430   CAP04106 0.012670
    X0100206 CAP05105 0.013730   CAP03306 0.018090
    X0100206 CAP05406 0.018750   CAP04706 0.025860
    X0100206 CAP04205 0.011710   CAP05106 0.017590
    X0100206 CAP04305 0.028530   CAP05405 0.008170
    X0100206 CAP05006 0.023180   CAP04606 0.016960
    X0100206 CAP04105 0.012660   CAP04506 0.039400
    X0100206 CAP04906 0.018240   CAP05306 0.017400
    X0110103 CAP03303 0.003760   CAP03902 0.009690
    X0110103 CAP05703 0.024340   CAP04402 0.004960
    X0110103 CAP04602 0.014780   CAP03301 0.000930
    X0110103 CAP05603 0.012080   CAP03302 0.019620
    X0110103 CAP04202 0.009780   CAP03503 0.034770
    X0110103 CAP03702 0.025100   CAP03403 0.048540
    X0110103 CAP05303 0.019770   CAP04101 0.002030
    X0110103 CAP03803 0.022700   CAP04301 0.000120
    X0110103 CAP05403 0.012470   CAP03903 0.007900
    X0110103 CAP04302 0.029080   CAP05501 0.002290
    X0110103 CAP04203 0.024400   CAP03502 0.014630
    X0110103 CAP05302 0.018220   CAP04403 0.012990
    X0110103 CAP05402 0.005420   CAP05502 0.012590
    X0110103 I0070103 424.000000   CAP05602 0.022660
    X0110103 CAP05802 0.019360   CAP05103 0.005390
    X0110103 CAP05702 0.010240   CAP04601 0.002580
    X0110103 CAP05902 0.014550   CAP04303 0.003960
    X0110103 CAP03402 0.031300   CAP05903 0.020550
    X0110103 CAP03802 0.019450   CAP03701 0.002600
    X0110103 CAP04102 0.011160   CAP05803 0.016770
    X0110103 CAP05102 0.008620
    X0110104 CAP04603 0.016120   CAP03702 0.000470
    X0110104 CAP03703 0.027230   CAP05303 0.018220
    X0110104 CAP04403 0.004960   CAP04303 0.029200
    X0110104 CAP04203 0.009780   CAP05703 0.010240
    X0110104 CAP04103 0.012180   CAP05803 0.019360
    X0110104 CAP05603 0.022660   CAP05903 0.014550
    X0110104 CAP03803 0.019450   CAP05503 0.013740
    X0110104 CAP04102 0.001010   CAP03903 0.009690
    X0110104 CAP05103 0.008620   CAP05403 0.005420
    X0110104 I0070104 424.000000   CAP05604 0.012080
    X0110104 CAP04404 0.012990   CAP03904 0.007900
    X0110104 CAP03804 0.022700   CAP03404 0.048540
    X0110104 CAP05502 0.001140   CAP03504 0.034770
    X0110104 CAP04304 0.003960   CAP04602 0.001250
    X0110104 CAP03302 0.000450   CAP05704 0.024340
    X0110104 CAP03303 0.020100   CAP05404 0.012470
    X0110104 CAP03304 0.003760   CAP05804 0.016770
    X0110104 CAP05304 0.019770   CAP04204 0.024400
    X0110104 CAP03403 0.031300   CAP03503 0.014630
    X0110104 CAP05104 0.005390   CAP05904 0.020550
    X0110105 CAP03905 0.008260   CAP04304 0.028120
    X0110105 CAP05604 0.021820   CAP04204 0.009420
    X0110105 CAP05105 0.005710   CAP05905 0.021090
    X0110105 I0070105 424.000000   CAP05404 0.005220
    X0110105 CAP05104 0.008300   CAP04405 0.013170
    X0110105 CAP05304 0.017550   CAP05904 0.014010
    X0110105 CAP05504 0.013780   CAP04404 0.004770
    X0110105 CAP04603 0.001200   CAP05305 0.020440
    X0110105 CAP04604 0.016160   CAP05405 0.012670
    X0110105 CAP03405 0.049700   CAP04104 0.012210
    X0110105 CAP04205 0.024760   CAP03303 0.000430
    X0110105 CAP05704 0.009860   CAP03704 0.026680
    X0110105 CAP05605 0.012920   CAP03504 0.014090
    X0110105 CAP03404 0.030140   CAP03505 0.035310
    X0110105 CAP03305 0.004290   CAP03703 0.000450
    X0110105 CAP03304 0.019580   CAP05705 0.024720
    X0110105 CAP04305 0.005040   CAP05503 0.001100
    X0110105 CAP04103 0.000980   CAP05805 0.017490
    X0110105 CAP03804 0.018730   CAP03705 0.000570
    X0110105 CAP03904 0.009330   CAP05804 0.018640
    X0110105 CAP03805 0.023420
    X0110106 CAP05306 0.037990   CAP05605 0.023560
    X0110106 CAP04606 0.017360   CAP05505 0.016070
    X0110106 CAP04205 0.010170   CAP05405 0.005640
    X0110106 CAP05106 0.014010   CAP04305 0.030370
    X0110106 CAP05504 0.000600   CAP05705 0.010650
    X0110106 I0070106 424.000000   CAP05805 0.020130
    X0110106 CAP05905 0.015130   CAP05706 0.034580
    X0110106 CAP04605 0.018750   CAP04105 0.014250
    X0110106 CAP04104 0.000530   CAP05906 0.035100
    X0110106 CAP03705 0.029300   CAP03906 0.017590
    X0110106 CAP03806 0.042150   CAP03706 0.027700
    X0110106 CAP03305 0.021620   CAP05806 0.036130
    X0110106 CAP03304 0.000220   CAP03506 0.049400
    X0110106 CAP03406 0.079840   CAP03505 0.015220
    X0110106 CAP03405 0.032550   CAP03306 0.024300
    X0110106 CAP04106 0.013190   CAP04604 0.000600
    X0110106 CAP05406 0.017890   CAP04405 0.005150
    X0110106 CAP05506 0.014880   CAP04406 0.017950
    X0110106 CAP03805 0.020230   CAP05305 0.018950
    X0110106 CAP05606 0.034740   CAP04306 0.033160
    X0110106 CAP05105 0.008970   CAP04206 0.034180
    X0110106 CAP03905 0.010070
    X0120102 CAP04101 0.012960   CAP03701 0.062260
    X0120102 CAP03601 0.034120   CAP04401 0.005740
    X0120102 CAP03301 0.016440   I0080102 26.000000
    X0120102 CAP04301 0.035120   CAP04402 0.012450
    X0120102 CAP05701 0.014180   CAP04302 0.002190
    X0120102 CAP05001 0.011200   CAP05602 0.006160
    X0120102 CAP05101 0.024320   CAP05201 0.021210
    X0120102 CAP05401 0.007360   CAP05601 0.036700
    X0120102 CAP05801 0.028290   CAP04901 0.014770
    X0120102 CAP05901 0.019880   CAP05702 0.023670
    X0120102 CAP05802 0.011960   CAP05902 0.019100
    X0120102 CAP03302 0.001770   CAP05402 0.010950
    X0120102 CAP03602 0.016710   CAP04801 0.014150
    X0120102 CAP04601 0.017320   CAP05002 0.005920
    X0120102 CAP05202 0.030670   CAP04902 0.003390
    X0120102 CAP05102 0.005050   CAP04802 0.003850
    X0120103 CAP04303 0.004890   CAP04103 0.000020
    X0120103 CAP05802 0.026110   I0080103 26.000000
    X0120103 CAP05102 0.022450   CAP03702 0.057470
    X0120103 CAP05202 0.019580   CAP03602 0.031490
    X0120103 CAP04403 0.012890   CAP05902 0.018350
    X0120103 CAP04302 0.032420   CAP04802 0.013070
    X0120103 CAP04402 0.005290   CAP05402 0.006790
    X0120103 CAP03603 0.019340   CAP04602 0.015980
    X0120103 CAP04902 0.013640   CAP05702 0.013090
    X0120103 CAP05002 0.010340   CAP03703 0.003970
    X0120103 CAP05602 0.033880   CAP04102 0.011960
    X0120103 CAP03302 0.015180   CAP05203 0.032300
    X0120103 CAP05103 0.006920   CAP04603 0.000370
    X0120103 CAP05003 0.006780   CAP03301 0.000330
    X0120103 CAP05903 0.020630   CAP04101 0.000980
    X0120103 CAP04903 0.004530   CAP05803 0.014130
    X0120103 CAP03303 0.002710   CAP04803 0.004940
    X0120103 CAP05703 0.024760   CAP04601 0.000970
    X0120103 CAP03701 0.000810   CAP05603 0.008980
    X0120103 CAP05403 0.011510
    X0120104 CAP04104 0.000020   CAP03304 0.002710
    X0120104 CAP03303 0.015500   CAP03604 0.019340
    X0120104 CAP03704 0.003970   CAP04604 0.000370
    X0120104 CAP05904 0.020630   I0080104 26.000000
    X0120104 CAP03603 0.031490   CAP05604 0.008980
    X0120104 CAP05704 0.024760   CAP05404 0.011510
    X0120104 CAP05804 0.014130   CAP05204 0.032300
    X0120104 CAP04304 0.004890   CAP05104 0.006920
    X0120104 CAP05004 0.006780   CAP04904 0.004530
    X0120104 CAP04804 0.004940   CAP04404 0.012890
    X0120104 CAP05803 0.026110   CAP05003 0.010340
    X0120104 CAP04403 0.005290   CAP05103 0.022450
    X0120104 CAP05203 0.019580   CAP05903 0.018350
    X0120104 CAP04303 0.032420   CAP04803 0.013070
    X0120104 CAP04603 0.016950   CAP04903 0.013640
    X0120104 CAP05403 0.006790   CAP05703 0.013090
    X0120104 CAP03703 0.058280   CAP05603 0.033880
    X0120104 CAP04103 0.012940
    X0120105 CAP04804 0.012580   CAP05805 0.015100
    X0120105 CAP04904 0.013130   CAP04604 0.016320
    X0120105 CAP05905 0.021310   CAP04104 0.012460
    X0120105 CAP04404 0.005100   CAP04304 0.031220
    X0120105 CAP05705 0.025250   CAP03704 0.056120
    X0120105 CAP03604 0.030330   CAP03304 0.014930
    X0120105 CAP03305 0.003280   CAP04605 0.000990
    X0120105 CAP05704 0.012600   CAP04805 0.005420
    X0120105 CAP05804 0.025150   CAP05904 0.017670
    X0120105 CAP04405 0.013090   CAP05004 0.009960
    X0120105 CAP04305 0.006090   CAP04105 0.000500
    X0120105 CAP03705 0.006130   CAP03605 0.020500
    X0120105 CAP04905 0.005030   CAP05604 0.032620
    X0120105 CAP05605 0.010240   CAP05104 0.021610
    X0120105 CAP05204 0.018860   CAP05405 0.011760
    X0120105 CAP05205 0.033030   I0080105 26.000000
    X0120105 CAP05105 0.007760   CAP05005 0.007170
    X0120105 CAP05404 0.006540
    X0120106 CAP05206 0.051890   CAP04306 0.037310
    X0120106 CAP03306 0.018210   CAP03606 0.050830
    X0120106 CAP03706 0.062260   CAP05906 0.038980
    X0120106 CAP05806 0.040250   CAP04106 0.012960
    X0120106 CAP05706 0.037850   CAP05606 0.042860
    X0120106 CAP05905 0.019080   CAP04406 0.018180
    X0120106 CAP05406 0.018310   CAP04606 0.017320
    X0120106 CAP04806 0.018000   CAP04906 0.018170
    X0120106 CAP05006 0.017130   CAP05106 0.029370
    X0120106 CAP05805 0.027160   CAP04805 0.013590
    X0120106 CAP03305 0.016120   CAP03605 0.032750
    X0120106 CAP03705 0.060610   CAP04105 0.013460
    X0120106 CAP04305 0.033720   CAP04405 0.005510
    X0120106 CAP04605 0.017630   CAP04905 0.014180
    X0120106 CAP05005 0.010760   CAP05105 0.023340
    X0120106 CAP05205 0.020370   CAP05405 0.007070
    X0120106 CAP05605 0.035230   CAP05705 0.013610
    I0010101 I0010101 -1.000000   I0010102 1.000000
    I0010101 OBJECTIV 100.080000
    I0010102 I0010102 -1.000000   I0010103 1.000000
    I0010102 OBJECTIV 100.080000
    I0010103 OBJECTIV 100.080000   I0010104 1.000000
    I0010103 I0010103 -1.000000
    I0010104 I0010105 1.000000   I0010104 -1.000000
    I0010104 OBJECTIV 100.080000
    I0010105 I0010105 -1.000000   I0010106 1.000000
    I0010105 OBJECTIV 100.080000
    I0010106 OBJECTIV 100.080000   I0010106 -1.000000
    I0020101 OBJECTIV 100.080000   I0020102 1.000000
    I0020101 I0020101 -1.000000
    I0020102 OBJECTIV 100.080000   I0020102 -1.000000
    I0020102 I0020103 1.000000
    I0020103 I0020103 -1.000000   OBJECTIV 100.080000
    I0020103 I0020104 1.000000
    I0020104 I0020105 1.000000   I0020104 -1.000000
    I0020104 OBJECTIV 100.080000
    I0020105 I0020105 -1.000000   OBJECTIV 100.080000
    I0020105 I0020106 1.000000
    I0020106 OBJECTIV 100.080000   I0020106 -1.000000
    I0030101 I0030102 1.000000   OBJECTIV 100.080000
    I0030101 I0030101 -1.000000
    I0030102 I0030103 1.000000   OBJECTIV 100.080000
    I0030102 I0030102 -1.000000
    I0030103 OBJECTIV 100.080000   I0030104 1.000000
    I0030103 I0030103 -1.000000
    I0030104 I0030104 -1.000000   OBJECTIV 100.080000
    I0030104 I0030105 1.000000
    I0030105 I0030105 -1.000000   OBJECTIV 100.080000
    I0030105 I0030106 1.000000
    I0030106 I0030106 -1.000000   OBJECTIV 100.080000
    I0040101 I0040101 -1.000000   OBJECTIV 100.080000
    I0040101 I0040102 1.000000
    I0040102 I0040102 -1.000000   OBJECTIV 100.080000
    I0040102 I0040103 1.000000
    I0040103 I0040104 1.000000   I0040103 -1.000000
    I0040103 OBJECTIV 100.080000
    I0040104 I0040105 1.000000   OBJECTIV 100.080000
    I0040104 I0040104 -1.000000
    I0040105 OBJECTIV 100.080000   I0040106 1.000000
    I0040105 I0040105 -1.000000
    I0040106 OBJECTIV 100.080000   I0040106 -1.000000
    I0050101 I0050101 -1.000000   I0050102 1.000000
    I0050101 OBJECTIV 100.080000
    I0050102 I0050102 -1.000000   OBJECTIV 100.080000
    I0050102 I0050103 1.000000
    I0050103 OBJECTIV 100.080000   I0050103 -1.000000
    I0050103 I0050104 1.000000
    I0050104 I0050105 1.000000   I0050104 -1.000000
    I0050104 OBJECTIV 100.080000
    I0050105 I0050105 -1.000000   I0050106 1.000000
    I0050105 OBJECTIV 100.080000
    I0050106 I0050106 -1.000000   OBJECTIV 100.080000
    I0050201 OBJECTIV 100.080000   I0050201 -1.000000
    I0050201 I0050202 1.000000
    I0050202 OBJECTIV 100.080000   I0050202 -1.000000
    I0050202 I0050203 1.000000
    I0050203 OBJECTIV 100.080000   I0050204 1.000000
    I0050203 I0050203 -1.000000
    I0050204 I0050204 -1.000000   OBJECTIV 100.080000
    I0050204 I0050205 1.000000
    I0050205 I0050205 -1.000000   OBJECTIV 100.080000
    I0050205 I0050206 1.000000
    I0050206 I0050206 -1.000000   OBJECTIV 100.080000
    I0060101 I0060102 1.000000   I0060101 -1.000000
    I0060101 OBJECTIV 100.080000
    I0060102 I0060102 -1.000000   OBJECTIV 100.080000
    I0060102 I0060103 1.000000
    I0060103 I0060104 1.000000   I0060103 -1.000000
    I0060103 OBJECTIV 100.080000
    I0060104 I0060105 1.000000   OBJECTIV 100.080000
    I0060104 I0060104 -1.000000
    I0060105 OBJECTIV 100.080000   I0060106 1.000000
    I0060105 I0060105 -1.000000
    I0060106 OBJECTIV 100.080000   I0060106 -1.000000
    I0060201 I0060202 1.000000   OBJECTIV 100.080000
    I0060201 I0060201 -1.000000
    I0060202 I0060203 1.000000   OBJECTIV 100.080000
    I0060202 I0060202 -1.000000
    I0060203 I0060203 -1.000000   I0060204 1.000000
    I0060203 OBJECTIV 100.080000
    I0060204 I0060205 1.000000   OBJECTIV 100.080000
    I0060204 I0060204 -1.000000
    I0060205 I0060206 1.000000   OBJECTIV 100.080000
    I0060205 I0060205 -1.000000
    I0060206 OBJECTIV 100.080000   I0060206 -1.000000
    I0070101 I0070101 -1.000000   I0070102 1.000000
    I0070101 OBJECTIV 100.080000
    I0070102 I0070103 1.000000   OBJECTIV 100.080000
    I0070102 I0070102 -1.000000
    I0070103 I0070103 -1.000000   I0070104 1.000000
    I0070103 OBJECTIV 100.080000
    I0070104 I0070104 -1.000000   I0070105 1.000000
    I0070104 OBJECTIV 100.080000
    I0070105 OBJECTIV 100.080000   I0070105 -1.000000
    I0070105 I0070106 1.000000
    I0070106 I0070106 -1.000000   OBJECTIV 100.080000
    I0080101 OBJECTIV 100.080000   I0080101 -1.000000
    I0080101 I0080102 1.000000
    I0080102 OBJECTIV 100.080000   I0080102 -1.000000
    I0080102 I0080103 1.000000
    I0080103 OBJECTIV 100.080000   I0080103 -1.000000
    I0080103 I0080104 1.000000
    I0080104 I0080105 1.000000   OBJECTIV 100.080000
    I0080104 I0080104 -1.000000
    I0080105 I0080105 -1.000000   OBJECTIV 100.080000
    I0080105 I0080106 1.000000
    I0080106 I0080106 -1.000000   OBJECTIV 100.080000
    SLACK25011 CAP00101 1.000000
    SLACK25012 CAP00201 1.000000
    SLACK25013 CAP00301 1.000000
    SLACK25014 CAP00401 1.000000
    SLACK25015 CAP00501 1.000000
    SLACK25016 CAP00601 1.000000
    SLACK25017 CAP00701 1.000000
    SLACK25018 CAP00801 1.000000
    SLACK25019 CAP00901 1.000000
    SLACK25020 CAP01001 1.000000
    SLACK25021 CAP01101 1.000000
    SLACK25022 CAP01201 1.000000
    SLACK25023 CAP01301 1.000000
    SLACK25024 CAP01401 1.000000
    SLACK25025 CAP01501 1.000000
    SLACK25026 CAP01601 1.000000
    SLACK25027 CAP01701 1.000000
    SLACK25028 CAP01801 1.000000
    SLACK25029 CAP02001 1.000000
    SLACK25030 CAP02201 1.000000
    SLACK25031 CAP02501 1.000000
    SLACK25032 CAP02701 1.000000
    SLACK25033 CAP03101 1.000000
    SLACK25034 CAP03301 1.000000
    SLACK25035 CAP03401 1.000000
    SLACK25036 CAP03601 1.000000
    SLACK25037 CAP03701 1.000000
    SLACK25038 CAP03801 1.000000
    SLACK25039 CAP04001 1.000000
    SLACK25040 CAP04101 1.000000
    SLACK25041 CAP04201 1.000000
    SLACK25042 CAP04301 1.000000
    SLACK25043 CAP04401 1.000000
    SLACK25044 CAP04501 1.000000
    SLACK25045 CAP04601 1.000000
    SLACK25046 CAP04701 1.000000
    SLACK25047 CAP04801 1.000000
    SLACK25048 CAP04901 1.000000
    SLACK25049 CAP05001 1.000000
    SLACK25050 CAP05101 1.000000
    SLACK25051 CAP05201 1.000000
    SLACK25052 CAP05301 1.000000
    SLACK25053 CAP05401 1.000000
    SLACK25054 CAP05501 1.000000
    SLACK25055 CAP05601 1.000000
    SLACK25056 CAP05701 1.000000
    SLACK25057 CAP05801 1.000000
    SLACK25058 CAP05901 1.000000
    SLACK25059 CAP06001 1.000000
    SLACK25060 CAP06101 1.000000
    SLACK25061 CAP06201 1.000000
    SLACK25062 CAP06301 1.000000
    SLACK25063 CAP06501 1.000000
    SLACK25064 CAP00102 1.000000
    SLACK25065 CAP00202 1.000000
    SLACK25066 CAP00302 1.000000
    SLACK25067 CAP00402 1.000000
    SLACK25068 CAP00502 1.000000
    SLACK25069 CAP00602 1.000000
    SLACK25070 CAP00702 1.000000
    SLACK25071 CAP00802 1.000000
    SLACK25072 CAP00902 1.000000
    SLACK25073 CAP01002 1.000000
    SLACK25074 CAP01102 1.000000
    SLACK25075 CAP01202 1.000000
    SLACK25076 CAP01302 1.000000
    SLACK25077 CAP01402 1.000000
    SLACK25078 CAP01502 1.000000
    SLACK25079 CAP01602 1.000000
    SLACK25080 CAP01702 1.000000
    SLACK25081 CAP01802 1.000000
    SLACK25082 CAP01902 1.000000
    SLACK25083 CAP02002 1.000000
    SLACK25084 CAP02102 1.000000
    SLACK25085 CAP02202 1.000000
    SLACK25086 CAP02302 1.000000
    SLACK25087 CAP02402 1.000000
    SLACK25088 CAP02502 1.000000
    SLACK25089 CAP02602 1.000000
    SLACK25090 CAP02702 1.000000
    SLACK25091 CAP02802 1.000000
    SLACK25092 CAP02902 1.000000
    SLACK25093 CAP03002 1.000000
    SLACK25094 CAP03102 1.000000
    SLACK25095 CAP03202 1.000000
    SLACK25096 CAP03302 1.000000
    SLACK25097 CAP03402 1.000000
    SLACK25098 CAP03502 1.000000
    SLACK25099 CAP03602 1.000000
    SLACK25100 CAP03702 1.000000
    SLACK25101 CAP03802 1.000000
    SLACK25102 CAP03902 1.000000
    SLACK25103 CAP04002 1.000000
    SLACK25104 CAP04102 1.000000
    SLACK25105 CAP04202 1.000000
    SLACK25106 CAP04302 1.000000
    SLACK25107 CAP04402 1.000000
    SLACK25108 CAP04502 1.000000
    SLACK25109 CAP04602 1.000000
    SLACK25110 CAP04702 1.000000
    SLACK25111 CAP04802 1.000000
    SLACK25112 CAP04902 1.000000
    SLACK25113 CAP05002 1.000000
    SLACK25114 CAP05102 1.000000
    SLACK25115 CAP05202 1.000000
    SLACK25116 CAP05302 1.000000
    SLACK25117 CAP05402 1.000000
    SLACK25118 CAP05502 1.000000
    SLACK25119 CAP05602 1.000000
    SLACK25120 CAP05702 1.000000
    SLACK25121 CAP05802 1.000000
    SLACK25122 CAP05902 1.000000
    SLACK25123 CAP06002 1.000000
    SLACK25124 CAP06102 1.000000
    SLACK25125 CAP06202 1.000000
    SLACK25126 CAP06302 1.000000
    SLACK25127 CAP06402 1.000000
    SLACK25128 CAP06502 1.000000
    SLACK25129 CAP00103 1.000000
    SLACK25130 CAP00203 1.000000
    SLACK25131 CAP00303 1.000000
    SLACK25132 CAP00403 1.000000
    SLACK25133 CAP00503 1.000000
    SLACK25134 CAP00603 1.000000
    SLACK25135 CAP00703 1.000000
    SLACK25136 CAP00803 1.000000
    SLACK25137 CAP00903 1.000000
    SLACK25138 CAP01003 1.000000
    SLACK25139 CAP01103 1.000000
    SLACK25140 CAP01203 1.000000
    SLACK25141 CAP01303 1.000000
    SLACK25142 CAP01403 1.000000
    SLACK25143 CAP01503 1.000000
    SLACK25144 CAP01603 1.000000
    SLACK25145 CAP01703 1.000000
    SLACK25146 CAP01803 1.000000
    SLACK25147 CAP01903 1.000000
    SLACK25148 CAP02003 1.000000
    SLACK25149 CAP02103 1.000000
    SLACK25150 CAP02203 1.000000
    SLACK25151 CAP02303 1.000000
    SLACK25152 CAP02403 1.000000
    SLACK25153 CAP02503 1.000000
    SLACK25154 CAP02603 1.000000
    SLACK25155 CAP02703 1.000000
    SLACK25156 CAP02803 1.000000
    SLACK25157 CAP02903 1.000000
    SLACK25158 CAP03003 1.000000
    SLACK25159 CAP03103 1.000000
    SLACK25160 CAP03203 1.000000
    SLACK25161 CAP03303 1.000000
    SLACK25162 CAP03403 1.000000
    SLACK25163 CAP03503 1.000000
    SLACK25164 CAP03603 1.000000
    SLACK25165 CAP03703 1.000000
    SLACK25166 CAP03803 1.000000
    SLACK25167 CAP03903 1.000000
    SLACK25168 CAP04003 1.000000
    SLACK25169 CAP04103 1.000000
    SLACK25170 CAP04203 1.000000
    SLACK25171 CAP04303 1.000000
    SLACK25172 CAP04403 1.000000
    SLACK25173 CAP04503 1.000000
    SLACK25174 CAP04603 1.000000
    SLACK25175 CAP04703 1.000000
    SLACK25176 CAP04803 1.000000
    SLACK25177 CAP04903 1.000000
    SLACK25178 CAP05003 1.000000
    SLACK25179 CAP05103 1.000000
    SLACK25180 CAP05203 1.000000
    SLACK25181 CAP05303 1.000000
    SLACK25182 CAP05403 1.000000
    SLACK25183 CAP05503 1.000000
    SLACK25184 CAP05603 1.000000
    SLACK25185 CAP05703 1.000000
    SLACK25186 CAP05803 1.000000
    SLACK25187 CAP05903 1.000000
    SLACK25188 CAP06003 1.000000
    SLACK25189 CAP06103 1.000000
    SLACK25190 CAP06203 1.000000
    SLACK25191 CAP06303 1.000000
    SLACK25192 CAP06403 1.000000
    SLACK25193 CAP06503 1.000000
    SLACK25194 CAP00104 1.000000
    SLACK25195 CAP00204 1.000000
    SLACK25196 CAP00304 1.000000
    SLACK25197 CAP00404 1.000000
    SLACK25198 CAP00504 1.000000
    SLACK25199 CAP00604 1.000000
    SLACK25200 CAP00704 1.000000
    SLACK25201 CAP00804 1.000000
    SLACK25202 CAP00904 1.000000
    SLACK25203 CAP01004 1.000000
    SLACK25204 CAP01104 1.000000
    SLACK25205 CAP01204 1.000000
    SLACK25206 CAP01304 1.000000
    SLACK25207 CAP01404 1.000000
    SLACK25208 CAP01504 1.000000
    SLACK25209 CAP01604 1.000000
    SLACK25210 CAP01704 1.000000
    SLACK25211 CAP01804 1.000000
    SLACK25212 CAP01904 1.000000
    SLACK25213 CAP02004 1.000000
    SLACK25214 CAP02104 1.000000
    SLACK25215 CAP02204 1.000000
    SLACK25216 CAP02304 1.000000
    SLACK25217 CAP02404 1.000000
    SLACK25218 CAP02504 1.000000
    SLACK25219 CAP02604 1.000000
    SLACK25220 CAP02704 1.000000
    SLACK25221 CAP02804 1.000000
    SLACK25222 CAP02904 1.000000
    SLACK25223 CAP03004 1.000000
    SLACK25224 CAP03104 1.000000
    SLACK25225 CAP03204 1.000000
    SLACK25226 CAP03304 1.000000
    SLACK25227 CAP03404 1.000000
    SLACK25228 CAP03504 1.000000
    SLACK25229 CAP03604 1.000000
    SLACK25230 CAP03704 1.000000
    SLACK25231 CAP03804 1.000000
    SLACK25232 CAP03904 1.000000
    SLACK25233 CAP04004 1.000000
    SLACK25234 CAP04104 1.000000
    SLACK25235 CAP04204 1.000000
    SLACK25236 CAP04304 1.000000
    SLACK25237 CAP04404 1.000000
    SLACK25238 CAP04504 1.000000
    SLACK25239 CAP04604 1.000000
    SLACK25240 CAP04704 1.000000
    SLACK25241 CAP04804 1.000000
    SLACK25242 CAP04904 1.000000
    SLACK25243 CAP05004 1.000000
    SLACK25244 CAP05104 1.000000
    SLACK25245 CAP05204 1.000000
    SLACK25246 CAP05304 1.000000
    SLACK25247 CAP05404 1.000000
    SLACK25248 CAP05504 1.000000
    SLACK25249 CAP05604 1.000000
    SLACK25250 CAP05704 1.000000
    SLACK25251 CAP05804 1.000000
    SLACK25252 CAP05904 1.000000
    SLACK25253 CAP06004 1.000000
    SLACK25254 CAP06104 1.000000
    SLACK25255 CAP06204 1.000000
    SLACK25256 CAP06304 1.000000
    SLACK25257 CAP06404 1.000000
    SLACK25258 CAP06504 1.000000
    SLACK25259 CAP00105 1.000000
    SLACK25260 CAP00205 1.000000
    SLACK25261 CAP00305 1.000000
    SLACK25262 CAP00405 1.000000
    SLACK25263 CAP00505 1.000000
    SLACK25264 CAP00605 1.000000
    SLACK25265 CAP00705 1.000000
    SLACK25266 CAP00805 1.000000
    SLACK25267 CAP00905 1.000000
    SLACK25268 CAP01005 1.000000
    SLACK25269 CAP01105 1.000000
    SLACK25270 CAP01205 1.000000
    SLACK25271 CAP01305 1.000000
    SLACK25272 CAP01405 1.000000
    SLACK25273 CAP01505 1.000000
    SLACK25274 CAP01605 1.000000
    SLACK25275 CAP01705 1.000000
    SLACK25276 CAP01805 1.000000
    SLACK25277 CAP01905 1.000000
    SLACK25278 CAP02005 1.000000
    SLACK25279 CAP02105 1.000000
    SLACK25280 CAP02205 1.000000
    SLACK25281 CAP02305 1.000000
    SLACK25282 CAP02405 1.000000
    SLACK25283 CAP02505 1.000000
    SLACK25284 CAP02605 1.000000
    SLACK25285 CAP02705 1.000000
    SLACK25286 CAP02805 1.000000
    SLACK25287 CAP02905 1.000000
    SLACK25288 CAP03005 1.000000
    SLACK25289 CAP03105 1.000000
    SLACK25290 CAP03205 1.000000
    SLACK25291 CAP03305 1.000000
    SLACK25292 CAP03405 1.000000
    SLACK25293 CAP03505 1.000000
    SLACK25294 CAP03605 1.000000
    SLACK25295 CAP03705 1.000000
    SLACK25296 CAP03805 1.000000
    SLACK25297 CAP03905 1.000000
    SLACK25298 CAP04005 1.000000
    SLACK25299 CAP04105 1.000000
    SLACK25300 CAP04205 1.000000
    SLACK25301 CAP04305 1.000000
    SLACK25302 CAP04405 1.000000
    SLACK25303 CAP04505 1.000000
    SLACK25304 CAP04605 1.000000
    SLACK25305 CAP04705 1.000000
    SLACK25306 CAP04805 1.000000
    SLACK25307 CAP04905 1.000000
    SLACK25308 CAP05005 1.000000
    SLACK25309 CAP05105 1.000000
    SLACK25310 CAP05205 1.000000
    SLACK25311 CAP05305 1.000000
    SLACK25312 CAP05405 1.000000
    SLACK25313 CAP05505 1.000000
    SLACK25314 CAP05605 1.000000
    SLACK25315 CAP05705 1.000000
    SLACK25316 CAP05805 1.000000
    SLACK25317 CAP05905 1.000000
    SLACK25318 CAP06005 1.000000
    SLACK25319 CAP06105 1.000000
    SLACK25320 CAP06205 1.000000
    SLACK25321 CAP06305 1.000000
    SLACK25322 CAP06405 1.000000
    SLACK25323 CAP06505 1.000000
    SLACK25324 CAP00106 1.000000
    SLACK25325 CAP00206 1.000000
    SLACK25326 CAP00306 1.000000
    SLACK25327 CAP00406 1.000000
    SLACK25328 CAP00506 1.000000
    SLACK25329 CAP00606 1.000000
    SLACK25330 CAP00706 1.000000
    SLACK25331 CAP00806 1.000000
    SLACK25332 CAP00906 1.000000
    SLACK25333 CAP01006 1.000000
    SLACK25334 CAP01106 1.000000
    SLACK25335 CAP01206 1.000000
    SLACK25336 CAP01306 1.000000
    SLACK25337 CAP01406 1.000000
    SLACK25338 CAP01506 1.000000
    SLACK25339 CAP01606 1.000000
    SLACK25340 CAP01706 1.000000
    SLACK25341 CAP01806 1.000000
    SLACK25342 CAP01906 1.000000
    SLACK25343 CAP02006 1.000000
    SLACK25344 CAP02106 1.000000
    SLACK25345 CAP02206 1.000000
    SLACK25346 CAP02306 1.000000
    SLACK25347 CAP02406 1.000000
    SLACK25348 CAP02506 1.000000
    SLACK25349 CAP02606 1.000000
    SLACK25350 CAP02706 1.000000
    SLACK25351 CAP02806 1.000000
    SLACK25352 CAP02906 1.000000
    SLACK25353 CAP03006 1.000000
    SLACK25354 CAP03106 1.000000
    SLACK25355 CAP03206 1.000000
    SLACK25356 CAP03306 1.000000
    SLACK25357 CAP03406 1.000000
    SLACK25358 CAP03506 1.000000
    SLACK25359 CAP03606 1.000000
    SLACK25360 CAP03706 1.000000
    SLACK25361 CAP03806 1.000000
    SLACK25362 CAP03906 1.000000
    SLACK25363 CAP04006 1.000000
    SLACK25364 CAP04106 1.000000
    SLACK25365 CAP04206 1.000000
    SLACK25366 CAP04306 1.000000
    SLACK25367 CAP04406 1.000000
    SLACK25368 CAP04506 1.000000
    SLACK25369 CAP04606 1.000000
    SLACK25370 CAP04706 1.000000
    SLACK25371 CAP04806 1.000000
    SLACK25372 CAP04906 1.000000
    SLACK25373 CAP05006 1.000000
    SLACK25374 CAP05106 1.000000
    SLACK25375 CAP05206 1.000000
    SLACK25376 CAP05306 1.000000
    SLACK25377 CAP05406 1.000000
    SLACK25378 CAP05506 1.000000
    SLACK25379 CAP05606 1.000000
    SLACK25380 CAP05706 1.000000
    SLACK25381 CAP05806 1.000000
    SLACK25382 CAP05906 1.000000
    SLACK25383 CAP06006 1.000000
    SLACK25384 CAP06106 1.000000
    SLACK25385 CAP06206 1.000000
    SLACK25386 CAP06306 1.000000
    SLACK25387 CAP06406 1.000000
    SLACK25388 CAP06506 1.000000
    SLACK25389 U0010102 1.000000
    SLACK25390 U0020102 1.000000
    SLACK25391 U0030102 1.000000
    SLACK25392 U0050102 1.000000
    SLACK25393 U0070102 1.000000
    SLACK25394 U0080102 1.000000
    SLACK25395 U0090102 1.000000
    SLACK25396 U0100102 1.000000
    SLACK25397 U0110102 1.000000
    SLACK25398 U0120102 1.000000
    SLACK25399 U0130102 1.000000
    SLACK25400 U0140102 1.000000
    SLACK25401 U0150102 1.000000
    SLACK25402 U0160102 1.000000
    SLACK25403 U0010103 1.000000
    SLACK25404 U0020103 1.000000
    SLACK25405 U0030103 1.000000
    SLACK25406 U0040103 1.000000
    SLACK25407 U0050103 1.000000
    SLACK25408 U0060103 1.000000
    SLACK25409 U0070103 1.000000
    SLACK25410 U0080103 1.000000
    SLACK25411 U0090103 1.000000
    SLACK25412 U0100103 1.000000
    SLACK25413 U0110103 1.000000
    SLACK25414 U0120103 1.000000
    SLACK25415 U0130103 1.000000
    SLACK25416 U0140103 1.000000
    SLACK25417 U0150103 1.000000
    SLACK25418 U0160103 1.000000
    SLACK25419 U0010104 1.000000
    SLACK25420 U0020104 1.000000
    SLACK25421 U0030104 1.000000
    SLACK25422 U0040104 1.000000
    SLACK25423 U0050104 1.000000
    SLACK25424 U0060104 1.000000
    SLACK25425 U0070104 1.000000
    SLACK25426 U0080104 1.000000
    SLACK25427 U0090104 1.000000
    SLACK25428 U0100104 1.000000
    SLACK25429 U0110104 1.000000
    SLACK25430 U0120104 1.000000
    SLACK25431 U0130104 1.000000
    SLACK25432 U0140104 1.000000
    SLACK25433 U0150104 1.000000
    SLACK25434 U0160104 1.000000
    SLACK25435 U0010105 1.000000
    SLACK25436 U0020105 1.000000
    SLACK25437 U0030105 1.000000
    SLACK25438 U0040105 1.000000
    SLACK25439 U0050105 1.000000
    SLACK25440 U0060105 1.000000
    SLACK25441 U0070105 1.000000
    SLACK25442 U0080105 1.000000
    SLACK25443 U0090105 1.000000
    SLACK25444 U0100105 1.000000
    SLACK25445 U0110105 1.000000
    SLACK25446 U0120105 1.000000
    SLACK25447 U0130105 1.000000
    SLACK25448 U0140105 1.000000
    SLACK25449 U0150105 1.000000
    SLACK25450 U0160105 1.000000
    SLACK25451 U0010106 1.000000
    SLACK25452 U0020106 1.000000
    SLACK25453 U0030106 1.000000
    SLACK25454 U0040106 1.000000
    SLACK25455 U0050106 1.000000
    SLACK25456 U0060106 1.000000
    SLACK25457 U0070106 1.000000
    SLACK25458 U0080106 1.000000
    SLACK25459 U0090106 1.000000
    SLACK25460 U0100106 1.000000
    SLACK25461 U0110106 1.000000
    SLACK25462 U0120106 1.000000
    SLACK25463 U0130106 1.000000
    SLACK25464 U0140106 1.000000
    SLACK25465 U0150106 1.000000
    SLACK25466 U0160106 1.000000
RHS
    RHS      CAP00101 21402.352000
    RHS      CAP00201 1109.564000
    RHS      CAP00301 6398.867000
    RHS      CAP00401 4994.207000
    RHS      CAP00501 25473.793000
    RHS      CAP00601 2976.586000
    RHS      CAP00701 11731.258000
    RHS      CAP00801 1349.467000
    RHS      CAP00901 40824.000000
    RHS      CAP01001 26535.277000
    RHS      CAP01101 6237.000000
    RHS      CAP01201 2349.025000
    RHS      CAP01301 1701.000000
    RHS      CAP01401 5820.910000
    RHS      CAP01501 451.772000
    RHS      CAP01601 539.978000
    RHS      CAP01701 539.978000
    RHS      CAP01801 1019.816000
    RHS      CAP02001 976.719000
    RHS      CAP02201 441.600000
    RHS      CAP02501 530.082000
    RHS      CAP02701 2349.458000
    RHS      CAP03101 560.095000
    RHS      CAP03301 1280.882000
    RHS      CAP03401 2206.437000
    RHS      CAP03601 1360.800000
    RHS      CAP03701 2989.774000
    RHS      CAP03801 1215.202000
    RHS      CAP04001 243.007000
    RHS      CAP04101 747.091000
    RHS      CAP04201 1048.789000
    RHS      CAP04301 1191.972000
    RHS      CAP04401 345.160000
    RHS      CAP04501 1041.932000
    RHS      CAP04601 1495.486000
    RHS      CAP04701 1425.113000
    RHS      CAP04801 751.680000
    RHS      CAP04901 728.351000
    RHS      CAP05001 715.696000
    RHS      CAP05101 741.069000
    RHS      CAP05201 1879.199000
    RHS      CAP05301 617.378000
    RHS      CAP05401 762.480000
    RHS      CAP05501 1769.040000
    RHS      CAP05601 1108.080000
    RHS      CAP05701 1010.880000
    RHS      CAP05801 1108.080000
    RHS      CAP05901 758.160000
    RHS      CAP06001 4445.168000
    RHS      CAP06101 3762.830000
    RHS      CAP06201 766.480000
    RHS      CAP06301 3491.335000
    RHS      CAP06501 2103.447000
    RHS      CAP00102 21329.559000
    RHS      CAP00202 1895.961000
    RHS      CAP00302 5687.883000
    RHS      CAP00402 7109.852000
    RHS      CAP00502 26069.461000
    RHS      CAP00602 6635.863000
    RHS      CAP00702 10427.785000
    RHS      CAP00802 1421.971000
    RHS      CAP00902 36288.000000
    RHS      CAP01002 24192.000000
    RHS      CAP01102 5544.000000
    RHS      CAP01202 2520.000000
    RHS      CAP01302 1512.000000
    RHS      CAP01402 5759.766000
    RHS      CAP01502 479.981000
    RHS      CAP01602 479.981000
    RHS      CAP01702 479.981000
    RHS      CAP01802 959.961000
    RHS      CAP01902 622.498000
    RHS      CAP02002 862.428000
    RHS      CAP02102 850.085000
    RHS      CAP02202 384.000000
    RHS      CAP02302 571.335000
    RHS      CAP02402 576.000000
    RHS      CAP02502 480.000000
    RHS      CAP02602 1486.165000
    RHS      CAP02702 2153.096000
    RHS      CAP02802 1380.153000
    RHS      CAP02902 432.000000
    RHS      CAP03002 480.000000
    RHS      CAP03102 579.611000
    RHS      CAP03202 1217.973000
    RHS      CAP03302 1152.000000
    RHS      CAP03402 2102.399000
    RHS      CAP03502 115.200000
    RHS      CAP03602 1209.600000
    RHS      CAP03702 2678.400000
    RHS      CAP03802 1157.760000
    RHS      CAP03902 299.520000
    RHS      CAP04002 328.320000
    RHS      CAP04102 668.160000
    RHS      CAP04202 1036.800000
    RHS      CAP04302 1088.640000
    RHS      CAP04402 362.880000
    RHS      CAP04502 1002.240000
    RHS      CAP04602 1336.319000
    RHS      CAP04702 1336.319000
    RHS      CAP04802 668.160000
    RHS      CAP04902 668.160000
    RHS      CAP05002 668.160000
    RHS      CAP05102 679.680000
    RHS      CAP05202 1670.399000
    RHS      CAP05302 576.000000
    RHS      CAP05402 725.760000
    RHS      CAP05502 1572.480000
    RHS      CAP05602 984.959000
    RHS      CAP05702 898.560000
    RHS      CAP05802 984.959000
    RHS      CAP05902 673.920000
    RHS      CAP06002 3922.548000
    RHS      CAP06102 3360.000000
    RHS      CAP06202 1260.000000
    RHS      CAP06302 3317.932000
    RHS      CAP06402 1726.687000
    RHS      CAP06502 2303.999000
    RHS      CAP00103 23107.027000
    RHS      CAP00203 2053.958000
    RHS      CAP00303 6161.871000
    RHS      CAP00403 7702.340000
    RHS      CAP00503 28241.922000
    RHS      CAP00603 7188.852000
    RHS      CAP00703 11296.766000
    RHS      CAP00803 1540.469000
    RHS      CAP00903 39312.000000
    RHS      CAP01003 26208.000000
    RHS      CAP01103 6006.000000
    RHS      CAP01203 2730.000000
    RHS      CAP01303 1638.000000
    RHS      CAP01403 6239.746000
    RHS      CAP01503 519.979000
    RHS      CAP01603 519.979000
    RHS      CAP01703 519.979000
    RHS      CAP01803 1039.958000
    RHS      CAP01903 685.440000
    RHS      CAP02003 907.200000
    RHS      CAP02103 902.664000
    RHS      CAP02203 403.200000
    RHS      CAP02303 601.776000
    RHS      CAP02403 604.800000
    RHS      CAP02503 504.000000
    RHS      CAP02603 1562.399000
    RHS      CAP02703 2328.479000
    RHS      CAP02803 1461.599000
    RHS      CAP02903 453.600000
    RHS      CAP03003 504.000000
    RHS      CAP03103 665.280000
    RHS      CAP03203 1280.159000
    RHS      CAP03303 1248.000000
    RHS      CAP03403 2277.599000
    RHS      CAP03503 124.800000
    RHS      CAP03603 1310.399000
    RHS      CAP03703 2901.599000
    RHS      CAP03803 1254.240000
    RHS      CAP03903 324.480000
    RHS      CAP04003 355.680000
    RHS      CAP04103 723.840000
    RHS      CAP04203 1123.199000
    RHS      CAP04303 1179.360000
    RHS      CAP04403 393.120000
    RHS      CAP04503 1085.760000
    RHS      CAP04603 1447.680000
    RHS      CAP04703 1447.680000
    RHS      CAP04803 723.840000
    RHS      CAP04903 723.840000
    RHS      CAP05003 723.840000
    RHS      CAP05103 736.320000
    RHS      CAP05203 1809.600000
    RHS      CAP05303 624.000000
    RHS      CAP05403 786.240000
    RHS      CAP05503 1703.520000
    RHS      CAP05603 1067.040000
    RHS      CAP05703 973.440000
    RHS      CAP05803 1067.040000
    RHS      CAP05903 730.080000
    RHS      CAP06003 4157.996000
    RHS      CAP06103 3528.000000
    RHS      CAP06203 1323.000000
    RHS      CAP06303 3594.427000
    RHS      CAP06403 1814.399000
    RHS      CAP06503 2419.200000
    RHS      CAP00104 23107.027000
    RHS      CAP00204 2053.958000
    RHS      CAP00304 6161.871000
    RHS      CAP00404 7702.340000
    RHS      CAP00504 28241.922000
    RHS      CAP00604 7188.852000
    RHS      CAP00704 11296.766000
    RHS      CAP00804 1540.469000
    RHS      CAP00904 39312.000000
    RHS      CAP01004 26208.000000
    RHS      CAP01104 6006.000000
    RHS      CAP01204 2730.000000
    RHS      CAP01304 1638.000000
    RHS      CAP01404 6239.746000
    RHS      CAP01504 519.979000
    RHS      CAP01604 519.979000
    RHS      CAP01704 519.979000
    RHS      CAP01804 1039.958000
    RHS      CAP01904 718.080000
    RHS      CAP02004 950.400000
    RHS      CAP02104 945.647000
    RHS      CAP02204 422.400000
    RHS      CAP02304 630.432000
    RHS      CAP02404 633.600000
    RHS      CAP02504 528.000000
    RHS      CAP02604 1636.799000
    RHS      CAP02704 2439.360000
    RHS      CAP02804 1531.200000
    RHS      CAP02904 475.200000
    RHS      CAP03004 528.000000
    RHS      CAP03104 696.960000
    RHS      CAP03204 1341.119000
    RHS      CAP03304 1248.000000
    RHS      CAP03404 2277.599000
    RHS      CAP03504 124.800000
    RHS      CAP03604 1310.399000
    RHS      CAP03704 2901.599000
    RHS      CAP03804 1254.240000
    RHS      CAP03904 324.480000
    RHS      CAP04004 355.680000
    RHS      CAP04104 723.840000
    RHS      CAP04204 1123.199000
    RHS      CAP04304 1179.360000
    RHS      CAP04404 393.120000
    RHS      CAP04504 1085.760000
    RHS      CAP04604 1447.680000
    RHS      CAP04704 1447.680000
    RHS      CAP04804 723.840000
    RHS      CAP04904 723.840000
    RHS      CAP05004 723.840000
    RHS      CAP05104 736.320000
    RHS      CAP05204 1809.600000
    RHS      CAP05304 624.000000
    RHS      CAP05404 786.240000
    RHS      CAP05504 1703.520000
    RHS      CAP05604 1067.040000
    RHS      CAP05704 973.440000
    RHS      CAP05804 1067.040000
    RHS      CAP05904 730.080000
    RHS      CAP06004 4355.996000
    RHS      CAP06104 3696.000000
    RHS      CAP06204 1386.000000
    RHS      CAP06304 3594.427000
    RHS      CAP06404 1900.800000
    RHS      CAP06504 2534.399000
    RHS      CAP00105 23995.754000
    RHS      CAP00205 2132.956000
    RHS      CAP00305 6398.867000
    RHS      CAP00405 7998.582000
    RHS      CAP00505 29328.145000
    RHS      CAP00605 7465.344000
    RHS      CAP00705 11731.258000
    RHS      CAP00805 1599.717000
    RHS      CAP00905 40824.000000
    RHS      CAP01005 27216.000000
    RHS      CAP01105 6237.000000
    RHS      CAP01205 2835.000000
    RHS      CAP01305 1701.000000
    RHS      CAP01405 6479.738000
    RHS      CAP01505 539.978000
    RHS      CAP01605 539.978000
    RHS      CAP01705 539.978000
    RHS      CAP01805 1079.957000
    RHS      CAP01905 718.080000
    RHS      CAP02005 950.400000
    RHS      CAP02105 945.647000
    RHS      CAP02205 422.400000
    RHS      CAP02305 630.432000
    RHS      CAP02405 633.600000
    RHS      CAP02505 528.000000
    RHS      CAP02605 1636.799000
    RHS      CAP02705 2439.360000
    RHS      CAP02805 1531.200000
    RHS      CAP02905 475.200000
    RHS      CAP03005 528.000000
    RHS      CAP03105 696.960000
    RHS      CAP03205 1341.119000
    RHS      CAP03305 1296.000000
    RHS      CAP03405 2365.199000
    RHS      CAP03505 129.600000
    RHS      CAP03605 1360.800000
    RHS      CAP03705 3013.199000
    RHS      CAP03805 1302.480000
    RHS      CAP03905 336.960000
    RHS      CAP04005 369.360000
    RHS      CAP04105 751.680000
    RHS      CAP04205 1166.399000
    RHS      CAP04305 1224.720000
    RHS      CAP04405 408.240000
    RHS      CAP04505 1127.520000
    RHS      CAP04605 1503.359000
    RHS      CAP04705 1503.359000
    RHS      CAP04805 751.680000
    RHS      CAP04905 751.680000
    RHS      CAP05005 751.680000
    RHS      CAP05105 764.640000
    RHS      CAP05205 1879.199000
    RHS      CAP05305 648.000000
    RHS      CAP05405 816.480000
    RHS      CAP05505 1769.040000
    RHS      CAP05605 1108.080000
    RHS      CAP05705 1010.880000
    RHS      CAP05805 1108.080000
    RHS      CAP05905 758.160000
    RHS      CAP06005 4355.996000
    RHS      CAP06105 3696.000000
    RHS      CAP06205 1386.000000
    RHS      CAP06305 3732.673000
    RHS      CAP06405 1900.800000
    RHS      CAP06505 2534.399000
    RHS      CAP00106 22218.285000
    RHS      CAP00206 1974.959000
    RHS      CAP00306 5924.875000
    RHS      CAP00406 7406.094000
    RHS      CAP00506 27155.684000
    RHS      CAP00606 6912.355000
    RHS      CAP00706 10862.273000
    RHS      CAP00806 1481.219000
    RHS      CAP00906 37800.000000
    RHS      CAP01006 25200.000000
    RHS      CAP01106 5775.000000
    RHS      CAP01206 2625.000000
    RHS      CAP01306 1575.000000
    RHS      CAP01406 1999.920000
    RHS      CAP01506 166.660000
    RHS      CAP01606 166.660000
    RHS      CAP01706 166.660000
    RHS      CAP01806 333.320000
    RHS      CAP01906 685.440000
    RHS      CAP02006 907.200000
    RHS      CAP02106 902.664000
    RHS      CAP02206 403.200000
    RHS      CAP02306 601.776000
    RHS      CAP02406 604.800000
    RHS      CAP02506 504.000000
    RHS      CAP02606 1562.399000
    RHS      CAP02706 2328.479000
    RHS      CAP02806 1461.599000
    RHS      CAP02906 453.600000
    RHS      CAP03006 504.000000
    RHS      CAP03106 665.280000
    RHS      CAP03206 1280.159000
    RHS      CAP03306 1200.000000
    RHS      CAP03406 2189.999000
    RHS      CAP03506 120.000000
    RHS      CAP03606 1259.999000
    RHS      CAP03706 2789.999000
    RHS      CAP03806 1205.999000
    RHS      CAP03906 312.000000
    RHS      CAP04006 342.000000
    RHS      CAP04106 696.000000
    RHS      CAP04206 1079.999000
    RHS      CAP04306 1133.999000
    RHS      CAP04406 378.000000
    RHS      CAP04506 1043.999000
    RHS      CAP04606 1391.999000
    RHS      CAP04706 1391.999000
    RHS      CAP04806 696.000000
    RHS      CAP04906 696.000000
    RHS      CAP05006 696.000000
    RHS      CAP05106 708.000000
    RHS      CAP05206 1739.999000
    RHS      CAP05306 600.000000
    RHS      CAP05406 756.000000
    RHS      CAP05506 1637.999000
    RHS      CAP05606 1025.999000
    RHS      CAP05706 936.000000
    RHS      CAP05806 1025.999000
    RHS      CAP05906 702.000000
    RHS      CAP06006 4157.996000
    RHS      CAP06106 3528.000000
    RHS      CAP06206 1323.000000
    RHS      CAP06306 3456.178000
    RHS      CAP06406 1814.399000
    RHS      CAP06506 2419.200000
    RHS      U0010102 22000.000000
    RHS      U0020102 80000.000000
    RHS      U0050102 350000.000000
    RHS      U0070102 14000.000000
    RHS      U0080102 7000.000000
    RHS      U0090102 699.990000
    RHS      U0100102 300.000000
    RHS      U0110102 36000.000000
    RHS      U0120102 66699.930000
    RHS      U0130102 33300.000000
    RHS      U0140102 135300.000000
    RHS      U0150102 67699.930000
    RHS      U0160102 128000.000000
    RHS      U0010103 43000.000000
    RHS      U0020103 122856.930000
    RHS      U0030103 34712.000000
    RHS      U0040103 1600.000000
    RHS      U0050103 700000.000000
    RHS      U0060103 5000.000000
    RHS      U0070103 34000.000000
    RHS      U0080103 17000.000000
    RHS      U0090103 4399.990000
    RHS      U0100103 2199.990000
    RHS      U0110103 66000.000000
    RHS      U0120103 126699.930000
    RHS      U0130103 63300.000000
    RHS      U0140103 335300.000000
    RHS      U0150103 167699.930000
    RHS      U0160103 248000.000000
    RHS      U0010104 83000.000000
    RHS      U0020104 144285.930000
    RHS      U0030104 93536.000000
    RHS      U0040104 3400.000000
    RHS      U0050104 1000000.000000
    RHS      U0060104 12000.000000
    RHS      U0070104 47300.000000
    RHS      U0080104 23699.990000
    RHS      U0090104 7999.990000
    RHS      U0100104 3899.990000
    RHS      U0110104 96000.000000
    RHS      U0120104 226699.930000
    RHS      U0130104 113300.000000
    RHS      U0140104 548600.000000
    RHS      U0150104 274399.870000
    RHS      U0160104 348000.000000
    RHS      U0010105 123000.000000
    RHS      U0020105 144856.870000
    RHS      U0030105 164123.930000
    RHS      U0040105 5299.990000
    RHS      U0050105 1200000.000000
    RHS      U0060105 19000.000000
    RHS      U0070105 60600.000000
    RHS      U0080105 30399.990000
    RHS      U0090105 11599.990000
    RHS      U0100105 5599.990000
    RHS      U0110105 126000.000000
    RHS      U0120105 326699.930000
    RHS      U0130105 163300.000000
    RHS      U0140105 748600.000000
    RHS      U0150105 374399.870000
    RHS      U0160105 448000.000000
    RHS      U0010106 163000.000000
    RHS      U0020106 145427.810000
    RHS      U0030106 234711.870000
    RHS      U0040106 7299.990000
    RHS      U0050106 1400000.000000
    RHS      U0060106 25000.000000
    RHS      U0070106 73900.000000
    RHS      U0080106 37099.980000
    RHS      U0090106 14899.990000
    RHS      U0100106 7299.990000
    RHS      U0110106 156000.000000
    RHS      U0120106 459999.930000
    RHS      U0130106 229999.930000
    RHS      U0140106 948600.000000
    RHS      U0150106 474399.870000
    RHS      U0160106 548000.000000
    RHS      I0010101 -29070.687000
    RHS      I0010102 -397600.000000
    RHS      I0020101 -1009.996000
    RHS      I0020102 -6749.996000
    RHS      I0030101 -54160.625000
    RHS      I0040101 -32169.137000
    RHS      I0050101 -121518.250000
    RHS      I0050201 -119183.187000
    RHS      I0060101 -60804.090000
    RHS      I0060201 -59546.707000
    RHS      I0070101 -127276.750000
    RHS      I0080101 -2259.400000
BOUNDS
ENDATA
