NAME          BANDM
ROWS
 N  ....1   
 E  ....3   
 E  ....4   
 E  ....5   
 E  ....6   
 E  ....7   
 E  ....8   
 E  ...10   
 E  ...11   
 E  ...12   
 E  ...14   
 E  ...15   
 E  .SM.4   
 E  .O..9   
 E  .O.10   
 E  .O.15   
 E  .O.54   
 E  .O.55   
 E  .O.56   
 E  .O.57   
 E  .O.58   
 E  ...19   
 E  ...20   
 E  ...22   
 E  ...36   
 E  ...37   
 E  ...38   
 E  ...39   
 E  ...40   
 E  ...41   
 E  ...42   
 E  ...43   
 E  ...44   
 E  ...46   
 E  ...47   
 E  ...50   
 E  ...51   
 E  ...55   
 E  ...55A  
 E  ...56   
 E  ...77   
 E  ...79   
 E  ...97   
 E  ..104   
 E  ..105   
 E  ..110A  
 E  ..111A  
 E  .O..6   
 E  .O..7   
 E  .O.11   
 E  .O.12   
 E  .O.23   
 E  .O.24   
 E  .O.25   
 E  .O.26   
 E  .O.27   
 E  .O.31   
 E  .O.32   
 E  .O.36   
 E  .O.37   
 E  .O.51   
 E  .O.59   
 E  .O.82   
 E  .G.99   
 E  .G100   
 E  .G102   
 E  .G124   
 E  .OMB1   
 E  .OMB1A  
 E  .OMB3   
 E  .O..2   
 E  ..114   
 E  ...31   
 E  ..108   
 E  ..109   
 E  .G.16   
 E  ...30   
 E  ...31A  
 E  ...98   
 E  ...99   
 E  ..106   
 E  ..106A  
 E  ..107   
 E  ..107A  
 E  ..112   
 E  ..113   
 E  ..115   
 E  ..116   
 E  .G..3   
 E  .G.10   
 E  .G.11B  
 E  .G.51   
 E  .G.51V  
 E  .G.52   
 E  .G.53   
 E  .G.54   
 E  .G123   
 E  .G123A  
 E  .G123B  
 E  .G.23   
 E  .G.76   
 E  .G113   
 E  .G125   
 E  .G125V  
 E  .OMB4   
 E  .OMB5   
 E  .OMB6   
 E  .OMB7   
 E  .OMB8   
 E  .OMB9   
 E  .OMB10  
 E  .OMB11  
 E  .O..4   
 E  .O..5   
 E  .O.52   
 E  .O.53   
 E  .O.68   
 E  .O.69   
 E  .ORC2   
 E  .ED.2   
 E  .ED.4   
 E  ...58   
 E  ...58A  
 E  ...61   
 E  ...62   
 E  ...63   
 E  ...64   
 E  ...66   
 E  ...67   
 E  ...68   
 E  ...70   
 E  ...73   
 E  ...75   
 E  ...83   
 E  ...84   
 E  ...90   
 E  ..111B  
 E  ..112A  
 E  ..118   
 E  ..119   
 E  ..120   
 E  .G.39   
 E  .G.41   
 E  .G.42   
 E  .G.45   
 E  ...50A  
 E  ...80A  
 E  ...41A  
 E  .RHSC   
 E  .G105   
 E  .G126   
 E  .O.16   
 E  .O.18   
 E  .O.27A  
 E  .O.28   
 E  .O.29   
 E  .O.40   
 E  .O.41   
 E  .O.45   
 E  .O.61   
 E  .O.63   
 E  .O.63A  
 E  .O.64   
 E  .O.65   
 E  .O.66   
 E  .O.67   
 E  .O.67A  
 E  .O.67B  
 E  .O.72   
 E  .SM10   
 E  .SM11   
 E  .SM12   
 E  .SM20   
 E  .SM21   
 E  .SM22   
 E  .SM22A  
 E  .G.84   
 E  .G.92   
 E  .G.92A  
 E  .G.92B  
 E  .G.92C  
 E  .G.13   
 E  .G.14   
 E  .G.19   
 E  .G.20   
 E  .G.87   
 E  .G.88   
 E  .G.94   
 E  .G.95   
 E  ...21   
 E  ...29   
 E  ...32   
 E  ...33   
 E  ...34   
 E  ...35   
 E  ...48   
 E  ...49   
 E  ...52   
 E  ...53   
 E  ...54   
 E  ...65   
 E  ...76   
 E  ...78   
 E  ...80   
 E  ...81   
 E  ...82   
 E  ...96   
 E  ..100   
 E  ..101   
 E  ..102   
 E  ..123   
 E  ..124   
 E  ..126   
 E  ..127   
 E  .G.11   
 E  .G.11A  
 E  .G.12   
 E  .G.15   
 E  .G.17   
 E  .G.18   
 E  .G.21   
 E  .G.22   
 E  .G.24   
 E  .G.25   
 E  .G.57   
 E  .G.58   
 E  .G.59   
 E  .G.60   
 E  .G.64   
 E  .G.85   
 E  .G.85A  
 E  .G.86   
 E  .G.89   
 E  .G.90   
 E  .G.91   
 E  .G.93   
 E  .G.96   
 E  .G.97   
 E  .G125A  
 E  .G125B  
 E  .OMB9A  
 E  .OMB9B  
 E  .OMB9C  
 E  OMB10A  
 E  OMB10B  
 E  OMB10C  
 E  .O108A  
 E  .O108B  
 E  .O108C  
 E  .O108D  
 E  .OMB2   
 E  .SM.1   
 E  .SM.3   
 E  .SM.6   
 E  .SM.7   
 E  .SM.8   
 E  .O..1   
 E  .O..3   
 E  .O.19   
 E  .O.20   
 E  .O.38   
 E  .O.50   
 E  .O.60   
 E  .O.62   
 E  ....3A  
 E  ....3B  
 E  ....3C  
 E  ....5A  
 E  ....5B  
 E  ....6B  
 E  ....6C  
 E  ....6D  
 E  ....6E  
 E  ...19B  
 E  ...20A  
 E  ...20C  
 E  ...20D  
 E  ...22A  
 E  ...22B  
 E  ...47A  
 E  ...47B  
 E  ...47C  
 E  ...47D  
 E  ...48A  
 E  ...49A  
 E  ...68A  
 E  ...68B  
 E  ...68C  
 E  ...68D  
 E  ...77A  
 E  ...77B  
 E  ...78A  
 E  ...78B  
 E  ...78C  
 E  .OMB9D  
 E  OMB10D  
 E  .O108E  
 E  .O108F  
 E  ...38A  
 E  .SM22B  
 E  ..111C  
 E  ..104A  
 E  ..110B  
 E  ...79A  
 E  ..116V  
 E  .G.22A  
COLUMNS
    KUWATS   ....1    -1.000000   ....3    1.000000
    4CORNS   ....1    -1.000000   ...14    1.000000
    OH.MY    ....1    0.950000   .G.16    -1.000000
    SELCYS   ...79A   1.000000
    AWFUL    ....6    1.000000   ....7    1.000000
    OFFAL    ....6    1.000000
    AV115S   .G.51V   1.000000
    76.LSS   .G.16    1.000000   .G.84    -1.000000
    76O.SS   .G.84    1.000000
    GASV.S   .G123    1.000000
    GASVAS   .G123A   1.000000
    GASVBS   .G123B   1.000000
    JP4..S   ....1    0.080000   .G.23    1.000000
    JP4O.S   .G125V   1.000000
    JP5..S   ..116    1.000000
    JP5V.S   ..116V   1.000000
    STO.PS   ....1    5.000000   .OMB4    1.000000
    STMAXS   .OMB5    1.000000
    UNFL.S   ..109    1.000000
    UNDOPS   ....1    5.000000   .OMB10   1.000000
    UNDL2S   ..107A   1.000000
    UNDO.S   .OMB11   1.000000
    DKDSLS   ..106A   1.000000
    ARC..S   ....1    5.000000   .OMB6    1.000000
    ARMAXS   .OMB7    1.000000
    LUBE.S   .O.52    1.000000
    90N..S   .O.53    1.000000
    NSFO.S   ...99    1.000000   ....1    10.000000
    SMORGO   ....1    10.000000   .O.12    -100.000000
    SMORGO   .O.27    1.000000
    PLMXSS   ....1    1.000000   .G.39    -1.000000
    RMINSS   ....1    1.000000   .G.42    -1.000000
    GO...S   ...50    1.000000
    TAR..S   ...51    1.000000
    LTCYCS   ...79    1.000000
    HSCUTS   ...55    1.000000
    CUTT.S   .O.36    1.000000
    LSCUTS   ...56    1.000000
    PFB..S   ...46    1.000000
    STO..S   .OMB1    1.000000
    SMGO.S   .O.27    1.000000
    LGO..S   .OMB2    1.000000
    ORD..S   .OMB3    1.000000
    IC4      ...33    1.000000
    C4       ...34    100.000000   ...53    -100.000000
    C4       ...54    -43.530000
    C4O..S   .O..3    -43.530000   .O.31    100.000000
    C4O..S   .O.26    -100.000000
    IC5      ...35    1.000000
    LTTH     ...36    1.000000
    LWO..S   .G.99    1.000000
    LOO..S   .G100    1.000000
    C5C6     ...39    1.000000
    C56O.S   .O.32    1.000000
    MOBASE   ...37    1.000000
    AVBASE   ...38    1.000000
    100PLT   ...41    1.000000
    LSTP.S   .G102    1.000000
    103REF   ...40    1.000000
    LUN..S   .G126    1.000000
    LTCAT    ...42    1.000000
    HVYCAT   ...43    1.000000
    ALKY     ...44    1.000000
    UTS      ..104    1.000000
    WRESEX   .O.16    -1.000000   .O.24    -0.220000
    WRESEX   .O.25    0.220000
    TCC.3S   ...70    1.000000
    FCC.3S   ...75    1.000000
    FCCG1S   ..124    1.000000
    ALKY1S   ..118    1.000000
    ALKY2S   ..119    1.000000
    ALKY3S   ..120    1.000000
    U90LMS   ...58    1.000000
    ABTR.S   ...38A   1.000000
    U59..S   ...61    1.000000
    U79..S   ...62    1.000000
    PLMAXS   .G.39    1.000000
    RMAX.S   .G.41    1.000000   .G.42    1.000000
    RMIN.S   .G.42    1.000000
    U67..S   ..111B   1.000000
    U135.S   ..112A   1.000000
    U89..S   ...63    1.000000
    CH2MCS   ...64    1.000000
    UNLJ.S   .G.45    1.000000
    U70.1S   .O.28    1.000000
    U70.2S   .O.29    1.000000
    U67CPS   .O.18    1.000000
    URCMXS   .O.40    1.000000
    U220.S   .O.45    1.000000
    201..S   .O.63    1.000000
    200SCS   .O.63A   1.000000
    200GOS   .O.64    1.000000
    200CLS   .O.65    1.000000
    200CKS   .O.66    1.000000
    200FDS   .O.67    1.000000
    200PDS   .O.67A   1.000000
    SMNPHS   .SM10    1.000000
    SMCL.S   .SM11    1.000000
    SMCK.S   .SM12    1.000000
    SMPH.S   .SM22    1.000000
    SMTOTS   .SM22A   1.000000
    NITMXS   .O.72    1.000000
    231MXS   .G105    1.000000
    OLGO     ....1    0.137000   .O.24    1.000000
    OLGO     ...50    -1.000000
    BAPI.S   ..102    1.000000
    LACOST   ....1    1.000000   ...65    10.000000
    OLCOST   ....1    1.000000   .O..1    10.000000
    SMCOST   ....1    1.000000   .SM.1    1.000000
    THRLAR   ...54    10.000000   ....1    -0.319000
    TELCST   ....1    1.000000   .G.64    1.000000
    SMTHRM   ....1    -0.340000   .SM.3    1.000000
    OLTHRM   ....1    -0.257100   .O..3    10.000000
    76T1LS   ....1    -4.730000   .G.16    1.000000
    76T1LS   .G.57    1.000000   .G.64    -0.260000
    76T1LS   .G.22A   -0.950000
    76T2LS   .G.58    1.000000
    76DALS   .G.18    1.000000
    76WULS   .G.19    1.000000
    76VPLS   .G.20    1.000000
    76SNLS   .G.21    1.000000
    76BNLS   .G.22    1.000000
    UHCMXS   .G.22A   1.000000
    RT1L.S   ....1    -5.940000   .G.10    1.000000
    RT1L.S   .G.11A   -1.000000   .G.59    1.000000
    RT1L.S   .G.64    -0.299500
    RT2L.S   .G.60    1.000000
    RDA.LS   .G.12    1.000000
    RWUFLS   .G.13    1.000000
    RRVPLS   .G.14    1.000000
    RRBRNS   .G.15    1.000000
    JSVILS   .G.24    1.000000
    T1O76S   ....1    -4.730000   .G.84    1.000000
    T1O76S   .G.85A   -1.000000   .G.90    1.000000
    T1O76S   .G.64    -0.260000
    T2O76S   .G.91    1.000000
    DAO76S   .G.86    1.000000
    WUO76S   .G.87    1.000000
    VPO76S   .G.88    1.000000
    SEO76S   .G.89    1.000000
    T1OR.S   ....1    -5.940000   .G113    1.000000
    T1OR.S   .G.92A   -1.000000   .G.92C   -1.000000
    T1OR.S   .G.96    1.000000   .G.64    -0.322000
    T2OR.S   .G.97    1.000000
    DAOR.S   .G.93    1.000000
    WUOR.S   .G.94    1.000000
    VPOR.S   .G.95    1.000000
    SVIO.S   .G125A   1.000000
    30PPNS   .OMB9A   1.000000
    30CETS   .OMB9B   1.000000
    30SULS   .OMB9C   1.000000
    30DTS    .OMB9D   1.000000
    UDPPNS   OMB10A   1.000000
    UDCETS   OMB10B   1.000000
    UDSULS   OMB10C   1.000000
    UNDHCS   OMB10D   1.000000
    UFPPNS   .O108A   1.000000
    UFCETS   .O108B   1.000000
    UFCTIS   .O108C   1.000000
    UFDTS    .O108E   1.000000
    UFBIS    .O108F   1.000000
    UFSULS   .O108D   1.000000
    H2SLAR   ....1    -0.005700   ..126    1.000000
    H2LAR    ..127    1.000000   ...54    -6.000000
    H2PROD   .O.41    1.000000   .O..3    -6.000000
    EDABA    ....1    -5.715900   .O..2    1.369900
    EDABA    .OMB4    0.342500   .ED.4    1.000000
    EDPAVA   ....1    -6.006300   ..114    1.538500
    EDPAVA   ..108    0.538500   .ED.2    1.000000
    FGLOSS   ...53    100.000000
    OLLOSS   .O.26    1.000000
    SMGAIN   .SM.7    1.000000
    PP       ....1    -3.000000   ...82    100.000000
    SMSULF   ....1    -0.050000   .SM.8    1.000000
    SMCOKE   ....1    -0.700000   .SM.6    1.000000
    SMCOKE   .SM12    1.000000
    SPONGE   .SM22B   1.000000
    OLSULF   ....1    -0.075000   .O.38    1.000000
    OLCOKE   ....1    -1.950000   .O.62    1.000000
    OLCOKE   .O.66    1.000000
    JP5B     ....1    -4.310000   ..110A   0.200000
    JP5B     ..104    0.800000   ..116    1.000000
    JP5V     ....1    0.210000   ..116    -1.000000
    JP5V     ..116V   1.000000
    BUNKER   ....1    -1.930000   ..100    1.000000
    BNKFO1   ....1    -1.930000   .O.36    0.160000
    BNKFO1   .O.37    0.600000   .O.51    0.240000
    BNKFO2   ....1    -1.930000   .G124    0.100000
    BNKFO2   .O.37    0.810000   .O.51    0.090000
    BNKFOX   ....1    -1.930000   .O.36    0.268300
    BNKFOX   .O.51    0.731700
    STOMAX   .OMB4    -1.000000   .OMB5    1.000000
    STOVE    ....1    -4.070000   .OMB1    1.000000
    STOVE    .OMB4    1.000000
    ARCMAX   .OMB6    -1.000000   .OMB7    1.000000
    ARC1     ....1    -3.880000   .OMB1    0.130000
    ARC1     .OMB1A   0.150000   .G124    0.720000
    ARC1     .OMB6    1.000000
    SELCYC   ....1    -2.790000   ...79    100.000000
    SELCYC   ...79A   1.000000
    UFLV     ....1    0.080000   ..108    -1.000000
    UFLV     ..109    1.000000
    UNFLLA   ....1    -3.360000   ..104A   0.250000
    UNFLLA   ..105    0.750000   ..108    1.000000
    UNFLLB   ....1    -3.360000   ..111A   0.150000
    UNFLLB   ..104A   0.100000   ..105    0.750000
    UNFLLB   ..108    1.000000
    UNFLLC   ....1    -3.360000   ..111C   0.140000
    UNFLLC   ..104A   0.160000   ..105    0.700000
    UNFLLC   ..108    1.000000
    DKDSL1   ....1    -3.060000   ..105    0.450000
    DKDSL1   ...79    55.000000   ..106    1.000000
    DKDSL2   ....1    -3.060000   ..111A   0.100000
    DKDSL2   ..105    0.350000   ...79    55.000000
    DKDSL2   ..106    1.000000
    DDSLV    ..106    -1.000000   ..106A   1.000000
    UNDSL1   ....1    -3.150000   ..105    0.650000
    UNDSL1   ...79    35.000000   ..107    1.000000
    UNDSL2   ....1    -3.150000   ..111A   0.050000
    UNDSL2   ..105    0.600000   ...79    35.000000
    UNDSL2   ..107    1.000000
    UNDSLV   ....1    0.080000   ..107    -1.000000
    UNDSLV   ..107A   1.000000
    ABASPH   ....1    -3.300000   ...29    1.000000
    ABASPH   ...65    -1.660000
    S76      ....1    -6.250000   ...65    2.057000
    S76      ...54    2.818000   ..111B   1.376800
    S76      ..111C   -0.440100   ...41    194.150000
    S76      ...53    13.120000   .G.39    -2.087600
    S76      ..112    1.000000   ..112A   1.569800
    S76      ...43    -63.260000   ..127    1.597000
    KERO     ....1    -4.300000   ...65    -1.050000
    KERO     ..112A   0.920100   ...43    -18.670000
    KERO     ...56    -0.202200   ..104    1.111100
    KERO     ...46    27.780000   ..113    1.000000
    KERO     ...78C   -0.388900
    CBTAR    ....1    0.859600   ...10    0.280000
    CBTAR    ...31    -1.000000   ...51    0.720000
    CBTART   ...10    0.280000   ...51    0.720000
    CBTART   ...31A   1.000000   ....1    0.859600
    NSFO1    ....1    -2.260000   ...55    0.210000
    NSFO1    ...56    0.140000   ...55A   19.930000
    NSFO1    ...51    0.405600   ...99    1.000000
    NSFO1    ..100    0.045100   ..101    -2.390000
    NSFO1    ..102    -0.121800
    NSFO2    ....1    -2.260000   ...55    0.362200
    NSFO2    ...56    0.241500   ...51    0.356700
    NSFO2    ...99    1.000000   ..100    0.039600
    NSFO2    ..101    -2.099000   ..102    -0.106900
    NSFO4    ....1    -2.260000   ...79    35.000000
    NSFO4    ...55    0.152200   ...56    0.101500
    NSFO4    ...51    0.356700   ...99    1.000000
    NSFO4    ..100    0.039600   ..101    -2.099000
    NSFO4    ..102    -0.106900
    UNDMAX   ....1    0.170000   .OMB10   -1.000000
    UNDMAX   .OMB11   1.000000
    USDUF    ....1    -3.360000   .G124    1.000000
    USDUF    ..108    1.000000   .O108A   -6.100000
    USDUF    .O108B   11.000000   .O108C   7.500000
    USDUF    .O108E   44.000000   .O108F   -15.000000
    USDUF    .O108D   -0.350000
    WSOUF    ....1    -3.360000   .OMB1    1.000000
    WSOUF    ..108    1.000000   .O108A   -5.800000
    WSOUF    .O108B   3.100000   .O108E   37.000000
    WSOUF    .O108F   -21.000000   .O108D   -0.270000
    ORSOUF   ....1    -3.360000   .OMB1A   1.000000
    ORSOUF   ..108    1.000000   .O108A   -6.400000
    ORSOUF   .O108B   7.200000   .O108C   3.300000
    ORSOUF   .O108E   34.000000   .O108F   -19.000000
    ORSOUF   .O108D   0.850000
    LGOUF    ....1    -3.360000   .OMB2    1.000000
    LGOUF    ..108    1.000000   .O108A   1.700000
    LGOUF    .O108B   -2.400000   .O108C   -4.400000
    LGOUF    .O108E   -35.000000   .O108F   5.000000
    LGOUF    .O108D   -0.150000
    HWDUF    ....1    -3.360000   .OMB2    0.688400
    HWDUF    .O.24    0.311600   ..108    1.000000
    HWDUF    .O108A   8.100000   .O108B   -1.400000
    HWDUF    .O108C   -5.100000   .O108E   -42.000000
    HWDUF    .O108F   11.000000   .O108D   -0.050000
    HWDUF    ..123    2.800000
    ANUNFL   ....1    0.075400   .O108B   -3.200000
    ORS2GO   .OMB1A   1.000000   .O.24    -1.000000
    ORS2GO   ..123    -9.000000
    ORD2GO   .OMB3    1.000000   .O.24    -1.000000
    ORD2GO   ..123    -9.000000
    PGERFO   .O.37    1.000000   .O.69    1.000000
    CUTTRF   .O.36    1.000000   .O.69    0.934600
    CUTPGE   .O.69    1.000000   .O.36    0.200000
    CUTPGE   .O.37    0.800000
    LDFO1    ....1    -2.600000   .G124    0.360000
    LDFO1    .O.37    0.540000   .O.51    0.100000
    LDFO1    .O.68    1.000000
    ALASK1   ....1    -4.000000   .OMB1    0.700000
    ALASK1   .G124    0.300000   .OMB8    1.000000
    ALASK2   ....1    -4.000000   .OMB1    0.400000
    ALASK2   .G124    0.600000   .OMB8    1.000000
    USD30    ....1    -4.000000   .G124    1.000000
    USD30    .OMB9    1.000000   .OMB9A   -2.100000
    USD30    .OMB9B   4.000000   .OMB9C   -0.700000
    USD30    .OMB9D   8.000000
    WSO30    ....1    -4.000000   .OMB1    1.000000
    WSO30    .OMB9    1.000000   .OMB9A   -1.800000
    WSO30    .OMB9B   -3.900000   .OMB9C   -0.620000
    WSO30    .OMB9D   4.000000
    ORSO30   ....1    -4.000000   .OMB1A   1.000000
    ORSO30   .OMB9    1.000000   .OMB9A   -2.400000
    ORSO30   .OMB9B   0.200000   .OMB9C   0.500000
    ORSO30   .OMB9D   1.000000
    ORD30    ....1    -4.000000   .OMB3    1.000000
    ORD30    .OMB9    1.000000   .OMB9A   0.900000
    ORD30    .OMB9B   -1.400000   .OMB9C   1.300000
    ORD30    .OMB9D   -74.000000
    LGO30    ....1    -4.000000   .OMB2    1.000000
    LGO30    .OMB9    1.000000   .OMB9A   5.700000
    LGO30    .OMB9B   -9.400000   .OMB9C   -0.500000
    LGO30    .OMB9D   -65.000000
    AN30     ....1    0.075400   .OMB9B   -3.000000
    USDUND   ....1    -3.360000   .G124    1.000000
    USDUND   .OMB10   1.000000   OMB10A   -17.200000
    USDUND   OMB10B   8.000000   OMB10C   -0.550000
    USDUND   OMB10D   0.320000
    WSOUND   ....1    -3.360000   .OMB1    1.000000
    WSOUND   .OMB10   1.000000   OMB10A   -16.900000
    WSOUND   OMB10B   0.100000   OMB10C   -0.470000
    WSOUND   OMB10D   0.370000
    ORSUND   ....1    -3.360000   .OMB1A   1.000000
    ORSUND   .OMB10   1.000000   OMB10A   -17.500000
    ORSUND   OMB10B   4.200000   OMB10C   0.650000
    ORSUND   OMB10D   0.340000
    ORDUND   ....1    -3.360000   .OMB3    1.000000
    ORDUND   .OMB10   1.000000   OMB10A   -14.200000
    ORDUND   OMB10B   2.600000   OMB10C   1.450000
    ORDUND   OMB10D   -0.220000
    HWDUND   ....1    -3.360000   .OMB2    0.688400
    HWDUND   .O.24    0.311600   ..123    2.800000
    HWDUND   .OMB10   1.000000   OMB10A   -3.000000
    HWDUND   OMB10B   -4.400000   OMB10D   -0.080000
    HWDUND   OMB10C   -0.250000
    ANUND    ....1    0.075400   OMB10B   -3.000000
    76TF     ....1    -3.850000   ..111A   0.200000
    76TF     ..110B   0.600000   ..104A   0.200000
    76TF     ..115    1.000000
    76TFA    ....1    -3.850000   ..111A   0.180000
    76TFA    ..111C   0.140000   ..110B   0.600000
    76TFA    ..104A   0.080000   ..115    1.000000
    76TFB    ....1    -3.850000   ..111A   0.150000
    76TFB    ..111C   0.230000   ..110B   0.620000
    76TFB    ..115    1.000000
    76T.1L   ....1    -4.730000   .G.16    1.000000
    76T.1L   .G.17    1.300000   .G.21    -0.400000
    76T.1L   .G.22A   -0.950000   .G.57    1.000000
    76T.1L   .G.58    -1.000000   .G.64    -0.176000
    76T.2L   .G.17    1.350000   .G.58    1.000000
    76T.2L   .G.64    0.063000
    76KRLS   .G.17    1.000000   .G.64    0.032300
    RT..1L   ....1    -5.940000   .G.10    1.000000
    RT..1L   .G.11    0.700000   .G.11A   -1.000000
    RT..1L   .G.11B   0.564900   .G.59    1.000000
    RT..1L   .G.60    -1.000000   .G.64    -0.209800
    RT..2L   .G.11    0.750000   .G.11B   0.605250
    RT..2L   .G.60    1.000000   .G.64    0.067300
    RKRRLS   .G.11    1.000000   .G.11B   0.807000
    RKRRLS   .G.64    0.052700
    RLKMAX   .G.11    0.300000   .G.11A   1.000000
    RLKMXS   .G.11A   1.000000
    RLRR.S   .G.11B   1.000000
    T1.O76   ....1    -4.730000   .G.84    1.000000
    T1.O76   .G.85    1.900000   .G.85A   -1.000000
    T1.O76   .G.90    1.000000   .G.91    -1.000000
    T1.O76   .G.64    -0.176000
    T2.O76   .G.64    0.063000   .G.85    2.100000
    T2.O76   .G.91    1.000000
    KRO76S   .G.85    1.000000   .G.64    0.024000
    76OADJ   .G.85    0.300000   .G.87    -0.050000
    76OADJ   .G.85A   1.000000
    RT..1O   ....1    -5.940000   .G113    1.000000
    RT..1O   .G.92    0.800000   .G.92A   -1.000000
    RT..1O   .G.92B   0.730000   .G.92C   -1.000000
    RT..1O   .G.96    1.000000   .G.97    -1.000000
    RT..1O   .G.64    -0.232300
    RT..2O   .G.92    0.800000   .G.92B   0.720000
    RT..2O   .G.97    1.000000   .G.64    0.067300
    KROR.S   .G.64    0.058800   .G.92    1.000000
    KROR.S   .G.92B   0.870000
    ROADJ    .G.92    0.300000   .G.92B   0.455600
    ROADJ    .G.92C   1.000000   .G.94    0.050000
    ROKMAX   .G.92    0.400000   .G.92A   1.000000
    ROKMXS   .G.92A   1.000000
    RORR.S   .G.92B   1.000000
    PASPH    ....1    -3.300000   ...65    -0.590000
    PASPH    ...30    1.000000   ...50    0.300000
    PASPH    ...51    0.700000   ..123    -0.450000
    EDMSTK   ...50    0.080000   ..104    0.080000
    EDMSTK   ..105    0.250000   ...51    0.580000
    EDMSTK   ...22    0.100000   ..114    -1.000000
    EDMSTK   ..123    -0.120000
    MV6501   ....1    -2.500000   ...79    19.000000
    MV6501   ...55A   19.320000   ...50    0.180000
    MV6501   ...51    0.393200   ...98    1.000000
    MV6501   ..100    0.043600   ..101    -2.311000
    MV6501   ..102    -0.117700
    LC2CUT   ....1    0.100000   ...79    100.000000
    LC2CUT   ...55    -0.333400   ...56    -0.666600
    CRR2B    ....1    0.200000   ...55A   100.000000
    CRR2B    ..100    -1.000000   ..101    -104.000000
    CRR2B    ..102    -15.800000
    TAR2B    ...51    1.000000   ..100    -1.000000
    TAR2B    ..101    59.000000   ..102    -1.460000
    HSC2B    ...55    1.000000   ..100    -1.000000
    HSC2B    ..101    -69.000000   ..102    -6.800000
    LSC2B    ...56    1.000000   ..100    -1.000000
    LSC2B    ..101    -99.000000   ..102    -20.800000
    LCY2B    ...79    100.000000   ..100    -1.000000
    LCY2B    ..101    -89.000000   ..102    -16.800000
    FLDLPG   ....1    3.120000   ...65    -0.556000
    FLDLPG   ...33    -40.000000   ...34    -60.000000
    FLDLPG   ...12    1.000000
    U27D1    ...20    -0.710000   ...21    -0.290000
    U27D1    ...47    -7.000000   ...50    0.800000
    U27D1    ....3A   -0.290000   ....5A   -0.710000
    U27D1    ....3B   -0.290000   ....5B   -0.710000
    U27D1    ....3C   -1.000000   ...50A   1.000000
    BUGGER   .G.16    -1.000000   .RHSC    1.000000
    BUGGER   ..100    -0.416700   ...53    -58.330000
    C4OJP4   ....1    -3.940000   .G125    1.000000
    C4OJP4   .G125A   -3.400000   .G125B   67.500000
    C4OJP4   .O.31    100.000000
    LWOJP4   ....1    -3.940000   .G125    1.000000
    LWOJP4   .G125A   -1.800000   .G125B   5.500000
    LWOJP4   .G.99    1.000000
    LOOJP4   ....1    -3.940000   .G125    1.000000
    LOOJP4   .G125A   -1.800000   .G125B   8.500000
    LOOJP4   .G100    1.000000
    LUOJP4   ....1    -3.940000   .G125    1.000000
    LUOJP4   .G125A   -1.800000   .G125B   -0.200000
    LUOJP4   .G102    0.868500   .O.26    13.150000
    LUOJP4   .G105    -1.000000   .G126    1.000000
    LUOJP4   .O.41    0.660000   .O..1    1.575000
    LUOJP4   .O..3    6.600000
    UNOJP4   ....1    -3.940000   .G125    1.000000
    UNOJP4   .G125A   -1.300000   .G125B   -1.800000
    UNOJP4   .G102    0.888000   .O.26    11.200000
    UNOJP4   .G105    -1.000000   .O.41    0.725000
    UNOJP4   .O..1    1.575000   .O..3    6.600000
    UDOJP4   ....1    -3.940000   .G125    1.000000
    UDOJP4   .G125A   3.900000   .G125B   -2.500000
    UDOJP4   .G124    1.000000
    SOOJP4   ....1    -3.940000   .G125    1.000000
    SOOJP4   .G125A   3.300000   .G125B   -2.500000
    SOOJP4   .OMB1    1.000000
    LLUOJ4   ....1    -3.803000   ..127    0.968000
    LLUOJ4   .G125    1.000000   .G125A   -1.600000
    LLUOJ4   .G125B   -0.500000   ...33    0.960000
    LLUOJ4   ...34    0.320000   ...53    19.720000
    LLUOJ4   ...40    79.000000   .G.41    -1.000000
    LLUOJ4   .G.45    1.000000   ...65    2.239000
    LLUOJ4   ...54    0.720000
    LMBOJ4   ....1    -3.803000   .G125    1.000000
    LMBOJ4   .G125A   -2.600000   .G125B   1.600000
    LMBOJ4   ...37    100.000000
    HCOJP4   ....1    -3.803000   .G125    1.000000
    HCOJP4   .G125A   1.200000   .G125B   -1.000000
    HCOJP4   ...43    100.000000
    JP4OLV   .G125    -1.000000   ....1    -0.080000
    JP4OLV   .G125V   1.000000
    C4.JP4   ....1    -3.940000   .G.23    1.000000
    C4.JP4   .G.24    -4.700000   .G.25    57.500000
    C4.JP4   ...34    100.000000
    MB.JP4   ....1    -3.940000   .G.23    1.000000
    MB.JP4   .G.24    -2.700000   .G.25    1.600000
    MB.JP4   ...37    100.000000
    AB.JP4   ....1    -3.940000   .G.23    1.000000
    AB.JP4   .G.24    -2.700000   .G.25    1.900000
    AB.JP4   ...38    100.000000
    UNLJP4   ..127    0.968000   ....1    -3.940000
    UNLJP4   .G.23    1.000000   .G.24    -1.700000
    UNLJP4   .G.25    -0.500000   ...33    0.960000
    UNLJP4   ...34    0.320000   ...40    79.000000
    UNLJP4   ...53    19.720000   .G.41    -1.000000
    UNLJP4   .G.45    1.000000   ...54    0.720000
    UNLJP4   ...65    2.239000
    UNHJP4   ..127    0.765000   ....1    -3.940000
    UNHJP4   .G.23    1.000000   .G.24    -0.700000
    UNHJP4   .G.25    -1.500000   ...41    93.000000
    UNHJP4   ...53    7.000000   .G.39    -1.000000
    UNHJP4   ...65    2.027000   ...54    1.350000
    HC.JP4   ....1    -3.940000   .G.23    1.000000
    HC.JP4   .G.24    1.100000   .G.25    -1.000000
    HC.JP4   ...43    100.000000
    TBSJP4   ....1    -3.940000   .G.23    1.000000
    TBSJP4   .G.24    1.800000   .G.25    -1.500000
    TBSJP4   ..104    1.000000
    ORROLC   ....1    0.722900   .ORC2    0.542200
    ORROLC   .O.11    -0.339500   .O.12    -11.560000
    ORROLC   .O..9    1.000000
    23B33    ...65    -2.612000   ...54    -4.240000
    23B33    ...33    -0.690000   ...34    -0.230000
    23B33    ...40    -81.570000   ...53    -17.510000
    23B33    ...62    1.000000   .G.41    1.000000
    23B33    ..126    -0.060000   ..127    -1.057000
    23B33    ...19B   -1.000000   ...19    10.000000
    ABTRAN   ...38    -100.000000   ...19    10.000000
    ABTRAN   ...38A   1.000000
    34B33    ...65    -2.385000   ...54    -2.201000
    34B33    ...41    -90.300000   ...46    -2.000000
    34B33    ...53    -7.700000   ...61    1.000000
    34B33    .G.39    0.980000   ..126    -0.210000
    34B33    ..127    -0.843000   ...22B   -1.000000
    34B33    ...22A   -1.000000   ...22    10.000000
    24K26    ...65    -2.329000   ...54    -3.208000
    24K26    ...33    -0.840000   ...34    -0.280000
    24K26    ...39    -4.000000   ...40    -35.400000
    24K26    ...41    -35.700000   ...46    -5.300000
    24K26    ...53    -18.480000   ...61    0.463000
    24K26    ...62    0.537000   .G.39    0.410000
    24K26    .G.41    0.497000   ..126    -0.060000
    24K26    ..127    -0.662000   ...20C   -1.000000
    24K26    ...20D   -1.000000   ...19B   -1.000000
    24K26    ...22B   -1.000000   ...20A   -1.000000
    24K26    ...21    10.000000
    24B26    ...65    -2.329000   ...54    -3.208000
    24B26    ...33    -0.360000   ...34    -0.120000
    24B26    ...39    -4.000000   ...40    -40.400000
    24B26    ...41    -37.800000   ...46    -5.300000
    24B26    ...53    -12.020000   ...61    0.463000
    24B26    ...62    0.537000   .G.39    0.410000
    24B26    .G.41    0.497000   ..126    -0.130000
    24B26    ..127    -0.935000   ...20C   -1.000000
    24B26    ...20D   -1.000000   ...19B   -1.000000
    24B26    ...22B   -1.000000   ...20A   -1.000000
    24B26    ...20    10.000000
    MB90BP   ...37    0.100000   ...20    -0.010000
    MB90BP   ....5A   0.100000
    MB90K    ...37    0.100000   ...21    -0.010000
    MB90K    ....3A   0.100000
    2490BP   ...20    -0.010000   ...47    0.010000
    2490BP   ....5B   200.000000
    2490K    ...21    -0.010000   ...47    0.010000
    2490K    ....3B   200.000000
    DD90PT   ...47    -0.070000   ...50    0.007000
    DD90PT   ..123    0.007000   ....3C   0.500000
    2390PT   ...19    -0.007000   ...22    0.007000
    2390PT   ....6B   0.066700
    3490PT   ...22    0.010000   ...48    -0.010000
    3490PT   ....6C   0.200000
    LD90PT   ...48    -0.010000   ...49    0.010000
    LD90PT   ....6D   200.000000
    HD90PT   ...49    0.070000   ...50    -0.007000
    HD90PT   ..123    -0.007000   ....6E   0.333300
    CMC90    ...43    -3.000000   ...56    0.030000
    CMC90    ...78A   0.400000
    CHC90    ...43    -0.800000   ...56    0.008000
    CHC90    ...78B   0.200000
    UHCEP    ...43    -0.800000   ...56    0.008000
    UHCEP    ...78C   0.166700
    F190PT   ...78    0.200000   ...79    -0.200000
    F190PT   ...68A   0.200000
    LC90PT   ...42    -0.100000   ...77    0.100000
    LC90PT   ...68B   0.200000
    MC90PT   ...77    0.101000   ...78    -0.101000
    MC90PT   ...68C   0.040000
    LCYCEP   ...79    -0.181000   ...80    0.181000
    LCYCEP   ...68D   200.000000
    R3490P   ...65    -0.026000   ...41    -1.200000
    R3490P   ...46    1.300000   ...53    -0.100000
    R3490P   .G.39    0.013000   ...54    -0.018000
    R3490P   ...22A   2.000000
    R2490P   ...65    0.007000   ...40    0.270000
    R2490P   ...46    -0.330000   ...53    0.060000
    R2490P   ...61    0.003300   ...62    -0.003300
    R2490P   .G.41    -0.003300   ...54    0.006000
    R2490P   ...20A   200.000000
    RLC90P   ...65    -0.023000   ...33    0.100000
    RLC90P   ...39    1.200000   ...40    0.600000
    RLC90P   ...41    -1.900000   ...61    0.020000
    RLC90P   ...62    -0.020000   .G.39    0.020000
    RLC90P   .G.41    -0.008000   ...54    0.032000
    RLC90P   ...77A   2.000000
    RMC90P   ...65    0.011000   ...54    -0.041000
    RMC90P   ...40    -1.300000   ...41    2.200000
    RMC90P   ...53    -0.040000   .G.39    -0.023000
    RMC90P   .G.41    0.016000   ...39    -0.700000
    RMC90P   ...33    -0.120000   ...34    -0.040000
    RMC90P   ...77B   0.400000   ...61    -0.023000
    RMC90P   ...62    0.023000
    79OUPS   ...20C   1.000000
    79ODNS   ...20D   1.000000
    79OUP    ...65    -0.019000   ...33    -0.090000
    79OUP    ...40    -8.000000   ...41    9.200000
    79OUP    ...53    -1.080000   ...61    -0.100000
    79OUP    ...62    0.100000   .G.39    -0.100000
    79OUP    .G.41    0.100000   ...54    -0.201000
    79OUP    ...34    -0.030000   ...20C   0.400000
    79ODN    ....1    0.000100   ...65    0.019000
    79ODN    ...33    0.090000   ...40    8.000000
    79ODN    ...41    -9.200000   ...53    1.080000
    79ODN    ...61    0.100000   ...62    -0.100000
    79ODN    .G.39    0.100000   .G.41    -0.100000
    79ODN    ...54    0.201000   ...20D   0.400000
    79ODN    ...34    0.030000
    79DH90   ...65    0.051000   ...40    2.000000
    79DH90   ...53    0.300000   .G.41    -0.023000
    79DH90   ...39    -2.300000   ...54    0.017000
    79DH90   ...19B   1.000000
    60OH90   ...65    0.051000   ...41    2.200000
    60OH90   ...46    -2.500000   .G.39    -0.025000
    60OH90   ...54    0.034000   ...53    0.300000
    60OH90   ...22B   0.666700
    U2490    ...20    -0.127000   ..104    -0.025000
    U2490    ..105    0.035900   ...50    0.001800
    U2490    ..123    0.010800   ...47A   200.000000
    UDD90    ...20    0.011000   ..104    0.007300
    UDD90    ..105    0.009600   ...50    -0.018000
    UDD90    ..123    -0.108000   ...47B   0.500000
    U3490    ...20    -0.127000   ..104    -0.017600
    U3490    ..105    0.027300   ...50    0.003000
    U3490    ..123    0.018000   ...48A   2.000000
    UHD90    ..104    -0.027000   ..105    -0.117000
    UHD90    ...50    0.144000   ..123    0.864000
    UHD90    ...49A   3.333300
    UTS90    ..104    -0.037000   ..105    0.037000
    UTS90    ...47C   1.000000
    UDS90    ..105    -0.017000   ...50    0.017000
    UDS90    ..123    0.102000   ...47D   1.000000
    KUWAIT   ....1    2.730000   ...65    -0.428000
    KUWAIT   ...54    -0.342000   ...33    -0.600000
    KUWAIT   ...34    -1.800000   ...35    -1.300000
    KUWAIT   ...39    -1.800000   ...37    -7.700000
    KUWAIT   ...21    -1.110000   ...47    -2.800000
    KUWAIT   ...50    -0.210000   ...51    -0.250000
    KUWAIT   ...53    -1.700000   ..123    -0.210000
    KUWAIT   ..126    -0.037000   ....3A   -1.000000
    KUWAIT   ....3B   -1.000000   ....3C   -1.000000
    KUWAIT   ....3    1.000000
    B25&26   ....1    2.730000   ...65    -0.428000
    B25&26   ...54    -0.128000   ...33    -0.800000
    B25&26   ...34    -1.900000   ...35    -1.300000
    B25&26   ...39    -0.600000   ...37    -7.700000
    B25&26   ...20    -1.200000   ...47    -2.800000
    B25&26   ...50    -0.251000   ...51    -0.209000
    B25&26   ...53    -1.700000   ..123    -0.251000
    B25&26   ..126    -0.012000   ....5A   -1.000000
    B25&26   ....5B   -1.000000   ....3C   -1.000000
    B25&26   ....5    1.000000
    WILM26   ....1    2.320000   ...65    -0.460000
    WILM26   ...37    -4.000000   ...20    -0.700000
    WILM26   ...47    -2.600000   ...50    -0.313000
    WILM26   ...51    -0.300000   ...53    -1.700000
    WILM26   ..123    0.313000   ..126    -0.018000
    WILM26   ....5A   -1.000000   ....5B   -1.000000
    WILM26   ....3C   -1.000000   ...11    1.000000
    B33UP6   ....1    2.730000   ...65    -0.680000
    B33UP6   ...54    -0.128000   ...33    -0.800000
    B33UP6   ...34    -1.900000   ...35    -1.300000
    B33UP6   ...39    -0.600000   ...38    -7.900000
    B33UP6   ...38A   -0.030000   ...19    -0.820000
    B33UP6   ...22    -0.580000   ...48    -1.440000
    B33UP6   ...49    -1.070000   ...50    -0.258000
    B33UP6   ...51    -0.209000   ...53    -1.700000
    B33UP6   ..123    -0.015500   ..126    -0.007800
    B33UP6   ....6B   -1.000000   ....6C   -1.000000
    B33UP6   ....6D   -1.000000   ....6E   -1.000000
    B33UP6   ....6    1.000000
    B33UP7   ...65    -0.034000   ...38    1.360000
    B33UP7   ...19    0.068000   ...22    0.068000
    B33UP7   ...48    0.204000   ...49    0.272000
    B33UP7   ...50    -0.074800   ..123    0.265200
    B33UP7   ....7    1.000000
    B33DN6   ...65    0.073000   ...50    0.097000
    B33DN6   ...52    -0.306000   ...51    0.209000
    B33DN6   ..123    -0.145500   ....8    1.000000
    MN61     ....1    3.070000   ...65    -0.322000
    MN61     ...54    -0.087000   ...34    -2.000000
    MN61     ...35    -3.500000   ...39    -2.500000
    MN61     ...37    -11.000000   ...21    -7.240000
    MN61     ...47    -0.660000   ...53    -2.000000
    MN61     ....3A   -2.500000   ....3B   -3.600000
    MN61     ...10    1.000000
    4CORN    ....1    3.210000   ...65    -0.394000
    4CORN    ...54    -0.427000   ...33    -0.500000
    4CORN    ...34    -2.000000   ...35    -1.300000
    4CORN    ...39    -2.100000   ...37    -11.200000
    4CORN    ...20    -0.654000   ...21    -0.866000
    4CORN    ...47    -3.600000   ...50    -0.220000
    4CORN    ...51    -0.080000   ...53    -1.700000
    4CORN    ..123    -1.760000   ..126    -0.001000
    4CORN    ....3A   -0.570000   ....5A   -0.430000
    4CORN    ....3B   -0.570000   ....5B   -0.430000
    4CORN    ....3C   -1.000000   ...14    1.000000
    GACH     ....1    2.780000   ...65    -0.428000
    GACH     ...54    -0.342000   ...33    -0.600000
    GACH     ...34    -1.500000   ...35    -1.400000
    GACH     ...39    -1.400000   ...37    -7.700000
    GACH     ...20    -0.293000   ...21    -0.877000
    GACH     ...47    -2.800000   ...50    -0.210000
    GACH     ...51    -0.250000   ...53    -1.700000
    GACH     ..123    -0.210000   ..126    -0.025000
    GACH     ....3A   -0.750000   ....5A   -0.250000
    GACH     ....3B   -0.750000   ....5B   -0.250000
    GACH     ....3C   -1.000000   ....4    1.000000
    SMT      ....1    2.240000   ...65    -0.321000
    SMT      ...54    -0.087000   ...33    -0.100000
    SMT      ...34    -0.300000   ...35    -0.300000
    SMT      ...39    -0.200000   ...37    -10.000000
    SMT      ...20    -0.100000   ...50    -0.176600
    SMT      ...29    -0.693400   ...53    -1.100000
    SMT      ..123    -1.942600   ...15    1.000000
    HVAROM   ...56    -0.850000   ...43    -15.000000
    HVAROM   ...41    100.000000   ...41A   1.000000
    HVAROM   ...78C   -1.000000   ...65    -0.539000
    TCC.1S   ...65    -0.350000   ...54    -4.290000
    TCC.1S   ...82    -0.900000   ...76    -3.150000
    TCC.1S   ...42    -7.900000   ...77    -15.200000
    TCC.1S   ...78    -3.450000   ...79    38.600000
    TCC.1S   ...80    -2.500000   ...81    -2.500000
    TCC.1S   ...53    -3.000000   ..126    -0.430000
    TCC.1S   ...68    1.000000   ...70    3.000000
    TCCTRT   ...65    -1.700000   ...54    -4.523000
    TCCTRT   ...82    -3.560000   ...76    -6.760000
    TCCTRT   ...42    -10.990000   ...77    -17.280000
    TCCTRT   ...78    -4.130000   ...79    -39.110000
    TCCTRT   ...80    -3.920000   ...81    -13.740000
    TCCTRT   ...53    -0.510000   ...50    1.000000
    TCCTRT   ..123    3.000000   ..126    -0.550000
    TCCTRT   ...66    1.000000
    TCCCRK   ...65    -1.700000   ...54    -1.674000
    TCCCRK   ...82    -1.730000   ...76    -4.620000
    TCCCRK   ...42    -8.800000   ...77    -14.110000
    TCCCRK   ...78    -5.220000   ...79    -56.110000
    TCCCRK   ...80    -3.920000   ...81    -5.000000
    TCCCRK   ...53    -0.490000   ...50    1.000000
    TCCCRK   ..123    3.000000   ..126    -0.550000
    TCCCRK   ...67    1.000000
    TCC.1    ...65    -1.825000   ...54    -5.140000
    TCC.1    ...82    -2.320000   ...76    -7.370000
    TCC.1    ...42    -13.420000   ...77    -18.960000
    TCC.1    ...78    -9.310000   ...79    -37.420000
    TCC.1    ...80    -3.400000   ...81    -3.400000
    TCC.1    ...53    -4.400000   ...50    1.000000
    TCC.1    ..123    3.000000   ..126    -0.514000
    TCC.1    ...68    1.000000   ...68A   -1.000000
    TCC.1    ...68B   -1.000000   ...68C   -1.000000
    TCC.3    ...65    -1.210000   ...54    -1.029000
    TCC.3    ...82    -1.200000   ...76    -1.490000
    TCC.3    ...42    -1.930000   ...77    2.090000
    TCC.3    ...78    -4.920000   ...79    -92.020000
    TCC.3    ...80    -0.070000   ...81    -0.070000
    TCC.3    ...53    -0.390000   ...50    1.000000
    TCC.3    ..123    3.000000   ..126    0.028300
    TCC.3    ...70    1.000000   ...68A   -1.000000
    TCC.3    ...68B   -1.000000   ...68C   -1.000000
    FCC.1S   ...65    0.156000   ...82    -2.730000
    FCC.1S   ...76    -5.200000   ...42    -4.680000
    FCC.1S   ...77    -9.360000   ...78    -4.680000
    FCC.1S   ...79    20.930000   ...80    6.760000
    FCC.1S   ...53    -1.040000   ..126    -0.169000
    FCC.1S   ...73    1.000000   ...75    1.000000
    FCC.1    ...65    -0.198000   ...54    -7.595000
    FCC.1    ...82    -5.140000   ...76    -6.370000
    FCC.1    ...42    -10.570000   ...77    -23.880000
    FCC.1    ...78    -8.930000   ...79    -21.610000
    FCC.1    ...80    -19.500000   ...53    -4.000000
    FCC.1    ...50    1.000000   ..124    -1.500000
    FCC.1    ..126    -0.653000   ...73    1.000000
    FCC.1    ...68A   -1.000000   ...68B   -1.000000
    FCC.1    ...68C   -1.000000   ...68D   -1.000000
    FCC.3    ...65    -0.405000   ...54    -7.595000
    FCC.3    ...82    -1.910000   ...76    -1.100000
    FCC.3    ...42    -5.130000   ...77    -10.280000
    FCC.3    ...78    -3.490000   ...79    -47.450000
    FCC.3    ...80    -29.360000   ...53    -1.280000
    FCC.3    ...50    1.000000   ..124    -1.500000
    FCC.3    ..126    -0.432000   ...68A   -1.000000
    FCC.3    ...68B   -1.000000   ...68C   -1.000000
    FCC.3    ...68D   -1.000000   ...75    1.000000
    CATC4    ...76    100.000000   ...53    -1.800000
    CATC4    ...32    -62.500000   ...33    -17.300000
    CATC4    ...34    -12.300000   ...35    -6.100000
    CATC4    ...54    -0.695000
    MCAT     ...65    -2.260000   ...54    -3.248000
    MCAT     ...33    -0.360000   ...34    -0.120000
    MCAT     ...39    -14.000000   ...40    -34.700000
    MCAT     ...41    -43.000000   ...53    -7.820000
    MCAT     ...61    0.450000   ...62    0.550000
    MCAT     .G.39    0.450000   .G.41    0.430000
    MCAT     ..126    -0.490000   ..127    0.054000
    MCAT     ...20C   -1.000000   ...20D   -1.000000
    MCAT     ...19B   -1.000000   ...22B   -1.000000
    MCAT     ...77A   -1.000000   ...77B   -1.000000
    MCAT     ...77    100.000000
    CHCAT    ...65    -0.539000   ...54    -1.560000
    CHCAT    ...43    -70.000000   ...56    -0.300000
    CHCAT    ..126    -0.730000   ..127    0.450000
    CHCAT    ...78A   -1.000000   ...78B   -1.000000
    CHCAT    ...78C   -1.000000   ...78    100.000000
    CHCAT    ...63    1.000000
    CHC2MC   ..127    -0.405000   ...54    -2.228000
    CHC2MC   ...65    -1.887000   ...41    -95.000000
    CHC2MC   ...53    -5.000000   ...43    100.000000
    CHC2MC   ...61    1.000000   .G.39    1.000000
    CHC2MC   ...63    -1.000000   ...64    1.000000
    SRRESD   ...81    100.000000   ...50    -1.000000
    SRRESD   ..123    4.000000
    SLURRY   ...79    -33.000000   ...80    39.000000
    SLURRY   ...81    -6.000000   ...80A   1.000000
    CATRES   ...80    100.000000   ..100    -1.000000
    CATRES   ..101    -20.000000   ..102    -0.800000
    FCCG1    ...65    -0.001000   ...76    -0.850000
    FCCG1    ...42    -0.490000   ...77    -0.730000
    FCCG1    ...78    -0.110000   ...79    -1.600000
    FCCG1    ...80    4.000000   ...82    -0.210000
    FCCG1    ...53    -0.010000   ..123    1.000000
    FCCG1    ..124    1.000000
    FCCG2    ...65    -0.001000   ...76    -0.850000
    FCCG2    ...42    -0.490000   ...77    -0.730000
    FCCG2    ...78    -0.110000   ...79    1.060000
    FCCG2    ...80    1.330000   ...82    -0.210000
    FCCG2    ..123    1.000000
    33C11    ...65    -1.571000   ...54    -5.668000
    33C11    ...96    -7.840000   ...36    -14.170000
    33C11    ...97    -25.850000   ...55A   -4.540000
    33C11    ...55    -0.136000   ..100    -0.260400
    33C11    ..101    9.370000   ..102    2.395700
    33C11    ...53    -7.960000   ..126    -0.300000
    33C11    ...79    100.000000   ...83    1.000000
    33C12    ...65    -0.667000   ...54    -1.997000
    33C12    ...96    -6.700000   ...36    -6.430000
    33C12    ...97    -19.210000   ...55A   -13.850000
    33C12    ...55    -0.417600   ..100    -0.105300
    33C12    ..101    3.790000   ..102    0.968800
    33C12    ...53    -1.520000   ..126    -0.300000
    33C12    ...79    100.000000   ...84    1.000000
    33C11S   ....1    0.005000   ...65    -0.904000
    33C11S   ...54    -3.671000   ...96    -1.140000
    33C11S   ...36    -7.740000   ...97    -6.640000
    33C11S   ...55A   9.310000   ...55    0.281600
    33C11S   ..100    -0.155100   ..101    5.580000
    33C11S   ..102    1.426900   ...53    -6.440000
    33C11S   ...83    1.000000   ...84    3.500000
    33C12S   ...84    1.000000
    33VB11   ...65    -1.569000   ...54    -3.227000
    33VB11   ...96    -3.500000   ...36    -6.640000
    33VB11   ...97    -16.240000   ...55A   -0.490000
    33VB11   ...55    -0.014600   ..100    -0.722500
    33VB11   ..101    37.010000   ..102    2.441500
    33VB11   ...53    0.580000   ..126    -0.475000
    33VB11   ...51    1.000000   ...90    1.000000
    33VBR    ...65    -1.569000   ...54    -3.624000
    33VBR    ...96    -4.460000   ...36    -7.300000
    33VBR    ...97    -18.180000   ...55A   -2.640000
    33VBR    ...55    -0.079600   ..100    -0.601500
    33VBR    ..101    21.650000   ..102    1.581800
    33VBR    ...53    0.690000   ..126    -0.411600
    33VBR    ...52    1.000000
    33V11S   ...90    1.000000
    THC4     ...96    100.000000   ...53    -2.000000
    THC4     ...54    -0.772000   ...32    -36.900000
    THC4     ...33    -12.200000   ...34    -45.900000
    THC4     ...35    -3.000000
    MTHERM   ...65    -2.411000   ...54    -2.717000
    MTHERM   ...33    -0.180000   ...34    -0.060000
    MTHERM   ...39    -2.000000   ...40    -20.700000
    MTHERM   ...41    -68.300000   ...46    -2.000000
    MTHERM   ...53    -6.760000   ...61    0.740000
    MTHERM   ...62    0.260000   .G.39    0.720000
    MTHERM   .G.41    0.250000   ..126    -0.690000
    MTHERM   ..127    -0.281000   ...20C   -1.000000
    MTHERM   ...20D   -1.000000   ...19B   -1.000000
    MTHERM   ...22B   -1.000000   ...97    100.000000
    D26U     ...65    -0.701000   ...20    -0.420000
    D26U     ..104    -0.466000   ..105    -0.489000
    D26U     ...50    -0.013000   ...53    1.000000
    D26U     ...54    -0.128000   ..126    -0.780000
    D26U     ..127    0.173300   ..123    -0.078000
    D26U     ...58    1.000000   ...58A   1.000000
    D26U     ...47A   -1.000000   ...47B   -1.000000
    D26U     ...47C   -1.000000   ...47D   -1.000000
    D26U     ...47    10.000000
    D33LU    ...65    -0.701000   ...20    -0.680000
    D33LU    ..104    -0.571000   ..105    -0.346000
    D33LU    ...50    -0.025000   ...53    1.000000
    D33LU    ...54    -0.128000   ..126    -0.360000
    D33LU    ..127    0.140000   ..123    -0.150000
    D33LU    ...58    1.000000   ...58A   1.000000
    D33LU    ...48A   -1.000000   ...47C   -1.000000
    D33LU    ...47D   -1.000000   ...48    10.000000
    D33HU    ...65    -0.701000   ...49    10.000000
    D33HU    ..104    -0.410000   ..105    -0.508000
    D33HU    ...50    -0.092000   ...53    1.000000
    D33HU    ...54    -0.128000   ..123    -0.552000
    D33HU    ...58    1.000000   ...58A   1.000000
    D33HU    ..126    -0.790000   ..127    0.180000
    D33HU    ...49A   -1.000000   ...47C   -1.000000
    D33HU    ...47D   -1.000000
    U90RN    ..104    -0.198000   ..105    0.198000
    U90RN    ...58A   1.000000
    U90RP    ....1    0.002000   ..104    0.198000
    U90RP    ..105    -0.198000   ...58A   -1.000000
    D33LGO   ...48    10.000000   ...50    -1.000000
    D33LGO   ..123    -17.000000
    D33HGO   ...49    10.000000   ...50    -1.000000
    D33HGO   ..123    -10.000000
    UTS2UD   ..104    1.000000   ..105    -1.000000
    UDS2GO   ...50    -1.000000   ..105    1.000000
    UDS2GO   ..123    -13.000000
    HF2LF    ...20    0.860000   ..104    1.000000
    HF2LF    ..104A   -1.086000
    SOLVST   ...65    0.817000   ...54    0.819000
    SOLVST   ..111A   -0.421400   ..111B   0.421400
    SOLVST   ..111C   -0.180000   ...41    56.400000
    SOLVST   ...53    3.740000   .G.39    -0.606400
    SOLVST   ..127    0.463900
    TR135H   ...65    -0.745000   ..112A   0.557900
    TR135H   ...43    -12.480000   ...56    -0.135200
    TR135H   ..104    0.700000   ...46    30.000000
    TR135H   ..110A   -0.740000   ...78C   -0.260000
    T135UH   ...65    -0.680000   ..112A   0.557900
    T135UH   ...43    -6.720000   ...56    -0.072800
    T135UH   ..104    1.000000   ..110A   -0.860000
    T135UH   ...78C   -0.140000
    TR135L   ...65    -0.761000   ..112A   0.557900
    TR135L   ...43    -13.920000   ...56    -0.150800
    TR135L   ..104A   0.700000   ...46    30.000000
    TR135L   ..110B   -0.710000   ...78C   -0.290000
    T135UL   ...65    -0.697000   ..112A   0.557900
    T135UL   ...43    -8.160000   ...56    -0.088400
    T135UL   ..104A   1.000000   ..110B   -0.830000
    T135UL   ...78C   -0.170000
    PFBX     ...65    2.027000   ...54    1.350000
    PFBX     ...41    93.000000   ...53    7.000000
    PFBX     .G.39    -1.000000   ..127    0.765000
    PFBX     ...46    -100.000000
    TR2TSH   ..104    -1.000000   ..110A   1.000000
    TR2TSL   ..104A   -1.000000   ..110B   1.000000
    SBT2PL   ...65    -2.027000   ...54    -1.350000
    SBT2PL   ..111C   1.000000   ...41    -93.000000
    SBT2PL   ...53    -7.000000   .G.39    1.000000
    SBT2PL   ..127    -0.765000
    BB2LAR   ....1    1.260000   .O.31    100.000000
    BB2LAR   ...54    -1.190000   ...33    -9.900000
    BB2LAR   ...34    -47.900000   ...32    -37.200000
    BB2LAR   ...35    -1.300000   ...39    -0.400000
    BB2LAR   ...53    -3.300000
    ALKY.1   ...65    -7.555000   ...33    58.640000
    ALKY.1   ...32    45.450000   ...35    17.270000
    ALKY.1   ...53    -16.360000   ...56    -0.010000
    ALKY.1   ...43    -4.000000   ...44    -1.000000
    ALKY.1   ..118    1.000000   ...78C   -0.050000
    ALKY.2   ...65    -9.255000   ...33    65.900000
    ALKY.2   ...32    70.100000   ...35    9.310000
    ALKY.2   ...53    -31.440000   ...56    -0.027700
    ALKY.2   ...43    -11.100000   ...44    -1.000000
    ALKY.2   ..119    1.000000   ...78C   -0.138700
    ALKY.3   ...65    -11.485000   ...33    74.890000
    ALKY.3   ...32    100.620000   ...35    -0.670000
    ALKY.3   ...53    -49.890000   ...56    -0.049900
    ALKY.3   ...43    -19.960000   ...44    -1.000000
    ALKY.3   ..120    1.000000   ...78C   0.249500
    C42IC4   ...33    -100.000000   ...65    -2.853000
    C42IC4   ...34    100.000000
    76CLAR   ....1    0.370000   .G..3    1.000000
    76CLAR   .G.17    -3.000000   .G.19    -0.350000
    76CLAR   .G.21    0.500000   .G.16    -1.000000
    76COL    ....1    0.370000   .G.76    1.000000
    76COL    .G.85    -3.000000   .G.87    -0.300000
    76COL    .G.89    0.500000   .G.84    -1.000000
    BB..76   .G.17    -18.800000   .G.18    -4.500000
    BB..76   .G.19    1.800000   .G.20    65.500000
    BB..76   .G.21    15.500000   .G.22    11.300000
    BB..76   .G.57    -1.000000   ...76    86.000000
    BB..76   ...96    14.000000
    C4.L76   .G.17    -12.300000   .G.18    -4.500000
    C4.L76   .G.19    1.800000   .G.20    50.500000
    C4.L76   .G.21    -1.500000   .G.22    -2.700000
    C4.L76   ...34    100.000000   .G.57    -1.000000
    AB..76   .G.17    4.700000   .G.18    -4.500000
    AB..76   .G.19    0.200000   .G.20    -5.100000
    AB..76   .G.21    -7.500000   .G.22    -2.700000
    AB..76   ...38    100.000000   .G.57    -1.000000
    MB..76   .G.17    10.200000   .G.18    -4.500000
    MB..76   .G.19    0.500000   .G.20    -5.400000
    MB..76   .G.21    -8.500000   .G.22    -2.700000
    MB..76   ...37    100.000000   .G.57    -1.000000
    C5C676   .G.17    1.700000   .G.18    -4.500000
    C5C676   .G.19    1.400000   .G.20    5.500000
    C5C676   .G.21    -6.000000   .G.22    -2.700000
    C5C676   ...39    100.000000   .G.57    -1.000000
    LTH.76   .G.17    -3.800000   .G.18    3.500000
    LTH.76   .G.19    1.400000   .G.20    -0.500000
    LTH.76   .G.21    7.500000   .G.22    5.300000
    LTH.76   ...36    100.000000   .G.57    -1.000000
    LCAT76   .G.17    -15.800000   .G.18    22.500000
    LCAT76   .G.19    1.000000   .G.20    1.100000
    LCAT76   .G.21    15.500000   .G.22    11.300000
    LCAT76   ...42    100.000000   .G.57    -1.000000
    HCAT76   .G.17    -0.300000   .G.18    -1.500000
    HCAT76   .G.19    -2.500000   .G.20    -7.500000
    HCAT76   .G.21    -1.500000   .G.22    -2.100000
    HCAT76   ...43    100.000000   .G.57    -1.000000
    HCAT76   .G.22A   5.000000
    101P76   .G.17    -9.400000   .G.18    -3.500000
    101P76   .G.19    -1.330000   .G.20    -3.000000
    101P76   .G.21    2.000000   .G.22    -2.600000
    101P76   .G.57    -1.000000   .G.22A   1.000000
    101P76   ...53    -1.750000   ...41    101.750000
    101P76   ...65    -0.200000
    102P76   .G.17    -10.400000   .G.18    -3.500000
    102P76   .G.19    -1.280000   .G.20    -2.000000
    102P76   .G.21    2.000000   .G.22    -2.600000
    102P76   .G.57    -1.000000   .G.22A   1.000000
    102P76   ...53    -3.104000   ...41    103.104000
    102P76   ...65    -0.400000
    100P76   .G.17    -8.400000   .G.18    -3.500000
    100P76   .G.19    -1.380000   .G.20    -4.000000
    100P76   .G.21    2.000000   .G.22    -2.600000
    100P76   .G.22A   1.000000   ...53    -0.760000
    100P76   ...41    100.760000   .G.57    -1.000000
    ALKY76   .G.17    -11.400000   .G.18    -4.500000
    ALKY76   .G.20    -3.000000   .G.21    -0.500000
    ALKY76   .G.22    -2.700000   ...44    1.000000
    ALKY76   .G.57    -1.000000
    BB...R   .G.11    -1.800000   .G.11B   1.781000
    BB...R   .G.12    -4.500000   .G.13    -2.070000
    BB...R   .G.14    65.500000   .G.15    11.300000
    BB...R   .G.59    -1.000000   ...76    86.000000
    BB...R   ...96    14.000000
    C4..LR   .G.11    -1.800000   .G.11B   -2.184000
    C4..LR   .G.12    -4.500000   .G.13    -2.070000
    C4..LR   .G.14    50.500000   .G.15    -2.700000
    C4..LR   ...34    100.000000   .G.59    -1.000000
    IC5..R   .G.11    -2.800000   .G.11B   -2.686000
    IC5..R   .G.12    -4.500000   .G.13    -2.070000
    IC5..R   .G.14    10.500000   .G.15    -2.700000
    IC5..R   ...35    100.000000   .G.59    -1.000000
    AB...R   .G.11    9.700000   .G.11B   6.486500
    AB...R   .G.12    -4.500000   .G.13    -0.470000
    AB...R   .G.14    -5.100000   .G.15    -2.700000
    AB...R   ...38    100.000000   .G.59    -1.000000
    100P.R   .G.11    0.400000   .G.11B   0.811400
    100P.R   .G.12    -3.500000   .G.13    1.110000
    100P.R   .G.14    -4.000000   .G.15    -2.600000
    100P.R   ...41    100.760000   ...53    -0.760000
    100P.R   .G.59    -1.000000
    101P.R   .G.11    -0.600000   .G.12    -3.500000
    101P.R   .G.13    1.060000   .G.14    -3.000000
    101P.R   .G.15    -2.600000   .G.59    -1.000000
    101P.R   ...53    -1.750000   ...41    101.750000
    101P.R   ...65    -0.200000
    102P.R   .G.11    -1.600000   .G.11B   -0.802600
    102P.R   .G.12    -3.500000   .G.13    1.010000
    102P.R   .G.14    -2.000000   .G.15    -2.600000
    102P.R   .G.59    -1.000000   ...53    -3.104000
    102P.R   ...41    103.104000   ...65    -0.400000
    ALKYLR   .G.11    -3.800000   .G.11B   -3.798000
    ALKYLR   .G.12    -4.500000   .G.13    -0.270000
    ALKYLR   .G.14    -3.000000   .G.15    -2.700000
    ALKYLR   ...44    1.000000   .G.59    -1.000000
    HCATLR   .G.11    5.700000   .G.11B   4.509000
    HCATLR   .G.12    -1.500000   .G.13    1.430000
    HCATLR   .G.14    -7.500000   .G.15    -2.100000
    HCATLR   ...43    100.000000   .G.59    -1.000000
    104RLR   .G.11    -3.800000   .G.11B   -2.578000
    104RLR   .G.12    -4.000000   .G.13    0.480000
    104RLR   .G.14    -2.400000   .G.15    -2.600000
    104RLR   .G.59    -1.000000   ...40    100.000000
    104RLR   ...65    -0.300000
    REF.LR   .G.11    -2.300000   .G.11B   -1.367500
    REF.LR   .G.12    -4.000000   .G.13    0.580000
    REF.LR   .G.14    -2.400000   .G.15    -2.600000
    REF.LR   ...40    96.280000   .G.59    -1.000000
    REF.LR   ...33    0.230000   ...34    0.080000
    REF.LR   ...53    3.410000
    C5C6LR   .G.11    6.200000   .G.11B   2.899500
    C5C6LR   .G.12    -4.500000   .G.13    -1.670000
    C5C6LR   .G.14    5.500000   .G.15    -2.700000
    C5C6LR   ...39    100.000000   .G.59    -1.000000
    LCATLR   .G.11    1.200000   .G.11B   4.202000
    LCATLR   .G.12    22.500000   .G.13    -1.270000
    LCATLR   .G.14    1.100000   .G.15    11.300000
    LCATLR   ...42    100.000000   .G.59    -1.000000
    GASVS    ....1    0.160000   .G..3    -0.600000
    GASVS    .G.10    -0.400000   .G123    1.000000
    GASVSA   ....1    0.880000   .G.10    -0.323000
    GASVSA   .G.16    -0.677000   .G123A   1.000000
    GASVSB   ....1    0.600000   .G.10    -0.400000
    GASVSB   .G.16    -0.600000   .G123B   1.000000
    AV.115   ...35    2.000000   ...44    0.820000
    AV.115   ...38    4.000000   ...40    12.000000
    AV.115   .G.51    1.000000   .G.64    -0.396900
    AV.115   ....1    -5.730000
    AV115V   .G.51    -1.000000   .G.51V   1.000000
    AV.100   ...35    4.000000   ...44    0.760000
    AV.100   ...38    20.000000   .G.52    1.000000
    AV.100   .G.64    -0.351800   ....1    -6.690000
    AV..80   ....1    -6.440000   ...35    13.000000
    AV..80   ...38    71.000000   ...44    0.160000
    AV..80   .G.64    -0.045100   .G.53    1.000000
    PAF      ....1    -6.500000   .G.54    1.000000
    PAF      ...33    0.768000   ...34    10.006000
    PAF      ...39    12.000000   ...41    14.250000
    PAF      ...40    50.560000   ...53    12.416000
    PAF      .G.41    -0.640000   ...65    1.433000
    PAF      ...54    0.461000   ..127    0.619500
    PAF      .G.45    0.640000
    C4.O76   .G.85    -11.800000   .G.86    -4.500000
    C4.O76   .G.87    1.350000   .G.88    60.500000
    C4.O76   .G.89    -3.000000   .G.90    -1.000000
    C4.O76   .O.31    100.000000
    LW..76   .G.85    2.700000   .G.86    -4.500000
    LW..76   .G.87    0.300000   .G.88    -1.500000
    LW..76   .G.89    -6.500000   .G.90    -1.000000
    LW..76   .G.99    1.000000
    LO..76   .G.85    2.900000   .G.86    -4.300000
    LO..76   .G.87    0.850000   .G.88    1.500000
    LO..76   .G.89    -6.900000   .G.90    -1.000000
    LO..76   .G100    1.000000
    C5O.76   .G.85    -2.800000   .G.86    1.500000
    C5O.76   .G.87    1.230000   .G.88    3.500000
    C5O.76   .G.89    3.500000   .G.90    -1.000000
    C5O.76   .O.32    1.000000
    95PO76   .G.85    -2.800000   .G.86    -3.900000
    95PO76   .G.87    -1.425000   .G.88    -5.800000
    95PO76   .G.89    1.300000   .G.90    -1.000000
    95PO76   .G102    0.975700   .O.26    2.430000
    95PO76   .G105    -0.184400   .O..1    0.229000
    95PO76   .O..3    1.117000   .O.72    -0.194400
    96PO76   .G.85    -3.800000   .G.86    -3.900000
    96PO76   .G.87    -1.390000   .G.88    -5.600000
    96PO76   .G.89    1.400000   .G.90    -1.000000
    96PO76   .G102    0.981100   .O.26    1.890000
    96PO76   .G105    -0.185400   .O..1    0.195000
    96PO76   .O..3    1.001000   .O.72    -0.138900
    LSTP76   .G.85    -6.300000   .G.86    -3.900000
    LSTP76   .G.87    -1.300000   .G.88    -5.000000
    LSTP76   .G.89    1.700000   .G.90    -1.000000
    LSTP76   .G102    1.000000
    LCO.76   ....1    0.137000   ...42    100.000000
    LCO.76   .G.85    -11.800000   .G.86    25.500000
    LCO.76   .G.87    0.950000   .G.88    1.100000
    LCO.76   .G.89    16.000000   .G.90    -1.000000
    HCO.76   ....1    1.140000   ...43    100.000000
    HCO.76   .G.85    0.800000   .G.86    -2.500000
    HCO.76   .G.87    -1.650000   .G.88    -7.500000
    HCO.76   .G.89    1.400000   .G.90    -1.000000
    LUNO76   .G.85    12.200000   .G.86    -4.500000
    LUNO76   .G.87    -1.300000   .G.88    -7.200000
    LUNO76   .G.89    -9.000000   .G.90    -1.000000
    LUNO76   .G102    0.868500   .G105    -1.000000
    LUNO76   .O..1    1.575000   .O..3    6.600000
    LUNO76   .O.26    13.150000   .G126    1.000000
    LUNO76   .O.41    0.660000
    C4..OR   .G.92    -3.900000   .G.92B   -4.703000
    C4..OR   .G.93    -4.500000   .G.94    -1.620000
    C4..OR   .G.95    60.500000   .G.96    -1.000000
    C4..OR   .O.31    100.000000
    LW..OR   .G.92    10.600000   .G.92B   5.931000
    LW..OR   .G.93    -4.500000   .G.94    -0.570000
    LW..OR   .G.95    -1.500000   .G.96    -1.000000
    LW..OR   .G.99    1.000000
    C56.OR   .G.92    5.100000   .G.92B   4.542500
    C56.OR   .G.93    1.500000   .G.94    -1.500000
    C56.OR   .G.95    3.500000   .G.96    -1.000000
    C56.OR   .O.32    1.000000
    96PO.R   .G102    0.981100   .O.26    1.890000
    96PO.R   .G105    -0.185400   .G.92    4.100000
    96PO.R   .G.92B   3.095000   .G.93    -3.900000
    96PO.R   .G.94    1.120000   .G.95    -5.600000
    96PO.R   .G.96    -1.000000   .O..1    0.195000
    96PO.R   .O..3    1.001000   .O.72    -0.138900
    HSTPOR   .G102    1.026800   .O.26    -2.680000
    HSTPOR   .G105    0.621600   .G.92    -0.900000
    HSTPOR   .G.92B   -0.787500   .G.93    -3.900000
    HSTPOR   .G.94    0.950000   .G.95    -2.600000
    HSTPOR   .G.96    -1.000000   .O..1    -0.437000
    HSTPOR   .O..3    -1.397000   .O.72    0.138900
    LSTPOR   .G.92    1.600000   .G.92B   1.169000
    LSTPOR   .G.93    -3.900000   .G.94    1.030000
    LSTPOR   .G.95    -5.000000   .G.96    -1.000000
    LSTPOR   .G102    1.000000
    LC..OR   ....1    0.137000   .G.92    2.100000
    LC..OR   .G.92B   4.104000   .G.93    25.500000
    LC..OR   .G.94    -1.220000   .G.95    1.100000
    LC..OR   .G.96    -1.000000   ...42    100.000000
    104ROR   ....1    0.137000   .G.92    -3.900000
    104ROR   .G.92B   -3.178000   .G.93    -4.000000
    104ROR   .G.94    0.530000   .G.95    -2.400000
    104ROR   .G.96    -1.000000   ...40    100.000000
    104ROR   ...65    -0.300000
    REF.OR   ....1    0.137000   .G.92    -2.400000
    REF.OR   .G.92B   -1.967500   .G.93    -4.000000
    REF.OR   .G.94    0.630000   .G.95    -2.400000
    REF.OR   .G.96    -1.000000   ...40    96.280000
    REF.OR   ...33    0.230000   ...34    0.080000
    REF.OR   ...53    3.410000
    ALKYOR   ....1    0.137000   .G.92    -4.400000
    ALKYOR   .G.92B   -6.631500   .G.93    -4.500000
    ALKYOR   .G.94    -0.220000   .G.95    -3.000000
    ALKYOR   .G.96    -1.000000   ...44    1.000000
    USD2GO   .O..1    0.287000   .O..3    -0.900000
    USD2GO   .G124    1.040000   .O.26    -4.000000
    USD2GO   .O.24    -1.000000   ..123    -14.000000
    USD2GO   .O.72    -2.500000   .O.41    -0.335000
    USD2GO   .O.40    -1.000000
    EDO250   .OMB1    0.250000   .O..2    -1.000000
    EDO250   .O..6    0.750000
    SMRORN   .O.11    1.000000   .SM.1    -0.100000
    SMRORN   .O.59    -0.650000   .O.27    -0.350000
    SMRORN   .SM10    0.650000   .SM21    1.000000
    SMRORN   .SM22    1.000000   .SM22A   1.000000
    SMRNG    ....1    3.720000   .SM.1    -0.100000
    SMRNG    .O.59    -1.000000   .SM10    1.000000
    SMRNG    .SM20    1.000000   .O.10    1.000000
    SMRNG    .SM22    1.000000   .SM22A   1.000000
    SMRSMV   ....1    1.542000   .SM.1    -0.100000
    SMRSMV   .SM.3    -0.260000   .O.59    -0.277000
    SMRSMV   .SM.4    0.946000   .O.12    0.560000
    SMRSMV   .O.27    -0.546600   .SM.6    -0.122000
    SMRSMV   .SM.7    -0.100000   .SM.8    -0.700000
    SMRSMV   .SM10    0.144000   .SM11    0.672900
    SMRSMV   .SM22    0.353000   .SM22B   -0.538000
    SMRSMV   .SM22A   1.000000
    SMROLC   ....1    2.070000   .O..9    1.000000
    SMROLC   .SM.1    -0.100000   .SM.3    -0.194000
    SMROLC   .O.59    -0.374100   .O.27    -0.528200
    SMROLC   .SM.6    -0.097100   .SM.7    -0.340000
    SMROLC   .SM.8    -0.400000   .SM10    0.269000
    SMROLC   .SM11    0.590700   .SM22    0.432000
    SMROLC   .SM22B   0.240000   .SM22A   1.000000
    SMRSJH   ....1    1.980000   .SM.1    -0.100000
    SMRSJH   .SM.3    -0.220000   .O.59    -0.153000
    SMRSJH   .SM.6    -0.071000   .SM.7    0.640000
    SMRSJH   .SM.8    -0.160000   .SM10    0.044000
    SMRSJH   .SM11    0.716600   .O.58    1.000000
    SMRSJH   .O.27    -0.768000   .SM22A   1.000000
    SMRSJH   .SM22    0.311000   .SM22B   0.100000
    SMRCBT   ....1    0.196300   .SM.1    -0.100000
    SMRCBT   .SM.3    -0.320000   .O.59    -0.148000
    SMRCBT   .O.60    -0.280000   .O.27    -0.414000
    SMRCBT   .SM.6    -0.156000   .SM.7    -0.250000
    SMRCBT   .SM.8    -0.450000   .SM10    0.280000
    SMRCBT   .SM11    0.748800   ...31    1.000000
    SMRCBT   .SM22    0.280000   .SM22A   1.000000
    SMRCBT   .SM22B   1.000000
    LUB10N   ....1    -3.568500   .O..1    -3.178000
    LUB10N   .O.45    0.417000   .O.24    0.073700
    LUB10N   .O.25    0.888600   .O.50    -2.350000
    LUB10N   .O.26    -0.290000   ..123    0.400000
    LUB10N   .O.51    -0.583000   .O.53    0.035000
    LUB10N   .O.52    0.296400
    LUB5N    ....1    -3.369300   .O..1    -3.071000
    LUB5N    .O.45    0.391000   .O.24    -0.035200
    LUB5N    .O.25    1.000000   .O.50    -2.200000
    LUB5N    .O.51    -0.609000   .O.53    0.018900
    LUB5N    .O.52    0.277700   ..123    -0.246400
    LUB5N    .O.26    -0.320000
    WAXEX    ....1    -0.846400   .O..1    -3.071000
    WAXEX    .O.45    0.391000   .O.24    -0.312900
    WAXEX    .O.25    1.000000   .O.50    -2.200000
    WAXEX    .O.51    -0.609000   .O.26    -0.320000
    WAXEX    ..123    -2.169400
    SM2CGO   .O.27A   1.000000   .O.24    -1.000000
    SM2CGO   .O.27    1.000000   .O.67A   1.000000
    SM2CGO   ..123    -4.000000
    SM2GOS   .O.27A   1.000000
    70HS1L   ....1    0.028500   .O..1    -1.410000
    70HS1L   .O..3    -5.220000   .O.27    1.043100
    70HS1L   .O.28    1.000000   .O.82    -0.527000
    70HS1L   .O.37    -0.410000   .O.26    -6.300000
    70HS1L   .O.20    -4.310000
    70HS2L   ....1    0.028500   .O..1    -0.875000
    70HS2L   .O..3    -2.600000   .O.27    1.043100
    70HS2L   .O.29    1.000000   .O.82    -0.280000
    70HS2L   .O.36    -0.600000   .O.37    -0.090000
    70HS2L   .O.26    -3.000000   .O.20    -4.310000
    70HS1H   ....1    0.028500   .O..1    -1.550000
    70HS1H   .O..3    -5.400000   .O.27    1.043100
    70HS1H   .O.28    0.940000   .O.29    0.081700
    70HS1H   .O.82    -0.526000   .O.37    -0.406000
    70HS1H   .O.26    -6.800000   .O.20    -4.310000
    70HS2H   ....1    0.028500   .O..1    -1.010000
    70HS2H   .O..3    -3.400000   .O.27    1.043100
    70HS2H   .O.29    1.021700   .O.82    -0.290000
    70HS2H   .O.36    -0.560000   .O.37    -0.130000
    70HS2H   .O.26    -2.000000   .O.20    -4.310000
    HCGO70   .O..3    0.800000   .O.27    -1.043100
    HCGO70   .O.82    0.120000   .O.37    -0.120000
    HCGO70   .O.20    4.310000   .O.24    1.000000
    HCGO70   ..123    -5.000000
    U70PD    .O..1    -1.014000   .O..3    -3.061000
    U70PD    .O.82    1.000000   .O.26    -1.130000
    U70PD    .O.31    -7.500000   .O.32    -0.213000
    U70PD    .G102    -0.409100   .G124    -0.276600
    U70PD    .O.38    -1.500000   .G105    0.463800
    U70PD    .O.41    0.185200   .O.72    1.331600
    U70PD    .O.40    0.712000
    70UDCT   .O..1    0.287000   .O..3    -0.900000
    70UDCT   .G124    1.040000   .O.26    -4.000000
    70UDCT   .O.36    -1.000000   .O.41    -0.690000
    70UDCT   .O.72    -4.000000   .O.40    -1.000000
    O250     ....1    -2.500000   .O..5    1.000000
    O250     .O..6    1.000000   .O.19    -1.700000
    RDAS2Q   ....1    -3.360000   .O..1    -1.038000
    RDAS2Q   .O..4    1.000000   .O..6    0.221700
    RDAS2Q   .O..7    0.720000   .O.19    -1.600000
    RDAS2Q   .O.23    0.600000   .OMB1    0.014000
    RDAS2Q   .O.36    0.038300
    OLC250   ....1    2.189300   .O..1    -0.392000
    OLC250   .O..6    -0.579000   .O..9    1.047500
    OLC250   .O.18    1.145900   .O.20    -4.750000
    OLC250   .G100    -0.070000   .O.23    -12.200000
    OLC250   .OMB1A   -0.123000   .OMB3    -0.061000
    OLC250   .O.24    -0.040000   .O.26    -0.500000
    OLC250   ..123    -0.020000
    OLCO42   ....1    2.189300   .O..1    -0.392000
    OLCO42   .O..7    -0.485000   .O..9    1.047500
    OLCO42   .O.18    1.367700   .O.20    -4.750000
    OLCO42   .G100    -0.070000   .O.23    -12.200000
    OLCO42   .OMB1A   -0.123000   .OMB3    -0.061000
    OLCO42   .O.24    -0.134000   .O.26    -0.500000
    OLCO42   ..123    -0.067000
    NAGASO   ....1    3.720000   .O..1    -0.374000
    NAGASO   .O.10    1.000000   .O.20    -4.530000
    NAGASO   .G100    -0.916500   .O.23    -3.820000
    ORNAPH   ....1    0.031300   .O..1    -0.374000
    ORNAPH   .O.11    1.000000   .O.20    -4.530000
    ORNAPH   .G100    -0.262500   .O.23    -16.710000
    ORNAPH   .OMB1A   -0.286400   .OMB3    -0.238700
    ORSRGO   ....1    0.031300   .O..1    -0.374000
    ORSRGO   .O.12    100.000000   .O.20    -4.530000
    ORSRGO   .OMB1A   -0.477300   .OMB3    -0.477400
    CKCR67   .O..1    -1.000000   .O.63    -0.137600
    CKCR67   .O.64    -0.356600   .O.63A   -0.245300
    CKCR67   .O.65    -0.108100   .O.67    -1.333300
    CKCR67   .O.18    1.713000
    W67NIR   ....1    2.911700   .O..1    -0.392000
    W67NIR   .O.15    1.012200   .O.20    -1.220000
    W67NIR   .G.99    -0.200000   .O.23    -9.200000
    W67NIR   .OMB1    -0.125000   .OMB2    -0.094000
    W67NIR   .O.24    -0.143000   .O.25    -0.327000
    W67NIR   .O.31    -1.300000   ..123    -1.215500
    W67NIR   .O.18    1.000000
    UNPLHW   .O..1    -1.862000   .O..3    -6.600000
    UNPLHW   .G102    -0.882000   .O.26    -11.800000
    UNPLHW   .G105    1.000000   .O.41    -0.817000
    UNPLHW   .O.72    0.100000   .O.23    100.000000
    UNPLHW   .O.40    1.000000
    200PDX   .O.67A   -1.000000   .O.63    0.267000
    200PDX   .O.63A   0.533000   .O.64    0.200000
    200PDX   .O.67    1.000000   ....1    0.010000
    PDRFLX   .O.67A   -1.000000   .O.67B   1.000000
    PDRFLX   .O.63    0.250000   .O.63A   0.550000
    PDRFLX   .O.64    0.200000
    PDRFXS   .O.67B   1.000000
    200SLP   .O..1    -1.546000   .O..3    -2.588000
    200SLP   .O.61    1.000000   .O.63    0.176000
    200SLP   .O.63A   0.287000   .O.64    0.480000
    200SLP   .O.65    0.090000   .O.67    1.000000
    200SLP   .G105    0.392100   .O.41    -0.102800
    200SLP   .O.72    0.353500   .O.40    0.432000
    200CYM   ....1    2.520000   .O..1    -1.283000
    200CYM   .O..3    -3.517000   .O.54    1.000000
    200CYM   .O.26    -3.390000   .O.31    -0.400000
    200CYM   .O.32    -0.040000   .G102    -0.220200
    200CYM   .G124    -0.051000   .O.24    -0.592000
    200CYM   .O.62    -0.058000   .O.38    -0.090000
    200CYM   ..123    -1.184000   .O.63    0.235000
    200CYM   .O.63A   0.364600   .O.64    0.476700
    200CYM   .O.65    0.310000   .O.67    1.333300
    200CYM   .G105    0.249600   .O.41    -0.061200
    200CYM   .O.72    0.267000   .O.67A   -0.333300
    200CYM   .O.40    0.289000
    200MID   ....1    2.650000   .O..1    -1.310000
    200MID   .O..3    -3.930000   .O.55    1.000000
    200MID   .O.26    -3.750000   .O.31    -0.500000
    200MID   .O.32    -0.048000   .G102    -0.231200
    200MID   .G124    -0.057200   .O.24    -0.554000
    200MID   .O.62    -0.066000   .O.38    -0.110000
    200MID   ..123    -2.216000   .O.63    0.269000
    200MID   .O.63A   0.357600   .O.64    0.426700
    200MID   .O.65    0.370000   .O.67    1.333300
    200MID   .G105    0.262100   .O.41    -0.063200
    200MID   .O.72    0.291000   .O.67A   -0.333300
    200MID   .O.40    0.307000
    200MAT   ....1    2.790000   .O..1    -1.251000
    200MAT   .O..3    -3.696000   .O.56    1.000000
    200MAT   .O.26    -3.500000   .O.31    -1.000000
    200MAT   .O.32    -0.066000   .G102    -0.200000
    200MAT   .G124    -0.058200   .O.24    -0.564000
    200MAT   .O.62    -0.066000   .O.38    -0.080000
    200MAT   ..123    -2.820000   .O.63    0.292000
    200MAT   .O.63A   0.324600   .O.64    0.486700
    200MAT   .O.65    0.360000   .O.67    1.333300
    200MAT   .G105    0.226700   .O.41    -0.052200
    200MAT   .O.72    0.277000   .O.67A   -0.333300
    200MAT   .O.40    0.274000
    200F/E   ....1    2.150000   .O..1    -1.121000
    200F/E   .O..3    -4.013000   .O.57    1.000000
    200F/E   .O.26    -3.610000   .O.31    -0.800000
    200F/E   .O.32    -0.050000   .G102    -0.139400
    200F/E   .G124    -0.062400   .O.24    -0.615000
    200F/E   .O.62    -0.088000   .O.38    -0.110000
    200F/E   ..123    -0.615000   .O.63    0.292000
    200F/E   .O.63A   0.244600   .O.64    0.446700
    200F/E   .O.65    0.520000   .O.67    1.333300
    200F/E   .G105    0.158100   .O.41    -0.030100
    200F/E   .O.72    0.256000   .O.67A   -0.333300
    200F/E   .O.40    0.212000
    200SJH   ....1    1.920000   .O..1    -1.066000
    200SJH   .O..3    -4.708000   .O.58    1.000000
    200SJH   .O.26    -4.130000   .O.31    -0.800000
    200SJH   .O.32    -0.042000   .G102    -0.114700
    200SJH   .G124    -0.057200   .O.24    -0.622000
    200SJH   .O.62    -0.113000   .O.38    -0.180000
    200SJH   ..123    1.244000   .O.63    0.279000
    200SJH   .O.63A   0.217600   .O.64    0.466700
    200SJH   .O.65    0.540000   .O.67    1.333300
    200SJH   .G105    0.130000   .O.41    -0.023100
    200SJH   .O.72    0.227500   .O.67A   -0.333300
    200SJH   .O.40    0.180000
    CSMRPD   ....1    0.027000   .O..1    -2.010000
    CSMRPD   .O..3    -3.912000   .O.59    1.000000
    CSMRPD   .O.26    -3.420000   .O.31    -5.000000
    CSMRPD   .O.32    -0.200000   .G102    -0.522900
    CSMRPD   .G124    -0.187200   .O.38    -0.570000
    CSMRPD   .G105    0.592800   .O.41    -0.113700
    CSMRPD   .O.72    0.588000   .O.67A   1.000000
    CSMRPD   .O.40    0.750000
    MDTRDL   ....1    0.027000   .O..1    -2.220000
    MDTRDL   .O..3    -4.818000   .O.60    1.000000
    MDTRDL   .O.26    -13.530000   .O.31    -2.000000
    MDTRDL   .O.32    -0.130000   .G102    -0.609700
    MDTRDL   .G124    -0.100000   .O.38    -0.500000
    MDTRDL   .G105    0.730000   .O.41    -0.174700
    MDTRDL   .O.72    0.492000   .O.40    0.830000
    MDTRDL   .O.67A   1.000000
    200LWR   .O..1    -1.138000   .O..3    -4.235000
    200LWR   .O.31    -1.500000   .O.32    -0.075000
    200LWR   .G102    -0.131200   .G124    -0.047000
    200LWR   .O.24    -0.499000   .O.62    -0.170000
    200LWR   .O.38    -0.140000   .O.26    -6.140000
    200LWR   ..123    -1.996000   .O.41    -0.031700
    200LWR   .O.63    0.278000   .O.65    1.000000
    200LWR   .O.67    1.000000   .O.40    0.188000
    200LWR   .O.72    0.206500   .G105    0.148700
    200LWR   .O.16    1.000000   .O.25    1.000000
    200SWB   .O..1    -0.880000   .O..3    -0.481000
    200SWB   .O.50    100.000000   .O.26    -0.410000
    200SWB   .O.31    -0.400000   .O.32    -0.021000
    200SWB   .G102    -0.034900   .G124    -0.012500
    200SWB   .O.24    -0.915000   .O.62    -0.008000
    200SWB   .O.38    -0.050000   ..123    -2.745000
    200SWB   .O.65    1.000000   .O.67    1.000000
    200SWB   .O.63    0.075000   .G105    0.039500
    200SWB   .O.41    -0.008400   .O.72    0.055000
    200SWB   .O.40    0.050000
    200DSX   .O..1    -1.186000   .O..3    -8.599000
    200DSX   .O.51    1.000000   .O.26    -7.740000
    200DSX   .O.31    -1.900000   .O.32    -0.095000
    200DSX   .G102    -0.164200   .G124    -0.059300
    200DSX   .O.24    -0.368000   ..123    1.840000
    200DSX   .O.62    -0.215000   .O.38    -0.210000
    200DSX   .O.65    1.000000   .O.67    1.000000
    200DSX   .O.63    0.350000   .G105    0.186200
    200DSX   .O.41    -0.039600   .O.72    0.260500
    200DSX   .O.40    0.236000
    200575   .O..1    -1.347000   .O..3    -10.096000
    200575   .O..6    1.000000   .O.19    100.000000
    200575   .O.26    -8.590000   .O.31    -2.700000
    200575   .O.32    -0.134000   .G102    -0.232100
    200575   .G124    -0.083200   .O.24    -0.186000
    200575   .O.62    -0.244000   .O.38    -0.780000
    200575   ..123    1.116000   .O.65    1.000000
    200575   .O.67    1.000000   .O.63    0.494000
    200575   .G105    0.263100   .O.41    -0.056000
    200575   .O.72    0.366500   .O.40    0.333000
    200IF    .O..1    -1.483000   .O..3    -2.815000
    200IF    .O.20    100.000000   .O.26    -2.780000
    200IF    .O.31    -2.000000   .O.32    -0.100000
    200IF    .G102    -0.302700   .O.24    -0.450000
    200IF    .G124    -0.078000   .O.62    -0.020000
    200IF    .O.38    -0.150000   ..123    -3.600000
    200IF    .O.63    0.205000   .O.63A   0.320000
    200IF    .O.64    0.470000   .O.65    0.050000
    200IF    .O.67    1.000000   .G105    0.343200
    200IF    .O.41    -0.081900   .O.72    0.390000
    200IF    .O.40    0.405000
RHS
    ZZZZ0001 ...64    2.200000
    ZZZZ0001 .O.67A   1.200000
    ZZZZ0001 ....4    19.460000
    ZZZZ0001 ....5    3.281000
    ZZZZ0001 ....6    65.317000
    ZZZZ0001 ....7    5.317000
    ZZZZ0001 ....8    1.147000
    ZZZZ0001 ...10    2.450000
    ZZZZ0001 ...11    1.437000
    ZZZZ0001 ...12    0.350000
    ZZZZ0001 ...15    0.763000
    ZZZZ0001 .SM.4    12.477000
    ZZZZ0001 .O..9    6.487000
    ZZZZ0001 .O.10    0.795000
    ZZZZ0001 .O.15    24.941000
    ZZZZ0001 .O.54    3.388000
    ZZZZ0001 .O.55    0.223000
    ZZZZ0001 .O.56    0.345000
    ZZZZ0001 .O.57    2.793000
    ZZZZ0001 .O.58    10.461000
    ZZZZ0001 ..108    12.001000
    ZZZZ0001 ..109    1.192000
    ZZZZ0001 .G.16    27.469000
    ZZZZ0001 ...30    2.580000
    ZZZZ0001 ...31A   1.588000
    ZZZZ0001 ...98    1.279000
    ZZZZ0001 ...99    4.891000
    ZZZZ0001 ..106    3.423000
    ZZZZ0001 ..107    1.281000
    ZZZZ0001 ..107A   3.379000
    ZZZZ0001 ..112    0.578000
    ZZZZ0001 ..113    0.640000
    ZZZZ0001 ..115    4.082000
    ZZZZ0001 ..116    4.436000
    ZZZZ0001 ..116V   1.596000
    ZZZZ0001 .G..3    1.717000
    ZZZZ0001 .G.10    17.236000
    ZZZZ0001 .G.11B   8.618000
    ZZZZ0001 .G.51    1.848000
    ZZZZ0001 .G.51V   1.890000
    ZZZZ0001 .G.52    0.518000
    ZZZZ0001 .G.53    0.228000
    ZZZZ0001 .G.54    0.138000
    ZZZZ0001 .G123    1.000000
    ZZZZ0001 .G123A   1.446000
    ZZZZ0001 ...79A   0.342000
    ZZZZ0001 .G.76    1.544000
    ZZZZ0001 .G113    6.388000
    ZZZZ0001 .G125    0.560000
    ZZZZ0001 .G125V   7.861000
    ZZZZ0001 .OMB4    1.880000
    ZZZZ0001 .OMB6    0.738000
    ZZZZ0001 .OMB7    0.973000
    ZZZZ0001 .OMB8    0.205000
    ZZZZ0001 .OMB9    0.567000
    ZZZZ0001 .OMB10   0.694000
    ZZZZ0001 .O..4    1.282000
    ZZZZ0001 .O..5    0.156000
    ZZZZ0001 .O.52    2.596000
    ZZZZ0001 .O.53    0.267000
    ZZZZ0001 .O.68    0.446000
    ZZZZ0001 .O.69    2.000000
    ZZZZ0001 .ORC2    0.887000
    ZZZZ0001 .ED.2    0.930000
    ZZZZ0001 .ED.4    0.145000
    ZZZZ0001 ...58    21.618000
    ZZZZ0001 ...58A   18.798000
    ZZZZ0001 ...61    16.024000
    ZZZZ0001 ...62    15.421000
    ZZZZ0001 ...63    4.217000
    ZZZZ0001 ...66    0.394000
    ZZZZ0001 ...67    0.153000
    ZZZZ0001 ...68    10.951000
    ZZZZ0001 ...70    5.475000
    ZZZZ0001 ...73    27.705000
    ZZZZ0001 ...75    3.694000
    ZZZZ0001 ...83    4.406000
    ZZZZ0001 ...84    6.167000
    ZZZZ0001 ...90    17.311000
    ZZZZ0001 ..111B   2.475000
    ZZZZ0001 ..112A   5.068000
    ZZZZ0001 ..118    2.962000
    ZZZZ0001 ..119    0.885000
    ZZZZ0001 ..120    0.481000
    ZZZZ0001 .G.39    10.369000
    ZZZZ0001 .G.41    12.700000
    ZZZZ0001 .G.42    3.991000
    ZZZZ0001 .G.45    3.175000
    ZZZZ0001 ...50A   0.687000
    ZZZZ0001 ...80A   1.369000
    ZZZZ0001 ...41A   0.283000
    ZZZZ0001 .RHSC    1.600000
    ZZZZ0001 .G105    10.028000
    ZZZZ0001 .G126    3.545000
    ZZZZ0001 .O.16    0.200000
    ZZZZ0001 .O.18    42.400000
    ZZZZ0001 .O.27A   2.000000
    ZZZZ0001 .O.28    10.934000
    ZZZZ0001 .O.29    1.902000
    ZZZZ0001 .O.40    16.840000
    ZZZZ0001 .O.41    -0.953000
    ZZZZ0001 .O.45    3.833000
    ZZZZ0001 .O.61    0.480000
    ZZZZ0001 .O.63    7.043000
    ZZZZ0001 .O.63A   6.003000
    ZZZZ0001 .O.64    7.421000
    ZZZZ0001 .O.65    13.897000
    ZZZZ0001 .O.66    2.598000
    ZZZZ0001 .O.67    25.052000
    ZZZZ0001 .O.67B   3.309000
    ZZZZ0001 .O.72    14.846000
    ZZZZ0001 .SM10    5.294000
    ZZZZ0001 .SM11    16.637000
    ZZZZ0001 .SM12    3.049000
    ZZZZ0001 .SM20    0.374000
    ZZZZ0001 .SM21    0.290000
    ZZZZ0001 .SM22    9.453000
    ZZZZ0001 .SM22A   26.469000
BOUNDS
ENDATA
