NAME          BEACONFD
ROWS
 N  11CSTR  
 E  50022   
 E  50024   
 E  50028   
 E  50055   
 E  50059   
 E  50077   
 E  50080   
 E  50081   
 E  50109   
 E  50110   
 E  50139   
 E  50157   
 E  50165   
 E  50168   
 E  50178   
 E  50190   
 E  50192   
 E  50195   
 E  50302   
 E  50303   
 E  50325   
 E  50412   
 E  50448   
 E  50470   
 E  50477   
 E  50495   
 E  50545   
 E  50548   
 E  50623   
 E  50842   
 E  50854   
 E  50861   
 E  50917   
 E  51022   
 E  51024   
 E  51025   
 E  51026   
 E  51027   
 E  51028   
 E  51033   
 E  51041   
 E  51043   
 E  51055   
 E  51059   
 E  51077   
 E  51080   
 E  51081   
 E  51109   
 E  51110   
 E  51125   
 E  51139   
 E  51144   
 E  51150   
 E  51157   
 E  51165   
 E  51168   
 E  51176   
 E  51178   
 E  51190   
 E  51191   
 E  51192   
 E  51195   
 E  51302   
 E  51303   
 E  51325   
 E  51340   
 E  51400   
 E  51412   
 E  51427   
 E  51446   
 E  51448   
 E  51460   
 E  51470   
 E  51477   
 E  51490   
 E  51495   
 E  51496   
 E  51545   
 E  51548   
 E  51605   
 E  51620   
 E  51623   
 E  51625   
 E  51635   
 E  51812   
 E  51824   
 E  51827   
 E  51835   
 E  51842   
 E  51854   
 E  51857   
 E  51861   
 E  51884   
 E  51917   
 E  51919   
 E  51922   
 E  51940   
 E  51943   
 E  51945   
 E  51947   
 E  51974   
 E  51981   
 E  51990   
 E  60080   
 E  60157   
 E  60545   
 E  60854   
 E  609010  
 E  609012  
 E  609022  
 E  609032  
 E  609101  
 E  609111  
 E  609138  
 E  609155  
 E  609156  
 E  609158  
 E  609161  
 E  609166  
 E  609172  
 E  609173  
 E  609202  
 E  609221  
 E  609242  
 E  609246  
 E  609252  
 E  609280  
 E  609330  
 E  609340  
 E  609361  
 E  609362  
 E  609363  
 E  609371  
 E  609380  
 E  609402  
 E  609422  
 E  609441  
 E  609451  
 E  609463  
 E  609475  
 E  609490  
 E  609494  
 E  609496  
 E  609497  
 E  609540  
 E  609563  
 E  609601  
 E  609602  
 E  609608  
 E  609609  
 E  609610  
 E  609615  
 E  609625  
 E  609630  
 E  609632  
 E  609633  
 E  609634  
 E  609636  
 E  609650  
 E  609652  
 E  609653  
 E  609654  
 E  609655  
 E  609712  
 E  609715  
 E  609721  
 E  609723  
 E  609725  
 E  609727  
 E  609729  
 E  609731  
 E  609750  
 E  609771  
COLUMNS
    10022    50022    0.050000   51022    -1.000000
    10022    11CSTR   2.400000
    10022S   50022    -0.050000   11CSTR   1.000000
    10024    50024    0.050000   51024    -1.000000
    10024    11CSTR   2.900000
    10024S   11CSTR   1.000000   50024    -0.050000
    10025    51025    -100.000000   11CSTR   0.559000
    10026    51026    -100.000000   11CSTR   0.559000
    10027    51027    -100.000000   11CSTR   0.207000
    10028    50028    0.050000   51028    -1.000000
    10028    11CSTR   7.050000
    10028S   50028    -0.050000
    10033    51033    -100.000000   11CSTR   0.130000
    10041    51041    -100.000000   11CSTR   0.639000
    10043    51043    -100.000000   11CSTR   0.362000
    10055    50055    0.050000   51055    -1.000000
    10055    11CSTR   2.500000
    10055S   50055    -0.050000   11CSTR   1.000000
    10059    50059    0.050000   51059    -1.000000
    10059    11CSTR   2.930000
    10059S   50059    -0.050000   11CSTR   0.300000
    10077    50077    0.050000   51077    -1.000000
    10077    11CSTR   1.820000
    10077S   50077    -0.050000   11CSTR   0.300000
    10080    50080    0.050000   51080    -1.000000
    10080    11CSTR   3.060000
    10080S   50080    -0.050000   11CSTR   1.000000
    10081    50081    0.050000   51081    -1.000000
    10081    11CSTR   5.660000
    10081S   50081    -0.050000   11CSTR   1.000000
    10109    50109    0.050000   51109    -1.000000
    10109    11CSTR   2.550000
    10109S   50109    -0.050000   11CSTR   1.000000
    10110    50110    0.050000   51110    -1.000000
    10110    11CSTR   2.480000
    10110S   50110    -0.050000   11CSTR   0.200000
    10125    51125    -1.000000   11CSTR   0.360000
    10139    50139    0.050000   51139    -1.000000
    10139    11CSTR   2.570000
    10139S   50139    -0.050000   11CSTR   1.000000
    10144    51144    -100.000000   11CSTR   0.032000
    10150    51150    -100.000000   11CSTR   0.053000
    10157    50157    0.050000   51157    -1.000000
    10157    11CSTR   2.890000
    10157S   50157    -0.050000   11CSTR   1.000000
    10165    50165    0.050000   51165    -1.000000
    10165    11CSTR   2.750000
    10165S   50165    -0.050000   11CSTR   1.000000
    10168    11CSTR   1.530000   50168    0.050000
    10168    51168    -1.000000
    10168S   11CSTR   1.000000   50168    -0.050000
    10176    51176    -1.000000   11CSTR   10.000000
    10178    50178    0.050000   51178    -1.000000
    10178    11CSTR   3.400000
    10178S   50178    -0.050000   11CSTR   1.000000
    10190    50190    0.050000   51190    -1.000000
    10190    11CSTR   17.010000
    10190S   50190    -0.050000   11CSTR   1.000000
    10191    51191    -100.000000   11CSTR   0.038000
    10192    50192    0.050000   51192    -1.000000
    10192    11CSTR   8.630000
    10192S   50192    -0.050000   11CSTR   0.200000
    10195    50195    0.050000   51195    -1.000000
    10195    11CSTR   2.160000
    10195S   50195    -0.050000   11CSTR   0.300000
    10302    50302    0.050000   51302    -1.000000
    10302    11CSTR   2.880000
    10302S   50302    -0.050000   11CSTR   1.000000
    10303    50303    0.050000   51303    -1.000000
    10303    11CSTR   5.270000
    10303S   50303    -0.050000   11CSTR   1.000000
    10325    50325    0.050000   51325    -1.000000
    10325    11CSTR   2.850000
    10325S   50325    -0.050000   11CSTR   1.000000
    10340    51340    -100.000000   11CSTR   0.244000
    10400    51400    -1.000000   11CSTR   3.590000
    10412    50412    0.050000   51412    -1.000000
    10412    11CSTR   5.340000
    10412S   50412    -0.050000   11CSTR   1.000000
    10427    51427    -1.000000   11CSTR   100.000000
    10446    51446    -1.000000   11CSTR   5.450000
    10448    50448    0.050000   51448    -1.000000
    10448    11CSTR   5.400000
    10448S   50448    -0.050000   11CSTR   0.200000
    10460    51460    -100.000000   11CSTR   0.211000
    10470    50470    0.050000   51470    -1.000000
    10470    11CSTR   2.630000
    10470S   50470    -0.050000   11CSTR   0.200000
    10477    50477    0.050000   51477    -1.000000
    10477    11CSTR   2.790000
    10477S   50477    -0.050000   11CSTR   1.000000
    10490    51490    -100.000000   11CSTR   0.093000
    10495    50495    0.050000   51495    -1.000000
    10495    11CSTR   1.540000
    10495S   50495    -0.050000   11CSTR   0.300000
    10496    51496    -100.000000   11CSTR   0.114000
    10545    50545    0.050000   51545    -1.000000
    10545    11CSTR   2.830000
    10545S   50545    -0.050000
    10548    50548    0.050000   51548    -1.000000
    10548    11CSTR   3.380000
    10548S   50548    -0.050000   11CSTR   0.300000
    10605    51605    -100.000000   11CSTR   0.640000
    10620    51620    -1.000000   11CSTR   45.000000
    10623    50623    0.050000   51623    -1.000000
    10623    11CSTR   3.630000
    10623S   50623    -0.050000   11CSTR   1.000000
    10625    51625    -1.000000   11CSTR   109.000000
    10635    51635    -1.000000   11CSTR   17.750000
    10812    51812    -1.000000   11CSTR   4.730000
    9101C3   51990    2.700000   51024    0.015000
    9101C3   51028    0.002500   51055    0.090000
    9101C3   51077    0.002500   51125    0.065000
    9101C3   51157    0.297700   51165    0.300000
    9101C3   51192    0.005000   51303    0.012500
    9101C3   51325    0.035000   51448    0.047500
    9101C3   51470    0.002500   51824    0.002500
    9101C3   51854    0.120000   609101   1.000000
    9101C3   51033    8.200000   51144    23.000000
    9101C3   51191    22.700000   51460    17.300000
    9101C3   51922    8.600000   51940    5.100000
    9101C3   51945    16.700000
    91111    51033    8.200000   51191    22.700000
    91111    51460    8.600000   51922    8.600000
    91111    51940    5.500000   51945    16.700000
    91111    51947    1.400000   51990    2.700000
    91111    51024    0.015000   51028    0.002500
    91111    51077    0.002500   51125    0.057500
    91111    51157    0.318400   51165    0.150000
    91111    51192    0.030000   51325    0.200000
    91111    51448    0.065000   51470    0.030000
    91111    51824    0.002500   51854    0.125000
    91111    609111   1.000000
    91112    51033    8.200000   51144    2.900000
    91112    51191    22.700000   51460    13.300000
    91112    51922    8.600000   51940    5.500000
    91112    51945    16.700000   51947    1.200000
    91112    51024    0.015000   51028    0.002500
    91112    51077    0.002500   51125    0.060000
    91112    51157    0.508300   51192    0.002500
    91112    51325    0.150000   51448    0.075000
    91112    51470    0.030000   51824    0.002500
    91112    51854    0.150000   609111   1.000000
    9111C3   51033    8.200000   51191    22.700000
    9111C3   51460    15.800000   51922    8.600000
    9111C3   51940    5.500000   51945    16.700000
    9111C3   51947    1.400000   51990    2.700000
    9111C3   51024    0.015000   51028    0.002500
    9111C3   51055    0.027500   51077    0.002500
    9111C3   51125    0.067500   51157    0.388200
    9111C3   51165    0.150000   51192    0.002500
    9111C3   51325    0.095000   51448    0.065000
    9111C3   51470    0.002500   51824    0.002500
    9111C3   51854    0.177500   609111   1.000000
    91381    51144    20.000000   51460    33.600000
    91381    51922    10.700000   51940    10.000000
    91381    51945    33.300000   51024    0.027500
    91381    51028    0.002500   51055    0.002500
    91381    51077    0.002500   51125    0.042500
    91381    51139    0.050000   51157    0.032600
    91381    51165    0.250000   51190    0.002500
    91381    51192    0.005000   51303    0.005000
    91381    51325    0.300000   51448    0.150000
    91381    51470    0.007500   51824    0.005000
    91381    51854    0.112500   609138   1.000000
    91382    51144    23.100000   51460    25.900000
    91382    51922    10.900000   51940    10.000000
    91382    51945    33.300000   51024    0.030000
    91382    51028    0.007500   51055    0.002500
    91382    51077    0.002500   51125    0.065000
    91382    51139    0.050000   51165    0.272700
    91382    51190    0.002500   51192    0.005000
    91382    51303    0.020000   51325    0.257500
    91382    51448    0.012500   51470    0.002500
    91382    51623    0.025000   51824    0.005000
    91382    51854    0.237500   609138   1.000000
    9138C1   51144    13.400000   51460    30.000000
    9138C1   51922    11.100000   51940    10.000000
    9138C1   51945    33.300000   51024    0.027500
    9138C1   51028    0.002500   51055    0.002500
    9138C1   51077    0.002500   51125    0.060000
    9138C1   51139    0.050000   51157    0.052800
    9138C1   51165    0.250000   51190    0.002500
    9138C1   51192    0.005000   51325    0.267500
    9138C1   51448    0.097500   51470    0.002500
    9138C1   51824    0.005000   51854    0.170000
    9138C1   609138   1.000000
    91551    51144    56.400000   51460    53.300000
    91551    51922    18.100000   51940    13.500000
    91551    51945    47.300000   51990    13.600000
    91551    51024    0.040000   51028    0.002500
    91551    51077    0.007500   51125    0.200000
    91551    51190    0.002500   51192    0.012500
    91551    51302    0.117500   51448    0.142500
    91551    51470    0.155500   51824    0.007500
    91551    51854    0.307500   609155   1.000000
    91552    51144    57.400000   51460    22.700000
    91552    51922    22.700000   51940    14.200000
    91552    51945    44.600000   51024    0.040000
    91552    51028    0.002500   51077    0.007500
    91552    51125    0.202500   51190    0.002500
    91552    51192    0.012500   51448    0.107500
    91552    51470    0.246400   51623    0.007500
    91552    51824    0.007500   51854    0.360000
    91552    609155   1.000000
    91561    51144    65.200000   51460    22.700000
    91561    51835    60.600000   51922    36.300000
    91561    51940    22.000000   51945    44.600000
    91561    51947    5.700000   51024    0.085000
    91561    51028    0.002500   51077    0.007500
    91561    51125    0.187500   51190    0.007500
    91561    51192    0.040000   51448    0.117500
    91561    51470    0.241800   51623    0.002500
    91561    51824    0.007500   51854    0.295000
    91561    609156   1.000000
    91581    51043    4.600000   51144    14.000000
    91581    51460    6.800000   51835    45.400000
    91581    51922    6.400000   51940    10.000000
    91581    51945    33.400000   51024    0.030000
    91581    51028    0.002500   51055    0.002500
    91581    51077    0.005000   51125    0.010000
    91581    51190    0.005000   51302    0.200000
    91581    51325    0.075000   51448    0.100000
    91581    51470    0.202300   51824    0.005000
    91581    51854    0.080000   51861    0.280000
    91581    609158   1.000000
    91611    51033    8.200000   51144    13.100000
    91611    51460    5.700000   51835    22.700000
    91611    51922    14.900000   51940    5.300000
    91611    51945    20.000000   51947    2.300000
    91611    51990    2.700000   51024    0.025000
    91611    51028    0.002500   51055    0.002500
    91611    51077    0.002500   51125    0.070000
    91611    51157    0.192900   51165    0.300000
    91611    51190    0.002500   51192    0.025000
    91611    51325    0.227500   51448    0.055000
    91611    51824    0.002500   51854    0.090000
    91611    609161   1.000000
    91612    51033    8.200000   51144    8.200000
    91612    51835    22.700000   51922    14.100000
    91612    51940    5.300000   51945    20.000000
    91612    51947    2.300000   51024    0.025000
    91612    51028    0.002500   51055    0.002500
    91612    51077    0.002500   51125    0.055000
    91612    51157    0.208200   51165    0.300000
    91612    51190    0.002500   51192    0.025000
    91612    51325    0.227500   51448    0.035000
    91612    51824    0.002500   51854    0.110000
    91612    609161   1.000000
    91661    51033    8.200000   51144    3.600000
    91661    51460    10.100000   51835    22.700000
    91661    51922    19.600000   51940    8.200000
    91661    51945    20.000000   51947    4.500000
    91661    51990    5.000000   51024    0.025000
    91661    51028    0.002500   51055    0.002500
    91661    51077    0.002500   51125    0.055000
    91661    51157    0.270300   51165    0.200000
    91661    51190    0.002500   51192    0.025000
    91661    51325    0.200000   51448    0.055000
    91661    51470    0.012500   51824    0.002500
    91661    51854    0.142500   609166   1.000000
    91662    51033    8.200000   51144    18.000000
    91662    51460    3.500000   51835    22.700000
    91662    51922    13.300000   51940    7.000000
    91662    51945    20.000000   51947    5.700000
    91662    51990    5.000000   51024    0.025000
    91662    51028    0.002500   51077    0.002500
    91662    51125    0.060000   51157    0.502700
    91662    51190    0.002500   51192    0.025000
    91662    51325    0.150000   51448    0.075000
    91662    51470    0.030000   51824    0.002500
    91662    51854    0.120000   609166   1.000000
    91721    51144    38.000000   51835    56.800000
    91721    51922    59.100000   51940    26.500000
    91721    51945    83.300000   51947    11.300000
    91721    51605    2.700000   51990    12.000000
    91721    51024    0.050000   51028    0.002500
    91721    51077    0.012500   51125    0.100000
    91721    51190    0.005000   51192    0.020000
    91721    51448    0.250000   51470    0.168600
    91721    51623    0.010000   51824    0.010000
    91721    51854    0.365000   609172   1.000000
    91731    51144    42.100000   51460    25.400000
    91731    51922    37.400000   51940    35.000000
    91731    51945    66.700000   51990    6.800000
    91731    51024    0.037500   51028    0.005000
    91731    51077    0.010000   51125    0.002500
    91731    51190    0.002500   51192    0.065000
    91731    51446    0.170000   51824    0.010000
    91731    51854    0.492800   609173   1.000000
    10824    51824    -1.000000   11CSTR   0.820000
    10827    51827    -1.000000   11CSTR   1.680000
    10835    51835    -100.000000   11CSTR   0.101000
    10842    50842    0.050000   51842    -1.000000
    10842    11CSTR   16.350000
    10842S   50842    -0.050000   11CSTR   10.000000
    10854    50854    0.050000   51854    -1.000000
    10854    11CSTR   5.390000
    10854S   50854    -0.050000   11CSTR   1.000000
    10857    11CSTR   5.890000   51857    -1.000000
    10861    50861    0.050000   51861    -1.000000
    10861    11CSTR   2.590000
    10861S   50861    -0.050000   11CSTR   1.000000
    10884    51884    -1.000000   11CSTR   11.000000
    10917    50917    0.050000   51917    -1.000000
    10917    11CSTR   4.650000
    10917S   50917    -0.050000   11CSTR   1.000000
    10919    51919    -100.000000   11CSTR   0.130000
    10922    51922    -100.000000   11CSTR   0.094000
    10940    51940    -100.000000   11CSTR   0.100000
    10943    51943    -100.000000   11CSTR   0.048000
    10945    51945    -100.000000   11CSTR   0.029000
    10947    51947    -100.000000   11CSTR   0.186000
    10974    51974    -1.000000   11CSTR   8.220000
    10981    51981    -100.000000   11CSTR   0.188000
    10990    51990    -100.000000   11CSTR   0.054000
    90101    51043    2.300000   51144    75.100000
    90101    51835    22.700000   51922    10.900000
    90101    51940    5.000000   51945    16.700000
    90101    51947    5.300000   51026    14.500000
    90101    51024    0.020000   51028    0.002500
    90101    51055    0.002500   51077    0.002500
    90101    51125    0.002500   51157    0.219100
    90101    51165    0.200000   51190    0.002500
    90101    51192    0.090000   51303    0.127500
    90101    51325    0.200000   51448    0.012500
    90101    51470    0.027500   51824    0.002500
    90101    51854    0.085000   609010   1.000000
    90102    51043    2.300000   51144    22.300000
    90102    51460    26.200000   51835    22.700000
    90102    51922    10.800000   51940    5.000000
    90102    51945    16.700000   51947    4.500000
    90102    51026    14.500000   51024    0.020000
    90102    51028    0.007500   51055    0.117500
    90102    51077    0.002500   51125    0.002500
    90102    51157    0.314700   51165    0.200000
    90102    51190    0.002500   51192    0.025000
    90102    51303    0.002500   51448    0.002500
    90102    51623    0.015000   51824    0.002500
    90102    51854    0.282500   609010   1.000000
    9010C3   51043    2.300000   51144    27.600000
    9010C3   51460    37.200000   51835    22.700000
    9010C3   51922    11.800000   51940    7.500000
    9010C3   51945    16.700000   51947    4.500000
    9010C3   51026    14.500000   51024    0.020000
    9010C3   51028    0.005000   51055    0.127500
    9010C3   51077    0.002500   51157    0.329300
    9010C3   51165    0.200000   51190    0.002500
    9010C3   51192    0.020000   51303    0.002500
    9010C3   51448    0.050000   51824    0.002500
    9010C3   51854    0.235000   609010   1.000000
    90121    51043    2.300000   51460    2.900000
    90121    51835    22.700000   51922    2.500000
    90121    51940    5.000000   51945    16.700000
    90121    51024    0.017500   51028    0.002500
    90121    51055    0.002500   51077    0.002500
    90121    51125    0.002500   51165    0.311400
    90121    51190    0.002500   51192    0.015000
    90121    51302    0.100000   51303    0.012500
    90121    51325    0.300000   51448    0.037500
    90121    51470    0.150000   51545    0.002500
    90121    51824    0.002500   51854    0.037500
    90121    609012   1.000000
    90122    51043    2.300000   51144    6.600000
    90122    51835    22.700000   51922    4.900000
    90122    51940    5.000000   51945    16.700000
    90122    51024    0.020000   51028    0.002500
    90122    51055    0.100000   51077    0.002500
    90122    51125    0.007500   51157    0.111200
    90122    51165    0.300000   51190    0.002500
    90122    51192    0.005000   51302    0.052500
    90122    51303    0.002500   51325    0.102500
    90122    51448    0.027500   51470    0.165000
    90122    51545    0.002500   51623    0.007500
    90122    51824    0.002500   51854    0.080000
    90122    51861    0.005000   609012   1.000000
    9012C1   51043    2.300000   51460    1.400000
    9012C1   51835    22.700000   51922    5.900000
    9012C1   51940    5.000000   51945    16.700000
    9012C1   51024    0.017500   51028    0.002500
    9012C1   51055    0.250000   51077    0.002500
    9012C1   51125    0.002500   51165    0.301300
    9012C1   51190    0.002500   51192    0.005000
    9012C1   51302    0.100000   51303    0.002500
    9012C1   51325    0.150000   51448    0.047500
    9012C1   51470    0.057500   51545    0.002500
    9012C1   51824    0.002500   51854    0.052500
    9012C1   609012   1.000000
    90221    51043    2.300000   51460    29.400000
    90221    51835    22.700000   51922    0.700000
    90221    51940    5.000000   51945    16.700000
    90221    51024    0.020000   51028    0.002500
    90221    51055    0.127500   51077    0.002500
    90221    51110    0.035000   51125    0.015000
    90221    51165    0.198300   51190    0.002500
    90221    51192    0.005000   51302    0.035000
    90221    51325    0.205000   51448    0.007500
    90221    51470    0.297500   51545    0.002500
    90221    51623    0.007500   51824    0.002500
    90221    51854    0.022500   51861    0.010000
    90221    609022   1.000000
    90222    51043    2.300000   51460    11.800000
    90222    51835    22.700000   51922    2.000000
    90222    51940    5.000000   51945    16.700000
    90222    51024    0.015000   51028    0.002500
    90222    51055    0.032500   51077    0.002500
    90222    51125    0.015000   51157    0.176200
    90222    51165    0.250000   51190    0.002500
    90222    51302    0.065000   51448    0.002500
    90222    51470    0.300000   51545    0.002500
    90222    51623    0.012500   51824    0.002500
    90222    51854    0.047500   51861    0.070000
    90222    609022   1.000000
    9022C1   51043    2.300000   51460    29.400000
    9022C1   51835    22.700000   51922    0.700000
    9022C1   51940    5.000000   51945    16.700000
    9022C1   51024    0.020000   51028    0.002500
    9022C1   51055    0.127500   51077    0.002500
    9022C1   51110    0.035000   51125    0.015000
    9022C1   51165    0.198300   51190    0.002500
    9022C1   51192    0.005000   51302    0.035000
    9022C1   51325    0.205000   51448    0.007500
    9022C1   51470    0.297500   51545    0.002500
    9022C1   51623    0.007500   51824    0.002500
    9022C1   51854    0.022500   51861    0.010000
    9022C1   609022   1.000000
    9022C3   51043    2.300000   51460    24.000000
    9022C3   51835    22.700000   51922    1.200000
    9022C3   51940    5.000000   51945    16.700000
    9022C3   51024    0.017500   51028    0.002500
    9022C3   51055    0.215000   51077    0.002500
    9022C3   51110    0.042500   51125    0.015000
    9022C3   51165    0.330900   51190    0.002500
    9022C3   51192    0.002500   51302    0.020000
    9022C3   51448    0.010000   51470    0.300000
    9022C3   51545    0.002500   51623    0.007500
    9022C3   51824    0.002500   51854    0.025000
    9022C3   609022   1.000000
    90321    51144    5.000000   51460    13.000000
    90321    51835    22.700000   51922    3.700000
    90321    51940    8.200000   51945    16.700000
    90321    51024    0.020000   51028    0.002500
    90321    51055    0.002500   51077    0.002500
    90321    51125    0.012500   51165    0.171000
    90321    51190    0.005000   51192    0.002500
    90321    51302    0.022500   51325    0.300000
    90321    51448    0.087500   51470    0.300000
    90321    51545    0.002500   51824    0.005000
    90321    51854    0.062500   609032   1.000000
    90322    51043    2.300000   51144    15.400000
    90322    51835    22.700000   51922    2.900000
    90322    51940    6.800000   51945    16.700000
    90322    51024    0.025000   51028    0.005000
    90322    51055    0.092500   51077    0.002500
    90322    51125    0.027500   51165    0.150000
    90322    51190    0.005000   51192    0.002500
    90322    51302    0.100000   51303    0.057500
    90322    51325    0.298500   51448    0.002500
    90322    51470    0.065000   51545    0.002500
    90322    51623    0.027500   51824    0.005000
    90322    51854    0.122500   51861    0.007500
    90322    609032   1.000000
    9032C3   51144    10.600000   51460    1.900000
    9032C3   51835    22.700000   51922    4.000000
    9032C3   51940    7.200000   51945    16.700000
    9032C3   51024    0.020000   51028    0.002500
    9032C3   51055    0.250000   51077    0.002500
    9032C3   51125    0.007500   51157    0.051100
    9032C3   51165    0.250000   51190    0.005000
    9032C3   51192    0.002500   51302    0.100000
    9032C3   51303    0.022500   51448    0.095000
    9032C3   51470    0.152500   51545    0.002500
    9032C3   51824    0.005000   51854    0.030000
    9032C3   609032   1.000000
    91011    51033    8.200000   51144    19.700000
    91011    51191    22.700000   51460    19.800000
    91011    51922    8.600000   51940    5.000000
    91011    51945    16.700000   51990    2.700000
    91011    51024    0.015000   51028    0.002500
    91011    51055    0.002500   51077    0.002500
    91011    51125    0.065000   51157    0.230200
    91011    51165    0.300000   51192    0.005000
    91011    51303    0.010000   51325    0.190000
    91011    51448    0.045000   51470    0.002500
    91011    51824    0.002500   51854    0.125000
    91011    609101   1.000000
    91012    51033    8.200000   51144    27.700000
    91012    51191    22.700000   51922    8.600000
    91012    51940    5.000000   51945    16.700000
    91012    51990    2.700000   51024    0.015000
    91012    51028    0.002500   51055    0.002500
    91012    51077    0.002500   51125    0.052500
    91012    51157    0.140500   51165    0.300000
    91012    51192    0.047500   51303    0.035000
    91012    51325    0.300000   51448    0.070000
    91012    51470    0.002500   51824    0.002500
    91012    51854    0.025000   609101   1.000000
    9101C1   51033    8.200000   51144    23.000000
    9101C1   51191    22.700000   51460    19.800000
    9101C1   51922    8.600000   51940    5.000000
    9101C1   51945    16.700000   51990    2.700000
    9101C1   51024    0.015000   51028    0.002500
    9101C1   51055    0.002500   51077    0.002500
    9101C1   51125    0.065000   51157    0.230200
    9101C1   51165    0.300000   51192    0.005000
    9101C1   51303    0.010000   51325    0.190000
    9101C1   51448    0.045000   51470    0.002500
    9101C1   51824    0.002500   51854    0.125000
    9101C1   609101   1.000000
    92021    51043    2.300000   51144    70.500000
    92021    51835    22.700000   51922    25.200000
    92021    51940    5.000000   51945    16.700000
    92021    51947    1.100000   51605    0.900000
    92021    51990    2.300000   51024    0.010000
    92021    51028    0.017500   51077    0.002500
    92021    51139    0.050000   51157    0.471000
    92021    51190    0.002500   51192    0.080000
    92021    51303    0.072500   51325    0.080000
    92021    51400    0.008300   51448    0.022500
    92021    51824    0.002500   51854    0.177500
    92021    609202   1.000000
    92022    51043    2.300000   51144    53.100000
    92022    51460    10.600000   51835    22.700000
    92022    51922    25.100000   51940    6.300000
    92022    51945    16.700000   51947    1.100000
    92022    51605    0.900000   51024    0.010000
    92022    51028    0.025000   51077    0.002500
    92022    51139    0.050000   51157    0.538600
    92022    51190    0.002500   51192    0.030000
    92022    51303    0.020000   51400    0.008300
    92022    51448    0.047500   51824    0.002500
    92022    51854    0.260000   609202   1.000000
    9202C3   51043    2.300000   51144    63.100000
    9202C3   51460    35.500000   51835    22.700000
    9202C3   51922    25.500000   51940    6.000000
    9202C3   51945    16.700000   51947    1.100000
    9202C3   51025    22.700000   51605    0.900000
    9202C3   51990    2.300000   51024    0.010000
    9202C3   51028    0.027500   51077    0.002500
    9202C3   51139    0.050000   51157    0.434800
    9202C3   51165    0.100000   51190    0.002500
    9202C3   51192    0.030000   51303    0.035000
    9202C3   51400    0.008300   51448    0.047500
    9202C3   51824    0.002500   51854    0.245000
    9202C3   609202   1.000000
    92211    51043    2.300000   51144    81.000000
    92211    51835    22.700000   51922    20.500000
    92211    51940    5.000000   51945    16.700000
    92211    51605    0.900000   51990    2.300000
    92211    51024    0.010000   51028    0.022500
    92211    51077    0.002500   51139    0.050000
    92211    51157    0.455900   51165    0.072500
    92211    51190    0.002500   51192    0.095000
    92211    51303    0.070000   51325    0.100000
    92211    51400    0.008300   51448    0.015000
    92211    51824    0.002500   51854    0.090000
    92211    609221   1.000000
    92212    51043    2.300000   51144    68.600000
    92212    51460    24.300000   51835    22.700000
    92212    51922    20.000000   51940    5.800000
    92212    51945    16.700000   51605    0.900000
    92212    51990    2.300000   51024    0.010000
    92212    51028    0.025000   51077    0.002500
    92212    51139    0.050000   51157    0.580600
    92212    51190    0.002500   51192    0.020000
    92212    51303    0.050000   51400    0.008300
    92212    51448    0.052500   51824    0.002500
    92212    51854    0.192500   609221   1.000000
    9221C3   51043    2.300000   51144    80.300000
    9221C3   51460    5.800000   51835    22.700000
    9221C3   51922    20.400000   51940    5.000000
    9221C3   51945    16.700000   51605    0.900000
    9221C3   51990    2.300000   51024    0.015000
    9221C3   51028    0.025000   51077    0.002500
    9221C3   51125    0.050000   51157    0.503300
    9221C3   51165    0.100000   51190    0.002500
    9221C3   51192    0.062500   51303    0.057500
    9221C3   51400    0.008300   51448    0.032500
    9221C3   51824    0.002500   51854    0.135000
    9221C3   609221   1.000000
    92421    51043    2.300000   51144    30.100000
    92421    51460    15.100000   51835    22.700000
    92421    51922    7.500000   51940    5.000000
    92421    51945    16.700000   51025    22.700000
    92421    51990    2.300000   51024    0.015000
    92421    51028    0.010000   51055    0.002500
    92421    51077    0.002500   51125    0.002500
    92421    51139    0.050000   51157    0.631500
    92421    51165    0.070000   51190    0.002500
    92421    51192    0.025000   51303    0.032500
    92421    51325    0.027500   51400    0.008300
    92421    51448    0.002500   51623    0.010000
    92421    51824    0.002500   51854    0.102500
    92421    609242   1.000000
    92422    51043    2.300000   51144    31.000000
    92422    51460    20.400000   51835    22.700000
    92422    51922    7.800000   51940    5.000000
    92422    51945    16.700000   51025    0.227000
    92422    51024    0.010000   51028    0.012500
    92422    51055    0.002500   51077    0.002500
    92422    51125    0.010000   51139    0.050000
    92422    51157    0.721400   51190    0.002500
    92422    51303    0.030000   51400    0.008300
    92422    51448    0.035000   51623    0.005000
    92422    51824    0.002500   51854    0.105000
    92422    609242   1.000000
    9242C3   51043    2.300000   51144    30.300000
    9242C3   51460    27.600000   51835    22.700000
    9242C3   51922    7.500000   51940    5.000000
    9242C3   51945    16.700000   51025    22.700000
    9242C3   51990    2.300000   51024    0.015000
    9242C3   51028    0.010000   51055    0.002500
    9242C3   51077    0.002500   51125    0.002500
    9242C3   51139    0.050000   51157    0.666200
    9242C3   51165    0.052500   51190    0.002500
    9242C3   51303    0.032500   51400    0.008300
    9242C3   51448    0.020000   51623    0.007500
    9242C3   51824    0.002500   51854    0.122500
    9242C3   609242   1.000000
    92461    51043    2.300000   51144    9.800000
    92461    51460    38.500000   51835    22.700000
    92461    51922    8.800000   51940    6.500000
    92461    51945    16.700000   51025    22.700000
    92461    51024    0.002500   51028    0.022500
    92461    51055    0.002500   51077    0.002500
    92461    51125    0.005000   51139    0.050000
    92461    51157    0.138900   51190    0.002500
    92461    51192    0.005000   51303    0.002500
    92461    51325    0.160000   51448    0.040000
    92461    51470    0.002500   51623    0.002500
    92461    51477    0.450000   51824    0.003300
    92461    51854    0.105000   609246   1.000000
    92521    51043    2.300000   51144    43.900000
    92521    51460    20.600000   51835    22.700000
    92521    51922    17.800000   51940    6.000000
    92521    51945    16.700000   51025    22.700000
    92521    51990    5.000000   51024    0.010000
    92521    51028    0.012500   51055    0.002500
    92521    51077    0.002500   51139    0.050000
    92521    51157    0.500700   51165    0.025000
    92521    51190    0.005000   51192    0.057500
    92521    51303    0.030000   51325    0.100000
    92521    51400    0.008300   51448    0.050000
    92521    51824    0.005000   51854    0.137500
    92521    609252   1.000000
    92522    51043    2.300000   51144    42.400000
    92522    51460    26.700000   51835    22.700000
    92522    51922    17.900000   51940    5.600000
    92522    51945    16.700000   51025    0.227000
    92522    51024    0.010000   51028    0.020000
    92522    51055    0.025000   51077    0.002500
    92522    51125    0.005000   51139    0.050000
    92522    51157    0.550700   51190    0.005000
    92522    51192    0.020000   51303    0.030000
    92522    51400    0.008300   51448    0.005000
    92522    51623    0.020000   51824    0.005000
    92522    51854    0.240000   609252   1.000000
    9252C1   51043    2.300000   51144    37.600000
    9252C1   51460    41.200000   51835    22.700000
    9252C1   51922    17.800000   51940    7.000000
    9252C1   51945    16.700000   51025    22.700000
    9252C1   51990    5.000000   51024    0.010000
    9252C1   51028    0.012500   51055    0.002500
    9252C1   51077    0.002500   51125    0.002500
    9252C1   51139    0.050000   51157    0.572900
    9252C1   51165    0.045000   51190    0.005000
    9252C1   51192    0.020000   51400    0.008300
    9252C1   51448    0.062500   51824    0.005000
    9252C1   51854    0.197500   609252   1.000000
    92801    51144    100.000000   51460    3.800000
    92801    51835    22.700000   51922    22.500000
    92801    51940    5.700000   51945    33.400000
    92801    51041    90.700000   51026    22.700000
    92801    51025    22.700000   51150    68.000000
    92801    51605    1.000000   51024    0.010000
    92801    51028    0.020000   51077    0.002500
    92801    51139    0.050000   51157    0.566300
    92801    51190    0.002500   51192    0.025000
    92801    51303    0.095000   51448    0.030000
    92801    51824    0.002500   51854    0.187500
    92801    609280   1.000000
    93301    51144    69.700000   51922    5.700000
    93301    51940    1.100000   51945    8.500000
    93301    51024    0.020000   51028    0.007500
    93301    51055    0.002500   51077    0.002500
    93301    51125    0.017500   51157    0.261600
    93301    51190    0.002500   51192    0.005000
    93301    51303    0.095000   51325    0.150000
    93301    51448    0.027500   51470    0.222500
    93301    51545    0.025000   51620    0.005000
    93301    51623    0.012500   51625    0.004000
    93301    51824    0.005000   51854    0.132500
    93301    609330   1.000000
    93401    51144    106.800000   51835    22.700000
    93401    51922    16.800000   51940    7.600000
    93401    51945    33.300000   51947    4.500000
    93401    51041    90.700000   51150    34.000000
    93401    51024    0.022500   51028    0.005000
    93401    51077    0.002500   51081    0.005000
    93401    51139    0.050000   51157    0.253000
    93401    51190    0.002500   51192    0.010000
    93401    51303    0.075000   51325    0.200000
    93401    51448    0.022500   51470    0.205000
    93401    51545    0.002500   51824    0.002500
    93401    51854    0.135000   609340   1.000000
    93402    51144    86.100000   51460    10.100000
    93402    51835    22.700000   51922    15.500000
    93402    51940    9.500000   51945    33.400000
    93402    51947    4.500000   51041    90.700000
    93402    51150    68.000000   51024    0.025000
    93402    51028    0.005000   51077    0.002500
    93402    51125    0.002500   51157    0.422500
    93402    51190    0.002500   51192    0.010000
    93402    51303    0.002500   51448    0.010000
    93402    51470    0.270000   51545    0.002500
    93402    51623    0.002500   51824    0.002500
    93402    51854    0.200000   51861    0.032500
    93402    609340   1.000000
    93611    51043    6.800000   51144    177.800000
    93611    51835    56.700000   51922    32.600000
    93611    51940    5.700000   51945    56.700000
    93611    51990    3.200000   51024    0.012500
    93611    51028    0.047500   51077    0.007500
    93611    51125    0.002500   51190    0.007500
    93611    51192    0.070000   51303    0.187500
    93611    51448    0.157500   51470    0.060000
    93611    51824    0.007500   51854    0.432500
    93611    609361   1.000000
    93612    51043    6.800000   51144    142.100000
    93612    51460    25.300000   51835    56.700000
    93612    51922    32.800000   51940    6.100000
    93612    51945    56.700000   51990    3.200000
    93612    51024    0.012500   51028    0.052500
    93612    51077    0.007500   51125    0.015000
    93612    51190    0.007500   51192    0.040000
    93612    51303    0.102500   51448    0.127500
    93612    51470    0.050200   51623    0.002500
    93612    51824    0.007500   51854    0.567500
    93612    609361   1.000000
    9361C3   51043    6.800000   51144    124.400000
    9361C3   51460    31.900000   51835    56.700000
    9361C3   51922    32.400000   51940    7.600000
    9361C3   51945    56.700000   51990    3.200000
    9361C3   51024    0.012500   51028    0.052500
    9361C3   51077    0.007500   51125    0.012500
    9361C3   51190    0.007500   51192    0.040000
    9361C3   51303    0.065000   51448    0.132500
    9361C3   51470    0.065500   51824    0.007500
    9361C3   51854    0.590000   609361   1.000000
    93621    51043    11.300000   51144    52.000000
    93621    51835    90.700000   51922    58.900000
    93621    51940    23.800000   51945    83.300000
    93621    51947    9.100000   51605    2.700000
    93621    51990    6.400000   51024    0.037500
    93621    51028    0.002500   51077    0.015000
    93621    51125    0.090000   51190    0.005000
    93621    51192    0.047500   51303    0.002500
    93621    51448    0.237500   51470    0.200000
    93621    51824    0.015000   51854    0.340000
    93621    609362   1.000000
    93631    51144    42.100000   51460    25.400000
    93631    51922    37.400000   51940    35.000000
    93631    51945    66.700000   51990    6.800000
    93631    51024    0.037500   51028    0.005000
    93631    51077    0.010000   51125    0.202500
    93631    51190    0.002500   51192    0.065000
    93631    51448    0.170000   51824    0.010000
    93631    51854    0.492800   609363   1.000000
    93632    51144    119.900000   51460    53.500000
    93632    51922    48.300000   51940    47.700000
    93632    51945    66.700000   51024    0.040000
    93632    51028    0.005000   51077    0.010000
    93632    51125    0.185000   51190    0.002500
    93632    51192    0.027500   51303    0.020000
    93632    51448    0.242500   51470    0.005000
    93632    51824    0.010000   51854    0.445100
    93632    609363   1.000000
    93711    51055    0.075000   51157    0.750000
    93711    51548    0.175000   609371   1.000000
    93801    51022    0.050000   51055    0.075000
    93801    51157    0.565000   51302    0.025000
    93801    51545    0.150000   51824    0.005000
    93801    51854    0.040000   51495    0.090000
    93801    609380   1.000000
    94021    51043    2.300000   51144    91.900000
    94021    51460    32.000000   51835    22.700000
    94021    51922    22.400000   51940    8.200000
    94021    51945    33.300000   51947    15.900000
    94021    51605    0.900000   51990    5.700000
    94021    51024    0.027500   51028    0.007500
    94021    51077    0.005000   51157    0.379800
    94021    51190    0.002500   51192    0.025000
    94021    51303    0.055000   51448    0.022500
    94021    51470    0.095000   51545    0.002500
    94021    51623    0.015000   51824    0.002500
    94021    51854    0.350000   51974    0.005000
    94021    609402   1.000000
    94022    51043    2.300000   51144    101.200000
    94022    51835    22.700000   51922    22.100000
    94022    51940    8.200000   51945    33.300000
    94022    51947    15.900000   51605    0.900000
    94022    51990    5.700000   51024    0.027500
    94022    51028    0.005000   51077    0.005000
    94022    51157    0.377800   51190    0.002500
    94022    51192    0.085000   51302    0.025000
    94022    51303    0.077500   51448    0.025000
    94022    51470    0.100000   51545    0.002500
    94022    51623    0.005000   51824    0.002500
    94022    51854    0.250000   51974    0.005000
    94022    609402   1.000000
    9402C1   51043    2.300000   51144    91.900000
    9402C1   51460    32.000000   51835    22.700000
    9402C1   51922    22.400000   51940    8.200000
    9402C1   51945    33.300000   51947    15.900000
    9402C1   51605    0.900000   51990    5.700000
    9402C1   51024    0.027500   51028    0.007500
    9402C1   51077    0.005000   51157    0.379800
    9402C1   51190    0.002500   51192    0.025000
    9402C1   51303    0.055000   51448    0.022500
    9402C1   51470    0.095000   51545    0.002500
    9402C1   51623    0.015000   51824    0.002500
    9402C1   51854    0.350000   51974    0.005000
    9402C1   609402   1.000000
    94221    51043    2.300000   51144    76.700000
    94221    51835    22.700000   51922    13.100000
    94221    51940    8.200000   51945    25.000000
    94221    51947    9.100000   51990    5.700000
    94221    51024    0.020000   51028    0.005000
    94221    51055    0.002500   51077    0.005000
    94221    51139    0.050000   51157    0.418900
    94221    51165    0.062500   51190    0.002500
    94221    51192    0.032500   51303    0.032500
    94221    51325    0.150000   51448    0.060000
    94221    51545    0.002500   51824    0.005000
    94221    51854    0.147500   609422   1.000000
    94222    51043    2.300000   51144    71.300000
    94222    51835    22.700000   51922    12.900000
    94222    51940    5.900000   51945    25.000000
    94222    51947    4.500000   51024    0.020000
    94222    51028    0.007500   51055    0.050000
    94222    51077    0.005000   51125    0.002500
    94222    51139    0.050000   51157    0.459300
    94222    51165    0.100000   51190    0.002500
    94222    51192    0.025000   51302    0.007500
    94222    51303    0.027500   51448    0.005000
    94222    51545    0.002500   51623    0.015000
    94222    51824    0.005000   51854    0.212500
    94222    609422   1.000000
    9422C3   51043    2.300000   51144    69.100000
    9422C3   51460    9.100000   51835    22.700000
    9422C3   51922    13.500000   51940    8.200000
    9422C3   51945    25.000000   51947    9.100000
    9422C3   51990    5.700000   51024    0.020000
    9422C3   51028    0.005000   51055    0.057500
    9422C3   51077    0.005000   51139    0.050000
    9422C3   51157    0.478900   51165    0.100000
    9422C3   51190    0.002500   51192    0.020000
    9422C3   51303    0.002500   51448    0.067500
    9422C3   51545    0.002500   51824    0.005000
    9422C3   51854    0.180000   609422   1.000000
    94411    51043    2.300000   51144    58.500000
    94411    51835    22.700000   51922    9.100000
    94411    51940    8.200000   51945    16.700000
    94411    51990    5.700000   51943    2.900000
    94411    51024    0.027500   51028    0.002500
    94411    51055    0.002500   51077    0.002500
    94411    51125    0.005000   51139    0.050000
    94411    51157    0.404700   51165    0.200000
    94411    51190    0.002500   51303    0.050000
    94411    51325    0.040000   51448    0.002500
    94411    51545    0.002500   51623    0.017500
    94411    51824    0.002500   51854    0.185000
    94411    609441   1.000000
    94412    51043    2.300000   51144    59.500000
    94412    51835    22.700000   51922    9.800000
    94412    51940    8.200000   51945    16.700000
    94412    51990    5.700000   51024    0.027500
    94412    51028    0.002500   51055    0.002500
    94412    51077    0.002500   51125    0.002500
    94412    51139    0.050000   51157    0.277200
    94412    51165    0.200000   51190    0.002500
    94412    51192    0.037500   51303    0.060000
    94412    51325    0.200000   51448    0.040000
    94412    51470    0.002500   51545    0.002500
    94412    51824    0.002500   51854    0.085000
    94412    609441   1.000000
    9441C1   51043    2.300000   51144    58.500000
    9441C1   51835    22.700000   51922    9.100000
    9441C1   51940    8.200000   51945    16.700000
    9441C1   51990    5.700000   51943    2.900000
    9441C1   51024    0.027500   51028    0.002500
    9441C1   51055    0.002500   51077    0.002500
    9441C1   51125    0.005000   51139    0.050000
    9441C1   51157    0.404700   51165    0.200000
    9441C1   51190    0.002500   51303    0.050000
    9441C1   51325    0.040000   51448    0.002500
    9441C1   51545    0.002500   51623    0.017500
    9441C1   51824    0.002500   51854    0.185000
    9441C1   609441   1.000000
    9441C3   51043    2.300000   51144    62.600000
    9441C3   51835    22.700000   51922    9.300000
    9441C3   51940    8.200000   51945    16.700000
    9441C3   51990    5.700000   51024    0.027500
    9441C3   51028    0.002500   51055    0.002500
    9441C3   51077    0.002500   51125    0.002500
    9441C3   51139    0.050000   51157    0.432200
    9441C3   51165    0.200000   51190    0.002500
    9441C3   51303    0.047500   51448    0.060000
    9441C3   51470    0.030000   51545    0.002500
    9441C3   51824    0.002500   51854    0.132500
    9441C3   609441   1.000000
    94511    51144    64.200000   51460    9.600000
    94511    51835    22.700000   51922    22.000000
    94511    51940    12.300000   51945    50.000000
    94511    51947    18.100000   51605    0.900000
    94511    51990    5.700000   51024    0.037500
    94511    51028    0.005000   51055    0.002500
    94511    51077    0.005000   51125    0.030000
    94511    51139    0.050000   51157    0.405500
    94511    51165    0.100000   51190    0.002500
    94511    51192    0.040000   51448    0.010000
    94511    51470    0.070000   51545    0.002500
    94511    51623    0.015000   51824    0.005000
    94511    51854    0.215000   609451   1.000000
    94512    51144    63.100000   51460    6.400000
    94512    51835    22.700000   51922    20.800000
    94512    51940    8.200000   51945    33.300000
    94512    51947    18.100000   51605    1.000000
    94512    51990    1.400000   51024    0.040000
    94512    51028    0.005000   51055    0.002500
    94512    51077    0.005000   51125    0.032500
    94512    51157    0.533600   51190    0.002500
    94512    51192    0.050000   51448    0.002500
    94512    51470    0.090000   51545    0.010000
    94512    51623    0.015000   51824    0.005000
    94512    51854    0.202500   609451   1.000000
    94631    51043    2.300000   51144    61.400000
    94631    51191    22.700000   51460    7.400000
    94631    51835    22.700000   51922    8.800000
    94631    51940    5.000000   51945    16.700000
    94631    51024    0.020000   51028    0.002500
    94631    51055    0.002500   51077    0.002500
    94631    51139    0.100000   51157    0.356800
    94631    51165    0.345000   51303    0.037500
    94631    51448    0.057500   51824    0.005000
    94631    51854    0.067500   609463   1.000000
    94632    51043    2.300000   51144    52.900000
    94632    51191    22.700000   51460    6.200000
    94632    51835    22.700000   51922    8.500000
    94632    51940    2.700000   51945    16.700000
    94632    51024    0.020000   51028    0.005000
    94632    51055    0.002500   51077    0.002500
    94632    51139    0.050000   51157    0.709500
    94632    51303    0.045000   51325    0.025000
    94632    51448    0.042500   51623    0.005000
    94632    51824    0.005000   51854    0.085000
    94632    609463   1.000000
    9463C1   51043    2.300000   51144    61.400000
    9463C1   51191    22.700000   51460    7.400000
    9463C1   51835    22.700000   51922    8.800000
    9463C1   51940    5.000000   51945    16.700000
    9463C1   51024    0.020000   51028    0.002500
    9463C1   51055    0.002500   51077    0.002500
    9463C1   51139    0.100000   51157    0.356800
    9463C1   51165    0.345000   51303    0.037500
    9463C1   51448    0.057500   51824    0.005000
    9463C1   51854    0.067500   609463   1.000000
    94751    51043    11.500000   51144    294.800000
    94751    51460    36.600000   51835    65.700000
    94751    51922    43.500000   51940    17.300000
    94751    51945    100.000000   51947    11.400000
    94751    51990    22.700000   51024    0.030000
    94751    51028    0.005000   51077    0.010000
    94751    51081    0.025000   51190    0.007500
    94751    51192    0.020000   51303    0.030000
    94751    51448    0.190000   51470    0.179200
    94751    51824    0.015000   51854    0.475000
    94751    609475   1.000000
    94901    51144    23.200000   51460    11.300000
    94901    51922    10.900000   51940    22.800000
    94901    51945    25.000000   51947    5.700000
    94901    51191    34.100000   51990    2.700000
    94901    51024    0.025000   51055    0.025000
    94901    51077    0.005000   51125    0.055000
    94901    51139    0.050000   51165    0.329000
    94901    51192    0.015000   51302    0.085000
    94901    51325    0.100000   51448    0.002500
    94901    51470    0.157500   51545    0.002500
    94901    51623    0.017500   51824    0.002500
    94901    51854    0.125000   609490   1.000000
    94902    51144    35.400000   51460    25.400000
    94902    51922    10.700000   51940    23.200000
    94902    51945    25.100000   51947    5.700000
    94902    51191    34.100000   51990    2.700000
    94902    51024    0.025000   51055    0.005000
    94902    51077    0.005000   51125    0.045000
    94902    51139    0.050000   51165    0.373400
    94902    51192    0.015000   51302    0.005000
    94902    51325    0.042500   51448    0.060000
    94902    51470    0.300000   51545    0.002500
    94902    51824    0.002500   51854    0.065000
    94902    609490   1.000000
    9490C3   51144    36.400000   51460    16.200000
    9490C3   51922    10.800000   51940    23.300000
    9490C3   51945    25.000000   51947    5.700000
    9490C3   51191    34.100000   51990    2.700000
    9490C3   51024    0.025000   51055    0.062500
    9490C3   51077    0.005000   51125    0.050000
    9490C3   51139    0.050000   51165    0.386100
    9490C3   51192    0.015000   51302    0.025000
    9490C3   51448    0.062500   51470    0.247500
    9490C3   51545    0.002500   51824    0.002500
    9490C3   51854    0.062500   609490   1.000000
    94941    51191    22.700000   51835    22.700000
    94941    51922    14.400000   51940    11.800000
    94941    51945    16.700000   51919    22.700000
    94941    51990    2.700000   51024    0.005000
    94941    51028    0.007500   51055    0.025000
    94941    51077    0.005000   51139    0.100000
    94941    51157    0.316700   51165    0.130000
    94941    51192    0.010000   51303    0.020000
    94941    51325    0.100000   51400    0.008300
    94941    51448    0.065000   51470    0.020000
    94941    51824    0.002500   51854    0.182500
    94941    609494   1.000000
    94942    51835    22.700000   51922    14.200000
    94942    51940    10.600000   51945    16.700000
    94942    51191    22.700000   51919    22.700000
    94942    51024    0.010000   51028    0.005000
    94942    51055    0.025000   51077    0.005000
    94942    51157    0.349300   51165    0.197500
    94942    51139    0.100000   51192    0.010000
    94942    51448    0.075000   51400    0.008300
    94942    51470    0.025000   51824    0.002500
    94942    51854    0.185000   609494   1.000000
    94961    51144    24.600000   51460    31.300000
    94961    51940    4.700000   51945    16.700000
    94961    51947    5.700000   51919    22.700000
    94961    51024    0.020000   51055    0.025000
    94961    51077    0.002500   51125    0.012500
    94961    51165    0.472700   51192    0.010000
    94961    51302    0.017500   51448    0.047500
    94961    51470    0.350000   51545    0.002500
    94961    51824    0.002500   51861    0.035000
    94961    609496   1.000000
    94962    51144    14.500000   51940    3.300000
    94962    51945    16.700000   51919    17.400000
    94962    51024    0.020000   51055    0.025000
    94962    51077    0.002500   51125    0.015000
    94962    51165    0.518900   51192    0.010000
    94962    51302    0.100000   51303    0.015000
    94962    51448    0.002500   51470    0.222500
    94962    51545    0.002500   51623    0.015000
    94962    51824    0.002500   51854    0.047500
    94962    609496   1.000000
    9496C3   51460    19.400000   51940    4.200000
    9496C3   51945    16.700000   51947    5.700000
    9496C3   51919    22.700000   51024    0.025000
    9496C3   51055    0.300000   51077    0.002500
    9496C3   51125    0.015000   51165    0.231000
    9496C3   51192    0.010000   51302    0.015000
    9496C3   51448    0.030000   51470    0.350000
    9496C3   51545    0.002500   51623    0.007500
    9496C3   51824    0.002500   51861    0.007500
    9496C3   609496   1.000000
    94971    51191    22.700000   51835    22.700000
    94971    51922    3.000000   51940    9.000000
    94971    51945    16.700000   51919    22.700000
    94971    51990    2.700000   51024    0.005000
    94971    51055    0.005000   51077    0.002500
    94971    51139    0.050000   51157    0.303600
    94971    51165    0.262500   51192    0.002500
    94971    51303    0.012500   51325    0.100000
    94971    51400    0.016700   51448    0.072500
    94971    51470    0.025000   51824    0.002500
    94971    51854    0.137500   609497   1.000000
    94972    51191    22.700000   51835    22.700000
    94972    51922    3.000000   51940    8.800000
    94972    51945    16.700000   51919    22.700000
    94972    51024    0.005000   51055    0.025000
    94972    51077    0.002500   51139    0.100000
    94972    51157    0.356200   51165    0.225000
    94972    51192    0.002500   51400    0.016700
    94972    51448    0.022500   51470    0.025000
    94972    51623    0.015000   51824    0.002500
    94972    51854    0.200000   609497   1.000000
    95401    51940    16.700000   51981    3.400000
    95401    51922    5.700000   51024    0.010000
    95401    51055    0.002500   51110    0.100000
    95401    51125    0.002500   51139    0.020000
    95401    51165    0.002500   51178    0.090000
    95401    51195    0.005000   51302    0.110000
    95401    51325    0.010000   51412    0.002500
    95401    51470    0.530200   51495    0.060000
    95401    51545    0.002500   51635    0.016700
    95401    51824    0.010000   51081    0.022500
    95401    51854    0.002500   609540   1.000000
    95402    51940    16.700000   51981    3.400000
    95402    51922    5.700000   51024    0.015000
    95402    51055    0.002500   51110    0.070000
    95402    51165    0.210000   51178    0.080000
    95402    51195    0.005000   51325    0.010000
    95402    51412    0.020000   51446    0.005000
    95402    51470    0.260200   51495    0.070000
    95402    51545    0.130000   51635    0.016700
    95402    51824    0.010000   51081    0.015000
    95402    51854    0.080000   609540   1.000000
    9540C4   51940    16.700000   51981    3.400000
    9540C4   51922    5.700000   51947    11.400000
    9540C4   51024    0.010000   51055    0.002500
    9540C4   51110    0.100000   51125    0.002500
    9540C4   51139    0.020000   51165    0.002500
    9540C4   51178    0.090000   51195    0.005000
    9540C4   51302    0.110000   51325    0.010000
    9540C4   51412    0.002500   51470    0.530000
    9540C4   51495    0.060000   51545    0.002500
    9540C4   51635    0.016700   51824    0.010000
    9540C4   51081    0.022500   51854    0.002500
    9540C4   609540   1.000000
    95631    51940    500.000000   51981    171.000000
    95631    51947    227.000000   51027    22.700000
    95631    51195    0.200000   51081    0.750000
    95631    51824    0.014700   51812    0.015000
    95631    609563   1.000000
    96011    51940    10.000000   51981    3.400000
    96011    51055    0.002500   51109    0.005000
    96011    51110    0.002500   51125    0.005000
    96011    51139    0.020000   51165    0.002200
    96011    51178    0.172500   51195    0.002500
    96011    51302    0.002500   51325    0.149200
    96011    51412    0.002500   51470    0.485000
    96011    51400    0.008300   51495    0.050000
    96011    51545    0.002500   51081    0.012500
    96011    51824    0.010000   51854    0.065000
    96011    609601   1.000000
    96012    51940    10.000000   51981    3.400000
    96012    51055    0.002500   51125    0.007500
    96012    51139    0.060000   51165    0.123000
    96012    51178    0.190000   51195    0.002500
    96012    51302    0.072500   51325    0.002500
    96012    51412    0.002500   51470    0.400000
    96012    51400    0.004200   51495    0.060000
    96012    51545    0.002500   51081    0.010000
    96012    51824    0.010000   51854    0.050000
    96012    609601   1.000000
    9601C4   51940    10.000000   51981    3.400000
    9601C4   51947    11.400000   51055    0.002500
    9601C4   51109    0.005000   51110    0.002500
    9601C4   51125    0.005000   51139    0.020000
    9601C4   51165    0.002200   51178    0.172500
    9601C4   51195    0.002500   51302    0.002500
    9601C4   51325    0.149200   51412    0.002500
    9601C4   51470    0.484800   51400    0.008300
    9601C4   51495    0.050000   51545    0.002500
    9601C4   51081    0.012500   51824    0.010000
    9601C4   51854    0.065000   609601   1.000000
    96021    51940    10.100000   51981    3.400000
    96021    51055    0.002500   51110    0.002500
    96021    51139    0.100000   51165    0.004700
    96021    51178    0.175000   51195    0.002500
    96021    51302    0.002500   51325    0.075000
    96021    51412    0.002500   51470    0.539200
    96021    51400    0.008300   51495    0.055000
    96021    51545    0.002500   51081    0.012500
    96021    51824    0.010000   51854    0.005000
    96021    609602   1.000000
    96022    51940    10.100000   51981    3.400000
    96022    51055    0.002500   51109    0.052500
    96022    51110    0.002500   51125    0.002500
    96022    51139    0.020000   51165    0.002500
    96022    51178    0.042500   51195    0.002500
    96022    51302    0.002500   51325    0.250000
    96022    51412    0.002500   51470    0.471400
    96022    51400    0.008300   51495    0.050000
    96022    51545    0.002500   51081    0.010000
    96022    51824    0.010000   51854    0.065000
    96022    609602   1.000000
    9602C2   51940    10.000000   51981    3.400000
    9602C2   51055    0.002500   51110    0.002500
    9602C2   51139    0.100000   51165    0.054700
    9602C2   51178    0.175000   51195    0.002500
    9602C2   51302    0.002500   51325    0.025000
    9602C2   51412    0.002500   51470    0.544200
    9602C2   51400    0.008300   51495    0.050000
    9602C2   51545    0.002500   51081    0.012500
    9602C2   51824    0.010000   51854    0.005000
    9602C2   609602   1.000000
    9602C4   51940    10.000000   51981    3.400000
    9602C4   51947    11.400000   51055    0.002500
    9602C4   51081    0.012500   51110    0.002500
    9602C4   51139    0.100000   51165    0.054700
    9602C4   51178    0.175000   51195    0.002500
    9602C4   51302    0.002500   51325    0.025000
    9602C4   51412    0.002500   51470    0.544000
    9602C4   51400    0.008300   51495    0.050000
    9602C4   51545    0.002500   51827    0.010000
    9602C4   51854    0.005000   609602   1.000000
    96081    51940    10.000000   51981    3.400000
    96081    51055    0.020000   51109    0.037500
    96081    51110    0.052500   51125    0.002500
    96081    51165    0.007200   51178    0.200000
    96081    51195    0.002500   51302    0.200000
    96081    51325    0.055000   51412    0.002500
    96081    51470    0.150000   51495    0.100000
    96081    51545    0.100000   51081    0.012500
    96081    51824    0.010000   51854    0.047500
    96081    609608   1.000000
    96082    51940    10.000000   51981    3.400000
    96082    51055    0.002500   51109    0.017500
    96082    51110    0.050000   51125    0.002500
    96082    51165    0.095000   51178    0.120000
    96082    51195    0.002500   51302    0.062500
    96082    51325    0.185000   51412    0.050000
    96082    51470    0.049700   51495    0.110000
    96082    51545    0.117500   51081    0.010000
    96082    51824    0.010000   51854    0.115000
    96082    609608   1.000000
    9608C2   51940    10.000000   51981    3.400000
    9608C2   51055    0.050000   51109    0.037500
    9608C2   51110    0.052500   51125    0.002500
    9608C2   51165    0.007200   51178    0.200000
    9608C2   51195    0.002500   51302    0.200000
    9608C2   51325    0.055000   51412    0.002500
    9608C2   51470    0.150000   51495    0.100000
    9608C2   51545    0.070000   51081    0.012500
    9608C2   51824    0.010000   51854    0.047500
    9608C2   609608   1.000000
    9608C4   51940    10.000000   51981    3.400000
    9608C4   51947    11.400000   51055    0.050000
    9608C4   51109    0.037500   51110    0.052500
    9608C4   51125    0.002500   51165    0.007200
    9608C4   51178    0.200000   51195    0.002500
    9608C4   51302    0.200000   51325    0.055000
    9608C4   51412    0.002500   51470    0.149800
    9608C4   51495    0.100000   51545    0.070000
    9608C4   51081    0.012500   51824    0.010000
    9608C4   51854    0.047500   609608   1.000000
    96091    51940    10.000000   51981    3.400000
    96091    51055    0.020000   51109    0.017500
    96091    51110    0.080000   51125    0.002500
    96091    51165    0.150000   51178    0.150000
    96091    51195    0.002500   51302    0.042500
    96091    51325    0.115000   51412    0.002500
    96091    51470    0.089700   51495    0.110000
    96091    51545    0.100000   51081    0.010000
    96091    51824    0.010000   51854    0.097500
    96091    609609   1.000000
    96092    51940    10.000000   51981    3.400000
    96092    51055    0.020000   51109    0.002500
    96092    51110    0.120000   51125    0.002500
    96092    51165    0.004700   51178    0.200000
    96092    51195    0.002500   51302    0.155000
    96092    51325    0.115000   51412    0.002500
    96092    51470    0.150000   51495    0.100000
    96092    51545    0.100000   51081    0.012500
    96092    51824    0.010000   51854    0.002500
    96092    609609   1.000000
    9609C2   51940    10.000000   51981    3.400000
    9609C2   51055    0.050000   51109    0.002500
    9609C2   51110    0.120000   51125    0.002500
    9609C2   51165    0.004700   51178    0.200000
    9609C2   51195    0.002500   51302    0.155000
    9609C2   51325    0.115000   51412    0.002500
    9609C2   51470    0.150000   51495    0.100000
    9609C2   51545    0.070000   51081    0.012500
    9609C2   51824    0.010000   51854    0.002500
    9609C2   609609   1.000000
    9609C4   51940    10.000000   51981    3.400000
    9609C4   51947    11.400000   51055    0.050000
    9609C4   51081    0.012500   51109    0.002500
    9609C4   51110    0.120000   51125    0.002500
    9609C4   51165    0.004700   51178    0.200000
    9609C4   51195    0.002500   51302    0.155000
    9609C4   51325    0.115000   51412    0.002500
    9609C4   51470    0.149800   51495    0.100000
    9609C4   51545    0.070000   51824    0.010000
    9609C4   51854    0.002500   609609   1.000000
    96101    51940    8.950000   51981    3.400000
    96101    51109    0.040000   51110    0.031300
    96101    51125    0.006300   51165    0.078500
    96101    51178    0.115000   51195    0.002500
    96101    51302    0.081300   51325    0.008600
    96101    51412    0.001200   51470    0.150000
    96101    51081    0.010000   51824    0.010000
    96101    51854    0.035000   51055    0.002500
    96101    51157    0.090000   51495    0.070000
    96101    51545    0.267500   609610   1.000000
    96102    51940    8.950000   51981    3.400000
    96102    51109    0.032500   51110    0.051300
    96102    51125    0.006300   51165    0.078400
    96102    51178    0.140000   51195    0.002500
    96102    51302    0.081200   51325    0.001200
    96102    51412    0.001300   51470    0.150000
    96102    51081    0.010000   51824    0.010000
    96102    51854    0.025000   51055    0.002500
    96102    51157    0.130000   51495    0.070000
    96102    51545    0.207500   609610   1.000000
    9610C2   51940    8.950000   51981    3.400000
    9610C2   51109    0.040000   51110    0.031300
    9610C2   51125    0.006300   51165    0.078500
    9610C2   51178    0.115000   51195    0.002500
    9610C2   51302    0.081300   51325    0.008600
    9610C2   51412    0.001200   51470    0.150000
    9610C2   51081    0.010000   51824    0.010000
    9610C2   51854    0.035000   51055    0.080000
    9610C2   51157    0.090000   51495    0.070000
    9610C2   51545    0.190000   609610   1.000000
    9610C4   51940    8.950000   51981    3.400000
    9610C4   51947    11.400000   51109    0.040000
    9610C4   51110    0.031300   51125    0.006300
    9610C4   51165    0.078300   51178    0.115000
    9610C4   51195    0.002500   51302    0.081300
    9610C4   51325    0.008600   51412    0.001200
    9610C4   51470    0.150000   51081    0.010000
    9610C4   51824    0.010000   51854    0.035000
    9610C4   51055    0.080000   51157    0.090000
    9610C4   51495    0.070000   51545    0.190000
    9610C4   609610   1.000000
    96151    51940    10.080000   51981    3.420000
    96151    51109    0.045000   51110    0.170000
    96151    51125    0.004500   51165    0.001300
    96151    51178    0.001500   51195    0.003000
    96151    51302    0.045000   51081    0.010500
    96151    51325    0.075000   51412    0.001500
    96151    51470    0.330400   51861    0.001500
    96151    51824    0.006000   51854    0.001500
    96151    51917    0.009000   51400    0.002500
    96151    51055    0.071500   51157    0.080000
    96151    51495    0.060000   51545    0.080000
    96151    609615   1.000000
    96152    51940    8.400000   51981    2.850000
    96152    51109    0.015000   51110    0.116000
    96152    51302    0.001500   51081    0.015000
    96152    51125    0.004500   51165    0.094500
    96152    51178    0.067500   51195    0.003000
    96152    51325    0.001500   51412    0.001500
    96152    51470    0.328700   51861    0.039000
    96152    51824    0.009000   51854    0.001500
    96152    51917    0.009000   51400    0.002500
    96152    51055    0.010000   51157    0.080000
    96152    51495    0.060000   51545    0.140000
    96152    609615   1.000000
    9615C2   51940    10.080000   51981    3.420000
    9615C2   51109    0.045000   51110    0.170000
    9615C2   51125    0.004500   51165    0.001300
    9615C2   51178    0.001500   51195    0.003000
    9615C2   51302    0.045000   51081    0.010500
    9615C2   51325    0.075000   51412    0.001500
    9615C2   51470    0.330400   51861    0.001500
    9615C2   51824    0.006000   51854    0.001500
    9615C2   51917    0.009000   51400    0.002500
    9615C2   51055    0.101500   51157    0.080000
    9615C2   51495    0.060000   51545    0.050000
    9615C2   609615   1.000000
    9615C4   51940    10.080000   51981    3.420000
    9615C4   51947    11.400000   51109    0.045000
    9615C4   51110    0.170000   51125    0.004500
    9615C4   51165    0.001300   51178    0.001500
    9615C4   51195    0.003000   51302    0.045000
    9615C4   51081    0.010500   51325    0.075000
    9615C4   51412    0.001500   51470    0.330200
    9615C4   51824    0.006000   51854    0.001500
    9615C4   51861    0.001500   51917    0.009000
    9615C4   51400    0.002500   51055    0.101500
    9615C4   51157    0.080000   51495    0.060000
    9615C4   51545    0.050000   609615   1.000000
    96251    51940    10.400000   51981    3.400000
    96251    51055    0.002500   51080    0.002500
    96251    51109    0.055000   51110    0.125000
    96251    51125    0.002500   51139    0.080000
    96251    51165    0.002200   51178    0.002500
    96251    51195    0.002500   51302    0.002500
    96251    51325    0.250000   51412    0.002500
    96251    51470    0.321700   51400    0.008300
    96251    51495    0.050000   51545    0.002500
    96251    51081    0.010000   51824    0.010000
    96251    51827    0.050000   51854    0.002500
    96251    51861    0.002500   51917    0.012500
    96251    609625   1.000000
    96252    51940    10.400000   51981    3.400000
    96252    51055    0.002500   51080    0.002500
    96252    51109    0.080000   51110    0.062500
    96252    51125    0.005000   51139    0.050000
    96252    51165    0.002500   51178    0.002500
    96252    51195    0.002500   51302    0.002500
    96252    51325    0.250000   51412    0.002500
    96252    51470    0.376400   51400    0.008300
    96252    51495    0.060000   51545    0.002500
    96252    51081    0.010000   51824    0.010000
    96252    51827    0.050000   51854    0.002500
    96252    51861    0.002500   51917    0.012500
    96252    609625   1.000000
    9625C2   51940    10.400000   51981    3.400000
    9625C2   51947    11.400000   51055    0.002500
    9625C2   51080    0.002500   51109    0.140000
    9625C2   51110    0.002500   51125    0.002500
    9625C2   51139    0.100000   51165    0.094700
    9625C2   51178    0.002500   51195    0.002500
    9625C2   51302    0.002500   51325    0.002500
    9625C2   51412    0.002500   51470    0.498900
    9625C2   51400    0.008300   51495    0.050000
    9625C2   51545    0.002500   51081    0.007500
    9625C2   51824    0.010000   51827    0.050000
    9625C2   51854    0.002500   51861    0.002500
    9625C2   51917    0.010000   609625   1.000000
    9625C4   51940    10.400000   51981    3.400000
    9625C4   51947    11.400000   51055    0.002500
    9625C4   51080    0.002500   51109    0.140000
    9625C4   51110    0.002500   51125    0.002500
    9625C4   51139    0.100000   51165    0.094700
    9625C4   51178    0.002500   51195    0.002500
    9625C4   51302    0.002500   51325    0.002500
    9625C4   51412    0.002500   51470    0.498900
    9625C4   51400    0.008300   51495    0.050000
    9625C4   51545    0.002500   51081    0.007500
    9625C4   51824    0.010000   51827    0.050000
    9625C4   51854    0.002500   51861    0.002500
    9625C4   51917    0.010000   609625   1.000000
    96301    51940    3.300000   51981    1.100000
    96301    51055    0.002500   51080    0.002500
    96301    51109    0.147500   51110    0.002500
    96301    51125    0.007500   51139    0.002500
    96301    51165    0.004700   51178    0.002500
    96301    51195    0.002500   51302    0.002500
    96301    51325    0.250000   51412    0.002500
    96301    51470    0.421900   51400    0.008300
    96301    51495    0.050000   51081    0.007500
    96301    51824    0.010000   51827    0.050000
    96301    51854    0.002500   51861    0.007500
    96301    51917    0.012500   609630   1.000000
    96302    51940    3.300000   51981    1.100000
    96302    51055    0.002500   51080    0.002500
    96302    51109    0.002500   51110    0.052500
    96302    51125    0.005000   51139    0.002500
    96302    51165    0.002200   51178    0.002500
    96302    51195    0.002500   51302    0.002500
    96302    51325    0.192500   51412    0.002500
    96302    51470    0.549400   51400    0.008300
    96302    51495    0.050000   51081    0.015000
    96302    51824    0.010000   51827    0.025000
    96302    51854    0.002500   51861    0.057500
    96302    51917    0.010000   609630   1.000000
    9630C2   51940    3.300000   51981    1.100000
    9630C2   51055    0.002500   51080    0.002500
    9630C2   51109    0.115000   51110    0.002500
    9630C2   51125    0.007500   51139    0.025000
    9630C2   51165    0.137200   51178    0.002500
    9630C2   51195    0.002500   51302    0.002500
    9630C2   51325    0.002500   51412    0.002500
    9630C2   51470    0.549400   51400    0.008300
    9630C2   51495    0.050000   51081    0.007500
    9630C2   51824    0.010000   51827    0.050000
    9630C2   51854    0.002500   51861    0.007500
    9630C2   51917    0.010000   609630   1.000000
    9630C4   51940    3.300000   51981    1.100000
    9630C4   51947    11.400000   51055    0.002500
    9630C4   51080    0.002500   51109    0.115000
    9630C4   51110    0.002500   51125    0.007500
    9630C4   51139    0.025000   51165    0.137200
    9630C4   51178    0.002500   51195    0.002500
    9630C4   51302    0.002500   51325    0.002500
    9630C4   51412    0.002500   51470    0.549200
    9630C4   51400    0.008300   51495    0.050000
    9630C4   51081    0.007500   51824    0.010000
    9630C4   51827    0.050000   51854    0.002500
    9630C4   51861    0.007500   51917    0.010000
    9630C4   609630   1.000000
    96321    51041    18.150000   51940    16.600000
    96321    51981    3.400000   51024    0.010000
    96321    51125    0.008700   51157    0.160400
    96321    51195    0.005000   51325    0.001300
    96321    51412    0.050000   51470    0.236200
    96321    51081    0.007500   51824    0.010000
    96321    51842    0.010000   51854    0.103700
    96321    51974    0.005000   51055    0.002500
    96321    51080    0.050000   51110    0.050000
    96321    51495    0.060000   51545    0.227500
    96321    609632   1.000000
    96322    51041    18.140000   51940    10.000000
    96322    51981    3.400000   51024    0.020000
    96322    51125    0.005000   51157    0.210000
    96322    51195    0.005000   51325    0.005000
    96322    51412    0.050000   51470    0.104200
    96322    51081    0.010000   51824    0.010000
    96322    51842    0.010000   51854    0.125000
    96322    51974    0.005000   51055    0.002500
    96322    51080    0.050000   51110    0.050000
    96322    51495    0.060000   51545    0.227500
    96322    609632   1.000000
    96331    51940    10.000000   51981    3.400000
    96331    51055    0.020000   51022    0.185000
    96331    51080    0.020000   51110    0.180000
    96331    51165    0.197200   51195    0.005000
    96331    51325    0.050000   51495    0.157500
    96331    51545    0.150000   51081    0.022500
    96331    51824    0.010000   51861    0.002500
    96331    609633   1.000000
    96332    51940    10.000000   51981    3.400000
    96332    51055    0.060000   51022    0.080000
    96332    51080    0.070000   51110    0.374700
    96332    51195    0.005000   51495    0.140000
    96332    51545    0.250000   51081    0.010000
    96332    51824    0.010000   609633   1.000000
    9633C4   51940    10.000000   51981    3.400000
    9633C4   51947    11.400000   51055    0.020000
    9633C4   51022    0.185000   51080    0.020000
    9633C4   51110    0.180000   51165    0.197000
    9633C4   51195    0.005000   51325    0.050000
    9633C4   51495    0.157500   51545    0.150000
    9633C4   51081    0.022500   51824    0.010000
    9633C4   51861    0.002500   609633   1.000000
    96341    51940    10.000000   51981    3.400000
    96341    51022    0.230000   51110    0.160000
    96341    51125    0.012500   51165    0.135000
    96341    51195    0.002500   51302    0.060000
    96341    51081    0.007500   51495    0.180000
    96341    51824    0.010000   51827    0.090000
    96341    51854    0.010000   51861    0.102200
    96341    609634   1.000000
    96342    51940    10.000000   51981    3.400000
    96342    51022    0.180000   51110    0.100000
    96342    51125    0.012500   51165    0.155000
    96342    51195    0.002500   51302    0.060000
    96342    51081    0.007500   51495    0.180000
    96342    51824    0.020000   51854    0.010000
    96342    51861    0.272200   609634   1.000000
    96361    51940    10.000000   51981    3.400000
    96361    51024    0.020000   51055    0.002500
    96361    51109    0.002500   51110    0.037500
    96361    51125    0.012500   51139    0.020000
    96361    51165    0.002200   51178    0.200000
    96361    51195    0.005000   51302    0.002500
    96361    51325    0.045000   51470    0.549200
    96361    51400    0.008300   51495    0.050000
    96361    51081    0.010000   51824    0.010000
    96361    51854    0.002500   51861    0.007500
    96361    51917    0.012500   609636   1.000000
    96362    51940    10.000000   51981    3.400000
    96362    51024    0.020000   51055    0.002500
    96362    51109    0.060000   51110    0.002500
    96362    51125    0.012500   51139    0.020000
    96362    51165    0.002500   51178    0.025000
    96362    51195    0.005000   51302    0.002500
    96362    51325    0.165000   51470    0.506400
    96362    51400    0.008300   51495    0.050000
    96362    51081    0.010000   51824    0.010000
    96362    51854    0.082500   51861    0.002500
    96362    51917    0.012500   609636   1.000000
    9636C4   51940    10.000000   51981    3.400000
    9636C4   51947    11.400000   51024    0.020000
    9636C4   51055    0.002500   51081    0.010000
    9636C4   51109    0.002500   51110    0.037500
    9636C4   51125    0.012500   51139    0.020000
    9636C4   51165    0.002200   51178    0.200000
    9636C4   51195    0.005000   51302    0.002500
    9636C4   51325    0.045000   51470    0.549000
    9636C4   51400    0.008300   51495    0.050000
    9636C4   51824    0.010000   51854    0.002500
    9636C4   51861    0.007500   51917    0.012500
    9636C4   609636   1.000000
    96501    51940    15.000000   51981    5.100000
    96501    51110    0.100000   51125    0.032500
    96501    51178    0.187500   51195    0.005000
    96501    51302    0.250000   51412    0.002500
    96501    51470    0.259600   51495    0.040000
    96501    51081    0.012500   51824    0.030000
    96501    51854    0.002500   51861    0.050000
    96501    51917    0.027500   609650   1.000000
    96502    51940    30.000000   51981    10.200000
    96502    51110    0.200000   51125    0.002500
    96502    51178    0.205000   51195    0.007500
    96502    51302    0.300000   51412    0.002500
    96502    51470    0.027500   51495    0.050000
    96502    51081    0.060000   51824    0.030000
    96502    51854    0.002500   51861    0.084100
    96502    51917    0.027500   609650   1.000000
    96521    51940    30.000000   51981    10.200000
    96521    51109    0.002500   51110    0.150000
    96521    51125    0.035000   51178    0.002500
    96521    51195    0.005000   51302    0.292500
    96521    51325    0.002500   51470    0.344100
    96521    51495    0.050000   51824    0.040000
    96521    51081    0.015000   51854    0.002500
    96521    51861    0.002500   51917    0.055000
    96521    609652   1.000000
    96522    51940    30.000000   51981    10.200000
    96522    51109    0.002500   51110    0.002500
    96522    51125    0.032500   51178    0.002500
    96522    51195    0.005000   51302    0.007500
    96522    51325    0.002500   51470    0.549100
    96522    51495    0.055000   51824    0.040000
    96522    51081    0.020000   51854    0.075000
    96522    51861    0.150000   51917    0.055000
    96522    609652   1.000000
    96531    51940    20.000000   51981    6.800000
    96531    51110    0.077500   51125    0.035000
    96531    51178    0.300000   51195    0.005000
    96531    51302    0.300000   51412    0.002500
    96531    51470    0.049400   51495    0.040000
    96531    51081    0.017500   51824    0.040000
    96531    51854    0.090000   51861    0.002500
    96531    51917    0.040000   609653   1.000000
    96532    51940    20.000000   51981    6.800000
    96532    51110    0.100000   51125    0.022500
    96532    51178    0.300000   51195    0.005000
    96532    51302    0.050000   51412    0.002500
    96532    51470    0.264400   51495    0.040000
    96532    51081    0.017500   51824    0.040000
    96532    51854    0.115000   51861    0.002500
    96532    51917    0.040000   609653   1.000000
    96541    51940    40.000000   51981    13.600000
    96541    51110    0.167500   51125    0.002500
    96541    51178    0.120000   51195    0.010000
    96541    51302    0.002500   51412    0.002500
    96541    51470    0.001300   51495    0.050000
    96541    51081    0.080000   51824    0.040000
    96541    51854    0.520000   51861    0.002500
    96541    609654   1.000000
    96542    51940    40.000000   51981    13.600000
    96542    51110    0.167500   51125    0.002500
    96542    51195    0.010000   51178    0.120000
    96542    51302    0.002500   51412    0.002500
    96542    51470    0.001300   51495    0.050000
    96542    51081    0.080000   51824    0.040000
    96542    51854    0.520000   51861    0.002500
    96542    609654   1.000000
    96551    51940    30.000000   51981    10.200000
    96551    51110    0.150000   51125    0.040000
    96551    51178    0.002500   51195    0.007500
    96551    51302    0.300000   51470    0.069100
    96551    51495    0.030000   51081    0.027500
    96551    51824    0.050000   51854    0.252500
    96551    51917    0.070000   609655   1.000000
    96552    51940    30.000000   51981    10.200000
    96552    51110    0.002500   51125    0.040000
    96552    51178    0.002500   51195    0.007500
    96552    51302    0.192500   51470    0.299100
    96552    51495    0.040000   51081    0.030000
    96552    51824    0.050000   51854    0.265000
    96552    51917    0.070000   609655   1.000000
    97121    51940    10.000000   51981    3.400000
    97121    51922    5.700000   51490    90.800000
    97121    51055    0.002500   51110    0.120000
    97121    51157    0.050000   51165    0.147600
    97121    51195    0.007500   51412    0.020000
    97121    51495    0.110000   51545    0.520000
    97121    51081    0.010000   51824    0.010000
    97121    609712   1.000000
    97122    51940    10.000000   51981    3.400000
    97122    51922    5.700000   51490    90.800000
    97122    51055    0.002500   51110    0.100000
    97122    51157    0.050000   51165    0.147600
    97122    51195    0.007500   51412    0.020000
    97122    51495    0.100000   51545    0.550000
    97122    51081    0.010000   51824    0.010000
    97122    609712   1.000000
    97151    51940    5.000000   51981    1.700000
    97151    51922    5.000000   51490    90.800000
    97151    51022    0.180000   51080    0.020000
    97151    51110    0.194300   51125    0.002500
    97151    51139    0.050000   51165    0.155100
    97151    51195    0.005000   51412    0.010000
    97151    51400    0.008300   51495    0.050000
    97151    51545    0.080000   51081    0.007500
    97151    51824    0.010000   51827    0.050000
    97151    51854    0.025000   51861    0.150000
    97151    609715   1.000000
    97152    51940    5.000000   51981    1.700000
    97152    51922    5.000000   51490    90.800000
    97152    51022    0.120000   51080    0.030000
    97152    51110    0.100000   51125    0.002500
    97152    51139    0.080000   51165    0.229400
    97152    51195    0.005000   51412    0.010000
    97152    51400    0.008300   51495    0.060000
    97152    51545    0.080000   51824    0.010000
    97152    51827    0.050000   51081    0.007500
    97152    51854    0.060000   51861    0.145000
    97152    609715   1.000000
    97211    51041    36.300000   51940    33.300000
    97211    51981    0.700000   51990    5.700000
    97211    51033    8.200000   51496    136.200000
    97211    51922    22.700000   51943    22.700000
    97211    51028    0.010000   51157    0.634100
    97211    51192    0.025000   51195    0.005000
    97211    51081    0.015000   51824    0.005000
    97211    51842    0.080000   51854    0.170000
    97211    51884    0.050000   609721   1.000000
    97231    51043    11.300000   51940    16.800000
    97231    51981    0.600000   51990    5.700000
    97231    51033    8.300000   51922    15.100000
    97231    51943    10.600000   51340    34.000000
    97231    51125    0.005000   51157    0.572700
    97231    51192    0.015000   51195    0.005000
    97231    51446    0.025000   51470    0.280000
    97231    51824    0.005000   51854    0.090000
    97231    609723   1.000000
    97232    51043    11.400000   51940    16.800000
    97232    51981    0.600000   51990    5.700000
    97232    51033    8.300000   51922    15.100000
    97232    51943    10.600000   51340    34.000000
    97232    51165    0.602400   51192    0.010000
    97232    51195    0.005000   51446    0.035000
    97232    51470    0.220000   51081    0.010000
    97232    51824    0.005000   51854    0.110000
    97232    609723   1.000000
    97251    51043    5.700000   51940    3.300000
    97251    51981    0.700000   51990    5.700000
    97251    51922    5.700000   51033    8.200000
    97251    51943    8.000000   51024    0.010000
    97251    51055    0.060000   51125    0.002500
    97251    51139    0.200000   51165    0.331700
    97251    51192    0.005000   51195    0.002500
    97251    51446    0.005000   51470    0.200000
    97251    51495    0.050000   51081    0.007500
    97251    51824    0.005000   51827    0.050000
    97251    51854    0.070000   609725   1.000000
    97252    51043    5.700000   51940    3.300000
    97252    51981    0.700000   51990    5.700000
    97252    51922    5.700000   51033    8.200000
    97252    51943    8.000000   51024    0.010000
    97252    51055    0.260000   51125    0.002500
    97252    51165    0.101700   51192    0.005000
    97252    51195    0.002500   51446    0.005000
    97252    51470    0.470000   51495    0.050000
    97252    51081    0.007500   51824    0.005000
    97252    51827    0.050000   51854    0.030000
    97252    609725   1.000000
    97271    51043    45.400000   51940    33.300000
    97271    51981    2.300000   51990    22.700000
    97271    51922    35.100000   51943    68.100000
    97271    51024    0.040000   51125    0.032500
    97271    51192    0.010000   51195    0.010000
    97271    51446    0.210000   51470    0.050000
    97271    51495    0.030000   51081    0.017500
    97271    51824    0.025000   51854    0.571000
    97271    609727   1.000000
    97291    51940    40.000000   51981    2.300000
    97291    51990    22.700000   51922    22.700000
    97291    51943    68.100000   51024    0.060000
    97291    51125    0.027500   51192    0.002500
    97291    51195    0.010000   51446    0.177500
    97291    51470    0.200000   51495    0.030000
    97291    51081    0.017500   51824    0.025000
    97291    51854    0.446600   609729   1.000000
    97292    51043    22.700000   51940    40.000000
    97292    51981    2.300000   51990    22.700000
    97292    51922    22.700000   51943    68.100000
    97292    51024    0.060000   51028    0.010000
    97292    51125    0.027500   51192    0.020000
    97292    51195    0.010000   51446    0.160000
    97292    51470    0.200000   51495    0.020000
    97292    51081    0.017500   51824    0.025000
    97292    51854    0.446100   609729   1.000000
    97311    51041    4.700000   51940    16.700000
    97311    51981    0.700000   51990    5.700000
    97311    51922    17.100000   51943    22.700000
    97311    51024    0.050000   51055    0.002500
    97311    51165    0.226000   51192    0.020000
    97311    51195    0.005000   51325    0.002500
    97311    51446    0.020000   51470    0.350000
    97311    51495    0.030000   51545    0.147500
    97311    51081    0.010000   51824    0.005000
    97311    51827    0.120000   51854    0.010000
    97311    609731   1.000000
    97312    51041    4.700000   51940    16.700000
    97312    51981    0.700000   51990    5.700000
    97312    51922    17.100000   51943    22.700000
    97312    51024    0.050000   51055    0.100000
    97312    51157    0.010000   51192    0.020000
    97312    51195    0.005000   51325    0.218500
    97312    51446    0.020000   51470    0.350000
    97312    51495    0.030000   51545    0.050000
    97312    51081    0.010000   51824    0.005000
    97312    51827    0.120000   51854    0.010000
    97312    609731   1.000000
    97501    51835    22.700000   51940    16.000000
    97501    51981    1.800000   51947    11.400000
    97501    51922    2.900000   51190    0.057000
    97501    51144    0.120000   51024    0.200000
    97501    51055    0.050000   51080    0.040000
    97501    51110    0.070000   51125    0.007500
    97501    51157    0.115900   51195    0.005000
    97501    51303    0.010000   51412    0.002500
    97501    51470    0.167500   51545    0.225000
    97501    51623    0.010000   51824    0.002500
    97501    51842    0.005000   51854    0.087500
    97501    609750   1.000000
    97711    51144    54.500000   51460    10.600000
    97711    51835    22.700000   51922    14.500000
    97711    51940    11.400000   51945    22.500000
    97711    51947    10.200000   51024    0.250000
    97711    51055    0.182500   51077    0.002500
    97711    51412    0.025000   51470    0.124300
    97711    51545    0.200000   51623    0.007500
    97711    51824    0.005000   51854    0.150000
    97711    51861    0.050000   609771   1.000000
    999080   51080    1.000000   60080    1.000000
    999157   51157    1.000000   60157    1.000000
    999545   51545    1.000000   60545    1.000000
    999854   51854    1.000000   60854    1.000000
    SLACK6036 50022    1.000000
    SLACK6037 50024    1.000000
    SLACK6038 50028    1.000000
    SLACK6039 50055    1.000000
    SLACK6040 50059    1.000000
    SLACK6041 50077    1.000000
    SLACK6042 50080    1.000000
    SLACK6043 50081    1.000000
    SLACK6044 50109    1.000000
    SLACK6045 50110    1.000000
    SLACK6046 50139    1.000000
    SLACK6047 50157    1.000000
    SLACK6048 50165    1.000000
    SLACK6049 50168    1.000000
    SLACK6050 50178    1.000000
    SLACK6051 50190    1.000000
    SLACK6052 50192    1.000000
    SLACK6053 50195    1.000000
    SLACK6054 50302    1.000000
    SLACK6055 50303    1.000000
    SLACK6056 50325    1.000000
    SLACK6057 50412    1.000000
    SLACK6058 50448    1.000000
    SLACK6059 50470    1.000000
    SLACK6060 50477    1.000000
    SLACK6061 50495    1.000000
    SLACK6062 50545    1.000000
    SLACK6063 50548    1.000000
    SLACK6064 50623    1.000000
    SLACK6065 50842    1.000000
    SLACK6066 50854    1.000000
    SLACK6067 50861    1.000000
    SLACK6068 50917    1.000000
RHS
    BEACON2  50022    30.000000
    BEACON2  50024    66.000000
    BEACON2  50028    37.000000
    BEACON2  50055    487.000000
    BEACON2  50059    35.000000
    BEACON2  50080    103.000000
    BEACON2  50081    70.000000
    BEACON2  50109    45.000000
    BEACON2  50110    38.000000
    BEACON2  50139    22.000000
    BEACON2  50157    63.000000
    BEACON2  50165    144.000000
    BEACON2  50178    128.000000
    BEACON2  50190    37.000000
    BEACON2  50192    50.000000
    BEACON2  50302    114.000000
    BEACON2  50303    47.000000
    BEACON2  50325    296.000000
    BEACON2  50412    13.000000
    BEACON2  50448    59.000000
    BEACON2  50470    573.000000
    BEACON2  50477    31.000000
    BEACON2  50495    1283.000000
    BEACON2  50545    148.000000
    BEACON2  50548    32.000000
    BEACON2  50623    21.000000
    BEACON2  50842    7.000000
    BEACON2  50854    321.000000
    BEACON2  50861    54.000000
    BEACON2  50917    41.000000
    BEACON2  50168    56.000000
    BEACON2  50077    13.000000
    BEACON2  50195    24.000000
    BEACON2  609101   1120.000000
    BEACON2  609111   640.000000
    BEACON2  609138   56.000000
    BEACON2  609012   600.000000
    BEACON2  609022   120.000000
    BEACON2  609032   20.000000
    BEACON2  609202   360.000000
    BEACON2  609361   1000.000000
    BEACON2  609362   192.000000
    BEACON2  609363   65.000000
    BEACON2  609402   90.000000
    BEACON2  609221   4.000000
    BEACON2  609750   18.000000
    BEACON2  609422   215.000000
    BEACON2  609441   140.000000
    BEACON2  609496   160.000000
    BEACON2  609715   1.000000
    BEACON2  609625   1160.000000
    BEACON2  609602   1893.000000
    BEACON2  609601   60.000000
    BEACON2  609540   24.000000
    BEACON2  609630   420.000000
    BEACON2  609615   415.000000
    BEACON2  609610   445.000000
    BEACON2  609608   165.000000
    BEACON2  609609   410.000000
    BEACON2  609632   60.000000
    BEACON2  609712   137.000000
    BEACON2  609633   47.000000
    BEACON2  609653   40.000000
    BEACON2  609727   3.000000
    BEACON2  60157    108.000000
    BEACON2  609563   5.000000
    BEACON2  609172   40.000000
BOUNDS
ENDATA
