NAME          BLEND
ROWS
 E  1       
 E  2       
 E  3       
 E  4       
 E  5       
 E  6       
 E  7       
 E  8       
 E  9       
 E  10      
 E  11      
 E  12      
 E  13      
 E  14      
 E  15      
 E  16      
 E  17      
 E  18      
 E  19      
 E  20      
 E  21      
 E  22      
 E  23      
 E  24      
 E  25      
 E  26      
 E  27      
 E  28      
 E  29      
 E  30      
 E  31      
 E  32      
 E  33      
 E  34      
 E  35      
 E  36      
 E  37      
 E  38      
 E  39      
 E  40      
 E  41      
 E  42      
 E  43      
 E  44      
 E  45      
 E  46      
 E  47      
 E  48      
 E  49      
 E  50      
 E  51      
 E  52      
 E  53      
 E  54      
 E  55      
 E  56      
 E  57      
 E  58      
 E  59      
 E  60      
 E  61      
 E  62      
 E  63      
 E  64      
 E  65      
 E  66      
 E  67      
 E  68      
 E  69      
 E  70      
 E  71      
 E  72      
 E  73      
 E  74      
 N  C       
COLUMNS
    1        2        -0.537000   3        -0.131000
    1        4        -0.115500   5        -0.036500
    1        6        -0.143000   7        -0.037000
    1        40       0.003000   41       0.058700
    1        42       0.150000   43       0.302000
    1        67       1.000000   C        3.200000
    2        1        -0.293100   3        -0.117000
    2        4        -0.064900   5        -0.123300
    2        6        -0.221700   8        -0.180000
    2        39       0.004200   40       0.003000
    2        41       0.105300   42       0.185000
    2        43       0.384000   50       -0.008620
    2        51       -0.008620   56       -0.010100
    2        57       -0.010100   68       1.000000
    2        C        2.870000
    3        2        1.000000   9        -0.027700
    3        10       -0.056300   11       -0.199000
    3        12       -0.687300   13       -0.017000
    3        40       0.013030   41       0.050600
    3        42       0.209000   43       0.495000
    3        65       1.000000
    4        1        1.000000   9        -0.011200
    4        10       -0.037800   11       -0.150200
    4        12       -0.795300   13       -0.009900
    4        40       0.013030   41       0.044800
    4        42       0.185000   43       0.721000
    4        65       1.000000
    5        9        -0.175000   10       -0.270000
    5        11       -0.028000   13       -0.455000
    5        21       1.000000   40       0.013030
    5        41       0.050600   42       0.209000
    5        43       0.495000
    6        9        -0.271000   10       -0.328500
    6        11       -0.025500   13       -0.265600
    6        18       1.000000   40       0.013030
    6        41       0.050600   42       0.209000
    6        43       0.495000
    7        9        -0.283600   10       -0.328500
    7        11       -0.024100   13       -0.250200
    7        17       1.000000   40       0.013030
    7        41       0.050600   42       0.209000
    7        43       0.495000
    8        12       1.000000   14       -1.000000
    8        39       0.032700   41       0.094000
    8        42       0.045000   43       0.793000
    8        C        0.004400
    9        15       -1.000000   22       1.000000
    10       16       -1.000000   22       1.000000
    11       14       1.000000   15       -1.000000
    12       14       1.000000   16       -1.000000
    13       15       1.000000   17       -0.058800
    13       19       -0.814500   23       -0.009100
    13       39       -0.823900   40       0.008100
    13       41       -0.211200   42       0.387000
    13       43       1.030000   69       1.300000
    13       C        0.070000
    14       16       1.000000   18       -0.040400
    14       20       -0.856400   23       -0.006900
    14       39       -0.768900   40       0.006300
    14       41       -0.156000   42       0.297000
    14       43       0.792000   69       1.000000
    14       C        0.037800
    15       5        1.000000   21       -0.332100
    15       22       -0.587500   23       -0.362000
    15       39       2.300000   41       -0.204900
    15       42       0.826000   43       14.610000
    15       65       1.000000   70       1.000000
    15       C        0.155000
    16       6        1.000000   21       -0.332100
    16       22       -0.587500   23       -0.362000
    16       39       2.300000   41       -0.204900
    16       42       0.826000   43       14.610000
    16       66       1.000000   70       1.000000
    16       C        0.155000
    17       4        1.000000   21       -0.241400
    17       22       -0.662700   23       -0.293000
    17       39       2.300000   41       -0.153100
    17       42       0.826000   43       14.610000
    17       65       1.000000   70       1.000000
    17       C        0.155000
    18       21       -0.241400   22       -0.662700
    18       23       -0.293000   28       1.000000
    18       39       2.300000   41       -0.153100
    18       42       0.826000   43       14.610000
    18       70       1.000000   C        0.155000
    19       5        1.000000   10       -0.018500
    19       13       -0.056800   24       -0.080600
    19       25       -0.065800   26       -0.032800
    19       27       -0.493400   28       -0.292200
    19       29       -0.009600   40       -0.065400
    19       41       -0.253500   42       0.632000
    19       43       0.680700   65       1.000000
    19       71       1.000000   C        0.052800
    20       6        1.000000   10       -0.018500
    20       13       -0.056800   24       -0.080600
    20       25       -0.065800   26       -0.032800
    20       27       -0.493400   28       -0.292200
    20       29       -0.009600   40       -0.065400
    20       41       -0.253500   42       0.632000
    20       43       0.680700   66       1.000000
    20       71       1.000000   C        0.052800
    21       4        1.000000   10       -0.018400
    21       13       -0.056400   24       -0.078000
    21       25       -0.065500   26       -0.030300
    21       27       -0.475000   28       -0.305000
    21       40       -0.065400   41       -0.270300
    21       42       0.632000   43       0.680700
    21       65       1.000000   71       1.000000
    21       C        0.052800
    22       3        1.000000   10       -0.018400
    22       13       -0.056400   24       -0.078000
    22       25       -0.065500   26       -0.030300
    22       27       -0.475000   28       -0.305000
    22       40       -0.065400   41       -0.270300
    22       42       0.632000   43       0.680700
    22       65       1.000000   71       1.000000
    22       C        0.052800
    23       13       0.760000   25       0.571400
    23       30       -1.000000   40       0.186900
    23       41       0.279600   42       2.241000
    23       43       2.766000   72       1.000000
    23       C        0.128000
    24       9        -0.057100   10       -0.011400
    24       13       0.657100   24       0.571400
    24       31       -1.000000   40       0.172400
    24       41       0.257900   42       2.067000
    24       43       2.552000   72       1.000000
    24       C        0.118000
    25       9        -1.000000   25       1.000000
    26       10       -1.000000   24       1.000000
    27       10       -1.000000   13       1.000000
    28       11       1.000000   32       -1.000000
    28       44       -7.950000   45       -8.700000
    28       46       -3.000000   47       14.000000
    28       48       1.000000   49       -1.000000
    29       23       1.000000   32       -1.000000
    29       44       -8.840000   45       -9.450000
    29       46       -3.000000   47       12.000000
    29       48       1.000000   49       -1.000000
    30       19       1.000000   32       -1.000000
    30       44       -9.430000   45       -9.570000
    30       46       -3.000000   47       3.500000
    30       48       0.233000   49       -0.358000
    31       20       1.000000   32       -1.000000
    31       44       -9.030000   45       -9.320000
    31       46       -3.000000   47       3.500000
    31       48       0.205000   49       -0.333000
    32       27       1.000000   32       -1.000000
    32       44       -9.230000   45       -9.220000
    32       46       -3.000000   47       6.000000
    32       48       0.381000   49       -0.509000
    33       30       1.000000   32       -1.000000
    33       44       -9.400000   45       -9.850000
    33       46       -3.000000   47       2.500000
    33       48       0.390000   49       -0.770000
    34       31       1.000000   32       -1.000000
    34       44       -9.740000   45       -10.100000
    34       46       -3.000000   47       3.300000
    34       48       0.233000   49       -0.580000
    35       10       1.000000   32       -1.000000
    35       44       -9.740000   45       -9.900000
    35       46       -3.000000   47       66.000000
    35       48       1.000000   49       -1.000000
    36       44       -0.493000   45       -0.165000
    36       46       1.000000   C        0.092400
    37       32       1.000000   44       10.030000
    37       45       10.030000   47       -9.500000
    37       48       -0.500000   49       0.500000
    37       73       0.640000   74       0.350000
    37       C        -5.360000
    38       11       1.000000   33       -1.000000
    38       50       -7.980000   51       -8.580000
    38       52       -3.000000   53       14.000000
    38       54       1.000000   55       -1.000000
    39       23       1.000000   33       -1.000000
    39       50       -8.870000   51       -9.330000
    39       52       -3.000000   53       12.000000
    39       54       1.000000   55       -1.000000
    40       19       1.000000   33       -1.000000
    40       50       -9.460000   51       -9.450000
    40       52       -3.000000   53       3.500000
    40       54       0.233000   55       -0.358000
    41       20       1.000000   33       -1.000000
    41       50       -9.060000   51       -9.200000
    41       52       -3.000000   53       3.500000
    41       54       0.205000   55       -0.333000
    42       27       1.000000   33       -1.000000
    42       50       -9.260000   51       -9.130000
    42       52       -3.000000   53       6.000000
    42       54       0.318000   55       -0.509000
    43       10       1.000000   33       -1.000000
    43       50       -9.770000   51       -9.780000
    43       52       -3.000000   53       66.000000
    43       54       1.000000   55       -1.000000
    44       50       -0.435000   51       -0.208000
    44       52       1.000000   C        0.092400
    45       33       1.000000   50       9.650000
    45       51       9.650000   53       -9.500000
    45       54       -0.500000   55       0.500000
    45       73       -0.360000   74       0.350000
    45       C        -5.080000
    46       11       1.000000   36       -1.000000
    46       56       -7.990000   57       -8.590000
    46       58       -3.000000   59       14.000000
    46       60       1.000000   61       -1.000000
    47       23       1.000000   36       -1.000000
    47       56       -8.880000   57       -9.340000
    47       58       -3.000000   59       12.000000
    47       60       1.000000   61       -1.000000
    48       19       1.000000   36       -1.000000
    48       56       -9.470000   57       -9.460000
    48       58       -3.000000   59       3.500000
    48       60       0.233000   61       -0.358000
    49       20       1.000000   36       -1.000000
    49       56       -9.070000   57       -9.210000
    49       58       -3.000000   59       3.500000
    49       60       0.205000   61       -0.333000
    50       27       1.000000   36       -1.000000
    50       56       -9.270000   57       -9.140000
    50       58       -3.000000   59       6.000000
    50       60       0.318000   61       -0.509000
    51       10       1.000000   36       -1.000000
    51       56       -9.780000   57       -9.790000
    51       58       -3.000000   59       66.000000
    51       60       1.000000   61       -1.000000
    52       56       -0.426000   57       -0.204000
    52       58       1.000000   C        0.092400
    53       36       1.000000   56       9.050000
    53       57       9.050000   59       -9.500000
    53       60       -0.500000   61       0.500000
    53       73       -0.360000   74       -0.650000
    53       C        -4.510000
    54       9        -1.000000   26       1.000000
    55       9        1.000000   37       -1.000000
    56       10       1.000000   37       -1.000000
    57       37       1.000000   C        -2.750000
    58       11       1.000000   38       -1.000000
    58       63       -14.000000   64       14.000000
    59       12       1.000000   38       -1.000000
    59       63       -0.800000   64       0.800000
    60       38       1.000000   63       2.000000
    60       64       -3.000000   C        -4.200000
    61       4        1.000000   34       -1.000000
    62       3        1.000000   34       -1.000000
    63       34       1.000000   65       1.000000
    63       C        -3.600000
    64       7        1.000000   35       -1.000000
    64       62       10.100000
    65       8        1.000000   35       -1.000000
    65       62       12.630000
    66       6        1.000000   35       -1.000000
    66       62       8.050000   66       1.000000
    67       5        1.000000   35       -1.000000
    67       62       6.900000   65       1.000000
    68       29       1.000000   35       -1.000000
    68       62       8.050000
    69       28       1.000000   35       -1.000000
    69       62       4.400000
    70       35       1.000000   62       -10.100000
    70       C        -2.000000
    71       39       1.000000   41       -0.325000
    72       13       1.000000   41       -4.153000
    73       10       1.000000   41       -4.316000
    74       9        1.000000   41       -3.814000
    75       25       1.000000   41       -3.808000
    76       24       1.000000   41       -4.440000
    77       40       -1.000000   41       1.420000
    77       C        0.040000
    78       40       1.000000
    79       10       -0.500000   13       -0.500000
    79       C        3.000000
    80       41       -1.000000   C        0.400000
    81       41       1.000000
    82       42       -1.000000   C        0.013200
    83       43       -1.000000   C        0.010000
    SLACK49693 44       1.000000
    SLACK49694 45       1.000000
    SLACK49695 46       1.000000
    SLACK49696 47       1.000000
    SLACK49697 48       1.000000
    SLACK49698 49       1.000000
    SLACK49699 50       1.000000
    SLACK49700 51       1.000000
    SLACK49701 52       1.000000
    SLACK49702 53       1.000000
    SLACK49703 54       1.000000
    SLACK49704 55       1.000000
    SLACK49705 56       1.000000
    SLACK49706 57       1.000000
    SLACK49707 58       1.000000
    SLACK49708 59       1.000000
    SLACK49709 60       1.000000
    SLACK49710 61       1.000000
    SLACK49711 62       1.000000
    SLACK49712 63       1.000000
    SLACK49713 64       1.000000
    SLACK49714 65       1.000000
    SLACK49715 66       1.000000
    SLACK49716 67       1.000000
    SLACK49717 68       1.000000
    SLACK49718 69       1.000000
    SLACK49719 70       1.000000
    SLACK49720 71       1.000000
    SLACK49721 72       1.000000
    SLACK49722 73       1.000000
    SLACK49723 74       1.000000
RHS
    NONAME   65       23.260000
    NONAME   66       5.250000
    NONAME   67       26.320000
    NONAME   68       21.050000
    NONAME   69       13.450000
    NONAME   70       2.580000
    NONAME   71       10.000000
    NONAME   72       10.000000
BOUNDS
ENDATA
