NAME          BOEING2
ROWS
 E  REVENUES
 E  ACOCOSTS
 N  OBJECTIV
 E  FUELAVAL
 E  SYSTDEPT
 E  ACMILES 
 E  ASMILES 
 E  PASSNGRS
 E  RPMILES 
 E  LFRPMASM
 E  ATONMILE
 E  RTONMILE
 E  LFTNMILE
 E  FLAV*1  
 E  FLAV*2  
 E  FLAV*3  
 E  FLAV*4  
 E  LF1003S1
 E  LF1003B1
 E  LF1003C1
 E  LF1005S1
 E  LF1005B1
 E  LF1005C1
 E  LF1011S1
 E  LF1011S2
 E  LF1011B1
 E  LF1011B2
 E  LF1011C1
 E  LF1011C2
 E  LF1013S1
 E  LF1013S2
 E  LF1013B1
 E  LF1013B2
 E  LF1013C1
 E  LF1013C2
 E  LF1015S1
 E  LF1015B1
 E  LF1015C1
 E  LF1017S1
 E  LF1017B1
 E  LF1017C1
 E  LF1019S1
 E  LF1019S2
 E  LF1019B1
 E  LF1019B2
 E  LF1019C1
 E  LF1019C2
 E  LF1021S1
 E  LF1021B1
 E  LF1021C1
 E  LF1002S1
 E  LF1002B1
 E  LF1002C1
 E  LF1004S1
 E  LF1004B1
 E  LF1004C1
 E  LF1006S1
 E  LF1006S2
 E  LF1006B1
 E  LF1006B2
 E  LF1006C1
 E  LF1006C2
 E  LF1008S1
 E  LF1008S2
 E  LF1008B1
 E  LF1008B2
 E  LF1008C1
 E  LF1008C2
 E  LF1010S1
 E  LF1010S2
 E  LF1010S3
 E  LF1010B1
 E  LF1010B2
 E  LF1010B3
 E  LF1010C1
 E  LF1010C2
 E  LF1010C3
 E  LF1012S1
 E  LF1012B1
 E  LF1012C1
 E  LF1014S1
 E  LF1014S2
 E  LF1014B1
 E  LF1014B2
 E  LF1014C1
 E  LF1014C2
 E  LF1100S1
 E  LF1100S2
 E  LF1100S3
 E  LF1100S4
 E  LF1100S5
 E  LF1100B1
 E  LF1100B2
 E  LF1100B3
 E  LF1100B4
 E  LF1100B5
 E  LF1100C1
 E  LF1100C2
 E  LF1100C3
 E  LF1100C4
 E  LF1100C5
 E  LF1102S1
 E  LF1102S2
 E  LF1102S3
 E  LF1102S4
 E  LF1102B1
 E  LF1102B2
 E  LF1102B3
 E  LF1102B4
 E  LF1102C1
 E  LF1102C2
 E  LF1102C3
 E  LF1102C4
 E  LF1200S1
 E  LF1200B1
 E  LF1200C1
 E  LF1201S1
 E  LF1201B1
 E  LF1201C1
 E  NOPTCLE0
 E  CONTBOS1
 E  CONTBOS2
 E  CONTBOS3
 E  CONTBOS4
 E  CONTORD1
 E  CONTORD2
 E  CONTORD3
 E  CONTORD4
 E  CONTLGA2
 E  CONTLGA4
 E  CONTCLE1
 E  CONTCLE2
 E  CONTCLE3
 E  CONTCLE4
 E  DMBOSORD
 E  DMBOSLGA
 E  DMBOSCLE
 E  DMORDBOS
 E  DMORDLGA
 E  DMORDCLE
 E  DMLGABOS
 E  DMLGAORD
 E  DMLGACLE
 E  DMCLEBOS
 E  DMCLEORD
 E  DMCLELGA
 E  MSBOSORD
 E  MSBOSLGA
 E  MSBOSCLE
 E  MSORDBOS
 E  MSORDLGA
 E  MSORDCLE
 E  MSLGABOS
 E  MSLGAORD
 E  MSLGACLE
 E  MSCLEBOS
 E  MSCLEORD
 E  MSCLELGA
 E  DCBOSORD
 E  DCBOSCLE
 E  DCORDBOS
 E  DCORDLGA
 E  DCLGAORD
 E  DCLGACLE
 E  DCCLELGA
 E  MCORDBOS
 E  MCLGAORD
 E  UPBROW39408
 E  UPBROW39409
 E  UPBROW39410
 E  UPBROW39411
 E  UPBROW39412
 E  UPBROW39413
 E  UPBROW39414
 E  UPBROW39415
 E  UPBROW39416
 E  UPBROW39417
 E  UPBROW39418
 E  UPBROW39419
 E  UPBROW39420
 E  UPBROW39421
 E  UPBROW39422
 E  UPBROW39423
 E  UPBROW39424
 E  UPBROW39425
 E  UPBROW39426
 E  UPBROW39427
 E  UPBROW39428
 E  UPBROW39429
 E  UPBROW39430
 E  UPBROW39431
 E  UPBROW39432
 E  UPBROW39433
 E  UPBROW39434
 E  UPBROW39435
 E  UPBROW39436
 E  UPBROW39437
 E  UPBROW39438
 E  UPBROW39439
 E  UPBROW39440
 E  UPBROW39441
 E  UPBROW39442
 E  UPBROW39443
 E  UPBROW39444
 E  UPBROW39445
 E  UPBROW39446
 E  UPBROW39447
 E  UPBROW39448
 E  UPBROW39449
 E  UPBROW39450
 E  UPBROW39451
 E  UPBROW39452
 E  UPBROW39453
 E  UPBROW39454
 E  UPBROW39455
 E  UPBROW39456
 E  UPBROW39457
 E  UPBROW39458
 E  UPBROW39459
 E  UPBROW39460
 E  UPBROW39461
 E  UPBROW39462
 E  UPBROW39463
 E  UPBROW39464
 E  UPBROW39465
COLUMNS
    PBOSORD0 REVENUES 0.075000   OBJECTIV -0.075000
    PBOSORD0 PASSNGRS 1.000000   RPMILES  0.864410
    PBOSORD0 LFRPMASM -0.864410   DMBOSORD 1.000000
    PBOSORD0 LF1003S1 -1.000000
    PBOSORD1 REVENUES 0.075000   OBJECTIV -0.075000
    PBOSORD1 PASSNGRS 1.000000   RPMILES  0.876050
    PBOSORD1 LFRPMASM -0.876050   DMBOSORD 1.000000
    PBOSORD1 LF1011S1 -1.000000   LF1011S2 -1.000000
    PBOSORD2 REVENUES 0.075000   OBJECTIV -0.075000
    PBOSORD2 PASSNGRS 1.000000   RPMILES  0.916370
    PBOSORD2 LFRPMASM -0.916370   DMBOSORD 1.000000
    PBOSORD2 LF1013S1 -1.000000   LF1013S2 -1.000000
    PBOSORD3 REVENUES 0.075000   OBJECTIV -0.075000
    PBOSORD3 PASSNGRS 1.000000   RPMILES  0.917220
    PBOSORD3 LFRPMASM -0.917220   DMBOSORD 1.000000
    PBOSORD3 LF1100S1 -1.000000   LF1100S2 -1.000000
    PBOSORD3 LF1100S3 -1.000000
    PBOSORD4 REVENUES 0.075000   OBJECTIV -0.075000
    PBOSORD4 PASSNGRS 1.000000   RPMILES  0.876050
    PBOSORD4 LFRPMASM -0.876050   DMBOSORD 1.000000
    PBOSORD4 LF1102S1 -1.000000   LF1102S2 -1.000000
    PBOSLGA0 REVENUES 0.027000   OBJECTIV -0.027000
    PBOSLGA0 PASSNGRS 1.000000   RPMILES  0.185570
    PBOSLGA0 LFRPMASM -0.185570   DMBOSLGA 1.000000
    PBOSLGA0 LF1013S1 -1.000000
    PBOSLGA1 REVENUES 0.027000   OBJECTIV -0.027000
    PBOSLGA1 PASSNGRS 1.000000   RPMILES  0.185570
    PBOSLGA1 LFRPMASM -0.185570   DMBOSLGA 1.000000
    PBOSLGA1 LF1100S1 -1.000000
    PBOSLGA2 REVENUES 0.027000   OBJECTIV -0.027000
    PBOSLGA2 PASSNGRS 1.000000   RPMILES  1.606850
    PBOSLGA2 LFRPMASM -1.606850   DMBOSLGA 1.000000
    PBOSLGA2 LF1102S1 -1.000000   LF1102S2 -1.000000
    PBOSLGA2 LF1102S3 -1.000000
    PBOSLGA3 REVENUES 0.027000   OBJECTIV -0.027000
    PBOSLGA3 PASSNGRS 1.000000   RPMILES  0.185570
    PBOSLGA3 LFRPMASM -0.185570   DMBOSLGA 1.000000
    PBOSLGA3 LF1200S1 -1.000000
    PBOSCLE0 REVENUES 0.053000   OBJECTIV -0.053000
    PBOSCLE0 PASSNGRS 1.000000   RPMILES  0.561560
    PBOSCLE0 LFRPMASM -0.561560   DMBOSCLE 1.000000
    PBOSCLE0 LF1005S1 -1.000000
    PBOSCLE1 REVENUES 0.053000   OBJECTIV -0.053000
    PBOSCLE1 PASSNGRS 1.000000   RPMILES  0.561560
    PBOSCLE1 LFRPMASM -0.561560   DMBOSCLE 1.000000
    PBOSCLE1 LF1011S1 -1.000000
    PBOSCLE2 REVENUES 0.053000   OBJECTIV -0.053000
    PBOSCLE2 PASSNGRS 1.000000   RPMILES  0.602730
    PBOSCLE2 LFRPMASM -0.602730   DMBOSCLE 1.000000
    PBOSCLE2 LF1100S1 -1.000000   LF1100S2 -1.000000
    PBOSCLE3 REVENUES 0.053000   OBJECTIV -0.053000
    PBOSCLE3 PASSNGRS 1.000000   RPMILES  0.561560
    PBOSCLE3 LFRPMASM -0.561560   DMBOSCLE 1.000000
    PBOSCLE3 LF1102S1 -1.000000
    PORDBOS0 REVENUES 0.075000   OBJECTIV -0.075000
    PORDBOS0 PASSNGRS 1.000000   RPMILES  0.876050
    PORDBOS0 LFRPMASM -0.876050   DMORDBOS 1.000000
    PORDBOS0 LF1006S1 -1.000000   LF1006S2 -1.000000
    PORDBOS1 REVENUES 0.075000   OBJECTIV -0.075000
    PORDBOS1 PASSNGRS 1.000000   RPMILES  0.916370
    PORDBOS1 LFRPMASM -0.916370   DMORDBOS 1.000000
    PORDBOS1 LF1008S1 -1.000000   LF1008S2 -1.000000
    PORDBOS2 REVENUES 0.075000   OBJECTIV -0.075000
    PORDBOS2 PASSNGRS 1.000000   RPMILES  0.917220
    PORDBOS2 LFRPMASM -0.917220   DMORDBOS 1.000000
    PORDBOS2 LF1010S1 -1.000000   LF1010S2 -1.000000
    PORDBOS2 LF1010S3 -1.000000
    PORDBOS3 REVENUES 0.075000   OBJECTIV -0.075000
    PORDBOS3 PASSNGRS 1.000000   RPMILES  0.876050
    PORDBOS3 LFRPMASM -0.876050   DMORDBOS 1.000000
    PORDBOS3 LF1100S4 -1.000000   LF1100S5 -1.000000
    PORDBOS4 REVENUES 0.075000   OBJECTIV -0.075000
    PORDBOS4 PASSNGRS 1.000000   RPMILES  0.916370
    PORDBOS4 LFRPMASM -0.916370   DMORDBOS 1.000000
    PORDBOS4 LF1102S3 -1.000000   LF1102S4 -1.000000
    PORDLGA0 REVENUES 0.068000   OBJECTIV -0.068000
    PORDLGA0 PASSNGRS 1.000000   RPMILES  0.730800
    PORDLGA0 LFRPMASM -0.730800   DMORDLGA 1.000000
    PORDLGA0 LF1004S1 -1.000000
    PORDLGA1 REVENUES 0.068000   OBJECTIV -0.068000
    PORDLGA1 PASSNGRS 1.000000   RPMILES  0.730800
    PORDLGA1 LFRPMASM -0.730800   DMORDLGA 1.000000
    PORDLGA1 LF1008S1 -1.000000
    PORDLGA2 REVENUES 0.068000   OBJECTIV -0.068000
    PORDLGA2 PASSNGRS 1.000000   RPMILES  0.731650
    PORDLGA2 LFRPMASM -0.731650   DMORDLGA 1.000000
    PORDLGA2 LF1010S1 -1.000000   LF1010S2 -1.000000
    PORDLGA3 REVENUES 0.068000   OBJECTIV -0.068000
    PORDLGA3 PASSNGRS 1.000000   RPMILES  0.730800
    PORDLGA3 LFRPMASM -0.730800   DMORDLGA 1.000000
    PORDLGA3 LF1102S3 -1.000000
    PORDCLE0 REVENUES 0.035000   OBJECTIV -0.035000
    PORDCLE0 PASSNGRS 1.000000   RPMILES  0.314500
    PORDCLE0 LFRPMASM -0.314500   DMORDCLE 1.000000
    PORDCLE0 LF1002S1 -1.000000
    PORDCLE1 REVENUES 0.035000   OBJECTIV -0.035000
    PORDCLE1 PASSNGRS 1.000000   RPMILES  0.314500
    PORDCLE1 LFRPMASM -0.314500   DMORDCLE 1.000000
    PORDCLE1 LF1006S1 -1.000000
    PORDCLE2 REVENUES 0.035000   OBJECTIV -0.035000
    PORDCLE2 PASSNGRS 1.000000   RPMILES  0.314500
    PORDCLE2 LFRPMASM -0.314500   DMORDCLE 1.000000
    PORDCLE2 LF1010S1 -1.000000
    PORDCLE3 REVENUES 0.035000   OBJECTIV -0.035000
    PORDCLE3 PASSNGRS 1.000000   RPMILES  0.314500
    PORDCLE3 LFRPMASM -0.314500   DMORDCLE 1.000000
    PORDCLE3 LF1100S4 -1.000000
    PLGABOS0 REVENUES 0.027000   OBJECTIV -0.027000
    PLGABOS0 PASSNGRS 1.000000   RPMILES  0.185570
    PLGABOS0 LFRPMASM -0.185570   DMLGABOS 1.000000
    PLGABOS0 LF1008S2 -1.000000
    PLGABOS1 REVENUES 0.027000   OBJECTIV -0.027000
    PLGABOS1 PASSNGRS 1.000000   RPMILES  0.185570
    PLGABOS1 LFRPMASM -0.185570   DMLGABOS 1.000000
    PLGABOS1 LF1010S3 -1.000000
    PLGABOS2 REVENUES 0.027000   OBJECTIV -0.027000
    PLGABOS2 PASSNGRS 1.000000   RPMILES  0.185570
    PLGABOS2 LFRPMASM -0.185570   DMLGABOS 1.000000
    PLGABOS2 LF1014S2 -1.000000
    PLGABOS3 REVENUES 0.027000   OBJECTIV -0.027000
    PLGABOS3 PASSNGRS 1.000000   RPMILES  1.607700
    PLGABOS3 LFRPMASM -1.607700   DMLGABOS 1.000000
    PLGABOS3 LF1100S2 -1.000000   LF1100S3 -1.000000
    PLGABOS3 LF1100S4 -1.000000   LF1100S5 -1.000000
    PLGABOS4 REVENUES 0.027000   OBJECTIV -0.027000
    PLGABOS4 PASSNGRS 1.000000   RPMILES  0.185570
    PLGABOS4 LFRPMASM -0.185570   DMLGABOS 1.000000
    PLGABOS4 LF1102S4 -1.000000
    PLGABOS5 REVENUES 0.027000   OBJECTIV -0.027000
    PLGABOS5 PASSNGRS 1.000000   RPMILES  0.185570
    PLGABOS5 LFRPMASM -0.185570   DMLGABOS 1.000000
    PLGABOS5 LF1201S1 -1.000000
    PLGAORD0 REVENUES 0.068000   OBJECTIV -0.068000
    PLGAORD0 PASSNGRS 1.000000   RPMILES  0.730800
    PLGAORD0 LFRPMASM -0.730800   DMLGAORD 1.000000
    PLGAORD0 LF1013S2 -1.000000
    PLGAORD1 REVENUES 0.068000   OBJECTIV -0.068000
    PLGAORD1 PASSNGRS 1.000000   RPMILES  0.730800
    PLGAORD1 LFRPMASM -0.730800   DMLGAORD 1.000000
    PLGAORD1 LF1017S1 -1.000000
    PLGAORD2 REVENUES 0.068000   OBJECTIV -0.068000
    PLGAORD2 PASSNGRS 1.000000   RPMILES  0.731650
    PLGAORD2 LFRPMASM -0.731650   DMLGAORD 1.000000
    PLGAORD2 LF1019S1 -1.000000   LF1019S2 -1.000000
    PLGAORD3 REVENUES 0.068000   OBJECTIV -0.068000
    PLGAORD3 PASSNGRS 1.000000   RPMILES  0.731650
    PLGAORD3 LFRPMASM -0.731650   DMLGAORD 1.000000
    PLGAORD3 LF1100S2 -1.000000   LF1100S3 -1.000000
    PLGACLE0 REVENUES 0.037000   OBJECTIV -0.037000
    PLGACLE0 PASSNGRS 1.000000   RPMILES  0.417150
    PLGACLE0 LFRPMASM -0.417150   DMLGACLE 1.000000
    PLGACLE0 LF1015S1 -1.000000
    PLGACLE1 REVENUES 0.037000   OBJECTIV -0.037000
    PLGACLE1 PASSNGRS 1.000000   RPMILES  0.417150
    PLGACLE1 LFRPMASM -0.417150   DMLGACLE 1.000000
    PLGACLE1 LF1019S1 -1.000000
    PLGACLE2 REVENUES 0.037000   OBJECTIV -0.037000
    PLGACLE2 PASSNGRS 1.000000   RPMILES  0.417150
    PLGACLE2 LFRPMASM -0.417150   DMLGACLE 1.000000
    PLGACLE2 LF1100S2 -1.000000
    PCLEBOS0 REVENUES 0.053000   OBJECTIV -0.053000
    PCLEBOS0 PASSNGRS 1.000000   RPMILES  0.561560
    PCLEBOS0 LFRPMASM -0.561560   DMCLEBOS 1.000000
    PCLEBOS0 LF1006S2 -1.000000
    PCLEBOS1 REVENUES 0.053000   OBJECTIV -0.053000
    PCLEBOS1 PASSNGRS 1.000000   RPMILES  0.602730
    PCLEBOS1 LFRPMASM -0.602730   DMCLEBOS 1.000000
    PCLEBOS1 LF1010S2 -1.000000   LF1010S3 -1.000000
    PCLEBOS2 REVENUES 0.053000   OBJECTIV -0.053000
    PCLEBOS2 PASSNGRS 1.000000   RPMILES  0.602730
    PCLEBOS2 LFRPMASM -0.602730   DMCLEBOS 1.000000
    PCLEBOS2 LF1014S1 -1.000000   LF1014S2 -1.000000
    PCLEBOS3 REVENUES 0.053000   OBJECTIV -0.053000
    PCLEBOS3 PASSNGRS 1.000000   RPMILES  0.561560
    PCLEBOS3 LFRPMASM -0.561560   DMCLEBOS 1.000000
    PCLEBOS3 LF1100S5 -1.000000
    PCLEBOS4 REVENUES 0.053000   OBJECTIV -0.053000
    PCLEBOS4 PASSNGRS 1.000000   RPMILES  1.230870
    PCLEBOS4 LFRPMASM -1.230870   DMCLEBOS 1.000000
    PCLEBOS4 LF1102S2 -1.000000   LF1102S3 -1.000000
    PCLEBOS4 LF1102S4 -1.000000
    PCLEORD0 REVENUES 0.035000   OBJECTIV -0.035000
    PCLEORD0 PASSNGRS 1.000000   RPMILES  0.314500
    PCLEORD0 LFRPMASM -0.314500   DMCLEORD 1.000000
    PCLEORD0 LF1011S2 -1.000000
    PCLEORD1 REVENUES 0.035000   OBJECTIV -0.035000
    PCLEORD1 PASSNGRS 1.000000   RPMILES  0.314500
    PCLEORD1 LFRPMASM -0.314500   DMCLEORD 1.000000
    PCLEORD1 LF1019S2 -1.000000
    PCLEORD2 REVENUES 0.035000   OBJECTIV -0.035000
    PCLEORD2 PASSNGRS 1.000000   RPMILES  0.314500
    PCLEORD2 LFRPMASM -0.314500   DMCLEORD 1.000000
    PCLEORD2 LF1021S1 -1.000000
    PCLEORD3 REVENUES 0.035000   OBJECTIV -0.035000
    PCLEORD3 PASSNGRS 1.000000   RPMILES  0.314500
    PCLEORD3 LFRPMASM -0.314500   DMCLEORD 1.000000
    PCLEORD3 LF1100S3 -1.000000
    PCLEORD4 REVENUES 0.035000   OBJECTIV -0.035000
    PCLEORD4 PASSNGRS 1.000000   RPMILES  0.314500
    PCLEORD4 LFRPMASM -0.314500   DMCLEORD 1.000000
    PCLEORD4 LF1102S2 -1.000000
    PCLELGA0 REVENUES 0.037000   OBJECTIV -0.037000
    PCLELGA0 PASSNGRS 1.000000   RPMILES  0.417150
    PCLELGA0 LFRPMASM -0.417150   DMCLELGA 1.000000
    PCLELGA0 LF1010S2 -1.000000
    PCLELGA1 REVENUES 0.037000   OBJECTIV -0.037000
    PCLELGA1 PASSNGRS 1.000000   RPMILES  0.417150
    PCLELGA1 LFRPMASM -0.417150   DMCLELGA 1.000000
    PCLELGA1 LF1012S1 -1.000000
    PCLELGA2 REVENUES 0.037000   OBJECTIV -0.037000
    PCLELGA2 PASSNGRS 1.000000   RPMILES  0.417150
    PCLELGA2 LFRPMASM -0.417150   DMCLELGA 1.000000
    PCLELGA2 LF1014S1 -1.000000
    PCLELGA3 REVENUES 0.037000   OBJECTIV -0.037000
    PCLELGA3 PASSNGRS 1.000000   RPMILES  1.045300
    PCLELGA3 LFRPMASM -1.045300   DMCLELGA 1.000000
    PCLELGA3 LF1102S2 -1.000000   LF1102S3 -1.000000
    BBOSORD0 REVENUES 0.750000   OBJECTIV -0.750000
    BBOSORD0 RTONMILE 0.864410   LFTNMILE -0.864410
    BBOSORD0 DCBOSORD 1.000000   LF1003B1 -1.000000
    BBOSORD1 REVENUES 0.750000   OBJECTIV -0.750000
    BBOSORD1 RTONMILE 0.876050   LFTNMILE -0.876050
    BBOSORD1 DCBOSORD 1.000000   LF1011B1 -1.000000
    BBOSORD1 LF1011B2 -1.000000
    BBOSCLE0 REVENUES 0.530000   OBJECTIV -0.530000
    BBOSCLE0 RTONMILE 0.561560   LFTNMILE -0.561560
    BBOSCLE0 DCBOSCLE 1.000000   LF1005B1 -1.000000
    BBOSCLE1 REVENUES 0.530000   OBJECTIV -0.530000
    BBOSCLE1 RTONMILE 0.561560   LFTNMILE -0.561560
    BBOSCLE1 DCBOSCLE 1.000000   LF1011B1 -1.000000
    BORDBOS0 REVENUES 0.750000   OBJECTIV -0.750000
    BORDBOS0 RTONMILE 0.876050   LFTNMILE -0.876050
    BORDBOS0 DCORDBOS 1.000000   LF1006B1 -1.000000
    BORDBOS0 LF1006B2 -1.000000
    CBOSORD0 REVENUES 0.750000   OBJECTIV -0.750000
    CBOSORD0 RTONMILE 0.864410   LFTNMILE -0.864410
    CBOSORD0 DCBOSORD 1.000000   LF1003C1 -1.000000
    CBOSORD1 REVENUES 0.750000   OBJECTIV -0.750000
    CBOSORD1 RTONMILE 0.876050   LFTNMILE -0.876050
    CBOSORD1 DCBOSORD 1.000000   LF1011C1 -1.000000
    CBOSORD1 LF1011C2 -1.000000
    CBOSORD2 REVENUES 0.750000   OBJECTIV -0.750000
    CBOSORD2 RTONMILE 0.916370   LFTNMILE -0.916370
    CBOSORD2 DCBOSORD 1.000000   LF1013C1 -1.000000
    CBOSORD2 LF1013C2 -1.000000
    CBOSORD3 REVENUES 0.750000   OBJECTIV -0.750000
    CBOSORD3 RTONMILE 0.917220   LFTNMILE -0.917220
    CBOSORD3 DCBOSORD 1.000000   LF1100C1 -1.000000
    CBOSORD3 LF1100C2 -1.000000   LF1100C3 -1.000000
    CBOSORD4 REVENUES 0.750000   OBJECTIV -0.750000
    CBOSORD4 RTONMILE 0.876050   LFTNMILE -0.876050
    CBOSORD4 DCBOSORD 1.000000   LF1102C1 -1.000000
    CBOSORD4 LF1102C2 -1.000000
    CBOSCLE0 REVENUES 0.530000   OBJECTIV -0.530000
    CBOSCLE0 RTONMILE 0.561560   LFTNMILE -0.561560
    CBOSCLE0 DCBOSCLE 1.000000   LF1005C1 -1.000000
    CBOSCLE1 REVENUES 0.530000   OBJECTIV -0.530000
    CBOSCLE1 RTONMILE 0.561560   LFTNMILE -0.561560
    CBOSCLE1 DCBOSCLE 1.000000   LF1011C1 -1.000000
    CBOSCLE2 REVENUES 0.530000   OBJECTIV -0.530000
    CBOSCLE2 RTONMILE 0.602730   LFTNMILE -0.602730
    CBOSCLE2 DCBOSCLE 1.000000   LF1100C1 -1.000000
    CBOSCLE2 LF1100C2 -1.000000
    CBOSCLE3 REVENUES 0.530000   OBJECTIV -0.530000
    CBOSCLE3 RTONMILE 0.561560   LFTNMILE -0.561560
    CBOSCLE3 DCBOSCLE 1.000000   LF1102C1 -1.000000
    CORDBOS0 REVENUES 0.750000   OBJECTIV -0.750000
    CORDBOS0 RTONMILE 0.876050   LFTNMILE -0.876050
    CORDBOS0 DCORDBOS 1.000000   LF1006C1 -1.000000
    CORDBOS0 LF1006C2 -1.000000
    CORDBOS1 REVENUES 0.750000   OBJECTIV -0.750000
    CORDBOS1 RTONMILE 0.916370   LFTNMILE -0.916370
    CORDBOS1 DCORDBOS 1.000000   LF1008C1 -1.000000
    CORDBOS1 LF1008C2 -1.000000
    CORDBOS2 REVENUES 0.750000   OBJECTIV -0.750000
    CORDBOS2 RTONMILE 0.917220   LFTNMILE -0.917220
    CORDBOS2 DCORDBOS 1.000000   LF1010C1 -1.000000
    CORDBOS2 LF1010C2 -1.000000   LF1010C3 -1.000000
    CORDBOS3 REVENUES 0.750000   OBJECTIV -0.750000
    CORDBOS3 RTONMILE 0.876050   LFTNMILE -0.876050
    CORDBOS3 DCORDBOS 1.000000   LF1100C4 -1.000000
    CORDBOS3 LF1100C5 -1.000000
    CORDBOS4 REVENUES 0.750000   OBJECTIV -0.750000
    CORDBOS4 RTONMILE 0.916370   LFTNMILE -0.916370
    CORDBOS4 DCORDBOS 1.000000   LF1102C3 -1.000000
    CORDBOS4 LF1102C4 -1.000000
    CORDLGA0 REVENUES 0.680000   OBJECTIV -0.680000
    CORDLGA0 RTONMILE 0.730800   LFTNMILE -0.730800
    CORDLGA0 DCORDLGA 1.000000   LF1004C1 -1.000000
    CORDLGA1 REVENUES 0.680000   OBJECTIV -0.680000
    CORDLGA1 RTONMILE 0.730800   LFTNMILE -0.730800
    CORDLGA1 DCORDLGA 1.000000   LF1008C1 -1.000000
    CORDLGA2 REVENUES 0.680000   OBJECTIV -0.680000
    CORDLGA2 RTONMILE 0.731650   LFTNMILE -0.731650
    CORDLGA2 DCORDLGA 1.000000   LF1010C1 -1.000000
    CORDLGA2 LF1010C2 -1.000000
    CORDLGA3 REVENUES 0.680000   OBJECTIV -0.680000
    CORDLGA3 RTONMILE 0.730800   LFTNMILE -0.730800
    CORDLGA3 DCORDLGA 1.000000   LF1102C3 -1.000000
    CLGAORD0 REVENUES 0.680000   OBJECTIV -0.680000
    CLGAORD0 RTONMILE 0.730800   LFTNMILE -0.730800
    CLGAORD0 DCLGAORD 1.000000   LF1013C2 -1.000000
    CLGAORD1 REVENUES 0.680000   OBJECTIV -0.680000
    CLGAORD1 RTONMILE 0.730800   LFTNMILE -0.730800
    CLGAORD1 DCLGAORD 1.000000   LF1017C1 -1.000000
    CLGAORD2 REVENUES 0.680000   OBJECTIV -0.680000
    CLGAORD2 RTONMILE 0.731650   LFTNMILE -0.731650
    CLGAORD2 DCLGAORD 1.000000   LF1019C1 -1.000000
    CLGAORD2 LF1019C2 -1.000000
    CLGAORD3 REVENUES 0.680000   OBJECTIV -0.680000
    CLGAORD3 RTONMILE 0.731650   LFTNMILE -0.731650
    CLGAORD3 DCLGAORD 1.000000   LF1100C2 -1.000000
    CLGAORD3 LF1100C3 -1.000000
    CLGACLE0 REVENUES 0.370000   OBJECTIV -0.370000
    CLGACLE0 RTONMILE 0.417150   LFTNMILE -0.417150
    CLGACLE0 DCLGACLE 1.000000   LF1015C1 -1.000000
    CLGACLE1 REVENUES 0.370000   OBJECTIV -0.370000
    CLGACLE1 RTONMILE 0.417150   LFTNMILE -0.417150
    CLGACLE1 DCLGACLE 1.000000   LF1019C1 -1.000000
    CLGACLE2 REVENUES 0.370000   OBJECTIV -0.370000
    CLGACLE2 RTONMILE 0.417150   LFTNMILE -0.417150
    CLGACLE2 DCLGACLE 1.000000   LF1100C2 -1.000000
    CCLELGA0 REVENUES 0.370000   OBJECTIV -0.370000
    CCLELGA0 RTONMILE 0.417150   LFTNMILE -0.417150
    CCLELGA0 DCCLELGA 1.000000   LF1010C2 -1.000000
    CCLELGA1 REVENUES 0.370000   OBJECTIV -0.370000
    CCLELGA1 RTONMILE 0.417150   LFTNMILE -0.417150
    CCLELGA1 DCCLELGA 1.000000   LF1012C1 -1.000000
    CCLELGA2 REVENUES 0.370000   OBJECTIV -0.370000
    CCLELGA2 RTONMILE 0.417150   LFTNMILE -0.417150
    CCLELGA2 DCCLELGA 1.000000   LF1014C1 -1.000000
    CCLELGA3 REVENUES 0.370000   OBJECTIV -0.370000
    CCLELGA3 RTONMILE 1.045300   LFTNMILE -1.045300
    CCLELGA3 DCCLELGA 1.000000   LF1102C2 -1.000000
    CCLELGA3 LF1102C3 -1.000000
    GRDTIMO1 FLAV*1   1.000000   ACOCOSTS 0.650000
    GRDTIMO1 OBJECTIV 0.650000
    GRDTIMN1 FLAV*1   1.000000   ACOCOSTS -0.050000
    GRDTIMN1 OBJECTIV -0.050000   UPBROW39409 1.000000
    GRDTIMO2 FLAV*2   1.000000   ACOCOSTS 0.275000
    GRDTIMO2 OBJECTIV 0.275000
    GRDTIMN2 FLAV*2   1.000000   ACOCOSTS -0.028890
    GRDTIMN2 OBJECTIV -0.028890   UPBROW39411 1.000000
    GRDTIMN3 FLAV*3   1.000000   ACOCOSTS -0.036110
    GRDTIMN3 OBJECTIV -0.036110   UPBROW39413 1.000000
    GRDTIMN4 FLAV*4   1.000000   ACOCOSTS -0.013330
    GRDTIMN4 OBJECTIV -0.013330   UPBROW39415 1.000000
    N1003AC1 ACOCOSTS 0.010000   OBJECTIV 0.010000
    N1003AC1 FUELAVAL 7.984290   SYSTDEPT 1.000000
    N1003AC1 ACMILES  0.864410   ASMILES  351.813960
    N1003AC1 LFRPMASM 211.088376   FLAV*1   2.327290
    N1003AC1 ATONMILE 25.932240   LFTNMILE 12.966120
    N1003AC1 LF1003S1 305.000000   LF1003B1 12.000000
    N1003AC1 CONTBOS1 1.000000   CONTORD1 -1.000000
    N1003AC1 MSBOSORD 1.000000   UPBROW39416 1.000000
    N1003AC2 ACOCOSTS 0.020000   OBJECTIV 0.020000
    N1003AC2 FUELAVAL 2.519140   SYSTDEPT 1.000000
    N1003AC2 ACMILES  0.864410   ASMILES  113.237430
    N1003AC2 LFRPMASM 67.942458   FLAV*2   2.109660
    N1003AC2 LF1003S1 98.000000   CONTBOS2 1.000000
    N1003AC2 CONTORD2 -1.000000   MSBOSORD 1.000000
    N1003AC2 UPBROW39417 1.000000
    N1003AC3 ACOCOSTS 0.030000   OBJECTIV 0.030000
    N1003AC3 FUELAVAL 3.151780   SYSTDEPT 1.000000
    N1003AC3 ACMILES  0.864410   FLAV*3   2.109660
    N1003AC3 ATONMILE 34.576310   LFTNMILE 17.288155
    N1003AC3 LF1003C1 30.000000   CONTBOS3 1.000000
    N1003AC3 CONTORD3 -1.000000   UPBROW39418 1.000000
    N1003AC4 ACOCOSTS 0.040000   OBJECTIV 0.040000
    N1003AC4 FUELAVAL 1.993370   SYSTDEPT 1.000000
    N1003AC4 ACMILES  0.864410   FLAV*4   2.109660
    N1003AC4 ATONMILE 12.966120   LFTNMILE 6.483060
    N1003AC4 LF1003C1 11.250000   CONTBOS4 1.000000
    N1003AC4 CONTORD4 -1.000000   UPBROW39419 1.000000
    N1005AC1 ACOCOSTS 4.043370   OBJECTIV 4.043370
    N1005AC1 FUELAVAL 5.834040   SYSTDEPT 1.000000
    N1005AC1 ACMILES  0.561560   ASMILES  228.552990
    N1005AC1 LFRPMASM 137.131794   FLAV*1   1000.000000
    N1005AC1 ATONMILE 16.846650   LFTNMILE 8.423325
    N1005AC1 LF1005S1 305.000000   LF1005B1 12.000000
    N1005AC1 NOPTCLE0 1.000000   CONTBOS1 1.000000
    N1005AC1 CONTCLE1 -1.000000   MSBOSCLE 1.000000
    N1005AC1 UPBROW39420 1.000000
    N1005AC2 ACOCOSTS 1.609640   OBJECTIV 1.609640
    N1005AC2 FUELAVAL 1.822580   SYSTDEPT 1.000000
    N1005AC2 ACMILES  0.561560   ASMILES  73.563740
    N1005AC2 LFRPMASM 44.138244   FLAV*2   2000.000000
    N1005AC2 LF1005S1 98.000000   NOPTCLE0 1.000000
    N1005AC2 CONTBOS2 1.000000   CONTCLE2 -1.000000
    N1005AC2 MSBOSCLE 1.000000   UPBROW39421 1.000000
    N1005AC3 ACOCOSTS 1.931190   OBJECTIV 1.931190
    N1005AC3 FUELAVAL 2.273510   SYSTDEPT 1.000000
    N1005AC3 ACMILES  0.561560   FLAV*3   3000.000000
    N1005AC3 ATONMILE 22.462200   LFTNMILE 11.231100
    N1005AC3 LF1005C1 30.000000   NOPTCLE0 1.000000
    N1005AC3 CONTBOS3 1.000000   CONTCLE3 -1.000000
    N1005AC3 UPBROW39422 1.000000
    N1005AC4 ACOCOSTS 1.346180   OBJECTIV 1.346180
    N1005AC4 FUELAVAL 1.417950   SYSTDEPT 1.000000
    N1005AC4 ACMILES  0.561560   FLAV*4   1500.000000
    N1005AC4 ATONMILE 8.423330   LFTNMILE 4.211665
    N1005AC4 LF1005C1 11.250000   NOPTCLE0 1.000000
    N1005AC4 CONTBOS4 1.000000   CONTCLE4 -1.000000
    N1005AC4 UPBROW39423 1.000000
    N1011AC1 ACOCOSTS 1.100000   OBJECTIV 1.100000
    N1011AC1 FUELAVAL 9.913980   SYSTDEPT 2.000000
    N1011AC1 ACMILES  0.876050   ASMILES  356.553710
    N1011AC1 LFRPMASM 213.932226   FLAV*1   25.000000
    N1011AC1 ATONMILE 26.281600   LFTNMILE 13.140800
    N1011AC1 LF1011S1 305.000000   LF1011S2 305.000000
    N1011AC1 LF1011B1 12.000000   LF1011B2 12.000000
    N1011AC1 NOPTCLE0 2.000000   CONTBOS1 1.000000
    N1011AC1 CONTORD1 -1.000000   MSBOSCLE 1.000000
    N1011AC1 MSBOSORD 1.000000   MSCLEORD 1.000000
    N1011AC1 UPBROW39424 1.000000
    N1011AC2 ACOCOSTS 1.200000   OBJECTIV 1.200000
    N1011AC2 FUELAVAL 3.076920   SYSTDEPT 2.000000
    N1011AC2 ACMILES  0.876050   ASMILES  114.762990
    N1011AC2 LFRPMASM 68.857794   FLAV*2   25.000000
    N1011AC2 LF1011S1 98.000000   LF1011S2 98.000000
    N1011AC2 NOPTCLE0 2.000000   CONTBOS2 1.000000
    N1011AC2 CONTORD2 -1.000000   MSBOSCLE 1.000000
    N1011AC2 MSBOSORD 1.000000   MSCLEORD 1.000000
    N1011AC2 UPBROW39425 1.000000
    N1011AC3 ACOCOSTS 1.300000   OBJECTIV 1.300000
    N1011AC3 FUELAVAL 3.830550   SYSTDEPT 2.000000
    N1011AC3 ACMILES  0.876050   FLAV*3   26.000000
    N1011AC3 ATONMILE 35.042140   LFTNMILE 17.521070
    N1011AC3 LF1011C1 30.000000   LF1011C2 30.000000
    N1011AC3 NOPTCLE0 2.000000   CONTBOS3 1.000000
    N1011AC3 CONTORD3 -1.000000   UPBROW39426 1.000000
    N1011AC4 ACOCOSTS 2.346470   OBJECTIV 2.346470
    N1011AC4 FUELAVAL 2.366500   SYSTDEPT 2.000000
    N1011AC4 ACMILES  0.876050   FLAV*4   27.000000
    N1011AC4 ATONMILE 13.140800   LFTNMILE 6.570400
    N1011AC4 LF1011C1 11.250000   LF1011C2 11.250000
    N1011AC4 NOPTCLE0 2.000000   CONTBOS4 1.000000
    N1011AC4 CONTORD4 -1.000000   UPBROW39427 1.000000
    N1013AC2 ACOCOSTS 2.367830   OBJECTIV 2.367830
    N1013AC2 FUELAVAL 3.169650   SYSTDEPT 2.000000
    N1013AC2 ACMILES  0.916370   ASMILES  120.044490
    N1013AC2 LFRPMASM 72.026694   FLAV*2   2.659430
    N1013AC2 LF1013S1 98.000000   LF1013S2 98.000000
    N1013AC2 CONTBOS2 1.000000   CONTORD2 -1.000000
    N1013AC2 MSBOSLGA 1.000000   MSBOSORD 1.000000
    N1013AC2 MSLGAORD 1.000000   UPBROW39428 1.000000
    N1013AC4 ACOCOSTS 1.902920   OBJECTIV 1.902920
    N1013AC4 FUELAVAL 2.443100   SYSTDEPT 2.000000
    N1013AC4 ACMILES  0.916370   FLAV*4   2.659430
    N1013AC4 ATONMILE 13.745560   LFTNMILE 6.872780
    N1013AC4 LF1013C1 11.250000   LF1013C2 11.250000
    N1013AC4 CONTBOS4 1.000000   CONTORD4 -1.000000
    N1013AC4 MCLGAORD 1.000000   UPBROW39429 1.000000
    N1015AC2 ACOCOSTS 1.364160   OBJECTIV 1.364160
    N1015AC2 FUELAVAL 1.490450   SYSTDEPT 1.000000
    N1015AC2 ACMILES  0.417150   ASMILES  54.647050
    N1015AC2 LFRPMASM 32.788230   FLAV*2   1.250930
    N1015AC2 LF1015S1 98.000000   NOPTCLE0 1.000000
    N1015AC2 CONTLGA2 1.000000   CONTCLE2 -1.000000
    N1015AC2 MSLGACLE 1.000000   UPBROW39430 1.000000
    N1015AC4 ACOCOSTS 1.144010   OBJECTIV 1.144010
    N1015AC4 FUELAVAL 1.143590   SYSTDEPT 1.000000
    N1015AC4 ACMILES  0.417150   FLAV*4   1.250930
    N1015AC4 ATONMILE 6.257290   LFTNMILE 3.128645
    N1015AC4 LF1015C1 11.250000   NOPTCLE0 1.000000
    N1015AC4 CONTLGA4 1.000000   CONTCLE4 -1.000000
    N1015AC4 UPBROW39431 1.000000
    N1017AC2 ACOCOSTS 1.647360   OBJECTIV 1.647360
    N1017AC2 FUELAVAL 2.211830   SYSTDEPT 1.000000
    N1017AC2 ACMILES  0.730800   ASMILES  95.734440
    N1017AC2 LFRPMASM 57.440664   FLAV*2   1.853130
    N1017AC2 LF1017S1 98.000000   CONTLGA2 1.000000
    N1017AC2 CONTORD2 -1.000000   MSLGAORD 1.000000
    N1017AC2 UPBROW39432 1.000000
    N1017AC4 ACOCOSTS 1.333120   OBJECTIV 1.333120
    N1017AC4 FUELAVAL 1.739510   SYSTDEPT 1.000000
    N1017AC4 ACMILES  0.730800   FLAV*4   1.853130
    N1017AC4 ATONMILE 10.961960   LFTNMILE 5.480980
    N1017AC4 LF1017C1 11.250000   CONTLGA4 1.000000
    N1017AC4 CONTORD4 -1.000000   MCLGAORD 1.000000
    N1017AC4 UPBROW39433 1.000000
    N1019AC2 ACOCOSTS 2.553810   OBJECTIV 2.553810
    N1019AC2 FUELAVAL 2.744800   SYSTDEPT 2.000000
    N1019AC2 ACMILES  0.731650   ASMILES  95.846300
    N1019AC2 LFRPMASM 57.507780   FLAV*2   2.304770
    N1019AC2 LF1019S1 98.000000   LF1019S2 98.000000
    N1019AC2 NOPTCLE0 2.000000   CONTLGA2 1.000000
    N1019AC2 CONTORD2 -1.000000   MSLGACLE 1.000000
    N1019AC2 MSLGAORD 1.000000   MSCLEORD 1.000000
    N1019AC2 UPBROW39434 1.000000
    N1019AC4 ACOCOSTS 2.144310   OBJECTIV 2.144310
    N1019AC4 FUELAVAL 2.092140   SYSTDEPT 2.000000
    N1019AC4 ACMILES  0.731650   FLAV*4   2.304770
    N1019AC4 ATONMILE 10.974770   LFTNMILE 5.487385
    N1019AC4 LF1019C1 11.250000   LF1019C2 11.250000
    N1019AC4 NOPTCLE0 2.000000   CONTLGA4 1.000000
    N1019AC4 CONTORD4 -1.000000   MCLGAORD 1.000000
    N1019AC4 UPBROW39435 1.000000
    N1021AC1 ACOCOSTS 3.126790   OBJECTIV 3.126790
    N1021AC1 FUELAVAL 4.079940   SYSTDEPT 1.000000
    N1021AC1 ACMILES  0.314500   ASMILES  128.000750
    N1021AC1 LFRPMASM 76.800450   FLAV*1   1.342950
    N1021AC1 ATONMILE 9.434950   LFTNMILE 4.717475
    N1021AC1 LF1021S1 305.000000   LF1021B1 12.000000
    N1021AC1 NOPTCLE0 1.000000   CONTCLE1 1.000000
    N1021AC1 CONTORD1 -1.000000   MSCLEORD 1.000000
    N1021AC1 UPBROW39436 1.000000
    N1021AC2 ACOCOSTS 1.189650   OBJECTIV 1.189650
    N1021AC2 FUELAVAL 1.254350   SYSTDEPT 1.000000
    N1021AC2 ACMILES  0.314500   ASMILES  41.199260
    N1021AC2 LFRPMASM 24.719556   FLAV*2   1.053840
    N1021AC2 LF1021S1 98.000000   NOPTCLE0 1.000000
    N1021AC2 CONTCLE2 1.000000   CONTORD2 -1.000000
    N1021AC2 MSCLEORD 1.000000   UPBROW39437 1.000000
    N1021AC3 ACOCOSTS 1.424720   OBJECTIV 1.424720
    N1021AC3 FUELAVAL 1.557040   SYSTDEPT 1.000000
    N1021AC3 ACMILES  0.314500   FLAV*3   1.053840
    N1021AC3 ATONMILE 12.579930   LFTNMILE 6.289965
    N1021AC3 LF1021C1 30.000000   NOPTCLE0 1.000000
    N1021AC3 CONTCLE3 1.000000   CONTORD3 -1.000000
    N1021AC3 UPBROW39438 1.000000
    N1021AC4 ACOCOSTS 1.000300   OBJECTIV 1.000300
    N1021AC4 FUELAVAL 0.948550   SYSTDEPT 1.000000
    N1021AC4 ACMILES  0.314500   FLAV*4   1.053840
    N1021AC4 ATONMILE 4.717470   LFTNMILE 2.358735
    N1021AC4 LF1021C1 11.250000   NOPTCLE0 1.000000
    N1021AC4 CONTCLE4 1.000000   CONTORD4 -1.000000
    N1021AC4 UPBROW39439 1.000000
    N1002AC1 ACOCOSTS 3.126790   OBJECTIV 3.126790
    N1002AC1 FUELAVAL 4.079940   SYSTDEPT 1.000000
    N1002AC1 ACMILES  0.314500   ASMILES  128.000750
    N1002AC1 LFRPMASM 76.800450   FLAV*1   1.342950
    N1002AC1 ATONMILE 9.434950   LFTNMILE 4.717475
    N1002AC1 LF1002S1 305.000000   LF1002B1 12.000000
    N1002AC1 NOPTCLE0 1.000000   CONTORD1 1.000000
    N1002AC1 CONTCLE1 -1.000000   MSORDCLE 1.000000
    N1002AC1 UPBROW39440 1.000000
    N1002AC2 ACOCOSTS 1.189650   OBJECTIV 1.189650
    N1002AC2 FUELAVAL 1.254350   SYSTDEPT 1.000000
    N1002AC2 ACMILES  0.314500   ASMILES  41.199260
    N1002AC2 LFRPMASM 24.719556   FLAV*2   1.053840
    N1002AC2 LF1002S1 98.000000   NOPTCLE0 1.000000
    N1002AC2 CONTORD2 1.000000   CONTCLE2 -1.000000
    N1002AC2 MSORDCLE 1.000000   UPBROW39441 1.000000
    N1002AC3 ACOCOSTS 1.424720   OBJECTIV 1.424720
    N1002AC3 FUELAVAL 1.557040   SYSTDEPT 1.000000
    N1002AC3 ACMILES  0.314500   FLAV*3   1.053840
    N1002AC3 ATONMILE 12.579930   LFTNMILE 6.289965
    N1002AC3 LF1002C1 30.000000   NOPTCLE0 1.000000
    N1002AC3 CONTORD3 1.000000   CONTCLE3 -1.000000
    N1002AC3 UPBROW39442 1.000000
    N1002AC4 ACOCOSTS 1.000300   OBJECTIV 1.000300
    N1002AC4 FUELAVAL 0.948550   SYSTDEPT 1.000000
    N1002AC4 ACMILES  0.314500   FLAV*4   1.053840
    N1002AC4 ATONMILE 4.717470   LFTNMILE 2.358735
    N1002AC4 LF1002C1 11.250000   NOPTCLE0 1.000000
    N1002AC4 CONTORD4 1.000000   CONTCLE4 -1.000000
    N1002AC4 UPBROW39443 1.000000
    N1004AC2 ACOCOSTS 1.647360   OBJECTIV 1.647360
    N1004AC2 FUELAVAL 2.211830   SYSTDEPT 1.000000
    N1004AC2 ACMILES  0.730800   ASMILES  95.734440
    N1004AC2 LFRPMASM 57.440664   FLAV*2   1.853130
    N1004AC2 LF1004S1 98.000000   CONTORD2 1.000000
    N1004AC2 CONTLGA2 -1.000000   MSORDLGA 1.000000
    N1004AC2 UPBROW39444 1.000000
    N1004AC4 ACOCOSTS 1.333120   OBJECTIV 1.333120
    N1004AC4 FUELAVAL 1.739510   SYSTDEPT 1.000000
    N1004AC4 ACMILES  0.730800   FLAV*4   1.853130
    N1004AC4 ATONMILE 10.961960   LFTNMILE 5.480980
    N1004AC4 LF1004C1 11.250000   CONTORD4 1.000000
    N1004AC4 CONTLGA4 -1.000000   UPBROW39445 1.000000
    N1006AC1 ACOCOSTS 7.170160   OBJECTIV 7.170160
    N1006AC1 FUELAVAL 9.913980   SYSTDEPT 2.000000
    N1006AC1 ACMILES  0.876050   ASMILES  356.553710
    N1006AC1 LFRPMASM 213.932226   FLAV*1   3.128130
    N1006AC1 ATONMILE 26.281600   LFTNMILE 13.140800
    N1006AC1 LF1006S1 305.000000   LF1006S2 305.000000
    N1006AC1 LF1006B1 12.000000   LF1006B2 12.000000
    N1006AC1 NOPTCLE0 2.000000   CONTORD1 1.000000
    N1006AC1 CONTBOS1 -1.000000   MSORDCLE 1.000000
    N1006AC1 MSORDBOS 1.000000   MSCLEBOS 1.000000
    N1006AC1 UPBROW39446 1.000000
    N1006AC2 ACOCOSTS 2.799290   OBJECTIV 2.799290
    N1006AC2 FUELAVAL 3.076920   SYSTDEPT 2.000000
    N1006AC2 ACMILES  0.876050   ASMILES  114.762990
    N1006AC2 LFRPMASM 68.857794   FLAV*2   2.582020
    N1006AC2 LF1006S1 98.000000   LF1006S2 98.000000
    N1006AC2 NOPTCLE0 2.000000   CONTORD2 1.000000
    N1006AC2 CONTBOS2 -1.000000   MSORDCLE 1.000000
    N1006AC2 MSORDBOS 1.000000   MSCLEBOS 1.000000
    N1006AC2 UPBROW39447 1.000000
    N1006AC3 ACOCOSTS 3.355910   OBJECTIV 3.355910
    N1006AC3 FUELAVAL 3.830550   SYSTDEPT 2.000000
    N1006AC3 ACMILES  0.876050   FLAV*3   2.582020
    N1006AC3 ATONMILE 35.042140   LFTNMILE 17.521070
    N1006AC3 LF1006C1 30.000000   LF1006C2 30.000000
    N1006AC3 NOPTCLE0 2.000000   CONTORD3 1.000000
    N1006AC3 CONTBOS3 -1.000000   MCORDBOS 1.000000
    N1006AC3 UPBROW39448 1.000000
    N1006AC4 ACOCOSTS 2.346470   OBJECTIV 2.346470
    N1006AC4 FUELAVAL 2.366500   SYSTDEPT 2.000000
    N1006AC4 ACMILES  0.876050   FLAV*4   2.582020
    N1006AC4 ATONMILE 13.140800   LFTNMILE 6.570400
    N1006AC4 LF1006C1 11.250000   LF1006C2 11.250000
    N1006AC4 NOPTCLE0 2.000000   CONTORD4 1.000000
    N1006AC4 CONTBOS4 -1.000000   MCORDBOS 1.000000
    N1006AC4 UPBROW39449 1.000000
    N1008AC2 ACOCOSTS 2.367830   OBJECTIV 2.367830
    N1008AC2 FUELAVAL 3.169650   SYSTDEPT 2.000000
    N1008AC2 ACMILES  0.916370   ASMILES  120.044490
    N1008AC2 LFRPMASM 72.026694   FLAV*2   2.659430
    N1008AC2 LF1008S1 98.000000   LF1008S2 98.000000
    N1008AC2 CONTORD2 1.000000   CONTBOS2 -1.000000
    N1008AC2 MSORDLGA 1.000000   MSORDBOS 1.000000
    N1008AC2 MSLGABOS 1.000000   UPBROW39450 1.000000
    N1008AC4 ACOCOSTS 1.902920   OBJECTIV 1.902920
    N1008AC4 FUELAVAL 2.443100   SYSTDEPT 2.000000
    N1008AC4 ACMILES  0.916370   FLAV*4   2.659430
    N1008AC4 ATONMILE 13.745560   LFTNMILE 6.872780
    N1008AC4 LF1008C1 11.250000   LF1008C2 11.250000
    N1008AC4 CONTORD4 1.000000   CONTBOS4 -1.000000
    N1008AC4 MCORDBOS 1.000000   UPBROW39451 1.000000
    N1010AC2 ACOCOSTS 3.274280   OBJECTIV 3.274280
    N1010AC2 FUELAVAL 3.702620   SYSTDEPT 3.000000
    N1010AC2 ACMILES  0.917220   ASMILES  120.156370
    N1010AC2 LFRPMASM 72.093822   FLAV*2   3.111070
    N1010AC2 LF1010S1 98.000000   LF1010S2 98.000000
    N1010AC2 LF1010S3 98.000000   NOPTCLE0 2.000000
    N1010AC2 CONTORD2 1.000000   CONTBOS2 -1.000000
    N1010AC2 MSORDCLE 1.000000   MSORDLGA 1.000000
    N1010AC2 MSORDBOS 1.000000   MSCLELGA 1.000000
    N1010AC2 MSCLEBOS 1.000000   MSLGABOS 1.000000
    N1010AC2 UPBROW39452 1.000000
    N1010AC4 ACOCOSTS 2.714110   OBJECTIV 2.714110
    N1010AC4 FUELAVAL 2.795730   SYSTDEPT 3.000000
    N1010AC4 ACMILES  0.917220   FLAV*4   3.111070
    N1010AC4 ATONMILE 13.758360   LFTNMILE 6.879180
    N1010AC4 LF1010C1 11.250000   LF1010C2 11.250000
    N1010AC4 LF1010C3 11.250000   NOPTCLE0 2.000000
    N1010AC4 CONTORD4 1.000000   CONTBOS4 -1.000000
    N1010AC4 MCORDBOS 1.000000   UPBROW39453 1.000000
    N1012AC2 ACOCOSTS 1.364160   OBJECTIV 1.364160
    N1012AC2 FUELAVAL 1.490450   SYSTDEPT 1.000000
    N1012AC2 ACMILES  0.417150   ASMILES  54.647050
    N1012AC2 LFRPMASM 32.788230   FLAV*2   1.250930
    N1012AC2 LF1012S1 98.000000   NOPTCLE0 1.000000
    N1012AC2 CONTCLE2 1.000000   CONTLGA2 -1.000000
    N1012AC2 MSCLELGA 1.000000   UPBROW39454 1.000000
    N1012AC4 ACOCOSTS 1.144010   OBJECTIV 1.144010
    N1012AC4 FUELAVAL 1.143590   SYSTDEPT 1.000000
    N1012AC4 ACMILES  0.417150   FLAV*4   1.250930
    N1012AC4 ATONMILE 6.257290   LFTNMILE 3.128645
    N1012AC4 LF1012C1 11.250000   NOPTCLE0 1.000000
    N1012AC4 CONTCLE4 1.000000   CONTLGA4 -1.000000
    N1012AC4 UPBROW39455 1.000000
    N1014AC2 ACOCOSTS 2.084630   OBJECTIV 2.084630
    N1014AC2 FUELAVAL 2.448270   SYSTDEPT 2.000000
    N1014AC2 ACMILES  0.602730   ASMILES  78.957060
    N1014AC2 LFRPMASM 47.374236   FLAV*2   2.057230
    N1014AC2 LF1014S1 98.000000   LF1014S2 98.000000
    N1014AC2 NOPTCLE0 1.000000   CONTCLE2 1.000000
    N1014AC2 CONTBOS2 -1.000000   MSCLELGA 1.000000
    N1014AC2 MSCLEBOS 1.000000   MSLGABOS 1.000000
    N1014AC2 UPBROW39456 1.000000
    N1014AC4 ACOCOSTS 1.713820   OBJECTIV 1.713820
    N1014AC4 FUELAVAL 1.847180   SYSTDEPT 2.000000
    N1014AC4 ACMILES  0.602730   FLAV*4   2.057230
    N1014AC4 ATONMILE 9.040890   LFTNMILE 4.520445
    N1014AC4 LF1014C1 11.250000   LF1014C2 11.250000
    N1014AC4 NOPTCLE0 1.000000   CONTCLE4 1.000000
    N1014AC4 CONTBOS4 -1.000000   UPBROW39457 1.000000
    N1100AC2 ACOCOSTS 6.073570   OBJECTIV 6.073570
    N1100AC2 FUELAVAL 6.779530   SYSTDEPT 5.000000
    N1100AC2 ACMILES  1.793280   ASMILES  234.919370
    N1100AC2 LFRPMASM 140.951622   FLAV*2   5.693090
    N1100AC2 LF1100S1 98.000000   LF1100S2 98.000000
    N1100AC2 LF1100S3 98.000000   LF1100S4 98.000000
    N1100AC2 LF1100S5 98.000000   NOPTCLE0 4.000000
    N1100AC2 MSBOSLGA 1.000000   MSBOSCLE 1.000000
    N1100AC2 MSBOSORD 1.000000   MSLGACLE 1.000000
    N1100AC2 MSLGAORD 1.000000   MSLGABOS 1.000000
    N1100AC2 MSCLEORD 1.000000   MSORDCLE 1.000000
    N1100AC2 MSORDBOS 1.000000   MSCLEBOS 1.000000
    N1100AC2 UPBROW39458 1.000000
    N1100AC4 ACOCOSTS 5.060590   OBJECTIV 5.060590
    N1100AC4 FUELAVAL 5.162230   SYSTDEPT 5.000000
    N1100AC4 ACMILES  1.793280   FLAV*4   5.693090
    N1100AC4 ATONMILE 26.899150   LFTNMILE 13.449575
    N1100AC4 LF1100C1 11.250000   LF1100C2 11.250000
    N1100AC4 LF1100C3 11.250000   LF1100C4 11.250000
    N1100AC4 LF1100C5 11.250000   NOPTCLE0 4.000000
    N1100AC4 MCLGAORD 1.000000   MCORDBOS 1.000000
    N1100AC4 UPBROW39459 1.000000
    N1102AC2 ACOCOSTS 5.167120   OBJECTIV 5.167120
    N1102AC2 FUELAVAL 6.246570   SYSTDEPT 4.000000
    N1102AC2 ACMILES  1.792420   ASMILES  234.807560
    N1102AC2 LFRPMASM 140.884536   FLAV*2   5.241450
    N1102AC2 LF1102S1 98.000000   LF1102S2 98.000000
    N1102AC2 LF1102S3 98.000000   LF1102S4 98.000000
    N1102AC2 NOPTCLE0 2.000000   MSBOSCLE 1.000000
    N1102AC2 MSBOSORD 1.000000   MSBOSLGA 1.000000
    N1102AC2 MSCLEORD 1.000000   MSCLELGA 1.000000
    N1102AC2 MSCLEBOS 1.000000   MSORDLGA 1.000000
    N1102AC2 MSORDBOS 1.000000   MSLGABOS 1.000000
    N1102AC2 UPBROW39460 1.000000
    N1102AC4 ACOCOSTS 4.249390   OBJECTIV 4.249390
    N1102AC4 FUELAVAL 4.809600   SYSTDEPT 4.000000
    N1102AC4 ACMILES  1.792420   FLAV*4   5.241450
    N1102AC4 ATONMILE 26.886350   LFTNMILE 13.443175
    N1102AC4 LF1102C1 11.250000   LF1102C2 11.250000
    N1102AC4 LF1102C3 11.250000   LF1102C4 11.250000
    N1102AC4 NOPTCLE0 2.000000   MCORDBOS 1.000000
    N1102AC4 UPBROW39461 1.000000
    N1200AC2 ACOCOSTS 0.720470   OBJECTIV 0.720470
    N1200AC2 FUELAVAL 0.957820   SYSTDEPT 1.000000
    N1200AC2 ACMILES  0.185570   ASMILES  24.310070
    N1200AC2 LFRPMASM 14.586042   FLAV*2   0.806300
    N1200AC2 LF1200S1 98.000000   CONTBOS2 1.000000
    N1200AC2 CONTLGA2 -1.000000   MSBOSLGA 1.000000
    N1200AC2 UPBROW39462 1.000000
    N1200AC4 ACOCOSTS 0.569800   OBJECTIV 0.569800
    N1200AC4 FUELAVAL 0.703590   SYSTDEPT 1.000000
    N1200AC4 ACMILES  0.185570   FLAV*4   0.806300
    N1200AC4 ATONMILE 2.783600   LFTNMILE 1.391800
    N1200AC4 LF1200C1 11.250000   CONTBOS4 1.000000
    N1200AC4 CONTLGA4 -1.000000   UPBROW39463 1.000000
    N1201AC2 ACOCOSTS 0.720470   OBJECTIV 0.720470
    N1201AC2 FUELAVAL 0.957820   SYSTDEPT 1.000000
    N1201AC2 ACMILES  0.185570   ASMILES  24.310070
    N1201AC2 LFRPMASM 14.586042   FLAV*2   0.806300
    N1201AC2 LF1201S1 98.000000   CONTLGA2 1.000000
    N1201AC2 CONTBOS2 -1.000000   MSLGABOS 1.000000
    N1201AC2 UPBROW39464 1.000000
    N1201AC4 ACOCOSTS 0.569800   OBJECTIV 0.569800
    N1201AC4 FUELAVAL 0.703590   SYSTDEPT 1.000000
    N1201AC4 ACMILES  0.185570   FLAV*4   0.806300
    N1201AC4 ATONMILE 2.783600   LFTNMILE 1.391800
    N1201AC4 LF1201C1 11.250000   CONTLGA4 1.000000
    N1201AC4 CONTBOS4 -1.000000   UPBROW39465 1.000000
    NEGGRDTIMN160755 FLAV*1   -1.000000   ACOCOSTS 0.050000
    NEGGRDTIMN160755 OBJECTIV 0.050000   UPBROW39408 1.000000
    NEGGRDTIMN260756 FLAV*2   -1.000000   ACOCOSTS 0.028890
    NEGGRDTIMN260756 OBJECTIV 0.028890   UPBROW39410 1.000000
    NEGGRDTIMN360757 FLAV*3   -1.000000   ACOCOSTS 0.036110
    NEGGRDTIMN360757 OBJECTIV 0.036110   UPBROW39412 1.000000
    NEGGRDTIMN460758 FLAV*4   -1.000000   ACOCOSTS 0.013330
    NEGGRDTIMN460758 OBJECTIV 0.013330   UPBROW39414 1.000000
    SLACK60759 REVENUES -1.000000
    SLACK60760 ACOCOSTS -1.000000
    SLACK60761 FUELAVAL 1.000000
    SLACK60762 SYSTDEPT -1.000000
    SLACK60763 ACMILES  -1.000000
    SLACK60764 ASMILES  -1.000000
    SLACK60765 PASSNGRS -1.000000
    SLACK60766 RPMILES  -1.000000
    SLACK60767 LFRPMASM -1.000000
    SLACK60768 ATONMILE -1.000000
    SLACK60769 RTONMILE -1.000000
    SLACK60770 LFTNMILE -1.000000
    SLACK60771 LF1003S1 -1.000000
    SLACK60772 LF1003B1 -1.000000
    SLACK60773 LF1003C1 -1.000000
    SLACK60774 LF1005S1 -1.000000
    SLACK60775 LF1005B1 -1.000000
    SLACK60776 LF1005C1 -1.000000
    SLACK60777 LF1011S1 -1.000000
    SLACK60778 LF1011S2 -1.000000
    SLACK60779 LF1011B1 -1.000000
    SLACK60780 LF1011B2 -1.000000
    SLACK60781 LF1011C1 -1.000000
    SLACK60782 LF1011C2 -1.000000
    SLACK60783 LF1013S1 -1.000000
    SLACK60784 LF1013S2 -1.000000
    SLACK60785 LF1013B1 -1.000000
    SLACK60786 LF1013B2 -1.000000
    SLACK60787 LF1013C1 -1.000000
    SLACK60788 LF1013C2 -1.000000
    SLACK60789 LF1015S1 -1.000000
    SLACK60790 LF1015B1 -1.000000
    SLACK60791 LF1015C1 -1.000000
    SLACK60792 LF1017S1 -1.000000
    SLACK60793 LF1017B1 -1.000000
    SLACK60794 LF1017C1 -1.000000
    SLACK60795 LF1019S1 -1.000000
    SLACK60796 LF1019S2 -1.000000
    SLACK60797 LF1019B1 -1.000000
    SLACK60798 LF1019B2 -1.000000
    SLACK60799 LF1019C1 -1.000000
    SLACK60800 LF1019C2 -1.000000
    SLACK60801 LF1021S1 -1.000000
    SLACK60802 LF1021B1 -1.000000
    SLACK60803 LF1021C1 -1.000000
    SLACK60804 LF1002S1 -1.000000
    SLACK60805 LF1002B1 -1.000000
    SLACK60806 LF1002C1 -1.000000
    SLACK60807 LF1004S1 -1.000000
    SLACK60808 LF1004B1 -1.000000
    SLACK60809 LF1004C1 -1.000000
    SLACK60810 LF1006S1 -1.000000
    SLACK60811 LF1006S2 -1.000000
    SLACK60812 LF1006B1 -1.000000
    SLACK60813 LF1006B2 -1.000000
    SLACK60814 LF1006C1 -1.000000
    SLACK60815 LF1006C2 -1.000000
    SLACK60816 LF1008S1 -1.000000
    SLACK60817 LF1008S2 -1.000000
    SLACK60818 LF1008B1 -1.000000
    SLACK60819 LF1008B2 -1.000000
    SLACK60820 LF1008C1 -1.000000
    SLACK60821 LF1008C2 -1.000000
    SLACK60822 LF1010S1 -1.000000
    SLACK60823 LF1010S2 -1.000000
    SLACK60824 LF1010S3 -1.000000
    SLACK60825 LF1010B1 -1.000000
    SLACK60826 LF1010B2 -1.000000
    SLACK60827 LF1010B3 -1.000000
    SLACK60828 LF1010C1 -1.000000
    SLACK60829 LF1010C2 -1.000000
    SLACK60830 LF1010C3 -1.000000
    SLACK60831 LF1012S1 -1.000000
    SLACK60832 LF1012B1 -1.000000
    SLACK60833 LF1012C1 -1.000000
    SLACK60834 LF1014S1 -1.000000
    SLACK60835 LF1014S2 -1.000000
    SLACK60836 LF1014B1 -1.000000
    SLACK60837 LF1014B2 -1.000000
    SLACK60838 LF1014C1 -1.000000
    SLACK60839 LF1014C2 -1.000000
    SLACK60840 LF1100S1 -1.000000
    SLACK60841 LF1100S2 -1.000000
    SLACK60842 LF1100S3 -1.000000
    SLACK60843 LF1100S4 -1.000000
    SLACK60844 LF1100S5 -1.000000
    SLACK60845 LF1100B1 -1.000000
    SLACK60846 LF1100B2 -1.000000
    SLACK60847 LF1100B3 -1.000000
    SLACK60848 LF1100B4 -1.000000
    SLACK60849 LF1100B5 -1.000000
    SLACK60850 LF1100C1 -1.000000
    SLACK60851 LF1100C2 -1.000000
    SLACK60852 LF1100C3 -1.000000
    SLACK60853 LF1100C4 -1.000000
    SLACK60854 LF1100C5 -1.000000
    SLACK60855 LF1102S1 -1.000000
    SLACK60856 LF1102S2 -1.000000
    SLACK60857 LF1102S3 -1.000000
    SLACK60858 LF1102S4 -1.000000
    SLACK60859 LF1102B1 -1.000000
    SLACK60860 LF1102B2 -1.000000
    SLACK60861 LF1102B3 -1.000000
    SLACK60862 LF1102B4 -1.000000
    SLACK60863 LF1102C1 -1.000000
    SLACK60864 LF1102C2 -1.000000
    SLACK60865 LF1102C3 -1.000000
    SLACK60866 LF1102C4 -1.000000
    SLACK60867 LF1200S1 -1.000000
    SLACK60868 LF1200B1 -1.000000
    SLACK60869 LF1200C1 -1.000000
    SLACK60870 LF1201S1 -1.000000
    SLACK60871 LF1201B1 -1.000000
    SLACK60872 LF1201C1 -1.000000
    SLACK60873 NOPTCLE0 -1.000000
    SLACK60874 CONTBOS1 -1.000000
    SLACK60875 CONTBOS2 -1.000000
    SLACK60876 CONTBOS3 -1.000000
    SLACK60877 CONTBOS4 -1.000000
    SLACK60878 CONTORD1 -1.000000
    SLACK60879 CONTORD2 -1.000000
    SLACK60880 CONTORD3 -1.000000
    SLACK60881 CONTORD4 -1.000000
    SLACK60882 CONTLGA2 -1.000000
    SLACK60883 CONTLGA4 -1.000000
    SLACK60884 CONTCLE1 -1.000000
    SLACK60885 CONTCLE2 -1.000000
    SLACK60886 CONTCLE3 -1.000000
    SLACK60887 CONTCLE4 -1.000000
    SLACK60888 DMBOSORD 1.000000
    SLACK60889 DMBOSLGA 1.000000
    SLACK60890 DMBOSCLE 1.000000
    SLACK60891 DMORDBOS 1.000000
    SLACK60892 DMORDLGA 1.000000
    SLACK60893 DMORDCLE 1.000000
    SLACK60894 DMLGABOS 1.000000
    SLACK60895 DMLGAORD 1.000000
    SLACK60896 DMLGACLE 1.000000
    SLACK60897 DMCLEBOS 1.000000
    SLACK60898 DMCLEORD 1.000000
    SLACK60899 DMCLELGA 1.000000
    SLACK60900 MSBOSORD -1.000000
    SLACK60901 MSBOSLGA -1.000000
    SLACK60902 MSBOSCLE -1.000000
    SLACK60903 MSORDBOS -1.000000
    SLACK60904 MSORDLGA -1.000000
    SLACK60905 MSORDCLE -1.000000
    SLACK60906 MSLGABOS -1.000000
    SLACK60907 MSLGAORD -1.000000
    SLACK60908 MSLGACLE -1.000000
    SLACK60909 MSCLEBOS -1.000000
    SLACK60910 MSCLEORD -1.000000
    SLACK60911 MSCLELGA -1.000000
    SLACK60912 DCBOSORD 1.000000
    SLACK60913 DCBOSCLE 1.000000
    SLACK60914 DCORDBOS 1.000000
    SLACK60915 DCORDLGA 1.000000
    SLACK60916 DCLGAORD 1.000000
    SLACK60917 DCLGACLE 1.000000
    SLACK60918 DCCLELGA 1.000000
    SLACK60919 MCORDBOS -1.000000
    SLACK60920 MCLGAORD -1.000000
    SLACK60921 UPBROW39408 1.000000
    SLACK60922 UPBROW39409 1.000000
    SLACK60923 UPBROW39410 1.000000
    SLACK60924 UPBROW39411 1.000000
    SLACK60925 UPBROW39412 1.000000
    SLACK60926 UPBROW39413 1.000000
    SLACK60927 UPBROW39414 1.000000
    SLACK60928 UPBROW39415 1.000000
    SLACK60929 UPBROW39416 1.000000
    SLACK60930 UPBROW39417 1.000000
    SLACK60931 UPBROW39418 1.000000
    SLACK60932 UPBROW39419 1.000000
    SLACK60933 UPBROW39420 1.000000
    SLACK60934 UPBROW39421 1.000000
    SLACK60935 UPBROW39422 1.000000
    SLACK60936 UPBROW39423 1.000000
    SLACK60937 UPBROW39424 1.000000
    SLACK60938 UPBROW39425 1.000000
    SLACK60939 UPBROW39426 1.000000
    SLACK60940 UPBROW39427 1.000000
    SLACK60941 UPBROW39428 1.000000
    SLACK60942 UPBROW39429 1.000000
    SLACK60943 UPBROW39430 1.000000
    SLACK60944 UPBROW39431 1.000000
    SLACK60945 UPBROW39432 1.000000
    SLACK60946 UPBROW39433 1.000000
    SLACK60947 UPBROW39434 1.000000
    SLACK60948 UPBROW39435 1.000000
    SLACK60949 UPBROW39436 1.000000
    SLACK60950 UPBROW39437 1.000000
    SLACK60951 UPBROW39438 1.000000
    SLACK60952 UPBROW39439 1.000000
    SLACK60953 UPBROW39440 1.000000
    SLACK60954 UPBROW39441 1.000000
    SLACK60955 UPBROW39442 1.000000
    SLACK60956 UPBROW39443 1.000000
    SLACK60957 UPBROW39444 1.000000
    SLACK60958 UPBROW39445 1.000000
    SLACK60959 UPBROW39446 1.000000
    SLACK60960 UPBROW39447 1.000000
    SLACK60961 UPBROW39448 1.000000
    SLACK60962 UPBROW39449 1.000000
    SLACK60963 UPBROW39450 1.000000
    SLACK60964 UPBROW39451 1.000000
    SLACK60965 UPBROW39452 1.000000
    SLACK60966 UPBROW39453 1.000000
    SLACK60967 UPBROW39454 1.000000
    SLACK60968 UPBROW39455 1.000000
    SLACK60969 UPBROW39456 1.000000
    SLACK60970 UPBROW39457 1.000000
    SLACK60971 UPBROW39458 1.000000
    SLACK60972 UPBROW39459 1.000000
    SLACK60973 UPBROW39460 1.000000
    SLACK60974 UPBROW39461 1.000000
    SLACK60975 UPBROW39462 1.000000
    SLACK60976 UPBROW39463 1.000000
    SLACK60977 UPBROW39464 1.000000
    SLACK60978 UPBROW39465 1.000000
RHS
    RHS1     FUELAVAL 100000.000000
    RHS1     PASSNGRS 9431.000000
    RHS1     SYSTDEPT 50.000000
    RHS1     FLAV*1   30.000000
    RHS1     FLAV*2   45.000000
    RHS1     DMBOSORD 302.000000
    RHS1     DMBOSLGA 2352.000000
    RHS1     DMBOSCLE 142.000000
    RHS1     DMORDBOS 302.000000
    RHS1     DMORDLGA 515.000000
    RHS1     DMORDCLE 619.000000
    RHS1     DMLGABOS 2743.000000
    RHS1     DMLGAORD 712.000000
    RHS1     DMLGACLE 517.000000
    RHS1     DMCLEBOS 131.000000
    RHS1     DMCLEORD 712.000000
    RHS1     DMCLELGA 409.000000
    RHS1     MSBOSORD 3.000000
    RHS1     MSBOSLGA 7.000000
    RHS1     MSBOSCLE 1.000000
    RHS1     MSORDBOS 3.000000
    RHS1     MSORDLGA 4.000000
    RHS1     MSORDCLE 5.000000
    RHS1     MSLGABOS 7.000000
    RHS1     MSLGAORD 5.000000
    RHS1     MSLGACLE 4.000000
    RHS1     MSCLEBOS 1.000000
    RHS1     MSCLEORD 6.000000
    RHS1     MSCLELGA 3.000000
    RHS1     MCORDBOS 1.000000
    RHS1     MCLGAORD 2.000000
    RHS1     DCBOSORD 12.000000
    RHS1     DCBOSCLE 16.000000
    RHS1     DCORDBOS 24.000000
    RHS1     DCORDLGA 13.000000
    RHS1     DCLGAORD 45.000000
    RHS1     DCLGACLE 16.000000
    RHS1     DCCLELGA 5.000000
    RHS1     NOPTCLE0 24.000000
    RANGE1   DMBOSORD 61.000000
    RANGE1   DMBOSLGA 471.000000
    RANGE1   DMBOSCLE 29.000000
    RANGE1   DMORDBOS 61.000000
    RANGE1   DMORDLGA 103.000000
    RANGE1   DMORDCLE 124.000000
    RANGE1   DMLGABOS 549.000000
    RANGE1   DMLGAORD 143.000000
    RANGE1   DMLGACLE 104.000000
    RANGE1   DMCLEBOS 27.000000
    RANGE1   DMCLEORD 143.000000
    RANGE1   DMCLELGA 82.000000
    RANGE1   DCBOSORD 12.000000
    RANGE1   DCBOSCLE 3.200000
    RANGE1   DCORDBOS 4.800000
    RANGE1   DCORDLGA 2.600000
    RANGE1   DCLGAORD 9.000000
    RANGE1   DCLGACLE 3.200000
    RANGE1   DCCLELGA 5.000000
    BOUNDRHS UPBROW39408 100.000000
    BOUNDRHS UPBROW39409 0.000000
    BOUNDRHS UPBROW39410 90.000000
    BOUNDRHS UPBROW39411 0.000000
    BOUNDRHS UPBROW39412 45.000000
    BOUNDRHS UPBROW39413 0.000000
    BOUNDRHS UPBROW39414 45.000000
    BOUNDRHS UPBROW39415 0.000000
    BOUNDRHS UPBROW39416 7.000000
    BOUNDRHS UPBROW39417 7.000000
    BOUNDRHS UPBROW39418 2.000000
    BOUNDRHS UPBROW39419 2.000000
    BOUNDRHS UPBROW39420 7.000000
    BOUNDRHS UPBROW39421 7.000000
    BOUNDRHS UPBROW39422 2.000000
    BOUNDRHS UPBROW39423 2.000000
    BOUNDRHS UPBROW39424 7.000000
    BOUNDRHS UPBROW39425 7.000000
    BOUNDRHS UPBROW39426 2.000000
    BOUNDRHS UPBROW39427 2.000000
    BOUNDRHS UPBROW39428 14.000000
    BOUNDRHS UPBROW39429 2.000000
    BOUNDRHS UPBROW39430 7.000000
    BOUNDRHS UPBROW39431 2.000000
    BOUNDRHS UPBROW39432 7.000000
    BOUNDRHS UPBROW39433 2.000000
    BOUNDRHS UPBROW39434 7.000000
    BOUNDRHS UPBROW39435 2.000000
    BOUNDRHS UPBROW39436 7.000000
    BOUNDRHS UPBROW39437 7.000000
    BOUNDRHS UPBROW39438 2.000000
    BOUNDRHS UPBROW39439 2.000000
    BOUNDRHS UPBROW39440 7.000000
    BOUNDRHS UPBROW39441 7.000000
    BOUNDRHS UPBROW39442 2.000000
    BOUNDRHS UPBROW39443 2.000000
    BOUNDRHS UPBROW39444 7.000000
    BOUNDRHS UPBROW39445 2.000000
    BOUNDRHS UPBROW39446 7.000000
    BOUNDRHS UPBROW39447 7.000000
    BOUNDRHS UPBROW39448 2.000000
    BOUNDRHS UPBROW39449 2.000000
    BOUNDRHS UPBROW39450 14.000000
    BOUNDRHS UPBROW39451 2.000000
    BOUNDRHS UPBROW39452 14.000000
    BOUNDRHS UPBROW39453 2.000000
    BOUNDRHS UPBROW39454 7.000000
    BOUNDRHS UPBROW39455 2.000000
    BOUNDRHS UPBROW39456 14.000000
    BOUNDRHS UPBROW39457 2.000000
    BOUNDRHS UPBROW39458 7.000000
    BOUNDRHS UPBROW39459 7.000000
    BOUNDRHS UPBROW39460 7.000000
    BOUNDRHS UPBROW39461 7.000000
    BOUNDRHS UPBROW39462 14.000000
    BOUNDRHS UPBROW39463 7.000000
    BOUNDRHS UPBROW39464 14.000000
    BOUNDRHS UPBROW39465 7.000000
BOUNDS
ENDATA
