NAME          BOEING1
ROWS
 E  REVENUES
 E  ACOCOSTS
 N  OBJECTIV
 E  SYSTDEPT
 E  ACMILES 
 E  ASMILES 
 E  PASSNGRS
 E  RPMILES 
 E  LFRPMASM
 E  ATONMILE
 E  RTONMILE
 E  LFTNMILE
 E  FLAV*1  
 E  FLAV*2  
 E  FLAV*3  
 E  FLAV*4  
 E  FLAV*5  
 E  FLAV*6  
 E  LF1001S1
 E  LF1002S1
 E  LF1002S2
 E  LF1003S1
 E  LF1004S1
 E  LF1004S2
 E  LF1005S1
 E  LF1005S2
 E  LF1105S1
 E  LF1105S2
 E  LF1006S1
 E  LF1006S2
 E  LF1007S1
 E  LF1007S2
 E  LF1008S1
 E  LF1008S2
 E  LF1008S3
 E  LF1009S1
 E  LF1009S2
 E  LF1010S1
 E  LF1011S1
 E  LF1011S2
 E  LF1012S1
 E  LF1013S1
 E  LF1013S2
 E  LF1014S1
 E  LF1014S2
 E  LF1015S1
 E  LF1015S2
 E  LF1016S1
 E  LF1016S2
 E  LF1017S1
 E  LF1017S2
 E  LF1018S1
 E  LF1018S2
 E  LF1019S1
 E  LF1019S2
 E  LF1020S1
 E  LF1021S1
 E  LF1022S1
 E  LF1022S2
 E  LF1022S3
 E  LF1023S1
 E  LF1023S2
 E  LF1023S3
 E  LF1026S1
 E  LF1026S2
 E  LF1026S3
 E  LF1027S1
 E  LF1027S2
 E  LF1027S3
 E  LF1028S1
 E  LF1028S2
 E  LF1028S3
 E  LF1029S1
 E  LF1029S2
 E  LF1029S3
 E  LF1029S4
 E  LF1029S5
 E  LF1030S1
 E  LF1030S2
 E  LF1030S3
 E  LF1030S4
 E  LF1032S1
 E  LF1032S2
 E  LF1032S3
 E  LF1032S4
 E  LF1032S5
 E  LF1033S1
 E  LF1033S2
 E  LF1033S3
 E  LF1034S1
 E  LF1034S2
 E  LF1035S1
 E  LF1035S2
 E  LF1036S1
 E  LF1036S2
 E  LF1037S1
 E  LF1037S2
 E  LF1038S1
 E  LF1039S1
 E  LF1040S1
 E  LF1040S2
 E  LF1041S1
 E  LF1042S1
 E  LF1043S1
 E  LF1044S1
 E  LF1046S1
 E  LF1046S2
 E  LF1047S1
 E  LF1047S2
 E  LF1047S3
 E  LF1050S1
 E  LF1050S2
 E  LF1051S1
 E  NOPTLON0
 E  NOPTLON1
 E  NOPTTYO0
 E  NOPTTYO1
 E  DMBOSHNL
 E  DMBOSLAX
 E  DMBOSSEA
 E  DMBOSSFO
 E  DMBOSTPE
 E  DMBOSTYO
 E  DMBOSYUL
 E  DMBOSYVR
 E  DMBOSYWG
 E  DMBOSYYZ
 E  DMBUROAK
 E  DMBURSEA
 E  DMBURSFO
 E  DMHNLLAX
 E  DMHNLLON
 E  DMHNLPAR
 E  DMHNLSEA
 E  DMHNLSFO
 E  DMHNLYVR
 E  DMLASSEA
 E  DMLASYVR
 E  DMLAXOAK
 E  DMLAXSEA
 E  DMLAXSFO
 E  DMLAXTPE
 E  DMLAXTYO
 E  DMLAXYVR
 E  DMLONPAR
 E  DMLONSEA
 E  DMLONYVR
 E  DMOAKONT
 E  DMOAKSEA
 E  DMONTSFO
 E  DMONTSEA
 E  DMPARSEA
 E  DMPARYVR
 E  DMRNOSEA
 E  DMRNOYVR
 E  DMSEASFO
 E  DMSEATPE
 E  DMSEATYO
 E  DMSEAYVR
 E  DMSFOTPE
 E  DMSFOTYO
 E  DMSFOYVR
 E  DMTPETYO
 E  DMTPEYVR
 E  DMTYOYVR
 E  DMYULYVR
 E  DMYULYWG
 E  DMYULYYZ
 E  DMYVRYWG
 E  DMYVRYYZ
 E  DMYWGYYZ
 E  DMBOSOAK
 E  DMBOSBUR
 E  DMBOSONT
 E  DMBURYVR
 E  DMBURTYO
 E  DMBURTPE
 E  DMBURHNL
 E  DMHNLOAK
 E  DMHNLONT
 E  DMHNLYWG
 E  DMHNLYYZ
 E  DMHNLYUL
 E  DMLASTYO
 E  DMLASTPE
 E  DMLAXLON
 E  DMLAXPAR
 E  DMBURLON
 E  DMBURPAR
 E  DMLONONT
 E  DMLONOAK
 E  DMOAKPAR
 E  DMOAKTYO
 E  DMOAKTPE
 E  DMONTPAR
 E  DMONTTYO
 E  DMONTTPE
 E  DMPARSFO
 E  DMRNOTYO
 E  DMRNOTPE
 E  DMTPEYWG
 E  DMTPEYYZ
 E  DMTPEYUL
 E  DMTYOYUL
 E  DMTYOYYZ
 E  DMTYOYWG
 E  DMSFOOAK
 E  DMLAXBUR
 E  DMLAXONT
 E  MSBOSHNL
 E  MSBOSSEA
 E  MSBOSSFO
 E  MSBOSYUL
 E  MSBOSYVR
 E  MSBOSYWG
 E  MSBOSYYZ
 E  MSBUROAK
 E  MSBURSEA
 E  MSBURSFO
 E  MSHNLLAX
 E  MSHNLSEA
 E  MSHNLSFO
 E  MSHNLYVR
 E  MSLASSEA
 E  MSLASYVR
 E  MSLAXOAK
 E  MSLAXSEA
 E  MSLAXSFO
 E  MSLAXTPE
 E  MSLAXYVR
 E  MSLONPAR
 E  MSLONSEA
 E  MSLONYVR
 E  MSOAKONT
 E  MSOAKSEA
 E  MSONTSFO
 E  MSONTSEA
 E  MSPARSEA
 E  MSRNOSEA
 E  MSRNOYVR
 E  MSSEASFO
 E  MSSEATPE
 E  MSSEATYO
 E  MSSEAYVR
 E  MSSFOYVR
 E  MSTPETYO
 E  MSYULYVR
 E  MSYULYWG
 E  MSYULYYZ
 E  MSYVRYWG
 E  MSYVRYYZ
 E  MSYWGYYZ
 E  MSBOSOAK
 E  MSHNLOAK
 E  MSLAXLON
 E  P1044X32
 E  P1047X54
 E  P1032X76
 E  P1033X54
 E  P1036X43
 E  P1040X43
 E  P1042X32
 E  P1032X75
 E  P1040X42
 E  P1016X43
 E  P1003X32
 E  P1004X43
 E  P1105X43
 E  P1047X23
 E  P1001X32
 E  P1002X43
 E  P1007X43
 E  P1002X42
 E  P1022X23
 E  P1019X43
 E  P1021X32
 E  P1105X32
 E  P1017X43
 E  P1046X23
 E  P1008X53
 E  P1009X43
 E  P1011X42
 E  P1012X32
 E  P1017X42
 E  P1026X23
 E  P1027X23
 E  P1029X24
 E  P1030X24
 E  P1050X32
 E  P1004X32
 E  P1008X54
 E  P1011X43
 E  P1029X23
 E  P1030X23
 E  P1047X34
 E  P1051X23
 E  P1027X25
 E  P1029X27
 E  P1030X26
 E  P1008X52
 E  P1009X42
 E  P1029X25
 E  P1013X32
 E  P1014X32
 E  P1017X32
 E  P1015X43
 E  P1013X42
 E  P1015X42
 E  P1050X42
 E  P1018X43
 E  P1020X32
 E  P1008X34
 E  P1011X23
 E  P1015X23
 E  P1016X23
 E  P1028X32
 E  P1029X43
 E  P1030X43
 E  P1002X32
 E  P1008X32
 E  P1009X32
 E  P1010X32
 E  P1018X32
 E  P1019X32
 E  P1023X32
 E  P1029X45
 E  P1032X23
 E  P1008X42
 E  P1029X35
 E  P1032X63
 E  P1033X42
 E  P1034X42
 E  P1036X32
 E  P1032X64
 E  P1033X43
 E  P1037X42
 E  P1039X32
 E  P1032X65
 E  P1034X43
 E  P1037X43
 E  P1040X32
 E  P1041X32
 E  P1032X34
 E  P1033X23
 E  P1035X23
 E  P1032X35
 E  P1034X23
 E  P1035X24
 E  P1032X45
 E  P1035X34
 E  P1037X23
 E  P1038X23
 E  UPBROW35934
 E  UPBROW35935
 E  UPBROW35936
 E  UPBROW35937
 E  UPBROW35938
 E  UPBROW35939
 E  UPBROW35940
 E  UPBROW35941
 E  UPBROW35942
 E  UPBROW35943
 E  UPBROW35944
 E  UPBROW35945
 E  UPBROW35946
 E  UPBROW35947
 E  UPBROW35948
 E  UPBROW35949
 E  UPBROW35950
 E  UPBROW35951
 E  UPBROW35952
 E  UPBROW35953
 E  UPBROW35954
 E  UPBROW35955
 E  UPBROW35956
 E  UPBROW35957
 E  UPBROW35958
 E  UPBROW35959
 E  UPBROW35960
 E  UPBROW35961
 E  UPBROW35962
 E  UPBROW35963
 E  UPBROW35964
 E  UPBROW35965
 E  UPBROW35966
 E  UPBROW35967
 E  UPBROW35968
 E  UPBROW35969
 E  UPBROW35970
 E  UPBROW35971
 E  UPBROW35972
 E  UPBROW35973
 E  UPBROW35974
 E  UPBROW35975
 E  UPBROW35976
 E  UPBROW35977
 E  UPBROW35978
 E  UPBROW35979
 E  UPBROW35980
 E  UPBROW35981
 E  UPBROW35982
 E  UPBROW35983
 E  UPBROW35984
 E  UPBROW35985
 E  UPBROW35986
 E  UPBROW35987
 E  UPBROW35988
 E  UPBROW35989
 E  UPBROW35990
 E  UPBROW35991
 E  UPBROW35992
 E  UPBROW35993
 E  UPBROW35994
 E  UPBROW35995
 E  UPBROW35996
 E  UPBROW35997
 E  UPBROW35998
 E  UPBROW35999
 E  UPBROW36000
 E  UPBROW36001
 E  UPBROW36002
 E  UPBROW36003
 E  UPBROW36004
 E  UPBROW36005
 E  UPBROW36006
 E  UPBROW36007
 E  UPBROW36008
 E  UPBROW36009
 E  UPBROW36010
 E  UPBROW36011
 E  UPBROW36012
 E  UPBROW36013
 E  UPBROW36014
 E  UPBROW36015
 E  UPBROW36016
 E  UPBROW36017
 E  UPBROW36018
 E  UPBROW36019
 E  UPBROW36020
 E  UPBROW36021
 E  UPBROW36022
 E  UPBROW36023
 E  UPBROW36024
 E  UPBROW36025
 E  UPBROW36026
 E  UPBROW36027
 E  UPBROW36028
 E  UPBROW36029
 E  UPBROW36030
 E  UPBROW36031
 E  UPBROW36032
 E  UPBROW36033
 E  UPBROW36034
 E  UPBROW36035
 E  UPBROW36036
 E  UPBROW36037
 E  UPBROW36038
 E  UPBROW36039
 E  UPBROW36040
 E  UPBROW36041
 E  UPBROW36042
 E  UPBROW36043
 E  UPBROW36044
 E  UPBROW36045
 E  UPBROW36046
 E  UPBROW36047
 E  UPBROW36048
 E  UPBROW36049
 E  UPBROW36050
 E  UPBROW36051
 E  UPBROW36052
 E  UPBROW36053
 E  UPBROW36054
 E  UPBROW36055
 E  UPBROW36056
 E  UPBROW36057
 E  UPBROW36058
 E  UPBROW36059
 E  UPBROW36060
 E  UPBROW36061
 E  UPBROW36062
 E  UPBROW36063
 E  UPBROW36064
 E  UPBROW36065
 E  UPBROW36066
 E  UPBROW36067
 E  UPBROW36068
 E  UPBROW36069
 E  UPBROW36070
 E  UPBROW36071
 E  UPBROW36072
 E  UPBROW36073
 E  UPBROW36074
 E  UPBROW36075
 E  UPBROW36076
 E  UPBROW36077
 E  UPBROW36078
 E  UPBROW36079
 E  UPBROW36080
 E  UPBROW36081
 E  UPBROW36082
 E  UPBROW36083
 E  UPBROW36084
 E  UPBROW36085
 E  UPBROW36086
 E  UPBROW36087
 E  UPBROW36088
 E  UPBROW36089
 E  UPBROW36090
 E  UPBROW36091
 E  UPBROW36092
 E  UPBROW36093
 E  UPBROW36094
 E  UPBROW36095
COLUMNS
    PBOSHNL0 REVENUES 0.235190   OBJECTIV -0.235190
    PBOSHNL0 PASSNGRS 1.000000   RPMILES  5.165950
    PBOSHNL0 LFRPMASM -5.165950   DMBOSHNL 1.000000
    PBOSHNL0 LF1007S1 -1.000000   LF1007S2 -1.000000
    PBOSHNL1 REVENUES 0.235190   OBJECTIV -0.235190
    PBOSHNL1 PASSNGRS 1.000000   RPMILES  5.590350
    PBOSHNL1 LFRPMASM -5.590350   DMBOSHNL 1.000000
    PBOSHNL1 LF1047S1 -1.000000   LF1047S2 -1.000000
    PBOSHNL1 LF1047S3 -1.000000
    PBOSHNL7 REVENUES -0.024690   OBJECTIV 0.024690
    PBOSHNL7 PASSNGRS -1.000000   DMBOSHNL 1.000000
    PBOSHNL7 DMBOSSEA -1.000000   DMHNLSEA -1.000000
    PBOSHNL8 REVENUES -0.026650   OBJECTIV 0.026650
    PBOSHNL8 PASSNGRS -1.000000   DMBOSHNL 1.000000
    PBOSHNL8 DMBOSYVR -1.000000   DMHNLYVR -1.000000
    PBOSLAX0 REVENUES 0.130920   OBJECTIV -0.130920
    PBOSLAX0 PASSNGRS 1.000000   RPMILES  3.025420
    PBOSLAX0 LFRPMASM -3.025420   DMBOSLAX 1.000000
    PBOSLAX0 LF1046S1 -1.000000   LF1046S2 -1.000000
    PBOSLAX1 REVENUES 0.130920   OBJECTIV -0.130920
    PBOSLAX1 PASSNGRS 1.000000   RPMILES  3.036970
    PBOSLAX1 LFRPMASM -3.036970   DMBOSLAX 1.000000
    PBOSLAX1 LF1047S2 -1.000000   LF1047S3 -1.000000
    PBOSLAX7 REVENUES -0.034620   OBJECTIV 0.034620
    PBOSLAX7 PASSNGRS -1.000000   DMBOSLAX 1.000000
    PBOSLAX7 DMBOSSFO -1.000000   DMLAXSFO -1.000000
    PBOSSEA0 REVENUES 0.125960   OBJECTIV -0.125960
    PBOSSEA0 PASSNGRS 1.000000   RPMILES  2.488840
    PBOSSEA0 LFRPMASM -2.488840   DMBOSSEA 1.000000
    PBOSSEA0 LF1007S1 -1.000000
    PBOSSEA1 REVENUES 0.125960   OBJECTIV -0.125960
    PBOSSEA1 PASSNGRS 1.000000   RPMILES  2.786790
    PBOSSEA1 LFRPMASM -2.786790   DMBOSSEA 1.000000
    PBOSSEA1 LF1032S1 -1.000000   LF1032S2 -1.000000
    PBOSSEA1 LF1032S3 -1.000000   LF1032S4 -1.000000
    PBOSSEA1 LF1032S5 -1.000000
    PBOSSEA2 REVENUES 0.125960   OBJECTIV -0.125960
    PBOSSEA2 PASSNGRS 1.000000   RPMILES  2.488840
    PBOSSEA2 LFRPMASM -2.488840   DMBOSSEA 1.000000
    PBOSSEA2 LF1043S1 -1.000000
    PBOSSFO0 REVENUES 0.134810   OBJECTIV -0.134810
    PBOSSFO0 PASSNGRS 1.000000   RPMILES  2.698450
    PBOSSFO0 LFRPMASM -2.698450   DMBOSSFO 1.000000
    PBOSSFO0 P1044X32 -1.000000   LF1044S1 -1.000000
    PBOSSFO1 REVENUES 0.134810   OBJECTIV -0.134810
    PBOSSFO1 PASSNGRS 1.000000   RPMILES  2.698450
    PBOSSFO1 LFRPMASM -2.698450   DMBOSSFO 1.000000
    PBOSSFO1 P1047X54 -1.000000   LF1047S3 -1.000000
    PBOSTPE1 REVENUES -0.056290   OBJECTIV 0.056290
    PBOSTPE1 PASSNGRS -1.000000   DMBOSTPE 1.000000
    PBOSTPE1 DMBOSSEA -1.000000   DMSEATPE -1.000000
    PBOSTPE2 REVENUES -0.052800   OBJECTIV 0.052800
    PBOSTPE2 PASSNGRS -1.000000   DMBOSTPE 1.000000
    PBOSTPE2 DMBOSYVR -1.000000   DMTPEYVR -1.000000
    PBOSTYO1 REVENUES -0.045250   OBJECTIV 0.045250
    PBOSTYO1 PASSNGRS -1.000000   DMBOSTYO 1.000000
    PBOSTYO1 DMBOSSEA -1.000000   DMSEATYO -1.000000
    PBOSTYO2 REVENUES -0.042060   OBJECTIV 0.042060
    PBOSTYO2 PASSNGRS -1.000000   DMBOSTYO 1.000000
    PBOSTYO2 DMBOSYVR -1.000000   DMTYOYVR -1.000000
    PBOSYUL0 REVENUES 0.027990   OBJECTIV -0.027990
    PBOSYUL0 PASSNGRS 1.000000   RPMILES  0.254180
    PBOSYUL0 LFRPMASM -0.254180   DMBOSYUL 1.000000
    PBOSYUL0 P1032X76 -1.000000   LF1032S5 -1.000000
    PBOSYUL1 REVENUES 0.027990   OBJECTIV -0.027990
    PBOSYUL1 PASSNGRS 1.000000   RPMILES  0.254180
    PBOSYUL1 LFRPMASM -0.254180   DMBOSYUL 1.000000
    PBOSYUL1 P1033X54 -1.000000   LF1033S3 -1.000000
    PBOSYUL2 REVENUES 0.027990   OBJECTIV -0.027990
    PBOSYUL2 PASSNGRS 1.000000   RPMILES  0.254180
    PBOSYUL2 LFRPMASM -0.254180   DMBOSYUL 1.000000
    PBOSYUL2 P1036X43 -1.000000   LF1036S2 -1.000000
    PBOSYUL3 REVENUES 0.027990   OBJECTIV -0.027990
    PBOSYUL3 PASSNGRS 1.000000   RPMILES  0.254180
    PBOSYUL3 LFRPMASM -0.254180   DMBOSYUL 1.000000
    PBOSYUL3 P1040X43 -1.000000   LF1040S2 -1.000000
    PBOSYUL4 REVENUES 0.027990   OBJECTIV -0.027990
    PBOSYUL4 PASSNGRS 1.000000   RPMILES  0.254180
    PBOSYUL4 LFRPMASM -0.254180   DMBOSYUL 1.000000
    PBOSYUL4 P1042X32 -1.000000   LF1042S1 -1.000000
    PBOSYVR0 REVENUES 0.126740   OBJECTIV -0.126740
    PBOSYVR0 PASSNGRS 1.000000   RPMILES  2.660580
    PBOSYVR0 LFRPMASM -2.660580   DMBOSYVR 1.000000
    PBOSYVR0 LF1032S2 -1.000000   LF1032S3 -1.000000
    PBOSYVR0 LF1032S4 -1.000000   LF1032S5 -1.000000
    PBOSYVR1 REVENUES 0.126740   OBJECTIV -0.126740
    PBOSYVR1 PASSNGRS 1.000000   RPMILES  2.541500
    PBOSYVR1 LFRPMASM -2.541500   DMBOSYVR 1.000000
    PBOSYVR1 LF1033S1 -1.000000   LF1033S2 -1.000000
    PBOSYVR1 LF1033S3 -1.000000
    PBOSYVR2 REVENUES 0.126740   OBJECTIV -0.126740
    PBOSYVR2 PASSNGRS 1.000000   RPMILES  2.541440
    PBOSYVR2 LFRPMASM -2.541440   DMBOSYVR 1.000000
    PBOSYVR2 LF1036S1 -1.000000   LF1036S2 -1.000000
    PBOSYWG0 REVENUES 0.074080   OBJECTIV -0.074080
    PBOSYWG0 PASSNGRS 1.000000   RPMILES  1.502550
    PBOSYWG0 LFRPMASM -1.502550   DMBOSYWG 1.000000
    PBOSYWG0 LF1032S3 -1.000000   LF1032S4 -1.000000
    PBOSYWG0 LF1032S5 -1.000000
    PBOSYWG1 REVENUES 0.074080   OBJECTIV -0.074080
    PBOSYWG1 PASSNGRS 1.000000   RPMILES  1.383480
    PBOSYWG1 LFRPMASM -1.383480   DMBOSYWG 1.000000
    PBOSYWG1 LF1033S2 -1.000000   LF1033S3 -1.000000
    PBOSYWG7 REVENUES -0.017890   OBJECTIV 0.017890
    PBOSYWG7 PASSNGRS -1.000000   DMBOSYWG 1.000000
    PBOSYWG7 DMBOSYUL -1.000000   DMYULYWG -1.000000
    PBOSYYZ0 REVENUES 0.034180   OBJECTIV -0.034180
    PBOSYYZ0 PASSNGRS 1.000000   RPMILES  0.568790
    PBOSYYZ0 LFRPMASM -0.568790   DMBOSYYZ 1.000000
    PBOSYYZ0 P1032X75 -1.000000   LF1032S4 -1.000000
    PBOSYYZ0 LF1032S5 -1.000000
    PBOSYYZ1 REVENUES 0.034180   OBJECTIV -0.034180
    PBOSYYZ1 PASSNGRS 1.000000   RPMILES  0.568790
    PBOSYYZ1 LFRPMASM -0.568790   DMBOSYYZ 1.000000
    PBOSYYZ1 P1040X42 -1.000000   LF1040S1 -1.000000
    PBOSYYZ1 LF1040S2 -1.000000
    PBUROAK0 REVENUES 0.030320   OBJECTIV -0.030320
    PBUROAK0 PASSNGRS 1.000000   RPMILES  0.326080
    PBUROAK0 LFRPMASM -0.326080   DMBUROAK 1.000000
    PBUROAK0 LF1005S1 -1.000000
    PBUROAK1 REVENUES 0.030320   OBJECTIV -0.030320
    PBUROAK1 PASSNGRS 1.000000   RPMILES  0.326080
    PBUROAK1 LFRPMASM -0.326080   DMBUROAK 1.000000
    PBUROAK1 LF1014S2 -1.000000
    PBURSEA0 REVENUES 0.055270   OBJECTIV -0.055270
    PBURSEA0 PASSNGRS 1.000000   RPMILES  0.997500
    PBURSEA0 LFRPMASM -0.997500   DMBURSEA 1.000000
    PBURSEA0 LF1014S1 -1.000000   LF1014S2 -1.000000
    PBURSEA1 REVENUES 0.055270   OBJECTIV -0.055270
    PBURSEA1 PASSNGRS 1.000000   RPMILES  1.006050
    PBURSEA1 LFRPMASM -1.006050   DMBURSEA 1.000000
    PBURSEA1 LF1016S1 -1.000000   LF1016S2 -1.000000
    PBURSFO0 REVENUES 0.030330   OBJECTIV -0.030330
    PBURSFO0 PASSNGRS 1.000000   RPMILES  0.326570
    PBURSFO0 LFRPMASM -0.326570   DMBURSFO 1.000000
    PBURSFO0 P1016X43 -1.000000   LF1016S2 -1.000000
    PHNLLAX0 REVENUES 0.128710   OBJECTIV -0.128710
    PHNLLAX0 PASSNGRS 1.000000   RPMILES  2.553380
    PHNLLAX0 LFRPMASM -2.553380   DMHNLLAX 1.000000
    PHNLLAX0 P1003X32 -1.000000   LF1003S1 -1.000000
    PHNLLAX1 REVENUES 0.128710   OBJECTIV -0.128710
    PHNLLAX1 PASSNGRS 1.000000   RPMILES  2.553380
    PHNLLAX1 LFRPMASM -2.553380   DMHNLLAX 1.000000
    PHNLLAX1 P1004X43 -1.000000   LF1004S2 -1.000000
    PHNLLAX2 REVENUES 0.128710   OBJECTIV -0.128710
    PHNLLAX2 PASSNGRS 1.000000   RPMILES  2.553380
    PHNLLAX2 LFRPMASM -2.553380   DMHNLLAX 1.000000
    PHNLLAX2 P1105X43 -1.000000   LF1105S2 -1.000000
    PHNLLAX3 REVENUES 0.128710   OBJECTIV -0.128710
    PHNLLAX3 PASSNGRS 1.000000   RPMILES  2.553380
    PHNLLAX3 LFRPMASM -2.553380   DMHNLLAX 1.000000
    PHNLLAX3 P1047X23 -1.000000   LF1047S1 -1.000000
    PHNLLON0 REVENUES 0.325040   OBJECTIV -0.325040
    PHNLLON0 PASSNGRS 1.000000   RPMILES  7.415470
    PHNLLON0 LFRPMASM -7.415470   DMHNLLON 1.000000
    PHNLLON0 LF1022S1 -1.000000   LF1022S2 -1.000000
    PHNLLON6 REVENUES -0.031430   OBJECTIV 0.031430
    PHNLLON6 PASSNGRS -1.000000   DMHNLLON 1.000000
    PHNLLON6 DMHNLSEA -1.000000   DMLONSEA -1.000000
    PHNLPAR0 REVENUES 0.334300   OBJECTIV -0.334300
    PHNLPAR0 PASSNGRS 1.000000   RPMILES  7.641840
    PHNLPAR0 LFRPMASM -7.641840   DMHNLPAR 1.000000
    PHNLPAR0 LF1022S1 -1.000000   LF1022S2 -1.000000
    PHNLPAR0 LF1022S3 -1.000000
    PHNLPAR6 REVENUES -0.031660   OBJECTIV 0.031660
    PHNLPAR6 PASSNGRS -1.000000   DMHNLPAR 1.000000
    PHNLPAR6 DMHNLSEA -1.000000   DMPARSEA -1.000000
    PHNLSEA0 REVENUES 0.133910   OBJECTIV -0.133910
    PHNLSEA0 PASSNGRS 1.000000   RPMILES  2.677110
    PHNLSEA0 LFRPMASM -2.677110   DMHNLSEA 1.000000
    PHNLSEA0 P1001X32 -1.000000   LF1001S1 -1.000000
    PHNLSEA1 REVENUES 0.133910   OBJECTIV -0.133910
    PHNLSEA1 PASSNGRS 1.000000   RPMILES  2.677110
    PHNLSEA1 LFRPMASM -2.677110   DMHNLSEA 1.000000
    PHNLSEA1 P1002X43 -1.000000   LF1002S2 -1.000000
    PHNLSEA2 REVENUES 0.133910   OBJECTIV -0.133910
    PHNLSEA2 PASSNGRS 1.000000   RPMILES  2.677110
    PHNLSEA2 LFRPMASM -2.677110   DMHNLSEA 1.000000
    PHNLSEA2 P1007X43 -1.000000   LF1007S2 -1.000000
    PHNLSFO0 REVENUES 0.121740   OBJECTIV -0.121740
    PHNLSFO0 PASSNGRS 1.000000   RPMILES  2.891900
    PHNLSFO0 LFRPMASM -2.891900   DMHNLSFO 1.000000
    PHNLSFO0 LF1004S1 -1.000000   LF1004S2 -1.000000
    PHNLSFO1 REVENUES 0.121740   OBJECTIV -0.121740
    PHNLSFO1 PASSNGRS 1.000000   RPMILES  2.891900
    PHNLSFO1 LFRPMASM -2.891900   DMHNLSFO 1.000000
    PHNLSFO1 LF1047S1 -1.000000   LF1047S2 -1.000000
    PHNLSFO7 REVENUES -0.037700   OBJECTIV 0.037700
    PHNLSFO7 PASSNGRS -1.000000   DMHNLSFO 1.000000
    PHNLSFO7 DMHNLLAX -1.000000   DMLAXSFO -1.000000
    PHNLYVR0 REVENUES 0.135100   OBJECTIV -0.135100
    PHNLYVR0 PASSNGRS 1.000000   RPMILES  2.803330
    PHNLYVR0 LFRPMASM -2.803330   DMHNLYVR 1.000000
    PHNLYVR0 P1002X42 -1.000000   LF1002S1 -1.000000
    PHNLYVR0 LF1002S2 -1.000000
    PHNLYVR1 REVENUES 0.135100   OBJECTIV -0.135100
    PHNLYVR1 PASSNGRS 1.000000   RPMILES  2.705310
    PHNLYVR1 LFRPMASM -2.705310   DMHNLYVR 1.000000
    PHNLYVR1 P1022X23 -1.000000   LF1022S1 -1.000000
    PHNLYVR7 REVENUES -0.018090   OBJECTIV 0.018090
    PHNLYVR7 PASSNGRS -1.000000   DMHNLYVR 1.000000
    PHNLYVR7 DMHNLSEA -1.000000   DMSEAYVR -1.000000
    PLASSEA0 REVENUES 0.052050   OBJECTIV -0.052050
    PLASSEA0 PASSNGRS 1.000000   RPMILES  0.867710
    PLASSEA0 LFRPMASM -0.867710   DMLASSEA 1.000000
    PLASSEA0 P1019X43 -1.000000   LF1019S2 -1.000000
    PLASSEA1 REVENUES 0.052050   OBJECTIV -0.052050
    PLASSEA1 PASSNGRS 1.000000   RPMILES  0.867710
    PLASSEA1 LFRPMASM -0.867710   DMLASSEA 1.000000
    PLASSEA1 P1021X32 -1.000000   LF1021S1 -1.000000
    PLASYVR0 REVENUES 0.057740   OBJECTIV -0.057740
    PLASYVR0 PASSNGRS 1.000000   RPMILES  0.993930
    PLASYVR0 LFRPMASM -0.993930   DMLASYVR 1.000000
    PLASYVR0 LF1019S1 -1.000000   LF1019S2 -1.000000
    PLASYVR6 REVENUES -0.013590   OBJECTIV 0.013590
    PLASYVR6 PASSNGRS -1.000000   DMLASYVR 1.000000
    PLASYVR6 DMLASSEA -1.000000   DMSEAYVR -1.000000
    PLAXOAK0 REVENUES 0.030720   OBJECTIV -0.030720
    PLAXOAK0 PASSNGRS 1.000000   RPMILES  0.338550
    PLAXOAK0 LFRPMASM -0.338550   DMLAXOAK 1.000000
    PLAXOAK0 P1105X32 -1.000000   LF1105S1 -1.000000
    PLAXOAK1 REVENUES 0.030720   OBJECTIV -0.030720
    PLAXOAK1 PASSNGRS 1.000000   RPMILES  0.338550
    PLAXOAK1 LFRPMASM -0.338550   DMLAXOAK 1.000000
    PLAXOAK1 P1017X43 -1.000000   LF1017S2 -1.000000
    PLAXOAK2 REVENUES 0.030720   OBJECTIV -0.030720
    PLAXOAK2 PASSNGRS 1.000000   RPMILES  0.338550
    PLAXOAK2 LFRPMASM -0.338550   DMLAXOAK 1.000000
    PLAXOAK2 P1046X23 -1.000000   LF1046S1 -1.000000
    PLAXSEA0 REVENUES 0.056070   OBJECTIV -0.056070
    PLAXSEA0 PASSNGRS 1.000000   RPMILES  1.018010
    PLAXSEA0 LFRPMASM -1.018010   DMLAXSEA 1.000000
    PLAXSEA0 P1008X53 -1.000000   LF1008S2 -1.000000
    PLAXSEA0 LF1008S3 -1.000000
    PLAXSEA1 REVENUES 0.056070   OBJECTIV -0.056070
    PLAXSEA1 PASSNGRS 1.000000   RPMILES  0.955750
    PLAXSEA1 LFRPMASM -0.955750   DMLAXSEA 1.000000
    PLAXSEA1 P1009X43 -1.000000   LF1009S2 -1.000000
    PLAXSEA2 REVENUES 0.056070   OBJECTIV -0.056070
    PLAXSEA2 PASSNGRS 1.000000   RPMILES  1.018010
    PLAXSEA2 LFRPMASM -1.018010   DMLAXSEA 1.000000
    PLAXSEA2 P1011X42 -1.000000   LF1011S1 -1.000000
    PLAXSEA2 LF1011S2 -1.000000
    PLAXSEA3 REVENUES 0.056070   OBJECTIV -0.056070
    PLAXSEA3 PASSNGRS 1.000000   RPMILES  0.955750
    PLAXSEA3 LFRPMASM -0.955750   DMLAXSEA 1.000000
    PLAXSEA3 P1012X32 -1.000000   LF1012S1 -1.000000
    PLAXSEA4 REVENUES 0.056070   OBJECTIV -0.056070
    PLAXSEA4 PASSNGRS 1.000000   RPMILES  1.009970
    PLAXSEA4 LFRPMASM -1.009970   DMLAXSEA 1.000000
    PLAXSEA4 P1017X42 -1.000000   LF1017S1 -1.000000
    PLAXSEA4 LF1017S2 -1.000000
    PLAXSEA5 REVENUES 0.056070   OBJECTIV -0.056070
    PLAXSEA5 PASSNGRS 1.000000   RPMILES  0.955750
    PLAXSEA5 LFRPMASM -0.955750   DMLAXSEA 1.000000
    PLAXSEA5 P1026X23 -1.000000   LF1026S1 -1.000000
    PLAXSEA6 REVENUES 0.056070   OBJECTIV -0.056070
    PLAXSEA6 PASSNGRS 1.000000   RPMILES  0.955750
    PLAXSEA6 LFRPMASM -0.955750   DMLAXSEA 1.000000
    PLAXSEA6 P1027X23 -1.000000   LF1027S1 -1.000000
    PLAXSEA7 REVENUES 0.056070   OBJECTIV -0.056070
    PLAXSEA7 PASSNGRS 1.000000   RPMILES  1.018010
    PLAXSEA7 LFRPMASM -1.018010   DMLAXSEA 1.000000
    PLAXSEA7 P1029X24 -1.000000   LF1029S1 -1.000000
    PLAXSEA7 LF1029S2 -1.000000
    PLAXSEA8 REVENUES 0.056070   OBJECTIV -0.056070
    PLAXSEA8 PASSNGRS 1.000000   RPMILES  1.018010
    PLAXSEA8 LFRPMASM -1.018010   DMLAXSEA 1.000000
    PLAXSEA8 P1030X24 -1.000000   LF1030S1 -1.000000
    PLAXSEA8 LF1030S2 -1.000000
    PLAXSEA9 REVENUES 0.056070   OBJECTIV -0.056070
    PLAXSEA9 PASSNGRS 1.000000   RPMILES  0.955750
    PLAXSEA9 LFRPMASM -0.955750   DMLAXSEA 1.000000
    PLAXSEA9 P1050X32 -1.000000   LF1050S1 -1.000000
    PLAXSFO0 REVENUES 0.030720   OBJECTIV -0.030720
    PLAXSFO0 PASSNGRS 1.000000   RPMILES  0.338520
    PLAXSFO0 LFRPMASM -0.338520   DMLAXSFO 1.000000
    PLAXSFO0 P1004X32 -1.000000   LF1004S1 -1.000000
    PLAXSFO1 REVENUES 0.030720   OBJECTIV -0.030720
    PLAXSFO1 PASSNGRS 1.000000   RPMILES  0.338520
    PLAXSFO1 LFRPMASM -0.338520   DMLAXSFO 1.000000
    PLAXSFO1 P1008X54 -1.000000   LF1008S3 -1.000000
    PLAXSFO2 REVENUES 0.030720   OBJECTIV -0.030720
    PLAXSFO2 PASSNGRS 1.000000   RPMILES  0.338520
    PLAXSFO2 LFRPMASM -0.338520   DMLAXSFO 1.000000
    PLAXSFO2 P1011X43 -1.000000   LF1011S2 -1.000000
    PLAXSFO3 REVENUES 0.030720   OBJECTIV -0.030720
    PLAXSFO3 PASSNGRS 1.000000   RPMILES  0.338520
    PLAXSFO3 LFRPMASM -0.338520   DMLAXSFO 1.000000
    PLAXSFO3 P1029X23 -1.000000   LF1029S1 -1.000000
    PLAXSFO4 REVENUES 0.030720   OBJECTIV -0.030720
    PLAXSFO4 PASSNGRS 1.000000   RPMILES  0.338520
    PLAXSFO4 LFRPMASM -0.338520   DMLAXSFO 1.000000
    PLAXSFO4 P1030X23 -1.000000   LF1030S1 -1.000000
    PLAXSFO5 REVENUES 0.030720   OBJECTIV -0.030720
    PLAXSFO5 PASSNGRS 1.000000   RPMILES  0.338520
    PLAXSFO5 LFRPMASM -0.338520   DMLAXSFO 1.000000
    PLAXSFO5 P1047X34 -1.000000   LF1047S2 -1.000000
    PLAXSFO6 REVENUES 0.030720   OBJECTIV -0.030720
    PLAXSFO6 PASSNGRS 1.000000   RPMILES  0.338520
    PLAXSFO6 LFRPMASM -0.338520   DMLAXSFO 1.000000
    PLAXSFO6 P1051X23 -1.000000   LF1051S1 -1.000000
    PLAXTPE0 REVENUES 0.306090   OBJECTIV -0.306090
    PLAXTPE0 PASSNGRS 1.000000   RPMILES  7.051370
    PLAXTPE0 LFRPMASM -7.051370   DMLAXTPE 1.000000
    PLAXTPE0 P1027X25 -1.000000   LF1027S1 -1.000000
    PLAXTPE0 LF1027S2 -1.000000   LF1027S3 -1.000000
    PLAXTPE1 REVENUES 0.306090   OBJECTIV -0.306090
    PLAXTPE1 PASSNGRS 1.000000   RPMILES  7.145470
    PLAXTPE1 LFRPMASM -7.145470   DMLAXTPE 1.000000
    PLAXTPE1 P1029X27 -1.000000   LF1029S1 -1.000000
    PLAXTPE1 LF1029S2 -1.000000   LF1029S3 -1.000000
    PLAXTPE1 LF1029S4 -1.000000   LF1029S5 -1.000000
    PLAXTPE2 REVENUES 0.306090   OBJECTIV -0.306090
    PLAXTPE2 PASSNGRS 1.000000   RPMILES  7.113640
    PLAXTPE2 LFRPMASM -7.113640   DMLAXTPE 1.000000
    PLAXTPE2 P1030X26 -1.000000   LF1030S1 -1.000000
    PLAXTPE2 LF1030S2 -1.000000   LF1030S3 -1.000000
    PLAXTPE2 LF1030S4 -1.000000
    PLAXTPE8 REVENUES -0.025710   OBJECTIV 0.025710
    PLAXTPE8 PASSNGRS -1.000000   DMLAXTPE 1.000000
    PLAXTPE8 DMLAXSEA -1.000000   DMSEATPE -1.000000
    PLAXTYO0 REVENUES 0.251600   OBJECTIV -0.251600
    PLAXTYO0 PASSNGRS 1.000000   RPMILES  5.748910
    PLAXTYO0 LFRPMASM -5.748910   DMLAXTYO 1.000000
    PLAXTYO0 LF1027S1 -1.000000   LF1027S2 -1.000000
    PLAXTYO1 REVENUES 0.251600   OBJECTIV -0.251600
    PLAXTYO1 PASSNGRS 1.000000   RPMILES  5.843000
    PLAXTYO1 LFRPMASM -5.843000   DMLAXTYO 1.000000
    PLAXTYO1 LF1029S1 -1.000000   LF1029S2 -1.000000
    PLAXTYO1 LF1029S3 -1.000000   LF1029S4 -1.000000
    PLAXTYO2 REVENUES 0.251600   OBJECTIV -0.251600
    PLAXTYO2 PASSNGRS 1.000000   RPMILES  5.811180
    PLAXTYO2 LFRPMASM -5.811180   DMLAXTYO 1.000000
    PLAXTYO2 LF1030S1 -1.000000   LF1030S2 -1.000000
    PLAXTYO2 LF1030S3 -1.000000
    PLAXTYO8 REVENUES -0.027300   OBJECTIV 0.027300
    PLAXTYO8 PASSNGRS -1.000000   DMLAXTYO 1.000000
    PLAXTYO8 DMLAXSEA -1.000000   DMSEATYO -1.000000
    PLAXYVR0 REVENUES 0.061810   OBJECTIV -0.061810
    PLAXYVR0 PASSNGRS 1.000000   RPMILES  1.144220
    PLAXYVR0 LFRPMASM -1.144220   DMLAXYVR 1.000000
    PLAXYVR0 P1008X52 -1.000000   LF1008S1 -1.000000
    PLAXYVR0 LF1008S2 -1.000000   LF1008S3 -1.000000
    PLAXYVR1 REVENUES 0.061810   OBJECTIV -0.061810
    PLAXYVR1 PASSNGRS 1.000000   RPMILES  1.081960
    PLAXYVR1 LFRPMASM -1.081960   DMLAXYVR 1.000000
    PLAXYVR1 P1009X42 -1.000000   LF1009S1 -1.000000
    PLAXYVR1 LF1009S2 -1.000000
    PLAXYVR2 REVENUES 0.061810   OBJECTIV -0.061810
    PLAXYVR2 PASSNGRS 1.000000   RPMILES  1.144220
    PLAXYVR2 LFRPMASM -1.144220   DMLAXYVR 1.000000
    PLAXYVR2 P1029X25 -1.000000   LF1029S1 -1.000000
    PLAXYVR2 LF1029S2 -1.000000   LF1029S3 -1.000000
    PLONPAR0 REVENUES 0.026220   OBJECTIV -0.026220
    PLONPAR0 PASSNGRS 1.000000   RPMILES  0.226360
    PLONPAR0 LFRPMASM -0.226360   DMLONPAR 1.000000
    PLONPAR0 LF1022S3 -1.000000
    PLONPAR1 REVENUES 0.026220   OBJECTIV -0.026220
    PLONPAR1 PASSNGRS 1.000000   RPMILES  0.226360
    PLONPAR1 LFRPMASM -0.226360   DMLONPAR 1.000000
    PLONPAR1 LF1023S3 -1.000000
    PLONPAR2 REVENUES 0.026220   OBJECTIV -0.026220
    PLONPAR2 PASSNGRS 1.000000   RPMILES  0.226360
    PLONPAR2 LFRPMASM -0.226360   DMLONPAR 1.000000
    PLONPAR2 LF1026S3 -1.000000
    PLONSEA0 REVENUES 0.222550   OBJECTIV -0.222550
    PLONSEA0 PASSNGRS 1.000000   RPMILES  4.786460
    PLONSEA0 LFRPMASM -4.786460   DMLONSEA 1.000000
    PLONSEA0 LF1023S2 -1.000000
    PLONSEA1 REVENUES 0.222550   OBJECTIV -0.222550
    PLONSEA1 PASSNGRS 1.000000   RPMILES  4.786460
    PLONSEA1 LFRPMASM -4.786460   DMLONSEA 1.000000
    PLONSEA1 LF1026S2 -1.000000
    PLONYVR0 REVENUES 0.219350   OBJECTIV -0.219350
    PLONYVR0 PASSNGRS 1.000000   RPMILES  4.710170
    PLONYVR0 LFRPMASM -4.710170   DMLONYVR 1.000000
    PLONYVR0 LF1022S2 -1.000000
    PLONYVR1 REVENUES 0.219350   OBJECTIV -0.219350
    PLONYVR1 PASSNGRS 1.000000   RPMILES  4.912670
    PLONYVR1 LFRPMASM -4.912670   DMLONYVR 1.000000
    PLONYVR1 LF1023S1 -1.000000   LF1023S2 -1.000000
    PLONYVR7 REVENUES -0.022480   OBJECTIV 0.022480
    PLONYVR7 PASSNGRS -1.000000   DMLONYVR 1.000000
    PLONYVR7 DMLONSEA -1.000000   DMSEAYVR -1.000000
    POAKONT0 REVENUES 0.031480   OBJECTIV -0.031480
    POAKONT0 PASSNGRS 1.000000   RPMILES  0.361960
    POAKONT0 LFRPMASM -0.361960   DMOAKONT 1.000000
    POAKONT0 LF1006S1 -1.000000
    POAKONT1 REVENUES 0.031480   OBJECTIV -0.031480
    POAKONT1 PASSNGRS 1.000000   RPMILES  0.361960
    POAKONT1 LFRPMASM -0.361960   DMOAKONT 1.000000
    POAKONT1 LF1013S2 -1.000000
    POAKSEA0 REVENUES 0.043110   OBJECTIV -0.043110
    POAKSEA0 PASSNGRS 1.000000   RPMILES  0.671420
    POAKSEA0 LFRPMASM -0.671420   DMOAKSEA 1.000000
    POAKSEA0 P1013X32 -1.000000   LF1013S1 -1.000000
    POAKSEA1 REVENUES 0.043110   OBJECTIV -0.043110
    POAKSEA1 PASSNGRS 1.000000   RPMILES  0.671420
    POAKSEA1 LFRPMASM -0.671420   DMOAKSEA 1.000000
    POAKSEA1 P1014X32 -1.000000   LF1014S1 -1.000000
    POAKSEA2 REVENUES 0.043110   OBJECTIV -0.043110
    POAKSEA2 PASSNGRS 1.000000   RPMILES  0.671420
    POAKSEA2 LFRPMASM -0.671420   DMOAKSEA 1.000000
    POAKSEA2 P1017X32 -1.000000   LF1017S1 -1.000000
    PONTSFO0 REVENUES 0.031520   OBJECTIV -0.031520
    PONTSFO0 PASSNGRS 1.000000   RPMILES  0.363280
    PONTSFO0 LFRPMASM -0.363280   DMONTSFO 1.000000
    PONTSFO0 P1015X43 -1.000000   LF1015S2 -1.000000
    PONTSEA0 REVENUES 0.056140   OBJECTIV -0.056140
    PONTSEA0 PASSNGRS 1.000000   RPMILES  1.033380
    PONTSEA0 LFRPMASM -1.033380   DMONTSEA 1.000000
    PONTSEA0 P1013X42 -1.000000   LF1013S1 -1.000000
    PONTSEA0 LF1013S2 -1.000000
    PONTSEA1 REVENUES 0.056140   OBJECTIV -0.056140
    PONTSEA1 PASSNGRS 1.000000   RPMILES  1.042770
    PONTSEA1 LFRPMASM -1.042770   DMONTSEA 1.000000
    PONTSEA1 P1015X42 -1.000000   LF1015S1 -1.000000
    PONTSEA1 LF1015S2 -1.000000
    PONTSEA2 REVENUES 0.056140   OBJECTIV -0.056140
    PONTSEA2 PASSNGRS 1.000000   RPMILES  1.001390
    PONTSEA2 LFRPMASM -1.001390   DMONTSEA 1.000000
    PONTSEA2 P1050X42 -1.000000   LF1050S1 -1.000000
    PONTSEA2 LF1050S2 -1.000000
    PPARSEA0 REVENUES 0.232050   OBJECTIV -0.232050
    PPARSEA0 PASSNGRS 1.000000   RPMILES  5.012820
    PPARSEA0 LFRPMASM -5.012820   DMPARSEA 1.000000
    PPARSEA0 LF1023S2 -1.000000   LF1023S3 -1.000000
    PPARSEA1 REVENUES 0.232050   OBJECTIV -0.232050
    PPARSEA1 PASSNGRS 1.000000   RPMILES  5.012820
    PPARSEA1 LFRPMASM -5.012820   DMPARSEA 1.000000
    PPARSEA1 LF1026S2 -1.000000   LF1026S3 -1.000000
    PPARYVR0 REVENUES 0.228850   OBJECTIV -0.228850
    PPARYVR0 PASSNGRS 1.000000   RPMILES  4.936530
    PPARYVR0 LFRPMASM -4.936530   DMPARYVR 1.000000
    PPARYVR0 LF1022S2 -1.000000   LF1022S3 -1.000000
    PPARYVR1 REVENUES 0.228850   OBJECTIV -0.228850
    PPARYVR1 PASSNGRS 1.000000   RPMILES  5.139040
    PPARYVR1 LFRPMASM -5.139040   DMPARYVR 1.000000
    PPARYVR1 LF1023S1 -1.000000   LF1023S2 -1.000000
    PPARYVR1 LF1023S3 -1.000000
    PPARYVR7 REVENUES -0.022470   OBJECTIV 0.022470
    PPARYVR7 PASSNGRS -1.000000   DMPARYVR 1.000000
    PPARYVR7 DMPARSEA -1.000000   DMSEAYVR -1.000000
    PRNOSEA0 REVENUES 0.038200   OBJECTIV -0.038200
    PRNOSEA0 PASSNGRS 1.000000   RPMILES  0.563740
    PRNOSEA0 LFRPMASM -0.563740   DMRNOSEA 1.000000
    PRNOSEA0 P1018X43 -1.000000   LF1018S2 -1.000000
    PRNOSEA1 REVENUES 0.038200   OBJECTIV -0.038200
    PRNOSEA1 PASSNGRS 1.000000   RPMILES  0.563740
    PRNOSEA1 LFRPMASM -0.563740   DMRNOSEA 1.000000
    PRNOSEA1 P1020X32 -1.000000   LF1020S1 -1.000000
    PRNOYVR0 REVENUES 0.043940   OBJECTIV -0.043940
    PRNOYVR0 PASSNGRS 1.000000   RPMILES  0.689960
    PRNOYVR0 LFRPMASM -0.689960   DMRNOYVR 1.000000
    PRNOYVR0 LF1018S1 -1.000000   LF1018S2 -1.000000
    PSEASFO0 REVENUES 0.043470   OBJECTIV -0.043470
    PSEASFO0 PASSNGRS 1.000000   RPMILES  0.679490
    PSEASFO0 LFRPMASM -0.679490   DMSEASFO 1.000000
    PSEASFO0 P1008X34 -1.000000   LF1008S2 -1.000000
    PSEASFO1 REVENUES 0.043470   OBJECTIV -0.043470
    PSEASFO1 PASSNGRS 1.000000   RPMILES  0.679490
    PSEASFO1 LFRPMASM -0.679490   DMSEASFO 1.000000
    PSEASFO1 P1011X23 -1.000000   LF1011S1 -1.000000
    PSEASFO2 REVENUES 0.043470   OBJECTIV -0.043470
    PSEASFO2 PASSNGRS 1.000000   RPMILES  0.679490
    PSEASFO2 LFRPMASM -0.679490   DMSEASFO 1.000000
    PSEASFO2 P1015X23 -1.000000   LF1015S1 -1.000000
    PSEASFO3 REVENUES 0.043470   OBJECTIV -0.043470
    PSEASFO3 PASSNGRS 1.000000   RPMILES  0.679490
    PSEASFO3 LFRPMASM -0.679490   DMSEASFO 1.000000
    PSEASFO3 P1016X23 -1.000000   LF1016S1 -1.000000
    PSEASFO4 REVENUES 0.043470   OBJECTIV -0.043470
    PSEASFO4 PASSNGRS 1.000000   RPMILES  0.679490
    PSEASFO4 LFRPMASM -0.679490   DMSEASFO 1.000000
    PSEASFO4 P1028X32 -1.000000   LF1028S1 -1.000000
    PSEASFO5 REVENUES 0.043470   OBJECTIV -0.043470
    PSEASFO5 PASSNGRS 1.000000   RPMILES  0.679490
    PSEASFO5 LFRPMASM -0.679490   DMSEASFO 1.000000
    PSEASFO5 P1029X43 -1.000000   LF1029S2 -1.000000
    PSEASFO6 REVENUES 0.043470   OBJECTIV -0.043470
    PSEASFO6 PASSNGRS 1.000000   RPMILES  0.679490
    PSEASFO6 LFRPMASM -0.679490   DMSEASFO 1.000000
    PSEASFO6 P1030X43 -1.000000   LF1030S2 -1.000000
    PSEATPE0 REVENUES 0.275730   OBJECTIV -0.275730
    PSEATPE0 PASSNGRS 1.000000   RPMILES  6.095630
    PSEATPE0 LFRPMASM -6.095630   DMSEATPE 1.000000
    PSEATPE0 LF1027S2 -1.000000   LF1027S3 -1.000000
    PSEATPE1 REVENUES 0.275730   OBJECTIV -0.275730
    PSEATPE1 PASSNGRS 1.000000   RPMILES  6.095630
    PSEATPE1 LFRPMASM -6.095630   DMSEATPE 1.000000
    PSEATPE1 LF1028S2 -1.000000   LF1028S3 -1.000000
    PSEATPE2 REVENUES 0.275730   OBJECTIV -0.275730
    PSEATPE2 PASSNGRS 1.000000   RPMILES  6.127460
    PSEATPE2 LFRPMASM -6.127460   DMSEATPE 1.000000
    PSEATPE2 LF1029S3 -1.000000   LF1029S4 -1.000000
    PSEATPE2 LF1029S5 -1.000000
    PSEATPE3 REVENUES 0.275730   OBJECTIV -0.275730
    PSEATPE3 PASSNGRS 1.000000   RPMILES  6.095630
    PSEATPE3 LFRPMASM -6.095630   DMSEATPE 1.000000
    PSEATPE3 LF1030S3 -1.000000   LF1030S4 -1.000000
    PSEATYO0 REVENUES 0.222830   OBJECTIV -0.222830
    PSEATYO0 PASSNGRS 1.000000   RPMILES  4.793170
    PSEATYO0 LFRPMASM -4.793170   DMSEATYO 1.000000
    PSEATYO0 LF1027S2 -1.000000
    PSEATYO1 REVENUES 0.222830   OBJECTIV -0.222830
    PSEATYO1 PASSNGRS 1.000000   RPMILES  4.793170
    PSEATYO1 LFRPMASM -4.793170   DMSEATYO 1.000000
    PSEATYO1 LF1028S2 -1.000000
    PSEATYO2 REVENUES 0.222830   OBJECTIV -0.222830
    PSEATYO2 PASSNGRS 1.000000   RPMILES  4.825000
    PSEATYO2 LFRPMASM -4.825000   DMSEATYO 1.000000
    PSEATYO2 LF1029S3 -1.000000   LF1029S4 -1.000000
    PSEATYO3 REVENUES 0.222830   OBJECTIV -0.222830
    PSEATYO3 PASSNGRS 1.000000   RPMILES  4.793170
    PSEATYO3 LFRPMASM -4.793170   DMSEATYO 1.000000
    PSEATYO3 LF1030S3 -1.000000
    PSEAYVR0 REVENUES 0.019280   OBJECTIV -0.019280
    PSEAYVR0 PASSNGRS 1.000000   RPMILES  0.126220
    PSEAYVR0 LFRPMASM -0.126220   DMSEAYVR 1.000000
    PSEAYVR0 P1002X32 -1.000000   LF1002S1 -1.000000
    PSEAYVR1 REVENUES 0.019280   OBJECTIV -0.019280
    PSEAYVR1 PASSNGRS 1.000000   RPMILES  0.126220
    PSEAYVR1 LFRPMASM -0.126220   DMSEAYVR 1.000000
    PSEAYVR1 P1008X32 -1.000000   LF1008S1 -1.000000
    PSEAYVR2 REVENUES 0.019280   OBJECTIV -0.019280
    PSEAYVR2 PASSNGRS 1.000000   RPMILES  0.126220
    PSEAYVR2 LFRPMASM -0.126220   DMSEAYVR 1.000000
    PSEAYVR2 P1009X32 -1.000000   LF1009S1 -1.000000
    PSEAYVR3 REVENUES 0.019280   OBJECTIV -0.019280
    PSEAYVR3 PASSNGRS 1.000000   RPMILES  0.126220
    PSEAYVR3 LFRPMASM -0.126220   DMSEAYVR 1.000000
    PSEAYVR3 P1010X32 -1.000000   LF1010S1 -1.000000
    PSEAYVR4 REVENUES 0.019280   OBJECTIV -0.019280
    PSEAYVR4 PASSNGRS 1.000000   RPMILES  0.126220
    PSEAYVR4 LFRPMASM -0.126220   DMSEAYVR 1.000000
    PSEAYVR4 P1018X32 -1.000000   LF1018S1 -1.000000
    PSEAYVR5 REVENUES 0.019280   OBJECTIV -0.019280
    PSEAYVR5 PASSNGRS 1.000000   RPMILES  0.126220
    PSEAYVR5 LFRPMASM -0.126220   DMSEAYVR 1.000000
    PSEAYVR5 P1019X32 -1.000000   LF1019S1 -1.000000
    PSEAYVR6 REVENUES 0.019280   OBJECTIV -0.019280
    PSEAYVR6 PASSNGRS 1.000000   RPMILES  0.126220
    PSEAYVR6 LFRPMASM -0.126220   DMSEAYVR 1.000000
    PSEAYVR6 P1023X32 -1.000000   LF1023S1 -1.000000
    PSEAYVR7 REVENUES 0.019280   OBJECTIV -0.019280
    PSEAYVR7 PASSNGRS 1.000000   RPMILES  0.126220
    PSEAYVR7 LFRPMASM -0.126220   DMSEAYVR 1.000000
    PSEAYVR7 P1029X45 -1.000000   LF1029S3 -1.000000
    PSEAYVR8 REVENUES 0.019280   OBJECTIV -0.019280
    PSEAYVR8 PASSNGRS 1.000000   RPMILES  0.126220
    PSEAYVR8 LFRPMASM -0.126220   DMSEAYVR 1.000000
    PSEAYVR8 P1032X23 -1.000000   LF1032S1 -1.000000
    PSFOTPE0 REVENUES 0.292180   OBJECTIV -0.292180
    PSFOTPE0 PASSNGRS 1.000000   RPMILES  6.775120
    PSFOTPE0 LFRPMASM -6.775120   DMSFOTPE 1.000000
    PSFOTPE0 LF1028S1 -1.000000   LF1028S2 -1.000000
    PSFOTPE0 LF1028S3 -1.000000
    PSFOTPE1 REVENUES 0.292180   OBJECTIV -0.292180
    PSFOTPE1 PASSNGRS 1.000000   RPMILES  6.806940
    PSFOTPE1 LFRPMASM -6.806940   DMSFOTPE 1.000000
    PSFOTPE1 LF1029S2 -1.000000   LF1029S3 -1.000000
    PSFOTPE1 LF1029S4 -1.000000   LF1029S5 -1.000000
    PSFOTPE2 REVENUES 0.292180   OBJECTIV -0.292180
    PSFOTPE2 PASSNGRS 1.000000   RPMILES  6.775120
    PSFOTPE2 LFRPMASM -6.775120   DMSFOTPE 1.000000
    PSFOTPE2 LF1030S2 -1.000000   LF1030S3 -1.000000
    PSFOTPE2 LF1030S4 -1.000000
    PSFOTPE8 REVENUES -0.027020   OBJECTIV 0.027020
    PSFOTPE8 PASSNGRS -1.000000   DMSFOTPE 1.000000
    PSFOTPE8 DMSEASFO -1.000000   DMSEATPE -1.000000
    PSFOTYO0 REVENUES 0.237800   OBJECTIV -0.237800
    PSFOTYO0 PASSNGRS 1.000000   RPMILES  5.472650
    PSFOTYO0 LFRPMASM -5.472650   DMSFOTYO 1.000000
    PSFOTYO0 LF1028S1 -1.000000   LF1028S2 -1.000000
    PSFOTYO1 REVENUES 0.237800   OBJECTIV -0.237800
    PSFOTYO1 PASSNGRS 1.000000   RPMILES  5.504480
    PSFOTYO1 LFRPMASM -5.504480   DMSFOTYO 1.000000
    PSFOTYO1 LF1029S2 -1.000000   LF1029S3 -1.000000
    PSFOTYO1 LF1029S4 -1.000000
    PSFOTYO2 REVENUES 0.237800   OBJECTIV -0.237800
    PSFOTYO2 PASSNGRS 1.000000   RPMILES  5.472650
    PSFOTYO2 LFRPMASM -5.472650   DMSFOTYO 1.000000
    PSFOTYO2 LF1030S2 -1.000000   LF1030S3 -1.000000
    PSFOTYO8 REVENUES -0.028500   OBJECTIV 0.028500
    PSFOTYO8 PASSNGRS -1.000000   DMSFOTYO 1.000000
    PSFOTYO8 DMSEASFO -1.000000   DMSEATYO -1.000000
    PSFOYVR0 REVENUES 0.048980   OBJECTIV -0.048980
    PSFOYVR0 PASSNGRS 1.000000   RPMILES  0.805700
    PSFOYVR0 LFRPMASM -0.805700   DMSFOYVR 1.000000
    PSFOYVR0 P1008X42 -1.000000   LF1008S1 -1.000000
    PSFOYVR0 LF1008S2 -1.000000
    PSFOYVR1 REVENUES 0.048980   OBJECTIV -0.048980
    PSFOYVR1 PASSNGRS 1.000000   RPMILES  0.805700
    PSFOYVR1 LFRPMASM -0.805700   DMSFOYVR 1.000000
    PSFOYVR1 P1029X35 -1.000000   LF1029S2 -1.000000
    PSFOYVR1 LF1029S3 -1.000000
    PTPETYO0 REVENUES 0.071880   OBJECTIV -0.071880
    PTPETYO0 PASSNGRS 1.000000   RPMILES  1.302470
    PTPETYO0 LFRPMASM -1.302470   DMTPETYO 1.000000
    PTPETYO0 LF1027S3 -1.000000
    PTPETYO1 REVENUES 0.071880   OBJECTIV -0.071880
    PTPETYO1 PASSNGRS 1.000000   RPMILES  1.302470
    PTPETYO1 LFRPMASM -1.302470   DMTPETYO 1.000000
    PTPETYO1 LF1028S3 -1.000000
    PTPETYO2 REVENUES 0.071880   OBJECTIV -0.071880
    PTPETYO2 PASSNGRS 1.000000   RPMILES  1.302470
    PTPETYO2 LFRPMASM -1.302470   DMTPETYO 1.000000
    PTPETYO2 LF1029S5 -1.000000
    PTPETYO3 REVENUES 0.071880   OBJECTIV -0.071880
    PTPETYO3 PASSNGRS 1.000000   RPMILES  1.302470
    PTPETYO3 LFRPMASM -1.302470   DMTPETYO 1.000000
    PTPETYO3 LF1030S4 -1.000000
    PTPEYVR0 REVENUES 0.271460   OBJECTIV -0.271460
    PTPEYVR0 PASSNGRS 1.000000   RPMILES  6.001250
    PTPEYVR0 LFRPMASM -6.001250   DMTPEYVR 1.000000
    PTPEYVR0 LF1029S4 -1.000000   LF1029S5 -1.000000
    PTYOYVR0 REVENUES 0.218870   OBJECTIV -0.218870
    PTYOYVR0 PASSNGRS 1.000000   RPMILES  4.698780
    PTYOYVR0 LFRPMASM -4.698780   DMTYOYVR 1.000000
    PTYOYVR0 LF1029S4 -1.000000
    PYULYVR0 REVENUES 0.116770   OBJECTIV -0.116770
    PYULYVR0 PASSNGRS 1.000000   RPMILES  2.406400
    PYULYVR0 LFRPMASM -2.406400   DMYULYVR 1.000000
    PYULYVR0 P1032X63 -1.000000   LF1032S2 -1.000000
    PYULYVR0 LF1032S3 -1.000000   LF1032S4 -1.000000
    PYULYVR1 REVENUES 0.116770   OBJECTIV -0.116770
    PYULYVR1 PASSNGRS 1.000000   RPMILES  2.287330
    PYULYVR1 LFRPMASM -2.287330   DMYULYVR 1.000000
    PYULYVR1 P1033X42 -1.000000   LF1033S1 -1.000000
    PYULYVR1 LF1033S2 -1.000000
    PYULYVR2 REVENUES 0.116770   OBJECTIV -0.116770
    PYULYVR2 PASSNGRS 1.000000   RPMILES  2.392580
    PYULYVR2 LFRPMASM -2.392580   DMYULYVR 1.000000
    PYULYVR2 P1034X42 -1.000000   LF1034S1 -1.000000
    PYULYVR2 LF1034S2 -1.000000
    PYULYVR3 REVENUES 0.116770   OBJECTIV -0.116770
    PYULYVR3 PASSNGRS 1.000000   RPMILES  2.287260
    PYULYVR3 LFRPMASM -2.287260   DMYULYVR 1.000000
    PYULYVR3 P1036X32 -1.000000   LF1036S1 -1.000000
    PYULYWG0 REVENUES 0.063980   OBJECTIV -0.063980
    PYULYWG0 PASSNGRS 1.000000   RPMILES  1.248370
    PYULYWG0 LFRPMASM -1.248370   DMYULYWG 1.000000
    PYULYWG0 P1032X64 -1.000000   LF1032S3 -1.000000
    PYULYWG0 LF1032S4 -1.000000
    PYULYWG1 REVENUES 0.063980   OBJECTIV -0.063980
    PYULYWG1 PASSNGRS 1.000000   RPMILES  1.129300
    PYULYWG1 LFRPMASM -1.129300   DMYULYWG 1.000000
    PYULYWG1 P1033X43 -1.000000   LF1033S2 -1.000000
    PYULYWG2 REVENUES 0.063980   OBJECTIV -0.063980
    PYULYWG2 PASSNGRS 1.000000   RPMILES  1.248370
    PYULYWG2 LFRPMASM -1.248370   DMYULYWG 1.000000
    PYULYWG2 P1037X42 -1.000000   LF1037S1 -1.000000
    PYULYWG2 LF1037S2 -1.000000
    PYULYWG3 REVENUES 0.063980   OBJECTIV -0.063980
    PYULYWG3 PASSNGRS 1.000000   RPMILES  1.129300
    PYULYWG3 LFRPMASM -1.129300   DMYULYWG 1.000000
    PYULYWG3 P1039X32 -1.000000   LF1039S1 -1.000000
    PYULYYZ0 REVENUES 0.029950   OBJECTIV -0.029950
    PYULYYZ0 PASSNGRS 1.000000   RPMILES  0.314610
    PYULYYZ0 LFRPMASM -0.314610   DMYULYYZ 1.000000
    PYULYYZ0 P1032X65 -1.000000   LF1032S4 -1.000000
    PYULYYZ1 REVENUES 0.029950   OBJECTIV -0.029950
    PYULYYZ1 PASSNGRS 1.000000   RPMILES  0.314610
    PYULYYZ1 LFRPMASM -0.314610   DMYULYYZ 1.000000
    PYULYYZ1 P1034X43 -1.000000   LF1034S2 -1.000000
    PYULYYZ2 REVENUES 0.029950   OBJECTIV -0.029950
    PYULYYZ2 PASSNGRS 1.000000   RPMILES  0.314610
    PYULYYZ2 LFRPMASM -0.314610   DMYULYYZ 1.000000
    PYULYYZ2 P1037X43 -1.000000   LF1037S2 -1.000000
    PYULYYZ3 REVENUES 0.029950   OBJECTIV -0.029950
    PYULYYZ3 PASSNGRS 1.000000   RPMILES  0.314610
    PYULYYZ3 LFRPMASM -0.314610   DMYULYYZ 1.000000
    PYULYYZ3 P1040X32 -1.000000   LF1040S1 -1.000000
    PYULYYZ4 REVENUES 0.029950   OBJECTIV -0.029950
    PYULYYZ4 PASSNGRS 1.000000   RPMILES  0.314610
    PYULYYZ4 LFRPMASM -0.314610   DMYULYYZ 1.000000
    PYULYYZ4 P1041X32 -1.000000   LF1041S1 -1.000000
    PYVRYWG0 REVENUES 0.065290   OBJECTIV -0.065290
    PYVRYWG0 PASSNGRS 1.000000   RPMILES  1.158030
    PYVRYWG0 LFRPMASM -1.158030   DMYVRYWG 1.000000
    PYVRYWG0 P1032X34 -1.000000   LF1032S2 -1.000000
    PYVRYWG1 REVENUES 0.065290   OBJECTIV -0.065290
    PYVRYWG1 PASSNGRS 1.000000   RPMILES  1.158030
    PYVRYWG1 LFRPMASM -1.158030   DMYVRYWG 1.000000
    PYVRYWG1 P1033X23 -1.000000   LF1033S1 -1.000000
    PYVRYWG2 REVENUES 0.065290   OBJECTIV -0.065290
    PYVRYWG2 PASSNGRS 1.000000   RPMILES  1.158030
    PYVRYWG2 LFRPMASM -1.158030   DMYVRYWG 1.000000
    PYVRYWG2 P1035X23 -1.000000   LF1035S1 -1.000000
    PYVRYYZ0 REVENUES 0.107230   OBJECTIV -0.107230
    PYVRYYZ0 PASSNGRS 1.000000   RPMILES  2.091790
    PYVRYYZ0 LFRPMASM -2.091790   DMYVRYYZ 1.000000
    PYVRYYZ0 P1032X35 -1.000000   LF1032S2 -1.000000
    PYVRYYZ0 LF1032S3 -1.000000
    PYVRYYZ1 REVENUES 0.107230   OBJECTIV -0.107230
    PYVRYYZ1 PASSNGRS 1.000000   RPMILES  2.077960
    PYVRYYZ1 LFRPMASM -2.077960   DMYVRYYZ 1.000000
    PYVRYYZ1 P1034X23 -1.000000   LF1034S1 -1.000000
    PYVRYYZ2 REVENUES 0.107230   OBJECTIV -0.107230
    PYVRYYZ2 PASSNGRS 1.000000   RPMILES  2.091790
    PYVRYYZ2 LFRPMASM -2.091790   DMYVRYYZ 1.000000
    PYVRYYZ2 P1035X24 -1.000000   LF1035S1 -1.000000
    PYVRYYZ2 LF1035S2 -1.000000
    PYWGYYZ0 REVENUES 0.055070   OBJECTIV -0.055070
    PYWGYYZ0 PASSNGRS 1.000000   RPMILES  0.933760
    PYWGYYZ0 LFRPMASM -0.933760   DMYWGYYZ 1.000000
    PYWGYYZ0 P1032X45 -1.000000   LF1032S3 -1.000000
    PYWGYYZ1 REVENUES 0.055070   OBJECTIV -0.055070
    PYWGYYZ1 PASSNGRS 1.000000   RPMILES  0.933760
    PYWGYYZ1 LFRPMASM -0.933760   DMYWGYYZ 1.000000
    PYWGYYZ1 P1035X34 -1.000000   LF1035S2 -1.000000
    PYWGYYZ2 REVENUES 0.055070   OBJECTIV -0.055070
    PYWGYYZ2 PASSNGRS 1.000000   RPMILES  0.933760
    PYWGYYZ2 LFRPMASM -0.933760   DMYWGYYZ 1.000000
    PYWGYYZ2 P1037X23 -1.000000   LF1037S1 -1.000000
    PYWGYYZ3 REVENUES 0.055070   OBJECTIV -0.055070
    PYWGYYZ3 PASSNGRS 1.000000   RPMILES  0.933760
    PYWGYYZ3 LFRPMASM -0.933760   DMYWGYYZ 1.000000
    PYWGYYZ3 P1038X23 -1.000000   LF1038S1 -1.000000
    PBOSOAK0 REVENUES 0.134320   OBJECTIV -0.134320
    PBOSOAK0 PASSNGRS 1.000000   RPMILES  2.686870
    PBOSOAK0 LFRPMASM -2.686870   DMBOSOAK 1.000000
    PBOSOAK0 LF1046S2 -1.000000
    PBOSOAK6 REVENUES -0.011570   OBJECTIV 0.011570
    PBOSOAK6 PASSNGRS -1.000000   DMBOSOAK 1.000000
    PBOSOAK6 DMBOSSFO -1.000000   DMSFOOAK -1.000000
    PBOSBUR1 REVENUES -0.034690   OBJECTIV 0.034690
    PBOSBUR1 PASSNGRS -1.000000   DMBOSBUR 1.000000
    PBOSBUR1 DMBOSSFO -1.000000   DMBURSFO -1.000000
    PBOSBUR2 REVENUES -0.046640   OBJECTIV 0.046640
    PBOSBUR2 PASSNGRS -2.000000   DMBOSBUR 1.000000
    PBOSBUR2 DMBOSSFO -1.000000   DMLAXSFO -1.000000
    PBOSBUR2 DMLAXBUR -1.000000
    PBOSONT1 REVENUES -0.037250   OBJECTIV 0.037250
    PBOSONT1 PASSNGRS -1.000000   DMBOSONT 1.000000
    PBOSONT1 DMBOSSFO -1.000000   DMONTSFO -1.000000
    PBOSONT2 REVENUES -0.049960   OBJECTIV 0.049960
    PBOSONT2 PASSNGRS -2.000000   DMBOSONT 1.000000
    PBOSONT2 DMBOSSFO -1.000000   DMLAXSFO -1.000000
    PBOSONT2 DMLAXONT -1.000000
    PBURYVR1 REVENUES -0.013530   OBJECTIV 0.013530
    PBURYVR1 PASSNGRS -1.000000   DMBURYVR 1.000000
    PBURYVR1 DMBURSEA -1.000000   DMSEAYVR -1.000000
    PBURTYO1 REVENUES -0.026860   OBJECTIV 0.026860
    PBURTYO1 PASSNGRS -1.000000   DMBURTYO 1.000000
    PBURTYO1 DMBURSEA -1.000000   DMSEATYO -1.000000
    PBURTPE1 REVENUES -0.025290   OBJECTIV 0.025290
    PBURTPE1 PASSNGRS -1.000000   DMBURTPE 1.000000
    PBURTPE1 DMBURSEA -1.000000   DMSEATPE -1.000000
    PBURHNL0 REVENUES 0.128960   OBJECTIV -0.128960
    PBURHNL0 PASSNGRS 1.000000   RPMILES  2.559290
    PBURHNL0 LFRPMASM -2.559290   DMBURHNL 1.000000
    PBURHNL0 LF1005S2 -1.000000
    PBURHNL6 REVENUES -0.011320   OBJECTIV 0.011320
    PBURHNL6 PASSNGRS -1.000000   DMBURHNL 1.000000
    PBURHNL6 DMLAXBUR -1.000000   DMHNLLAX -1.000000
    PHNLOAK0 REVENUES 0.122250   OBJECTIV -0.122250
    PHNLOAK0 PASSNGRS 1.000000   RPMILES  2.885370
    PHNLOAK0 LFRPMASM -2.885370   DMHNLOAK 1.000000
    PHNLOAK0 LF1005S1 -1.000000   LF1005S2 -1.000000
    PHNLOAK1 REVENUES 0.122250   OBJECTIV -0.122250
    PHNLOAK1 PASSNGRS 1.000000   RPMILES  2.891920
    PHNLOAK1 LFRPMASM -2.891920   DMHNLOAK 1.000000
    PHNLOAK1 LF1105S1 -1.000000   LF1105S2 -1.000000
    PHNLOAK2 REVENUES 0.122250   OBJECTIV -0.122250
    PHNLOAK2 PASSNGRS 1.000000   RPMILES  2.960930
    PHNLOAK2 LFRPMASM -2.960930   DMHNLOAK 1.000000
    PHNLOAK2 LF1006S1 -1.000000   LF1006S2 -1.000000
    PHNLOAK8 REVENUES -0.037190   OBJECTIV 0.037190
    PHNLOAK8 PASSNGRS -1.000000   DMHNLOAK 1.000000
    PHNLOAK8 DMHNLLAX -1.000000   DMLAXOAK -1.000000
    PHNLONT0 REVENUES 0.130630   OBJECTIV -0.130630
    PHNLONT0 PASSNGRS 1.000000   RPMILES  2.598970
    PHNLONT0 LFRPMASM -2.598970   DMHNLONT 1.000000
    PHNLONT0 LF1006S2 -1.000000
    PHNLONT6 REVENUES -0.011600   OBJECTIV 0.011600
    PHNLONT6 PASSNGRS -1.000000   DMHNLONT 1.000000
    PHNLONT6 DMHNLLAX -1.000000   DMLAXONT -1.000000
    PHNLYWG1 REVENUES -0.018930   OBJECTIV 0.018930
    PHNLYWG1 PASSNGRS -1.000000   DMHNLYWG 1.000000
    PHNLYWG1 DMHNLYVR -1.000000   DMYVRYWG -1.000000
    PHNLYYZ1 REVENUES -0.025850   OBJECTIV 0.025850
    PHNLYYZ1 PASSNGRS -1.000000   DMHNLYYZ 1.000000
    PHNLYYZ1 DMHNLYVR -1.000000   DMYVRYYZ -1.000000
    PHNLYUL1 REVENUES -0.024290   OBJECTIV 0.024290
    PHNLYUL1 PASSNGRS -1.000000   DMHNLYUL 1.000000
    PHNLYUL1 DMHNLYVR -1.000000   DMYULYVR -1.000000
    PLASTYO1 REVENUES -0.020760   OBJECTIV 0.020760
    PLASTYO1 PASSNGRS -1.000000   DMLASTYO 1.000000
    PLASTYO1 DMLASSEA -1.000000   DMSEATYO -1.000000
    PLASTPE1 REVENUES -0.019560   OBJECTIV 0.019560
    PLASTPE1 PASSNGRS -1.000000   DMLASTPE 1.000000
    PLASTPE1 DMLASSEA -1.000000   DMSEATPE -1.000000
    PLAXLON0 REVENUES 0.250190   OBJECTIV -0.250190
    PLAXLON0 PASSNGRS 1.000000   RPMILES  5.742200
    PLAXLON0 LFRPMASM -5.742200   DMLAXLON 1.000000
    PLAXLON0 LF1026S1 -1.000000   LF1026S2 -1.000000
    PLAXLON6 REVENUES -0.028430   OBJECTIV 0.028430
    PLAXLON6 PASSNGRS -1.000000   DMLAXLON 1.000000
    PLAXLON6 DMLAXSEA -1.000000   DMLONSEA -1.000000
    PLAXLON7 REVENUES -0.030960   OBJECTIV 0.030960
    PLAXLON7 PASSNGRS -1.000000   DMLAXLON 1.000000
    PLAXLON7 DMLAXYVR -1.000000   DMLONYVR -1.000000
    PLAXPAR0 REVENUES 0.259430   OBJECTIV -0.259430
    PLAXPAR0 PASSNGRS 1.000000   RPMILES  5.968570
    PLAXPAR0 LFRPMASM -5.968570   DMLAXPAR 1.000000
    PLAXPAR0 LF1026S1 -1.000000   LF1026S2 -1.000000
    PLAXPAR0 LF1026S3 -1.000000
    PLAXPAR6 REVENUES -0.028680   OBJECTIV 0.028680
    PLAXPAR6 PASSNGRS -1.000000   DMLAXPAR 1.000000
    PLAXPAR6 DMLAXSEA -1.000000   DMPARSEA -1.000000
    PLAXPAR7 REVENUES -0.031230   OBJECTIV 0.031230
    PLAXPAR7 PASSNGRS -1.000000   DMLAXPAR 1.000000
    PLAXPAR7 DMLAXYVR -1.000000   DMPARYVR -1.000000
    PBURLON1 REVENUES -0.028340   OBJECTIV 0.028340
    PBURLON1 PASSNGRS -1.000000   DMBURLON 1.000000
    PBURLON1 DMBURSEA -1.000000   DMLONSEA -1.000000
    PBURPAR1 REVENUES -0.028590   OBJECTIV 0.028590
    PBURPAR1 PASSNGRS -1.000000   DMBURPAR 1.000000
    PBURPAR1 DMBURSEA -1.000000   DMPARSEA -1.000000
    PLONONT1 REVENUES -0.029840   OBJECTIV 0.029840
    PLONONT1 PASSNGRS -1.000000   DMLONONT 1.000000
    PLONONT1 DMLONSEA -1.000000   DMONTSEA -1.000000
    PLONOAK1 REVENUES -0.019700   OBJECTIV 0.019700
    PLONOAK1 PASSNGRS -1.000000   DMLONOAK 1.000000
    PLONOAK1 DMLONSEA -1.000000   DMOAKSEA -1.000000
    POAKPAR1 REVENUES -0.019800   OBJECTIV 0.019800
    POAKPAR1 PASSNGRS -1.000000   DMOAKPAR 1.000000
    POAKPAR1 DMOAKSEA -1.000000   DMPARSEA -1.000000
    POAKTYO1 REVENUES -0.028000   OBJECTIV 0.028000
    POAKTYO1 PASSNGRS -1.000000   DMOAKTYO 1.000000
    POAKTYO1 DMOAKSEA -1.000000   DMSEATYO -1.000000
    POAKTPE1 REVENUES -0.026540   OBJECTIV 0.026540
    POAKTPE1 PASSNGRS -1.000000   DMOAKTPE 1.000000
    POAKTPE1 DMOAKSEA -1.000000   DMSEATPE -1.000000
    PONTPAR1 REVENUES -0.030120   OBJECTIV 0.030120
    PONTPAR1 PASSNGRS -1.000000   DMONTPAR 1.000000
    PONTPAR1 DMONTSEA -1.000000   DMPARSEA -1.000000
    PONTTYO1 REVENUES -0.026050   OBJECTIV 0.026050
    PONTTYO1 PASSNGRS -1.000000   DMONTTYO 1.000000
    PONTTYO1 DMONTSEA -1.000000   DMSEATYO -1.000000
    PONTTPE1 REVENUES -0.024510   OBJECTIV 0.024510
    PONTTPE1 PASSNGRS -1.000000   DMONTTPE 1.000000
    PONTTPE1 DMONTSEA -1.000000   DMSEATPE -1.000000
    PPARSFO1 REVENUES -0.019680   OBJECTIV 0.019680
    PPARSFO1 PASSNGRS -1.000000   DMPARSFO 1.000000
    PPARSFO1 DMPARSEA -1.000000   DMSEASFO -1.000000
    PRNOTYO1 REVENUES -0.021320   OBJECTIV 0.021320
    PRNOTYO1 PASSNGRS -1.000000   DMRNOTYO 1.000000
    PRNOTYO1 DMRNOSEA -1.000000   DMSEATYO -1.000000
    PRNOTPE1 REVENUES -0.020200   OBJECTIV 0.020200
    PRNOTPE1 PASSNGRS -1.000000   DMRNOTPE 1.000000
    PRNOTPE1 DMRNOSEA -1.000000   DMSEATPE -1.000000
    PTPEYWG1 REVENUES -0.032190   OBJECTIV 0.032190
    PTPEYWG1 PASSNGRS -1.000000   DMTPEYWG 1.000000
    PTPEYWG1 DMTPEYVR -1.000000   DMYVRYWG -1.000000
    PTPEYYZ1 REVENUES -0.042080   OBJECTIV 0.042080
    PTPEYYZ1 PASSNGRS -1.000000   DMTPEYYZ 1.000000
    PTPEYYZ1 DMTPEYVR -1.000000   DMYVRYYZ -1.000000
    PTPEYUL1 REVENUES -0.052920   OBJECTIV 0.052920
    PTPEYUL1 PASSNGRS -1.000000   DMTPEYUL 1.000000
    PTPEYUL1 DMTPEYVR -1.000000   DMYULYVR -1.000000
    PTYOYUL1 REVENUES -0.042700   OBJECTIV 0.042700
    PTYOYUL1 PASSNGRS -1.000000   DMTYOYUL 1.000000
    PTYOYUL1 DMTYOYVR -1.000000   DMYULYVR -1.000000
    PTYOYYZ1 REVENUES -0.034520   OBJECTIV 0.034520
    PTYOYYZ1 PASSNGRS -1.000000   DMTYOYYZ 1.000000
    PTYOYYZ1 DMTYOYVR -1.000000   DMYVRYYZ -1.000000
    PTYOYWG1 REVENUES -0.028030   OBJECTIV 0.028030
    PTYOYWG1 PASSNGRS -1.000000   DMTYOYWG 1.000000
    PTYOYWG1 DMTYOYVR -1.000000   DMYVRYWG -1.000000
    PLAXONT0 REVENUES 0.013510   OBJECTIV -0.013510
    PLAXONT0 PASSNGRS 1.000000   RPMILES  0.045640
    PLAXONT0 LFRPMASM -0.045640   DMLAXONT 1.000000
    PLAXONT0 LF1050S2 -1.000000
    GRDTIMO1 FLAV*1   1.000000   ACOCOSTS 0.457000
    GRDTIMO1 OBJECTIV 0.457000
    GRDTIMN1 FLAV*1   1.000000   ACOCOSTS -0.133330
    GRDTIMN1 OBJECTIV -0.133330   UPBROW35935 1.000000
    GRDTIMO2 FLAV*2   1.000000   ACOCOSTS 0.318000
    GRDTIMO2 OBJECTIV 0.318000
    GRDTIMN2 FLAV*2   1.000000   ACOCOSTS -0.106920
    GRDTIMN2 OBJECTIV -0.106920   UPBROW35937 1.000000
    GRDTIMO3 FLAV*3   1.000000   ACOCOSTS 0.206000
    GRDTIMO3 OBJECTIV 0.206000
    GRDTIMN3 FLAV*3   1.000000   UPBROW35939 1.000000
    GRDTIMO4 FLAV*4   1.000000   ACOCOSTS 0.250000
    GRDTIMO4 OBJECTIV 0.250000
    GRDTIMN4 FLAV*4   1.000000   UPBROW35941 1.000000
    GRDTIMO5 FLAV*5   1.000000   ACOCOSTS 0.163000
    GRDTIMO5 OBJECTIV 0.163000
    GRDTIMN5 FLAV*5   1.000000   UPBROW35943 1.000000
    GRDTIMO6 FLAV*6   1.000000   ACOCOSTS 0.095000
    GRDTIMO6 OBJECTIV 0.095000
    GRDTIMN6 FLAV*6   1.000000   UPBROW35945 1.000000
    N1001AC1 ACOCOSTS 14.006200   OBJECTIV 14.006200
    N1001AC1 SYSTDEPT 1.000000   ACMILES  2.677110
    N1001AC1 ASMILES  1086.905760   LFRPMASM 760.834032
    N1001AC1 FLAV*1   5.530370   LF1001S1 284.000000
    N1001AC1 MSHNLSEA 1.000000   P1001X32 67.000000
    N1001AC1 UPBROW35946 1.000000
    N1001AC2 ACOCOSTS 10.442770   OBJECTIV 10.442770
    N1001AC2 SYSTDEPT 1.000000   ACMILES  2.677110
    N1001AC2 ASMILES  690.694340   LFRPMASM 483.486038
    N1001AC2 FLAV*2   5.549100   LF1001S1 180.000000
    N1001AC2 MSHNLSEA 1.000000   P1001X32 67.000000
    N1001AC2 UPBROW35947 1.000000
    N1001AC3 ACOCOSTS 7.650230   OBJECTIV 7.650230
    N1001AC3 SYSTDEPT 1.000000   ACMILES  2.677110
    N1001AC3 ASMILES  492.588130   LFRPMASM 344.811691
    N1001AC3 FLAV*3   5.747450   LF1001S1 128.000000
    N1001AC3 MSHNLSEA 1.000000   P1001X32 67.000000
    N1001AC3 UPBROW35948 1.000000
    N1002AC1 ACOCOSTS 16.890490   OBJECTIV 16.890490
    N1002AC1 SYSTDEPT 2.000000   ACMILES  2.803330
    N1002AC1 ASMILES  1138.149900   LFRPMASM 796.704930
    N1002AC1 FLAV*1   6.410460   LF1002S1 243.000000
    N1002AC1 LF1002S2 284.000000   MSSEAYVR 1.000000
    N1002AC1 MSHNLYVR 1.000000   MSHNLSEA 1.000000
    N1002AC1 P1002X32 109.000000   P1002X42 40.000000
    N1002AC1 P1002X43 67.000000   UPBROW35949 1.000000
    N1002AC2 ACOCOSTS 12.391070   OBJECTIV 12.391070
    N1002AC2 SYSTDEPT 2.000000   ACMILES  2.803330
    N1002AC2 ASMILES  723.258060   LFRPMASM 506.280642
    N1002AC2 FLAV*2   6.350990   LF1002S1 154.000000
    N1002AC2 LF1002S2 180.000000   MSSEAYVR 1.000000
    N1002AC2 MSHNLYVR 1.000000   MSHNLSEA 1.000000
    N1002AC2 P1002X32 109.000000   P1002X42 40.000000
    N1002AC2 P1002X43 67.000000   UPBROW35950 1.000000
    N1002AC3 ACOCOSTS 8.974250   OBJECTIV 8.974250
    N1002AC3 SYSTDEPT 2.000000   ACMILES  2.803330
    N1002AC3 ASMILES  515.811770   LFRPMASM 361.068239
    N1002AC3 FLAV*3   6.418620   LF1002S1 110.000000
    N1002AC3 LF1002S2 128.000000   MSSEAYVR 1.000000
    N1002AC3 MSHNLYVR 1.000000   MSHNLSEA 1.000000
    N1002AC3 P1002X32 109.000000   P1002X42 40.000000
    N1002AC3 P1002X43 67.000000   UPBROW35951 1.000000
    N1003AC1 ACOCOSTS 13.466720   OBJECTIV 13.466720
    N1003AC1 SYSTDEPT 1.000000   ACMILES  2.553380
    N1003AC1 ASMILES  1036.671140   LFRPMASM 725.669798
    N1003AC1 FLAV*1   5.304810   LF1003S1 243.000000
    N1003AC1 MSHNLLAX 1.000000   P1003X32 118.000000
    N1003AC1 UPBROW35952 1.000000
    N1003AC2 ACOCOSTS 10.030750   OBJECTIV 10.030750
    N1003AC2 SYSTDEPT 1.000000   ACMILES  2.553380
    N1003AC2 ASMILES  658.771240   LFRPMASM 461.139868
    N1003AC2 FLAV*2   5.318830   LF1003S1 154.000000
    N1003AC2 MSHNLLAX 1.000000   P1003X32 118.000000
    N1003AC2 UPBROW35953 1.000000
    N1003AC3 ACOCOSTS 7.343370   OBJECTIV 7.343370
    N1003AC3 SYSTDEPT 1.000000   ACMILES  2.553380
    N1003AC3 ASMILES  469.821290   LFRPMASM 328.874903
    N1003AC3 FLAV*3   5.501220   LF1003S1 110.000000
    N1003AC3 MSHNLLAX 1.000000   P1003X32 118.000000
    N1003AC3 UPBROW35954 1.000000
    N1004AC1 ACOCOSTS 17.276670   OBJECTIV 17.276670
    N1004AC1 SYSTDEPT 2.000000   ACMILES  2.891900
    N1004AC1 ASMILES  1174.111820   LFRPMASM 821.878274
    N1004AC1 FLAV*1   6.571930   LF1004S1 243.000000
    N1004AC1 LF1004S2 243.000000   MSLAXSFO 1.000000
    N1004AC1 MSHNLSFO 1.000000   MSHNLLAX 1.000000
    N1004AC1 P1004X32 168.000000   P1004X43 118.000000
    N1004AC1 UPBROW35955 1.000000
    N1004AC2 ACOCOSTS 12.686030   OBJECTIV 12.686030
    N1004AC2 SYSTDEPT 2.000000   ACMILES  2.891900
    N1004AC2 ASMILES  746.110350   LFRPMASM 522.277245
    N1004AC2 FLAV*2   6.515830   LF1004S1 154.000000
    N1004AC2 LF1004S2 154.000000   MSLAXSFO 1.000000
    N1004AC2 MSHNLSFO 1.000000   MSHNLLAX 1.000000
    N1004AC2 P1004X32 168.000000   P1004X43 118.000000
    N1004AC2 UPBROW35956 1.000000
    N1004AC3 ACOCOSTS 9.193910   OBJECTIV 9.193910
    N1004AC3 SYSTDEPT 2.000000   ACMILES  2.891900
    N1004AC3 ASMILES  532.109860   LFRPMASM 372.476902
    N1004AC3 FLAV*3   6.594880   LF1004S1 110.000000
    N1004AC3 LF1004S2 110.000000   MSLAXSFO 1.000000
    N1004AC3 MSHNLSFO 1.000000   MSHNLLAX 1.000000
    N1004AC3 P1004X32 168.000000   P1004X43 118.000000
    N1004AC3 UPBROW35957 1.000000
    N1005AC3 ACOCOSTS 9.177700   OBJECTIV 9.177700
    N1005AC3 SYSTDEPT 2.000000   ACMILES  2.885370
    N1005AC3 ASMILES  530.907230   LFRPMASM 371.635061
    N1005AC3 FLAV*3   6.581880   LF1005S1 128.000000
    N1005AC3 LF1005S2 128.000000   MSBUROAK 1.000000
    N1005AC3 MSHNLOAK 1.000000   UPBROW35958 1.000000
    N1105AC3 ACOCOSTS 9.193960   OBJECTIV 9.193960
    N1105AC3 SYSTDEPT 2.000000   ACMILES  2.891920
    N1105AC3 ASMILES  532.113770   LFRPMASM 372.479639
    N1105AC3 FLAV*3   6.594930   LF1105S1 128.000000
    N1105AC3 LF1105S2 110.000000   MSLAXOAK 1.000000
    N1105AC3 MSHNLOAK 1.000000   MSHNLLAX 1.000000
    N1105AC3 P1105X32 46.000000   P1105X43 118.000000
    N1105AC3 UPBROW35959 1.000000
    N1006AC3 ACOCOSTS 9.365100   OBJECTIV 9.365100
    N1006AC3 SYSTDEPT 2.000000   ACMILES  2.960930
    N1006AC3 ASMILES  544.811040   LFRPMASM 381.367728
    N1006AC3 FLAV*3   6.732250   LF1006S1 128.000000
    N1006AC3 LF1006S2 128.000000   MSOAKONT 1.000000
    N1006AC3 MSHNLOAK 1.000000   UPBROW35960 1.000000
    N1007AC1 ACOCOSTS 27.191540   OBJECTIV 27.191540
    N1007AC1 SYSTDEPT 2.000000   ACMILES  5.165950
    N1007AC1 ASMILES  2097.375980   LFRPMASM 1468.163186
    N1007AC1 FLAV*1   10.717530   LF1007S1 284.000000
    N1007AC1 LF1007S2 284.000000   MSBOSSEA 1.000000
    N1007AC1 MSBOSHNL 1.000000   MSHNLSEA 1.000000
    N1007AC1 P1007X43 67.000000   UPBROW35961 1.000000
    N1007AC2 ACOCOSTS 20.258610   OBJECTIV 20.258610
    N1007AC2 SYSTDEPT 2.000000   ACMILES  5.165950
    N1007AC2 ASMILES  1332.814940   LFRPMASM 932.970458
    N1007AC2 FLAV*2   10.747840   LF1007S1 180.000000
    N1007AC2 LF1007S2 180.000000   MSBOSSEA 1.000000
    N1007AC2 MSBOSHNL 1.000000   MSHNLSEA 1.000000
    N1007AC2 P1007X43 67.000000   UPBROW35962 1.000000
    N1007AC3 ACOCOSTS 14.833560   OBJECTIV 14.833560
    N1007AC3 SYSTDEPT 2.000000   ACMILES  5.165950
    N1007AC3 ASMILES  950.535160   LFRPMASM 665.374612
    N1007AC3 FLAV*3   11.120240   LF1007S1 128.000000
    N1007AC3 LF1007S2 128.000000   MSBOSSEA 1.000000
    N1007AC3 MSBOSHNL 1.000000   MSHNLSEA 1.000000
    N1007AC3 P1007X43 67.000000   UPBROW35963 1.000000
    N1008AC1 ACOCOSTS 11.990820   OBJECTIV 11.990820
    N1008AC1 SYSTDEPT 3.000000   ACMILES  1.144220
    N1008AC1 ASMILES  464.555180   LFRPMASM 325.188626
    N1008AC1 FLAV*1   4.035920   LF1008S1 243.000000
    N1008AC1 LF1008S2 243.000000   LF1008S3 243.000000
    N1008AC1 MSSEAYVR 1.000000   MSSFOYVR 1.000000
    N1008AC1 MSLAXYVR 1.000000   MSSEASFO 1.000000
    N1008AC1 MSLAXSEA 1.000000   MSLAXSFO 1.000000
    N1008AC1 P1008X32 109.000000   P1008X42 71.000000
    N1008AC1 P1008X52 77.000000   P1008X34 170.000000
    N1008AC1 P1008X53 139.000000   P1008X54 168.000000
    N1008AC1 UPBROW35964 1.000000
    N1008AC2 ACOCOSTS 8.394270   OBJECTIV 8.394270
    N1008AC2 SYSTDEPT 3.000000   ACMILES  1.144220
    N1008AC2 ASMILES  295.209720   LFRPMASM 206.646804
    N1008AC2 FLAV*2   3.830400   LF1008S1 154.000000
    N1008AC2 LF1008S2 154.000000   LF1008S3 154.000000
    N1008AC2 MSSEAYVR 1.000000   MSSFOYVR 1.000000
    N1008AC2 MSLAXYVR 1.000000   MSSEASFO 1.000000
    N1008AC2 MSLAXSEA 1.000000   MSLAXSFO 1.000000
    N1008AC2 P1008X32 109.000000   P1008X42 71.000000
    N1008AC2 P1008X52 77.000000   P1008X34 170.000000
    N1008AC2 P1008X53 139.000000   P1008X54 168.000000
    N1008AC2 UPBROW35965 1.000000
    N1008AC3 ACOCOSTS 5.870680   OBJECTIV 5.870680
    N1008AC3 SYSTDEPT 3.000000   ACMILES  1.144220
    N1008AC3 ASMILES  210.537310   LFRPMASM 147.376117
    N1008AC3 FLAV*3   3.537010   LF1008S1 110.000000
    N1008AC3 LF1008S2 110.000000   LF1008S3 110.000000
    N1008AC3 MSSEAYVR 1.000000   MSSFOYVR 1.000000
    N1008AC3 MSLAXYVR 1.000000   MSSEASFO 1.000000
    N1008AC3 MSLAXSEA 1.000000   MSLAXSFO 1.000000
    N1008AC3 P1008X32 109.000000   P1008X42 71.000000
    N1008AC3 P1008X52 77.000000   P1008X34 170.000000
    N1008AC3 P1008X53 139.000000   P1008X54 168.000000
    N1008AC3 UPBROW35966 1.000000
    N1008AC4 ACOCOSTS 3.991470   OBJECTIV 3.991470
    N1008AC4 SYSTDEPT 3.000000   ACMILES  1.144220
    N1008AC4 ASMILES  109.845550   LFRPMASM 76.891885
    N1008AC4 FLAV*4   3.408410   LF1008S1 57.000000
    N1008AC4 LF1008S2 57.000000   LF1008S3 57.000000
    N1008AC4 MSSEAYVR 1.000000   MSSFOYVR 1.000000
    N1008AC4 MSLAXYVR 1.000000   MSSEASFO 1.000000
    N1008AC4 MSLAXSEA 1.000000   MSLAXSFO 1.000000
    N1008AC4 P1008X32 109.000000   P1008X42 71.000000
    N1008AC4 P1008X52 77.000000   P1008X34 170.000000
    N1008AC4 P1008X53 139.000000   P1008X54 168.000000
    N1008AC4 UPBROW35967 1.000000
    N1008AC5 ACOCOSTS 4.411330   OBJECTIV 4.411330
    N1008AC5 SYSTDEPT 3.000000   ACMILES  1.144220
    N1008AC5 ASMILES  141.883800   LFRPMASM 99.318660
    N1008AC5 FLAV*5   3.423340   LF1008S1 74.000000
    N1008AC5 LF1008S2 74.000000   LF1008S3 74.000000
    N1008AC5 MSSEAYVR 1.000000   MSSFOYVR 1.000000
    N1008AC5 MSLAXYVR 1.000000   MSSEASFO 1.000000
    N1008AC5 MSLAXSEA 1.000000   MSLAXSFO 1.000000
    N1008AC5 P1008X32 109.000000   P1008X42 71.000000
    N1008AC5 P1008X52 77.000000   P1008X34 170.000000
    N1008AC5 P1008X53 139.000000   P1008X54 168.000000
    N1008AC5 UPBROW35968 1.000000
    N1008AC6 ACOCOSTS 3.437370   OBJECTIV 3.437370
    N1008AC6 SYSTDEPT 3.000000   ACMILES  1.144220
    N1008AC6 ASMILES  108.701310   LFRPMASM 76.090917
    N1008AC6 FLAV*6   3.595150   LF1008S1 56.000000
    N1008AC6 LF1008S2 56.000000   LF1008S3 56.000000
    N1008AC6 MSSEAYVR 1.000000   MSSFOYVR 1.000000
    N1008AC6 MSLAXYVR 1.000000   MSSEASFO 1.000000
    N1008AC6 MSLAXSEA 1.000000   MSLAXSFO 1.000000
    N1008AC6 P1008X32 109.000000   P1008X42 71.000000
    N1008AC6 P1008X52 77.000000   P1008X34 170.000000
    N1008AC6 P1008X53 139.000000   P1008X54 168.000000
    N1008AC6 UPBROW35969 1.000000
    N1009AC1 ACOCOSTS 9.385350   OBJECTIV 9.385350
    N1009AC1 SYSTDEPT 2.000000   ACMILES  1.081960
    N1009AC1 ASMILES  439.276120   LFRPMASM 307.493284
    N1009AC1 FLAV*1   3.272410   LF1009S1 243.000000
    N1009AC1 LF1009S2 243.000000   MSSEAYVR 1.000000
    N1009AC1 MSLAXYVR 1.000000   MSLAXSEA 1.000000
    N1009AC1 P1009X32 109.000000   P1009X42 77.000000
    N1009AC1 P1009X43 139.000000   UPBROW35970 1.000000
    N1009AC2 ACOCOSTS 6.658930   OBJECTIV 6.658930
    N1009AC2 SYSTDEPT 2.000000   ACMILES  1.081960
    N1009AC2 ASMILES  279.145750   LFRPMASM 195.402025
    N1009AC2 FLAV*2   3.147530   LF1009S1 154.000000
    N1009AC2 LF1009S2 154.000000   MSSEAYVR 1.000000
    N1009AC2 MSLAXYVR 1.000000   MSLAXSEA 1.000000
    N1009AC2 P1009X32 109.000000   P1009X42 77.000000
    N1009AC2 P1009X43 139.000000   UPBROW35971 1.000000
    N1009AC3 ACOCOSTS 4.705260   OBJECTIV 4.705260
    N1009AC3 SYSTDEPT 2.000000   ACMILES  1.081960
    N1009AC3 ASMILES  199.080810   LFRPMASM 139.356567
    N1009AC3 FLAV*3   2.993100   LF1009S1 110.000000
    N1009AC3 LF1009S2 110.000000   MSSEAYVR 1.000000
    N1009AC3 MSLAXYVR 1.000000   MSLAXSEA 1.000000
    N1009AC3 P1009X32 109.000000   P1009X42 77.000000
    N1009AC3 P1009X43 139.000000   UPBROW35972 1.000000
    N1009AC4 ACOCOSTS 3.270550   OBJECTIV 3.270550
    N1009AC4 SYSTDEPT 2.000000   ACMILES  1.081960
    N1009AC4 ASMILES  103.868240   LFRPMASM 72.707768
    N1009AC4 FLAV*4   2.901630   LF1009S1 57.000000
    N1009AC4 LF1009S2 57.000000   MSSEAYVR 1.000000
    N1009AC4 MSLAXYVR 1.000000   MSLAXSEA 1.000000
    N1009AC4 P1009X32 109.000000   P1009X42 77.000000
    N1009AC4 P1009X43 139.000000   UPBROW35973 1.000000
    N1009AC5 ACOCOSTS 3.585560   OBJECTIV 3.585560
    N1009AC5 SYSTDEPT 2.000000   ACMILES  1.081960
    N1009AC5 ASMILES  134.163120   LFRPMASM 93.914184
    N1009AC5 FLAV*5   2.929130   LF1009S1 74.000000
    N1009AC5 LF1009S2 74.000000   MSSEAYVR 1.000000
    N1009AC5 MSLAXYVR 1.000000   MSLAXSEA 1.000000
    N1009AC5 P1009X32 109.000000   P1009X42 77.000000
    N1009AC5 P1009X43 139.000000   UPBROW35974 1.000000
    N1010AC1 ACOCOSTS 2.884300   OBJECTIV 2.884300
    N1010AC1 SYSTDEPT 1.000000   ACMILES  0.126220
    N1010AC1 ASMILES  51.243590   LFRPMASM 35.870513
    N1010AC1 FLAV*1   0.880090   LF1010S1 243.000000
    N1010AC1 MSSEAYVR 1.000000   P1010X32 109.000000
    N1010AC1 UPBROW35975 1.000000
    N1010AC2 ACOCOSTS 1.948300   OBJECTIV 1.948300
    N1010AC2 SYSTDEPT 1.000000   ACMILES  0.126220
    N1010AC2 ASMILES  32.563660   LFRPMASM 22.794562
    N1010AC2 FLAV*2   0.801890   LF1010S1 154.000000
    N1010AC2 MSSEAYVR 1.000000   P1010X32 109.000000
    N1010AC2 UPBROW35976 1.000000
    N1010AC3 ACOCOSTS 1.324010   OBJECTIV 1.324010
    N1010AC3 SYSTDEPT 1.000000   ACMILES  0.126220
    N1010AC3 ASMILES  23.223690   LFRPMASM 16.256583
    N1010AC3 FLAV*3   0.671170   LF1010S1 110.000000
    N1010AC3 MSSEAYVR 1.000000   P1010X32 109.000000
    N1010AC3 UPBROW35977 1.000000
    N1010AC4 ACOCOSTS 0.843070   OBJECTIV 0.843070
    N1010AC4 SYSTDEPT 1.000000   ACMILES  0.126220
    N1010AC4 ASMILES  12.116710   LFRPMASM 8.481697
    N1010AC4 FLAV*4   0.632900   LF1010S1 57.000000
    N1010AC4 MSSEAYVR 1.000000   P1010X32 109.000000
    N1010AC4 UPBROW35978 1.000000
    N1010AC5 ACOCOSTS 0.954960   OBJECTIV 0.954960
    N1010AC5 SYSTDEPT 1.000000   ACMILES  0.126220
    N1010AC5 ASMILES  15.650750   LFRPMASM 10.955525
    N1010AC5 FLAV*5   0.623840   LF1010S1 74.000000
    N1010AC5 MSSEAYVR 1.000000   P1010X32 109.000000
    N1010AC5 UPBROW35979 1.000000
    N1010AC6 ACOCOSTS 0.676240   OBJECTIV 0.676240
    N1010AC6 SYSTDEPT 1.000000   ACMILES  0.126220
    N1010AC6 ASMILES  11.990500   LFRPMASM 8.393350
    N1010AC6 FLAV*6   0.610670   LF1010S1 56.000000
    N1010AC6 MSSEAYVR 1.000000   P1010X32 109.000000
    N1010AC6 UPBROW35980 1.000000
    N1011AC1 ACOCOSTS 9.106510   OBJECTIV 9.106510
    N1011AC1 SYSTDEPT 2.000000   ACMILES  1.018010
    N1011AC1 ASMILES  413.311520   LFRPMASM 289.318064
    N1011AC1 FLAV*1   3.155830   LF1011S1 243.000000
    N1011AC1 LF1011S2 243.000000   MSSEASFO 1.000000
    N1011AC1 MSLAXSEA 1.000000   MSLAXSFO 1.000000
    N1011AC1 P1011X23 170.000000   P1011X42 139.000000
    N1011AC1 P1011X43 168.000000   UPBROW35981 1.000000
    N1011AC2 ACOCOSTS 6.445970   OBJECTIV 6.445970
    N1011AC2 SYSTDEPT 2.000000   ACMILES  1.018010
    N1011AC2 ASMILES  262.646240   LFRPMASM 183.852368
    N1011AC2 FLAV*2   3.028510   LF1011S1 154.000000
    N1011AC2 LF1011S2 154.000000   MSSEASFO 1.000000
    N1011AC2 MSLAXSEA 1.000000   MSLAXSFO 1.000000
    N1011AC2 P1011X23 170.000000   P1011X42 139.000000
    N1011AC2 P1011X43 168.000000   UPBROW35982 1.000000
    N1011AC3 ACOCOSTS 4.546660   OBJECTIV 4.546660
    N1011AC3 SYSTDEPT 2.000000   ACMILES  1.018010
    N1011AC3 ASMILES  187.313610   LFRPMASM 131.119527
    N1011AC3 FLAV*3   2.865840   LF1011S1 110.000000
    N1011AC3 LF1011S2 110.000000   MSSEASFO 1.000000
    N1011AC3 MSLAXSEA 1.000000   MSLAXSFO 1.000000
    N1011AC3 P1011X23 170.000000   P1011X42 139.000000
    N1011AC3 P1011X43 168.000000   UPBROW35983 1.000000
    N1011AC4 ACOCOSTS 3.148400   OBJECTIV 3.148400
    N1011AC4 SYSTDEPT 2.000000   ACMILES  1.018010
    N1011AC4 ASMILES  97.728810   LFRPMASM 68.410167
    N1011AC4 FLAV*4   2.775510   LF1011S1 57.000000
    N1011AC4 LF1011S2 57.000000   MSSEASFO 1.000000
    N1011AC4 MSLAXSEA 1.000000   MSLAXSFO 1.000000
    N1011AC4 P1011X23 170.000000   P1011X42 139.000000
    N1011AC4 P1011X43 168.000000   UPBROW35984 1.000000
    N1011AC5 ACOCOSTS 3.456380   OBJECTIV 3.456380
    N1011AC5 SYSTDEPT 2.000000   ACMILES  1.018010
    N1011AC5 ASMILES  126.233050   LFRPMASM 88.363135
    N1011AC5 FLAV*5   2.799500   LF1011S1 74.000000
    N1011AC5 LF1011S2 74.000000   MSSEASFO 1.000000
    N1011AC5 MSLAXSEA 1.000000   MSLAXSFO 1.000000
    N1011AC5 P1011X23 170.000000   P1011X42 139.000000
    N1011AC5 P1011X43 168.000000   UPBROW35985 1.000000
    N1011AC6 ACOCOSTS 2.761140   OBJECTIV 2.761140
    N1011AC6 SYSTDEPT 2.000000   ACMILES  1.018010
    N1011AC6 ASMILES  96.710800   LFRPMASM 67.697560
    N1011AC6 FLAV*6   2.984470   LF1011S1 56.000000
    N1011AC6 LF1011S2 56.000000   MSSEASFO 1.000000
    N1011AC6 MSLAXSEA 1.000000   MSLAXSFO 1.000000
    N1011AC6 P1011X23 170.000000   P1011X42 139.000000
    N1011AC6 P1011X43 168.000000   UPBROW35986 1.000000
    N1012AC1 ACOCOSTS 6.501050   OBJECTIV 6.501050
    N1012AC1 SYSTDEPT 1.000000   ACMILES  0.955750
    N1012AC1 ASMILES  388.032470   LFRPMASM 271.622729
    N1012AC1 FLAV*1   2.392320   LF1012S1 243.000000
    N1012AC1 MSLAXSEA 1.000000   P1012X32 139.000000
    N1012AC1 UPBROW35987 1.000000
    N1012AC2 ACOCOSTS 4.710630   OBJECTIV 4.710630
    N1012AC2 SYSTDEPT 1.000000   ACMILES  0.955750
    N1012AC2 ASMILES  246.582240   LFRPMASM 172.607568
    N1012AC2 FLAV*2   2.345640   LF1012S1 154.000000
    N1012AC2 MSLAXSEA 1.000000   P1012X32 139.000000
    N1012AC2 UPBROW35988 1.000000
    N1012AC3 ACOCOSTS 3.381250   OBJECTIV 3.381250
    N1012AC3 SYSTDEPT 1.000000   ACMILES  0.955750
    N1012AC3 ASMILES  175.857120   LFRPMASM 123.099984
    N1012AC3 FLAV*3   2.321930   LF1012S1 110.000000
    N1012AC3 MSLAXSEA 1.000000   P1012X32 139.000000
    N1012AC3 UPBROW35989 1.000000
    N1012AC4 ACOCOSTS 2.427470   OBJECTIV 2.427470
    N1012AC4 SYSTDEPT 1.000000   ACMILES  0.955750
    N1012AC4 ASMILES  91.751500   LFRPMASM 64.226050
    N1012AC4 FLAV*4   2.268730   LF1012S1 57.000000
    N1012AC4 MSLAXSEA 1.000000   P1012X32 139.000000
    N1012AC4 UPBROW35990 1.000000
    N1012AC5 MSLAXSEA 1.000000   P1012X32 139.000000
    N1012AC5 ASMILES  118.512370   LFRPMASM 82.958659
    N1012AC5 FLAV*5   2.305290   SYSTDEPT 1.000000
    N1012AC5 ACMILES  0.955750   ACOCOSTS 2.630600
    N1012AC5 OBJECTIV 2.630600   LF1012S1 74.000000
    N1012AC5 UPBROW35991 1.000000
    N1013AC3 ACOCOSTS 4.584790   OBJECTIV 4.584790
    N1013AC3 SYSTDEPT 2.000000   ACMILES  1.033380
    N1013AC3 ASMILES  190.142750   LFRPMASM 133.099925
    N1013AC3 FLAV*3   2.896430   LF1013S1 128.000000
    N1013AC3 LF1013S2 128.000000   MSOAKSEA 1.000000
    N1013AC3 MSONTSEA 1.000000   MSOAKONT 1.000000
    N1013AC3 P1013X32 43.000000   P1013X42 25.000000
    N1013AC3 UPBROW35992 1.000000
    N1013AC4 ACOCOSTS 3.177760   OBJECTIV 3.177760
    N1013AC4 SYSTDEPT 2.000000   ACMILES  1.033380
    N1013AC4 ASMILES  99.204930   LFRPMASM 69.443451
    N1013AC4 FLAV*4   2.805830   LF1013S1 67.000000
    N1013AC4 LF1013S2 67.000000   MSOAKSEA 1.000000
    N1013AC4 MSONTSEA 1.000000   MSOAKONT 1.000000
    N1013AC4 P1013X32 43.000000   P1013X42 25.000000
    N1013AC4 UPBROW35993 1.000000
    N1013AC5 ACOCOSTS 3.487440   OBJECTIV 3.487440
    N1013AC5 SYSTDEPT 2.000000   ACMILES  1.033380
    N1013AC5 ASMILES  128.139680   LFRPMASM 89.697776
    N1013AC5 FLAV*5   2.830670   LF1013S1 86.000000
    N1013AC5 LF1013S2 86.000000   MSOAKSEA 1.000000
    N1013AC5 MSONTSEA 1.000000   MSOAKONT 1.000000
    N1013AC5 P1013X32 43.000000   P1013X42 25.000000
    N1013AC5 UPBROW35994 1.000000
    N1013AC6 ACOCOSTS 2.789430   OBJECTIV 2.789430
    N1013AC6 SYSTDEPT 2.000000   ACMILES  1.033380
    N1013AC6 ASMILES  98.171490   LFRPMASM 68.720043
    N1013AC6 FLAV*6   3.019880   LF1013S1 66.000000
    N1013AC6 LF1013S2 66.000000   MSOAKSEA 1.000000
    N1013AC6 MSONTSEA 1.000000   MSOAKONT 1.000000
    N1013AC6 P1013X32 43.000000   P1013X42 25.000000
    N1013AC6 UPBROW35995 1.000000
    N1014AC3 ACOCOSTS 4.495800   OBJECTIV 4.495800
    N1014AC3 SYSTDEPT 2.000000   ACMILES  0.997500
    N1014AC3 ASMILES  183.539990   LFRPMASM 128.477993
    N1014AC3 FLAV*3   2.825020   LF1014S1 128.000000
    N1014AC3 LF1014S2 128.000000   MSOAKSEA 1.000000
    N1014AC3 MSBURSEA 1.000000   MSBUROAK 1.000000
    N1014AC3 P1014X32 43.000000   UPBROW35996 1.000000
    N1014AC4 ACOCOSTS 3.109220   OBJECTIV 3.109220
    N1014AC4 SYSTDEPT 2.000000   ACMILES  0.997500
    N1014AC4 ASMILES  95.759990   LFRPMASM 67.031993
    N1014AC4 FLAV*4   2.735070   LF1014S1 67.000000
    N1014AC4 LF1014S2 67.000000   MSOAKSEA 1.000000
    N1014AC4 MSBURSEA 1.000000   MSBUROAK 1.000000
    N1014AC4 P1014X32 43.000000   UPBROW35997 1.000000
    N1014AC5 ACOCOSTS 3.414950   OBJECTIV 3.414950
    N1014AC5 SYSTDEPT 2.000000   ACMILES  0.997500
    N1014AC5 ASMILES  123.689990   LFRPMASM 86.582993
    N1014AC5 FLAV*5   2.757930   LF1014S1 86.000000
    N1014AC5 LF1014S2 86.000000   MSOAKSEA 1.000000
    N1014AC5 MSBURSEA 1.000000   MSBUROAK 1.000000
    N1014AC5 P1014X32 43.000000   UPBROW35998 1.000000
    N1014AC6 ACOCOSTS 2.723400   OBJECTIV 2.723400
    N1014AC6 SYSTDEPT 2.000000   ACMILES  0.997500
    N1014AC6 ASMILES  94.762500   LFRPMASM 66.333750
    N1014AC6 FLAV*6   2.937240   LF1014S1 66.000000
    N1014AC6 LF1014S2 66.000000   MSOAKSEA 1.000000
    N1014AC6 MSBURSEA 1.000000   MSBUROAK 1.000000
    N1014AC6 P1014X32 43.000000   UPBROW35999 1.000000
    N1015AC3 ACOCOSTS 4.608060   OBJECTIV 4.608060
    N1015AC3 SYSTDEPT 2.000000   ACMILES  1.042770
    N1015AC3 ASMILES  191.869190   LFRPMASM 134.308433
    N1015AC3 FLAV*3   2.915110   LF1015S1 110.000000
    N1015AC3 LF1015S2 128.000000   MSSEASFO 1.000000
    N1015AC3 MSONTSEA 1.000000   MSONTSFO 1.000000
    N1015AC3 P1015X23 170.000000   P1015X42 25.000000
    N1015AC3 P1015X43 69.000000   UPBROW36000 1.000000
    N1015AC4 ACOCOSTS 3.195680   OBJECTIV 3.195680
    N1015AC4 SYSTDEPT 2.000000   ACMILES  1.042770
    N1015AC4 ASMILES  100.105620   LFRPMASM 70.073934
    N1015AC4 FLAV*4   2.824340   LF1015S1 57.000000
    N1015AC4 LF1015S2 67.000000   MSSEASFO 1.000000
    N1015AC4 MSONTSEA 1.000000   MSONTSFO 1.000000
    N1015AC4 P1015X23 170.000000   P1015X42 25.000000
    N1015AC4 P1015X43 69.000000   UPBROW36001 1.000000
    N1015AC5 ACOCOSTS 3.506390   OBJECTIV 3.506390
    N1015AC5 SYSTDEPT 2.000000   ACMILES  1.042770
    N1015AC5 ASMILES  129.303120   LFRPMASM 90.512184
    N1015AC5 FLAV*5   2.849690   LF1015S1 74.000000
    N1015AC5 LF1015S2 86.000000   MSSEASFO 1.000000
    N1015AC5 MSONTSEA 1.000000   MSONTSFO 1.000000
    N1015AC5 P1015X23 170.000000   P1015X42 25.000000
    N1015AC5 P1015X43 69.000000   UPBROW36002 1.000000
    N1015AC6 ACOCOSTS 2.806690   OBJECTIV 2.806690
    N1015AC6 SYSTDEPT 2.000000   ACMILES  1.042770
    N1015AC6 ASMILES  99.062870   LFRPMASM 69.344009
    N1015AC6 FLAV*6   3.041490   LF1015S1 56.000000
    N1015AC6 LF1015S2 66.000000   MSSEASFO 1.000000
    N1015AC6 MSONTSEA 1.000000   MSONTSFO 1.000000
    N1015AC6 P1015X23 170.000000   P1015X42 25.000000
    N1015AC6 P1015X43 69.000000   UPBROW36003 1.000000
    N1016AC3 ACOCOSTS 4.517010   OBJECTIV 4.517010
    N1016AC3 SYSTDEPT 2.000000   ACMILES  1.006050
    N1016AC3 ASMILES  185.114060   LFRPMASM 129.579842
    N1016AC3 FLAV*3   2.842050   LF1016S1 110.000000
    N1016AC3 LF1016S2 128.000000   MSSEASFO 1.000000
    N1016AC3 MSBURSEA 1.000000   MSBURSFO 1.000000
    N1016AC3 P1016X23 170.000000   P1016X43 81.000000
    N1016AC3 UPBROW36004 1.000000
    N1016AC4 ACOCOSTS 3.125560   OBJECTIV 3.125560
    N1016AC4 SYSTDEPT 2.000000   ACMILES  1.006050
    N1016AC4 ASMILES  96.581240   LFRPMASM 67.606868
    N1016AC4 FLAV*4   2.751940   LF1016S1 57.000000
    N1016AC4 LF1016S2 67.000000   MSSEASFO 1.000000
    N1016AC4 MSBURSEA 1.000000   MSBURSFO 1.000000
    N1016AC4 P1016X23 170.000000   P1016X43 81.000000
    N1016AC4 UPBROW36005 1.000000
    N1016AC5 ACOCOSTS 3.432230   OBJECTIV 3.432230
    N1016AC5 SYSTDEPT 2.000000   ACMILES  1.006050
    N1016AC5 ASMILES  124.750750   LFRPMASM 87.325525
    N1016AC5 FLAV*5   2.775270   LF1016S1 74.000000
    N1016AC5 LF1016S2 86.000000   MSSEASFO 1.000000
    N1016AC5 MSBURSEA 1.000000   MSBURSFO 1.000000
    N1016AC5 P1016X23 170.000000   P1016X43 81.000000
    N1016AC5 UPBROW36006 1.000000
    N1016AC6 ACOCOSTS 2.739140   OBJECTIV 2.739140
    N1016AC6 SYSTDEPT 2.000000   ACMILES  1.006050
    N1016AC6 ASMILES  95.575180   LFRPMASM 66.902626
    N1016AC6 FLAV*6   2.956940   LF1016S1 56.000000
    N1016AC6 LF1016S2 66.000000   MSSEASFO 1.000000
    N1016AC6 MSBURSEA 1.000000   MSBURSFO 1.000000
    N1016AC6 P1016X23 170.000000   P1016X43 81.000000
    N1016AC6 UPBROW36007 1.000000
    N1017AC3 ACOCOSTS 4.526720   OBJECTIV 4.526720
    N1017AC3 SYSTDEPT 2.000000   ACMILES  1.009970
    N1017AC3 ASMILES  185.834300   LFRPMASM 130.084010
    N1017AC3 FLAV*3   2.849840   LF1017S1 128.000000
    N1017AC3 LF1017S2 128.000000   MSOAKSEA 1.000000
    N1017AC3 MSLAXSEA 1.000000   MSLAXOAK 1.000000
    N1017AC3 P1017X32 43.000000   P1017X42 139.000000
    N1017AC3 P1017X43 46.000000   UPBROW36008 1.000000
    N1017AC4 ACOCOSTS 3.133040   OBJECTIV 3.133040
    N1017AC4 SYSTDEPT 2.000000   ACMILES  1.009970
    N1017AC4 ASMILES  96.956990   LFRPMASM 67.869893
    N1017AC4 FLAV*4   2.759660   LF1017S1 67.000000
    N1017AC4 LF1017S2 67.000000   MSOAKSEA 1.000000
    N1017AC4 MSLAXSEA 1.000000   MSLAXOAK 1.000000
    N1017AC4 P1017X32 43.000000   P1017X42 139.000000
    N1017AC4 P1017X43 46.000000   UPBROW36009 1.000000
    N1017AC5 ACOCOSTS 3.440140   OBJECTIV 3.440140
    N1017AC5 SYSTDEPT 2.000000   ACMILES  1.009970
    N1017AC5 ASMILES  125.236110   LFRPMASM 87.665277
    N1017AC5 FLAV*5   2.783210   LF1017S1 86.000000
    N1017AC5 LF1017S2 86.000000   MSOAKSEA 1.000000
    N1017AC5 MSLAXSEA 1.000000   MSLAXOAK 1.000000
    N1017AC5 P1017X32 43.000000   P1017X42 139.000000
    N1017AC5 P1017X43 46.000000   UPBROW36010 1.000000
    N1017AC6 ACOCOSTS 2.746340   OBJECTIV 2.746340
    N1017AC6 SYSTDEPT 2.000000   ACMILES  1.009970
    N1017AC6 ASMILES  95.947050   LFRPMASM 67.162935
    N1017AC6 FLAV*6   2.965960   LF1017S1 66.000000
    N1017AC6 LF1017S2 66.000000   MSOAKSEA 1.000000
    N1017AC6 MSLAXSEA 1.000000   MSLAXOAK 1.000000
    N1017AC6 P1017X32 43.000000   P1017X42 139.000000
    N1017AC6 P1017X43 46.000000   UPBROW36011 1.000000
    N1018AC1 ACOCOSTS 7.676230   OBJECTIV 7.676230
    N1018AC1 SYSTDEPT 2.000000   ACMILES  0.689960
    N1018AC1 ASMILES  280.123780   LFRPMASM 196.086646
    N1018AC1 FLAV*1   2.557800   LF1018S1 243.000000
    N1018AC1 LF1018S2 243.000000   MSSEAYVR 1.000000
    N1018AC1 MSRNOYVR 1.000000   MSRNOSEA 1.000000
    N1018AC1 P1018X32 109.000000   P1018X43 85.000000
    N1018AC1 UPBROW36012 1.000000
    N1018AC2 ACOCOSTS 5.353570   OBJECTIV 5.353570
    N1018AC2 SYSTDEPT 2.000000   ACMILES  0.689960
    N1018AC2 ASMILES  178.009740   LFRPMASM 124.606818
    N1018AC2 FLAV*2   2.418020   LF1018S1 154.000000
    N1018AC2 LF1018S2 154.000000   MSSEAYVR 1.000000
    N1018AC2 MSRNOYVR 1.000000   MSRNOSEA 1.000000
    N1018AC2 P1018X32 109.000000   P1018X43 85.000000
    N1018AC2 UPBROW36013 1.000000
    N1018AC3 ACOCOSTS 3.733100   OBJECTIV 3.733100
    N1018AC3 SYSTDEPT 2.000000   ACMILES  0.689960
    N1018AC3 ASMILES  126.952680   LFRPMASM 88.866876
    N1018AC3 FLAV*3   2.213020   LF1018S1 110.000000
    N1018AC3 LF1018S2 110.000000   MSSEAYVR 1.000000
    N1018AC3 MSRNOYVR 1.000000   MSRNOSEA 1.000000
    N1018AC3 P1018X32 109.000000   P1018X43 85.000000
    N1018AC3 UPBROW36014 1.000000
    N1018AC4 ACOCOSTS 2.521820   OBJECTIV 2.521820
    N1018AC4 SYSTDEPT 2.000000   ACMILES  0.689960
    N1018AC4 ASMILES  66.236180   LFRPMASM 46.365326
    N1018AC4 FLAV*4   2.128600   LF1018S1 57.000000
    N1018AC4 LF1018S2 57.000000   MSSEAYVR 1.000000
    N1018AC4 MSRNOYVR 1.000000   MSRNOSEA 1.000000
    N1018AC4 P1018X32 109.000000   P1018X43 85.000000
    N1018AC4 UPBROW36015 1.000000
    N1018AC5 ACOCOSTS 2.793720   OBJECTIV 2.793720
    N1018AC5 SYSTDEPT 2.000000   ACMILES  0.689960
    N1018AC5 ASMILES  85.555050   LFRPMASM 59.888535
    N1018AC5 FLAV*5   2.134550   LF1018S1 74.000000
    N1018AC5 LF1018S2 74.000000   MSSEAYVR 1.000000
    N1018AC5 MSRNOYVR 1.000000   MSRNOSEA 1.000000
    N1018AC5 P1018X32 109.000000   P1018X43 85.000000
    N1018AC5 UPBROW36016 1.000000
    N1018AC6 ACOCOSTS 2.157530   OBJECTIV 2.157530
    N1018AC6 SYSTDEPT 2.000000   ACMILES  0.689960
    N1018AC6 ASMILES  65.546170   LFRPMASM 45.882319
    N1018AC6 FLAV*6   2.228980   LF1018S1 56.000000
    N1018AC6 LF1018S2 56.000000   MSSEAYVR 1.000000
    N1018AC6 MSRNOYVR 1.000000   MSRNOSEA 1.000000
    N1018AC6 P1018X32 109.000000   P1018X43 85.000000
    N1018AC6 UPBROW36017 1.000000
    N1019AC1 ACOCOSTS 9.001530   OBJECTIV 9.001530
    N1019AC1 SYSTDEPT 2.000000   ACMILES  0.993930
    N1019AC1 ASMILES  403.535160   LFRPMASM 282.474612
    N1019AC1 FLAV*1   3.111930   LF1019S1 243.000000
    N1019AC1 LF1019S2 243.000000   MSSEAYVR 1.000000
    N1019AC1 MSLASYVR 1.000000   MSLASSEA 1.000000
    N1019AC1 P1019X32 109.000000   P1019X43 110.000000
    N1019AC1 UPBROW36018 1.000000
    N1019AC2 ACOCOSTS 6.365780   OBJECTIV 6.365780
    N1019AC2 SYSTDEPT 2.000000   ACMILES  0.993930
    N1019AC2 ASMILES  256.433590   LFRPMASM 179.503513
    N1019AC2 FLAV*2   2.983700   LF1019S1 154.000000
    N1019AC2 LF1019S2 154.000000   MSSEAYVR 1.000000
    N1019AC2 MSLASYVR 1.000000   MSLASSEA 1.000000
    N1019AC2 P1019X32 109.000000   P1019X43 110.000000
    N1019AC2 UPBROW36019 1.000000
    N1019AC3 ACOCOSTS 4.486940   OBJECTIV 4.486940
    N1019AC3 SYSTDEPT 2.000000   ACMILES  0.993930
    N1019AC3 ASMILES  182.882930   LFRPMASM 128.018051
    N1019AC3 FLAV*3   2.817920   LF1019S1 110.000000
    N1019AC3 LF1019S2 110.000000   MSSEAYVR 1.000000
    N1019AC3 MSLASYVR 1.000000   MSLASSEA 1.000000
    N1019AC3 P1019X32 109.000000   P1019X43 110.000000
    N1019AC3 UPBROW36020 1.000000
    N1019AC4 ACOCOSTS 3.102400   OBJECTIV 3.102400
    N1019AC4 SYSTDEPT 2.000000   ACMILES  0.993930
    N1019AC4 ASMILES  95.417180   LFRPMASM 66.792026
    N1019AC4 FLAV*4   2.728030   LF1019S1 57.000000
    N1019AC4 LF1019S2 57.000000   MSSEAYVR 1.000000
    N1019AC4 MSLASYVR 1.000000   MSLASSEA 1.000000
    N1019AC4 P1019X32 109.000000   P1019X43 110.000000
    N1019AC4 UPBROW36021 1.000000
    N1019AC5 ACOCOSTS 3.407740   OBJECTIV 3.407740
    N1019AC5 SYSTDEPT 2.000000   ACMILES  0.993930
    N1019AC5 ASMILES  123.247180   LFRPMASM 86.273026
    N1019AC5 FLAV*5   2.750690   LF1019S1 74.000000
    N1019AC5 LF1019S2 74.000000   MSSEAYVR 1.000000
    N1019AC5 MSLASYVR 1.000000   MSLASSEA 1.000000
    N1019AC5 P1019X32 109.000000   P1019X43 110.000000
    N1019AC5 UPBROW36022 1.000000
    N1020AC1 ACOCOSTS 4.791930   OBJECTIV 4.791930
    N1020AC1 SYSTDEPT 1.000000   ACMILES  0.563740
    N1020AC1 ASMILES  228.880370   LFRPMASM 160.216259
    N1020AC1 FLAV*1   1.677710   LF1020S1 243.000000
    N1020AC1 MSRNOSEA 1.000000   P1020X32 85.000000
    N1020AC1 UPBROW36023 1.000000
    N1020AC2 ACOCOSTS 3.405270   OBJECTIV 3.405270
    N1020AC2 SYSTDEPT 1.000000   ACMILES  0.563740
    N1020AC2 ASMILES  145.446120   LFRPMASM 101.812284
    N1020AC2 FLAV*2   1.616130   LF1020S1 154.000000
    N1020AC2 MSRNOSEA 1.000000   P1020X32 85.000000
    N1020AC2 UPBROW36024 1.000000
    N1020AC3 ACOCOSTS 2.409090   OBJECTIV 2.409090
    N1020AC3 SYSTDEPT 1.000000   ACMILES  0.563740
    N1020AC3 ASMILES  103.728990   LFRPMASM 72.610293
    N1020AC3 FLAV*3   1.541850   LF1020S1 110.000000
    N1020AC3 MSRNOSEA 1.000000   P1020X32 85.000000
    N1020AC3 UPBROW36025 1.000000
    N1020AC4 ACOCOSTS 1.678750   OBJECTIV 1.678750
    N1020AC4 SYSTDEPT 1.000000   ACMILES  0.563740
    N1020AC4 ASMILES  54.119510   LFRPMASM 37.883657
    N1020AC4 FLAV*4   1.495700   LF1020S1 57.000000
    N1020AC4 MSRNOSEA 1.000000   P1020X32 85.000000
    N1020AC4 UPBROW36026 1.000000
    N1020AC5 ACOCOSTS 1.838760   OBJECTIV 1.838760
    N1020AC5 SYSTDEPT 1.000000   ACMILES  0.563740
    N1020AC5 ASMILES  69.904310   LFRPMASM 48.933017
    N1020AC5 FLAV*5   1.510710   LF1020S1 74.000000
    N1020AC5 MSRNOSEA 1.000000   P1020X32 85.000000
    N1020AC5 UPBROW36027 1.000000
    N1020AC6 ACOCOSTS 1.481290   OBJECTIV 1.481290
    N1020AC6 SYSTDEPT 1.000000   ACMILES  0.563740
    N1020AC6 ASMILES  53.555760   LFRPMASM 37.489032
    N1020AC6 FLAV*6   1.618300   LF1020S1 56.000000
    N1020AC6 MSRNOSEA 1.000000   P1020X32 85.000000
    N1020AC6 UPBROW36028 1.000000
    N1021AC1 ACOCOSTS 6.117230   OBJECTIV 6.117230
    N1021AC1 SYSTDEPT 1.000000   ACMILES  0.867710
    N1021AC1 ASMILES  352.291500   LFRPMASM 246.604050
    N1021AC1 FLAV*1   2.231840   LF1021S1 243.000000
    N1021AC1 MSLASSEA 1.000000   P1021X32 110.000000
    N1021AC1 UPBROW36029 1.000000
    N1021AC2 ACOCOSTS 4.417480   OBJECTIV 4.417480
    N1021AC2 SYSTDEPT 1.000000   ACMILES  0.867710
    N1021AC2 ASMILES  223.870060   LFRPMASM 156.709042
    N1021AC2 FLAV*2   2.181810   LF1021S1 154.000000
    N1021AC2 MSLASSEA 1.000000   P1021X32 110.000000
    N1021AC2 UPBROW36030 1.000000
    N1021AC3 ACOCOSTS 3.162930   OBJECTIV 3.162930
    N1021AC3 SYSTDEPT 1.000000   ACMILES  0.867710
    N1021AC3 ASMILES  159.659240   LFRPMASM 111.761468
    N1021AC3 FLAV*3   2.146750   LF1021S1 110.000000
    N1021AC3 MSLASSEA 1.000000   P1021X32 110.000000
    N1021AC3 UPBROW36031 1.000000
    N1021AC4 ACOCOSTS 2.259330   OBJECTIV 2.259330
    N1021AC4 SYSTDEPT 1.000000   ACMILES  0.867710
    N1021AC4 ASMILES  83.300490   LFRPMASM 58.310343
    N1021AC4 FLAV*4   2.095130   LF1021S1 57.000000
    N1021AC4 MSLASSEA 1.000000   P1021X32 110.000000
    N1021AC4 UPBROW36032 1.000000
    N1021AC5 ACOCOSTS 2.452780   OBJECTIV 2.452780
    N1021AC5 SYSTDEPT 1.000000   ACMILES  0.867710
    N1021AC5 ASMILES  107.596440   LFRPMASM 75.317508
    N1021AC5 FLAV*5   2.126850   LF1021S1 74.000000
    N1021AC5 MSLASSEA 1.000000   P1021X32 110.000000
    N1021AC5 UPBROW36033 1.000000
    N1022AC1 ACOCOSTS 40.320390   OBJECTIV 40.320390
    N1022AC1 SYSTDEPT 3.000000   ACMILES  7.641840
    N1022AC1 ASMILES  3102.584960   LFRPMASM 2171.809472
    N1022AC1 FLAV*1   15.881070   LF1022S1 284.000000
    N1022AC1 LF1022S2 284.000000   LF1022S3 284.000000
    N1022AC1 NOPTLON1 2.000000   NOPTLON0 2.000000
    N1022AC1 MSHNLYVR 1.000000   MSLONYVR 1.000000
    N1022AC1 MSLONPAR 1.000000   P1022X23 40.000000
    N1022AC1 UPBROW36034 1.000000
    N1023AC1 ACOCOSTS 29.408200   OBJECTIV 29.408200
    N1023AC1 SYSTDEPT 3.000000   ACMILES  5.139040
    N1023AC1 ASMILES  2086.448970   LFRPMASM 1460.514279
    N1023AC1 FLAV*1   11.318470   LF1023S1 243.000000
    N1023AC1 LF1023S2 243.000000   LF1023S3 284.000000
    N1023AC1 NOPTLON1 2.000000   NOPTLON0 2.000000
    N1023AC1 MSSEAYVR 1.000000   MSLONYVR 1.000000
    N1023AC1 MSLONSEA 1.000000   MSPARSEA 1.000000
    N1023AC1 MSLONPAR 1.000000   P1023X32 109.000000
    N1023AC1 UPBROW36035 1.000000
    N1026AC1 ACOCOSTS 33.024930   OBJECTIV 33.024930
    N1026AC1 SYSTDEPT 3.000000   ACMILES  5.968570
    N1026AC1 ASMILES  2423.236820   LFRPMASM 1696.265774
    N1026AC1 FLAV*1   12.830700   LF1026S1 243.000000
    N1026AC1 LF1026S2 243.000000   LF1026S3 284.000000
    N1026AC1 NOPTLON1 2.000000   NOPTLON0 2.000000
    N1026AC1 MSLAXSEA 1.000000   MSLAXLON 1.000000
    N1026AC1 MSLONSEA 1.000000   MSPARSEA 1.000000
    N1026AC1 MSLONPAR 1.000000   P1026X23 139.000000
    N1026AC1 UPBROW36036 1.000000
    N1027AC1 ACOCOSTS 37.745990   OBJECTIV 37.745990
    N1027AC1 SYSTDEPT 3.000000   ACMILES  7.051370
    N1027AC1 ASMILES  2862.857910   LFRPMASM 2004.000537
    N1027AC1 FLAV*1   14.804660   LF1027S1 243.000000
    N1027AC1 LF1027S2 263.000000   LF1027S3 284.000000
    N1027AC1 NOPTTYO1 2.000000   NOPTTYO0 2.000000
    N1027AC1 MSLAXSEA 1.000000   MSLAXTPE 1.000000
    N1027AC1 MSSEATYO 1.000000   MSSEATPE 1.000000
    N1027AC1 MSTPETYO 1.000000   P1027X23 139.000000
    N1027AC1 P1027X25 18.000000   UPBROW36037 1.000000
    N1028AC1 ACOCOSTS 36.541500   OBJECTIV 36.541500
    N1028AC1 SYSTDEPT 3.000000   ACMILES  6.775120
    N1028AC1 ASMILES  2750.696780   LFRPMASM 1925.487746
    N1028AC1 FLAV*1   14.301040   LF1028S1 243.000000
    N1028AC1 LF1028S2 263.000000   LF1028S3 284.000000
    N1028AC1 NOPTTYO1 2.000000   NOPTTYO0 2.000000
    N1028AC1 MSSEASFO 1.000000   MSSEATYO 1.000000
    N1028AC1 MSSEATPE 1.000000   MSTPETYO 1.000000
    N1028AC1 P1028X32 170.000000   UPBROW36038 1.000000
    N1029AC1 ACOCOSTS 42.824230   OBJECTIV 42.824230
    N1029AC1 SYSTDEPT 5.000000   ACMILES  7.145470
    N1029AC1 ASMILES  2901.059810   LFRPMASM 2030.741867
    N1029AC1 FLAV*1   16.276180   LF1029S1 243.000000
    N1029AC1 LF1029S2 243.000000   LF1029S3 243.000000
    N1029AC1 LF1029S4 304.000000   LF1029S5 284.000000
    N1029AC1 NOPTTYO1 2.000000   NOPTTYO0 2.000000
    N1029AC1 MSLAXSFO 1.000000   MSLAXSEA 1.000000
    N1029AC1 MSLAXYVR 1.000000   MSLAXTPE 1.000000
    N1029AC1 MSSEASFO 1.000000   MSSFOYVR 1.000000
    N1029AC1 MSSEAYVR 1.000000   MSSEATYO 1.000000
    N1029AC1 MSSEATPE 1.000000   MSTPETYO 1.000000
    N1029AC1 P1029X23 168.000000   P1029X24 139.000000
    N1029AC1 P1029X25 77.000000   P1029X27 18.000000
    N1029AC1 P1029X43 170.000000   P1029X35 71.000000
    N1029AC1 P1029X45 109.000000   UPBROW36039 1.000000
    N1030AC1 ACOCOSTS 40.351460   OBJECTIV 40.351460
    N1030AC1 SYSTDEPT 4.000000   ACMILES  7.113640
    N1030AC1 ASMILES  2888.137940   LFRPMASM 2021.696558
    N1030AC1 FLAV*1   15.568160   LF1030S1 243.000000
    N1030AC1 LF1030S2 243.000000   LF1030S3 263.000000
    N1030AC1 LF1030S4 284.000000   NOPTTYO1 2.000000
    N1030AC1 NOPTTYO0 2.000000   MSLAXSFO 1.000000
    N1030AC1 MSLAXSEA 1.000000   MSLAXTPE 1.000000
    N1030AC1 MSSEASFO 1.000000   MSSEATYO 1.000000
    N1030AC1 MSSEATPE 1.000000   MSTPETYO 1.000000
    N1030AC1 P1030X23 168.000000   P1030X24 139.000000
    N1030AC1 P1030X26 18.000000   P1030X43 170.000000
    N1030AC1 UPBROW36040 1.000000
    N1032AC1 ACOCOSTS 23.820400   OBJECTIV 23.820400
    N1032AC1 SYSTDEPT 5.000000   ACMILES  2.786790
    N1032AC1 ASMILES  1131.437990   LFRPMASM 792.006593
    N1032AC1 FLAV*1   8.330320   LF1032S1 243.000000
    N1032AC1 LF1032S2 284.000000   LF1032S3 284.000000
    N1032AC1 LF1032S4 284.000000   LF1032S5 243.000000
    N1032AC1 MSSEAYVR 1.000000   MSBOSSEA 1.000000
    N1032AC1 MSYVRYWG 1.000000   MSYVRYYZ 1.000000
    N1032AC1 MSYULYVR 1.000000   MSBOSYVR 1.000000
    N1032AC1 MSYWGYYZ 1.000000   MSYULYWG 1.000000
    N1032AC1 MSBOSYWG 1.000000   MSYULYYZ 1.000000
    N1032AC1 MSBOSYYZ 1.000000   MSBOSYUL 1.000000
    N1032AC1 P1032X23 109.000000   P1032X34 89.000000
    N1032AC1 P1032X35 76.000000   P1032X63 44.000000
    N1032AC1 P1032X45 83.000000   P1032X64 99.000000
    N1032AC1 P1032X65 130.000000   P1032X75 85.000000
    N1032AC1 P1032X76 115.000000   UPBROW36041 1.000000
    N1032AC2 ACOCOSTS 16.920010   OBJECTIV 16.920010
    N1032AC2 SYSTDEPT 5.000000   ACMILES  2.786790
    N1032AC2 ASMILES  718.992680   LFRPMASM 503.294876
    N1032AC2 FLAV*2   8.021220   LF1032S1 154.000000
    N1032AC2 LF1032S2 180.000000   LF1032S3 180.000000
    N1032AC2 LF1032S4 180.000000   LF1032S5 154.000000
    N1032AC2 MSSEAYVR 1.000000   MSBOSSEA 1.000000
    N1032AC2 MSYVRYWG 1.000000   MSYVRYYZ 1.000000
    N1032AC2 MSYULYVR 1.000000   MSBOSYVR 1.000000
    N1032AC2 MSYWGYYZ 1.000000   MSYULYWG 1.000000
    N1032AC2 MSBOSYWG 1.000000   MSYULYYZ 1.000000
    N1032AC2 MSBOSYYZ 1.000000   MSBOSYUL 1.000000
    N1032AC2 P1032X23 109.000000   P1032X34 89.000000
    N1032AC2 P1032X35 76.000000   P1032X63 44.000000
    N1032AC2 P1032X45 83.000000   P1032X64 99.000000
    N1032AC2 P1032X65 130.000000   P1032X75 85.000000
    N1032AC2 P1032X76 115.000000   UPBROW36042 1.000000
    N1032AC3 ACOCOSTS 11.966250   OBJECTIV 11.966250
    N1032AC3 SYSTDEPT 5.000000   ACMILES  2.786790
    N1032AC3 ASMILES  512.769780   LFRPMASM 358.938846
    N1032AC3 FLAV*3   7.645720   LF1032S1 110.000000
    N1032AC3 LF1032S2 128.000000   LF1032S3 128.000000
    N1032AC3 LF1032S4 128.000000   LF1032S5 110.000000
    N1032AC3 MSSEAYVR 1.000000   MSBOSSEA 1.000000
    N1032AC3 MSYVRYWG 1.000000   MSYVRYYZ 1.000000
    N1032AC3 MSYULYVR 1.000000   MSBOSYVR 1.000000
    N1032AC3 MSYWGYYZ 1.000000   MSYULYWG 1.000000
    N1032AC3 MSBOSYWG 1.000000   MSYULYYZ 1.000000
    N1032AC3 MSBOSYYZ 1.000000   MSBOSYUL 1.000000
    N1032AC3 P1032X23 109.000000   P1032X34 89.000000
    N1032AC3 P1032X35 76.000000   P1032X63 44.000000
    N1032AC3 P1032X45 83.000000   P1032X64 99.000000
    N1032AC3 P1032X65 130.000000   P1032X75 85.000000
    N1032AC3 P1032X76 115.000000   UPBROW36043 1.000000
    N1032AC4 ACOCOSTS 8.332770   OBJECTIV 8.332770
    N1032AC4 SYSTDEPT 5.000000   ACMILES  2.786790
    N1032AC4 ASMILES  267.531980   LFRPMASM 187.272386
    N1032AC4 FLAV*4   7.415560   LF1032S1 57.000000
    N1032AC4 LF1032S2 67.000000   LF1032S3 67.000000
    N1032AC4 LF1032S4 67.000000   LF1032S5 57.000000
    N1032AC4 MSSEAYVR 1.000000   MSBOSSEA 1.000000
    N1032AC4 MSYVRYWG 1.000000   MSYVRYYZ 1.000000
    N1032AC4 MSYULYVR 1.000000   MSBOSYVR 1.000000
    N1032AC4 MSYWGYYZ 1.000000   MSYULYWG 1.000000
    N1032AC4 MSBOSYWG 1.000000   MSYULYYZ 1.000000
    N1032AC4 MSBOSYYZ 1.000000   MSBOSYUL 1.000000
    N1032AC4 P1032X23 109.000000   P1032X34 89.000000
    N1032AC4 P1032X35 76.000000   P1032X63 44.000000
    N1032AC4 P1032X45 83.000000   P1032X64 99.000000
    N1032AC4 P1032X65 130.000000   P1032X75 85.000000
    N1032AC4 P1032X76 115.000000   UPBROW36044 1.000000
    N1032AC5 ACOCOSTS 9.129320   OBJECTIV 9.129320
    N1032AC5 SYSTDEPT 5.000000   ACMILES  2.786790
    N1032AC5 ASMILES  345.562260   LFRPMASM 241.893582
    N1032AC5 FLAV*5   7.488830   LF1032S1 74.000000
    N1032AC5 LF1032S2 86.000000   LF1032S3 86.000000
    N1032AC5 LF1032S4 86.000000   LF1032S5 74.000000
    N1032AC5 MSSEAYVR 1.000000   MSBOSSEA 1.000000
    N1032AC5 MSYVRYWG 1.000000   MSYVRYYZ 1.000000
    N1032AC5 MSYULYVR 1.000000   MSBOSYVR 1.000000
    N1032AC5 MSYWGYYZ 1.000000   MSYULYWG 1.000000
    N1032AC5 MSBOSYWG 1.000000   MSYULYYZ 1.000000
    N1032AC5 MSBOSYYZ 1.000000   MSBOSYUL 1.000000
    N1032AC5 P1032X23 109.000000   P1032X34 89.000000
    N1032AC5 P1032X35 76.000000   P1032X63 44.000000
    N1032AC5 P1032X45 83.000000   P1032X64 99.000000
    N1032AC5 P1032X65 130.000000   P1032X75 85.000000
    N1032AC5 P1032X76 115.000000   UPBROW36045 1.000000
    N1033AC1 ACOCOSTS 18.082950   OBJECTIV 18.082950
    N1033AC1 SYSTDEPT 3.000000   ACMILES  2.541500
    N1033AC1 ASMILES  1031.850100   LFRPMASM 722.295070
    N1033AC1 FLAV*1   6.583160   LF1033S1 284.000000
    N1033AC1 LF1033S2 284.000000   LF1033S3 243.000000
    N1033AC1 MSYVRYWG 1.000000   MSYULYVR 1.000000
    N1033AC1 MSBOSYVR 1.000000   MSYULYWG 1.000000
    N1033AC1 MSBOSYWG 1.000000   MSBOSYUL 1.000000
    N1033AC1 P1033X23 89.000000   P1033X42 44.000000
    N1033AC1 P1033X43 99.000000   P1033X54 115.000000
    N1033AC1 UPBROW36046 1.000000
    N1033AC2 ACOCOSTS 13.047200   OBJECTIV 13.047200
    N1033AC2 SYSTDEPT 3.000000   ACMILES  2.541500
    N1033AC2 ASMILES  655.707520   LFRPMASM 458.995264
    N1033AC2 FLAV*2   6.430740   LF1033S1 180.000000
    N1033AC2 LF1033S2 180.000000   LF1033S3 154.000000
    N1033AC2 MSYVRYWG 1.000000   MSYULYVR 1.000000
    N1033AC2 MSBOSYVR 1.000000   MSYULYWG 1.000000
    N1033AC2 MSBOSYWG 1.000000   MSBOSYUL 1.000000
    N1033AC2 P1033X23 89.000000   P1033X42 44.000000
    N1033AC2 P1033X43 99.000000   P1033X54 115.000000
    N1033AC2 UPBROW36047 1.000000
    N1033AC3 ACOCOSTS 9.335930   OBJECTIV 9.335930
    N1033AC3 SYSTDEPT 3.000000   ACMILES  2.541500
    N1033AC3 ASMILES  467.636470   LFRPMASM 327.345529
    N1033AC3 FLAV*3   6.317590   LF1033S1 128.000000
    N1033AC3 LF1033S2 128.000000   LF1033S3 110.000000
    N1033AC3 MSYVRYWG 1.000000   MSYULYVR 1.000000
    N1033AC3 MSBOSYVR 1.000000   MSYULYWG 1.000000
    N1033AC3 MSBOSYWG 1.000000   MSBOSYUL 1.000000
    N1033AC3 P1033X23 89.000000   P1033X42 44.000000
    N1033AC3 P1033X43 99.000000   P1033X54 115.000000
    N1033AC3 UPBROW36048 1.000000
    N1033AC4 ACOCOSTS 6.660270   OBJECTIV 6.660270
    N1033AC4 SYSTDEPT 3.000000   ACMILES  2.541500
    N1033AC4 ASMILES  243.984240   LFRPMASM 170.788968
    N1033AC4 FLAV*4   6.163840   LF1033S1 67.000000
    N1033AC4 LF1033S2 67.000000   LF1033S3 57.000000
    N1033AC4 MSYVRYWG 1.000000   MSYULYVR 1.000000
    N1033AC4 MSBOSYVR 1.000000   MSYULYWG 1.000000
    N1033AC4 MSBOSYWG 1.000000   MSBOSYUL 1.000000
    N1033AC4 P1033X23 89.000000   P1033X42 44.000000
    N1033AC4 P1033X43 99.000000   P1033X54 115.000000
    N1033AC4 UPBROW36049 1.000000
    N1033AC5 ACOCOSTS 7.233830   OBJECTIV 7.233830
    N1033AC5 SYSTDEPT 3.000000   ACMILES  2.541500
    N1033AC5 ASMILES  315.146240   LFRPMASM 220.602368
    N1033AC5 FLAV*5   6.255620   LF1033S1 86.000000
    N1033AC5 LF1033S2 86.000000   LF1033S3 74.000000
    N1033AC5 MSYVRYWG 1.000000   MSYULYVR 1.000000
    N1033AC5 MSBOSYVR 1.000000   MSYULYWG 1.000000
    N1033AC5 MSBOSYWG 1.000000   MSBOSYUL 1.000000
    N1033AC5 P1033X23 89.000000   P1033X42 44.000000
    N1033AC5 P1033X43 99.000000   P1033X54 115.000000
    N1033AC5 UPBROW36050 1.000000
    N1034AC1 ACOCOSTS 15.099630   OBJECTIV 15.099630
    N1034AC1 SYSTDEPT 2.000000   ACMILES  2.392580
    N1034AC1 ASMILES  971.385990   LFRPMASM 679.970193
    N1034AC1 FLAV*1   5.661660   LF1034S1 284.000000
    N1034AC1 LF1034S2 284.000000   MSYVRYYZ 1.000000
    N1034AC1 MSYULYVR 1.000000   MSYULYYZ 1.000000
    N1034AC1 P1034X23 76.000000   P1034X42 44.000000
    N1034AC1 P1034X43 130.000000   UPBROW36051 1.000000
    N1034AC2 ACOCOSTS 11.023280   OBJECTIV 11.023280
    N1034AC2 SYSTDEPT 2.000000   ACMILES  2.392580
    N1034AC2 ASMILES  617.284670   LFRPMASM 432.099269
    N1034AC2 FLAV*2   5.586580   LF1034S1 180.000000
    N1034AC2 LF1034S2 180.000000   MSYVRYYZ 1.000000
    N1034AC2 MSYULYVR 1.000000   MSYULYYZ 1.000000
    N1034AC2 P1034X23 76.000000   P1034X42 44.000000
    N1034AC2 P1034X43 130.000000   UPBROW36052 1.000000
    N1034AC3 ACOCOSTS 7.955590   OBJECTIV 7.955590
    N1034AC3 SYSTDEPT 2.000000   ACMILES  2.392580
    N1034AC3 ASMILES  440.233890   LFRPMASM 308.163723
    N1034AC3 FLAV*3   5.601220   LF1034S1 128.000000
    N1034AC3 LF1034S2 128.000000   MSYVRYYZ 1.000000
    N1034AC3 MSYULYVR 1.000000   MSYULYYZ 1.000000
    N1034AC3 P1034X23 76.000000   P1034X42 44.000000
    N1034AC3 P1034X43 130.000000   UPBROW36053 1.000000
    N1035AC1 ACOCOSTS 13.788190   OBJECTIV 13.788190
    N1035AC1 SYSTDEPT 2.000000   ACMILES  2.091790
    N1035AC1 ASMILES  849.265630   LFRPMASM 594.485941
    N1035AC1 FLAV*1   5.113330   LF1035S1 284.000000
    N1035AC1 LF1035S2 284.000000   MSYVRYWG 1.000000
    N1035AC1 MSYVRYYZ 1.000000   MSYWGYYZ 1.000000
    N1035AC1 P1035X23 89.000000   P1035X24 76.000000
    N1035AC1 P1035X34 83.000000   UPBROW36054 1.000000
    N1035AC2 ACOCOSTS 10.021650   OBJECTIV 10.021650
    N1035AC2 SYSTDEPT 2.000000   ACMILES  2.091790
    N1035AC2 ASMILES  539.681150   LFRPMASM 377.776805
    N1035AC2 FLAV*2   5.026820   LF1035S1 180.000000
    N1035AC2 LF1035S2 180.000000   MSYVRYWG 1.000000
    N1035AC2 MSYVRYYZ 1.000000   MSYWGYYZ 1.000000
    N1035AC2 P1035X23 89.000000   P1035X24 76.000000
    N1035AC2 P1035X34 83.000000   UPBROW36055 1.000000
    N1035AC3 ACOCOSTS 7.209630   OBJECTIV 7.209630
    N1035AC3 SYSTDEPT 2.000000   ACMILES  2.091790
    N1035AC3 ASMILES  384.888670   LFRPMASM 269.422069
    N1035AC3 FLAV*3   5.002660   LF1035S1 128.000000
    N1035AC3 LF1035S2 128.000000   MSYVRYWG 1.000000
    N1035AC3 MSYVRYYZ 1.000000   MSYWGYYZ 1.000000
    N1035AC3 P1035X23 89.000000   P1035X24 76.000000
    N1035AC3 P1035X34 83.000000   UPBROW36056 1.000000
    N1035AC4 ACOCOSTS 5.199310   OBJECTIV 5.199310
    N1035AC4 SYSTDEPT 2.000000   ACMILES  2.091790
    N1035AC4 ASMILES  200.811550   LFRPMASM 140.568085
    N1035AC4 FLAV*4   4.893000   LF1035S1 67.000000
    N1035AC4 LF1035S2 67.000000   MSYVRYWG 1.000000
    N1035AC4 MSYVRYYZ 1.000000   MSYWGYYZ 1.000000
    N1035AC4 P1035X23 89.000000   P1035X24 76.000000
    N1035AC4 P1035X34 83.000000   UPBROW36057 1.000000
    N1035AC5 ACOCOSTS 5.625410   OBJECTIV 5.625410
    N1035AC5 SYSTDEPT 2.000000   ACMILES  2.091790
    N1035AC5 ASMILES  259.381590   LFRPMASM 181.567113
    N1035AC5 FLAV*5   4.976050   LF1035S1 86.000000
    N1035AC5 LF1035S2 86.000000   MSYVRYWG 1.000000
    N1035AC5 MSYVRYYZ 1.000000   MSYWGYYZ 1.000000
    N1035AC5 P1035X23 89.000000   P1035X24 76.000000
    N1035AC5 P1035X34 83.000000   UPBROW36058 1.000000
    N1036AC1 ACOCOSTS 15.748680   OBJECTIV 15.748680
    N1036AC1 SYSTDEPT 2.000000   ACMILES  2.541440
    N1036AC1 ASMILES  1031.824460   LFRPMASM 722.277122
    N1036AC1 FLAV*1   5.933040   LF1036S1 284.000000
    N1036AC1 LF1036S2 243.000000   MSYULYVR 1.000000
    N1036AC1 MSBOSYVR 1.000000   MSBOSYUL 1.000000
    N1036AC1 P1036X32 44.000000   P1036X43 115.000000
    N1036AC1 UPBROW36059 1.000000
    N1036AC2 ACOCOSTS 11.518990   OBJECTIV 11.518990
    N1036AC2 SYSTDEPT 2.000000   ACMILES  2.541440
    N1036AC2 ASMILES  655.691410   LFRPMASM 458.983987
    N1036AC2 FLAV*2   5.863620   LF1036S1 180.000000
    N1036AC2 LF1036S2 154.000000   MSYULYVR 1.000000
    N1036AC2 MSBOSYVR 1.000000   MSBOSYUL 1.000000
    N1036AC2 P1036X32 44.000000   P1036X43 115.000000
    N1036AC2 UPBROW36060 1.000000
    N1036AC3 ACOCOSTS 8.324770   OBJECTIV 8.324770
    N1036AC3 SYSTDEPT 2.000000   ACMILES  2.541440
    N1036AC3 ASMILES  467.624760   LFRPMASM 327.337332
    N1036AC3 FLAV*3   5.897460   LF1036S1 128.000000
    N1036AC3 LF1036S2 110.000000   MSYULYVR 1.000000
    N1036AC3 MSBOSYVR 1.000000   MSBOSYUL 1.000000
    N1036AC3 P1036X32 44.000000   P1036X43 115.000000
    N1036AC3 UPBROW36061 1.000000
    N1037AC4 ACOCOSTS 3.588400   OBJECTIV 3.588400
    N1037AC4 SYSTDEPT 2.000000   ACMILES  1.248370
    N1037AC4 ASMILES  119.844060   LFRPMASM 83.890842
    N1037AC4 FLAV*4   3.229800   LF1037S1 67.000000
    N1037AC4 LF1037S2 67.000000   MSYWGYYZ 1.000000
    N1037AC4 MSYULYWG 1.000000   MSYULYYZ 1.000000
    N1037AC4 P1037X23 83.000000   P1037X42 99.000000
    N1037AC4 P1037X43 130.000000   UPBROW36062 1.000000
    N1037AC5 ACOCOSTS 3.921720   OBJECTIV 3.921720
    N1037AC5 SYSTDEPT 2.000000   ACMILES  1.248370
    N1037AC5 ASMILES  154.798550   LFRPMASM 108.358985
    N1037AC5 FLAV*5   3.266460   LF1037S1 86.000000
    N1037AC5 LF1037S2 86.000000   MSYWGYYZ 1.000000
    N1037AC5 MSYULYWG 1.000000   MSYULYYZ 1.000000
    N1037AC5 P1037X23 83.000000   P1037X42 99.000000
    N1037AC5 P1037X43 130.000000   UPBROW36063 1.000000
    N1038AC4 ACOCOSTS 2.385480   OBJECTIV 2.385480
    N1038AC4 SYSTDEPT 1.000000   ACMILES  0.933760
    N1038AC4 ASMILES  89.641050   LFRPMASM 62.748735
    N1038AC4 FLAV*4   2.225380   LF1038S1 67.000000
    N1038AC4 MSYWGYYZ 1.000000   P1038X23 83.000000
    N1038AC4 UPBROW36064 1.000000
    N1038AC5 ACOCOSTS 2.586200   OBJECTIV 2.586200
    N1038AC5 SYSTDEPT 1.000000   ACMILES  0.933760
    N1038AC5 ASMILES  115.786360   LFRPMASM 81.050452
    N1038AC5 FLAV*5   2.260730   LF1038S1 86.000000
    N1038AC5 MSYWGYYZ 1.000000   P1038X23 83.000000
    N1038AC5 UPBROW36065 1.000000
    N1039AC4 ACOCOSTS 2.758960   OBJECTIV 2.758960
    N1039AC4 SYSTDEPT 1.000000   ACMILES  1.129300
    N1039AC4 ASMILES  108.412810   LFRPMASM 75.888967
    N1039AC4 FLAV*4   2.610980   LF1039S1 67.000000
    N1039AC4 MSYULYWG 1.000000   P1039X32 99.000000
    N1039AC4 UPBROW36066 1.000000
    N1039AC5 ACOCOSTS 2.981190   OBJECTIV 2.981190
    N1039AC5 SYSTDEPT 1.000000   ACMILES  1.129300
    N1039AC5 ASMILES  140.033250   LFRPMASM 98.023275
    N1039AC5 FLAV*5   2.657090   LF1039S1 86.000000
    N1039AC5 MSYULYWG 1.000000   P1039X32 99.000000
    N1039AC5 UPBROW36067 1.000000
    N1040AC4 ACOCOSTS 2.290390   OBJECTIV 2.290390
    N1040AC4 SYSTDEPT 2.000000   ACMILES  0.568790
    N1040AC4 ASMILES  54.603880   LFRPMASM 38.222716
    N1040AC4 FLAV*4   1.889650   LF1040S1 67.000000
    N1040AC4 LF1040S2 57.000000   MSYULYYZ 1.000000
    N1040AC4 MSBOSYYZ 1.000000   MSBOSYUL 1.000000
    N1040AC4 P1040X32 130.000000   P1040X42 85.000000
    N1040AC4 P1040X43 115.000000   UPBROW36068 1.000000
    N1040AC5 ACOCOSTS 2.548960   OBJECTIV 2.548960
    N1040AC5 SYSTDEPT 2.000000   ACMILES  0.568790
    N1040AC5 ASMILES  70.530000   LFRPMASM 49.371000
    N1040AC5 FLAV*5   1.888940   LF1040S1 86.000000
    N1040AC5 LF1040S2 74.000000   MSYULYYZ 1.000000
    N1040AC5 MSBOSYYZ 1.000000   MSBOSYUL 1.000000
    N1040AC5 P1040X32 130.000000   P1040X42 85.000000
    N1040AC5 P1040X43 115.000000   UPBROW36069 1.000000
    N1040AC6 ACOCOSTS 1.934570   OBJECTIV 1.934570
    N1040AC6 SYSTDEPT 2.000000   ACMILES  0.568790
    N1040AC6 ASMILES  54.035100   LFRPMASM 37.824570
    N1040AC6 FLAV*6   1.949920   LF1040S1 66.000000
    N1040AC6 LF1040S2 56.000000   MSYULYYZ 1.000000
    N1040AC6 MSBOSYYZ 1.000000   MSBOSYUL 1.000000
    N1040AC6 P1040X32 130.000000   P1040X42 85.000000
    N1040AC6 P1040X43 115.000000   UPBROW36070 1.000000
    N1041AC4 ACOCOSTS 1.202910   OBJECTIV 1.202910
    N1041AC4 SYSTDEPT 1.000000   ACMILES  0.314610
    N1041AC4 ASMILES  30.202990   LFRPMASM 21.142093
    N1041AC4 FLAV*4   1.004420   LF1041S1 67.000000
    N1041AC4 MSYULYYZ 1.000000   P1041X32 130.000000
    N1041AC4 UPBROW36071 1.000000
    N1041AC5 ACOCOSTS 1.335520   OBJECTIV 1.335520
    N1041AC5 SYSTDEPT 1.000000   ACMILES  0.314610
    N1041AC5 ASMILES  39.012190   LFRPMASM 27.308533
    N1041AC5 FLAV*5   1.005720   LF1041S1 86.000000
    N1041AC5 MSYULYYZ 1.000000   P1041X32 130.000000
    N1041AC5 UPBROW36072 1.000000
    N1041AC6 ACOCOSTS 1.022890   OBJECTIV 1.022890
    N1041AC6 SYSTDEPT 1.000000   ACMILES  0.314610
    N1041AC6 ASMILES  29.888370   LFRPMASM 20.921859
    N1041AC6 FLAV*6   1.044560   LF1041S1 66.000000
    N1041AC6 MSYULYYZ 1.000000   P1041X32 130.000000
    N1041AC6 UPBROW36073 1.000000
    N1042AC4 ACOCOSTS 1.087480   OBJECTIV 1.087480
    N1042AC4 SYSTDEPT 1.000000   ACMILES  0.254180
    N1042AC4 ASMILES  24.400890   LFRPMASM 17.080623
    N1042AC4 FLAV*4   0.885240   LF1042S1 57.000000
    N1042AC4 MSBOSYUL 1.000000   P1042X32 115.000000
    N1042AC4 UPBROW36074 1.000000
    N1042AC5 ACOCOSTS 1.213440   OBJECTIV 1.213440
    N1042AC5 SYSTDEPT 1.000000   ACMILES  0.254180
    N1042AC5 ASMILES  31.517840   LFRPMASM 22.062488
    N1042AC5 FLAV*5   0.883210   LF1042S1 74.000000
    N1042AC5 MSBOSYUL 1.000000   P1042X32 115.000000
    N1042AC5 UPBROW36075 1.000000
    N1042AC6 ACOCOSTS 0.911680   OBJECTIV 0.911680
    N1042AC6 SYSTDEPT 1.000000   ACMILES  0.254180
    N1042AC6 ASMILES  24.146730   LFRPMASM 16.902711
    N1042AC6 FLAV*6   0.905370   LF1042S1 56.000000
    N1042AC6 MSBOSYUL 1.000000   P1042X32 115.000000
    N1042AC6 UPBROW36076 1.000000
    N1043AC1 ACOCOSTS 13.185360   OBJECTIV 13.185360
    N1043AC1 SYSTDEPT 1.000000   ACMILES  2.488840
    N1043AC1 ASMILES  1010.470210   LFRPMASM 707.329147
    N1043AC1 FLAV*1   5.187160   LF1043S1 284.000000
    N1043AC1 MSBOSSEA 1.000000   UPBROW36077 1.000000
    N1043AC2 ACOCOSTS 9.815850   OBJECTIV 9.815850
    N1043AC2 SYSTDEPT 1.000000   ACMILES  2.488840
    N1043AC2 ASMILES  642.121340   LFRPMASM 449.484938
    N1043AC2 FLAV*2   5.198740   LF1043S1 180.000000
    N1043AC2 MSBOSSEA 1.000000   UPBROW36078 1.000000
    N1043AC3 ACOCOSTS 7.183330   OBJECTIV 7.183330
    N1043AC3 SYSTDEPT 1.000000   ACMILES  2.488840
    N1043AC3 ASMILES  457.947020   LFRPMASM 320.562914
    N1043AC3 FLAV*3   5.372800   LF1043S1 128.000000
    N1043AC3 MSBOSSEA 1.000000   UPBROW36079 1.000000
    N1044AC1 ACOCOSTS 14.099240   OBJECTIV 14.099240
    N1044AC1 SYSTDEPT 1.000000   ACMILES  2.698450
    N1044AC1 ASMILES  1095.569820   LFRPMASM 766.898874
    N1044AC1 FLAV*1   5.569270   LF1044S1 243.000000
    N1044AC1 MSBOSSFO 1.000000   P1044X32 73.000000
    N1044AC1 UPBROW36080 1.000000
    N1044AC2 ACOCOSTS 10.513840   OBJECTIV 10.513840
    N1044AC2 SYSTDEPT 1.000000   ACMILES  2.698450
    N1044AC2 ASMILES  696.199950   LFRPMASM 487.339965
    N1044AC2 FLAV*2   5.588810   LF1044S1 154.000000
    N1044AC2 MSBOSSFO 1.000000   P1044X32 73.000000
    N1044AC2 UPBROW36081 1.000000
    N1044AC3 ACOCOSTS 7.703150   OBJECTIV 7.703150
    N1044AC3 SYSTDEPT 1.000000   ACMILES  2.698450
    N1044AC3 ASMILES  496.514650   LFRPMASM 347.560255
    N1044AC3 FLAV*3   5.789910   LF1044S1 110.000000
    N1044AC3 MSBOSSFO 1.000000   P1044X32 73.000000
    N1044AC3 UPBROW36082 1.000000
    N1046AC3 ACOCOSTS 9.525030   OBJECTIV 9.525030
    N1046AC3 SYSTDEPT 2.000000   ACMILES  3.025420
    N1046AC3 ASMILES  556.676760   LFRPMASM 389.673732
    N1046AC3 FLAV*3   6.860580   LF1046S1 128.000000
    N1046AC3 LF1046S2 128.000000   MSLAXOAK 1.000000
    N1046AC3 MSBOSOAK 1.000000   P1046X23 46.000000
    N1046AC3 UPBROW36083 1.000000
    N1047AC1 ACOCOSTS 31.375920   OBJECTIV 31.375920
    N1047AC1 SYSTDEPT 3.000000   ACMILES  5.590350
    N1047AC1 ASMILES  2269.681880   LFRPMASM 1588.777316
    N1047AC1 FLAV*1   12.141210   LF1047S1 243.000000
    N1047AC1 LF1047S2 243.000000   LF1047S3 243.000000
    N1047AC1 MSHNLLAX 1.000000   MSHNLSFO 1.000000
    N1047AC1 MSBOSHNL 1.000000   MSLAXSFO 1.000000
    N1047AC1 MSBOSSFO 1.000000   P1047X23 118.000000
    N1047AC1 P1047X34 168.000000   P1047X54 73.000000
    N1047AC1 UPBROW36084 1.000000
    N1047AC2 ACOCOSTS 23.199860   OBJECTIV 23.199860
    N1047AC2 SYSTDEPT 3.000000   ACMILES  5.590350
    N1047AC2 ASMILES  1442.309810   LFRPMASM 1009.616867
    N1047AC2 FLAV*2   12.104640   LF1047S1 154.000000
    N1047AC2 LF1047S2 154.000000   LF1047S3 154.000000
    N1047AC2 MSHNLLAX 1.000000   MSHNLSFO 1.000000
    N1047AC2 MSBOSHNL 1.000000   MSLAXSFO 1.000000
    N1047AC2 MSBOSSFO 1.000000   P1047X23 118.000000
    N1047AC2 P1047X34 168.000000   P1047X54 73.000000
    N1047AC2 UPBROW36085 1.000000
    N1047AC3 ACOCOSTS 16.897060   OBJECTIV 16.897060
    N1047AC3 SYSTDEPT 3.000000   ACMILES  5.590350
    N1047AC3 ASMILES  1028.624510   LFRPMASM 720.037157
    N1047AC3 FLAV*3   12.384800   LF1047S1 110.000000
    N1047AC3 LF1047S2 110.000000   LF1047S3 110.000000
    N1047AC3 MSHNLLAX 1.000000   MSHNLSFO 1.000000
    N1047AC3 MSBOSHNL 1.000000   MSLAXSFO 1.000000
    N1047AC3 MSBOSSFO 1.000000   P1047X23 118.000000
    N1047AC3 P1047X34 168.000000   P1047X54 73.000000
    N1047AC3 UPBROW36086 1.000000
    N1050AC3 ACOCOSTS 4.505440   OBJECTIV 4.505440
    N1050AC3 SYSTDEPT 2.000000   ACMILES  1.001390
    N1050AC3 ASMILES  184.255680   LFRPMASM 128.978976
    N1050AC3 FLAV*3   2.832760   LF1050S1 110.000000
    N1050AC3 LF1050S2 128.000000   MSLAXSEA 1.000000
    N1050AC3 MSONTSEA 1.000000   P1050X32 139.000000
    N1050AC3 P1050X42 25.000000   UPBROW36087 1.000000
    N1050AC4 ACOCOSTS 3.116650   OBJECTIV 3.116650
    N1050AC4 SYSTDEPT 2.000000   ACMILES  1.001390
    N1050AC4 ASMILES  96.133360   LFRPMASM 67.293352
    N1050AC4 FLAV*4   2.742740   LF1050S1 57.000000
    N1050AC4 LF1050S2 67.000000   MSLAXSEA 1.000000
    N1050AC4 MSONTSEA 1.000000   P1050X32 139.000000
    N1050AC4 P1050X42 25.000000   UPBROW36088 1.000000
    N1050AC5 ACOCOSTS 3.422810   OBJECTIV 3.422810
    N1050AC5 SYSTDEPT 2.000000   ACMILES  1.001390
    N1050AC5 ASMILES  124.172300   LFRPMASM 86.920610
    N1050AC5 FLAV*5   2.765820   LF1050S1 74.000000
    N1050AC5 LF1050S2 86.000000   MSLAXSEA 1.000000
    N1050AC5 MSONTSEA 1.000000   P1050X32 139.000000
    N1050AC5 P1050X42 25.000000   UPBROW36089 1.000000
    N1051AC1 ACOCOSTS 3.809960   OBJECTIV 3.809960
    N1051AC1 SYSTDEPT 1.000000   ACMILES  0.338520
    N1051AC1 ASMILES  137.440670   LFRPMASM 96.208469
    N1051AC1 FLAV*1   1.267130   LF1051S1 243.000000
    N1051AC1 MSLAXSFO 1.000000   P1051X23 168.000000
    N1051AC1 UPBROW36090 1.000000
    N1051AC2 ACOCOSTS 2.655280   OBJECTIV 2.655280
    N1051AC2 SYSTDEPT 1.000000   ACMILES  0.338520
    N1051AC2 ASMILES  87.339110   LFRPMASM 61.137377
    N1051AC2 FLAV*2   1.196990   LF1051S1 154.000000
    N1051AC2 MSLAXSFO 1.000000   P1051X23 168.000000
    N1051AC2 UPBROW36091 1.000000
    N1051AC3 ACOCOSTS 1.850540   OBJECTIV 1.850540
    N1051AC3 SYSTDEPT 1.000000   ACMILES  0.338520
    N1051AC3 ASMILES  62.288390   LFRPMASM 43.601873
    N1051AC3 FLAV*3   1.093660   LF1051S1 110.000000
    N1051AC3 MSLAXSFO 1.000000   P1051X23 168.000000
    N1051AC3 UPBROW36092 1.000000
    N1051AC4 ACOCOSTS 1.248580   OBJECTIV 1.248580
    N1051AC4 SYSTDEPT 1.000000   ACMILES  0.338520
    N1051AC4 ASMILES  32.498290   LFRPMASM 22.748803
    N1051AC4 FLAV*4   1.051570   LF1051S1 57.000000
    N1051AC4 MSLAXSFO 1.000000   P1051X23 168.000000
    N1051AC4 UPBROW36093 1.000000
    N1051AC5 ACOCOSTS 1.383820   OBJECTIV 1.383820
    N1051AC5 SYSTDEPT 1.000000   ACMILES  0.338520
    N1051AC5 ASMILES  41.976960   LFRPMASM 29.383872
    N1051AC5 FLAV*5   1.054190   LF1051S1 74.000000
    N1051AC5 MSLAXSFO 1.000000   P1051X23 168.000000
    N1051AC5 UPBROW36094 1.000000
    N1051AC6 ACOCOSTS 1.066880   OBJECTIV 1.066880
    N1051AC6 SYSTDEPT 1.000000   ACMILES  0.338520
    N1051AC6 ASMILES  32.159760   LFRPMASM 22.511832
    N1051AC6 FLAV*6   1.099620   LF1051S1 56.000000
    N1051AC6 MSLAXSFO 1.000000   P1051X23 168.000000
    N1051AC6 UPBROW36095 1.000000
    NEGGRDTIMN154671 FLAV*1   -1.000000   ACOCOSTS 0.133330
    NEGGRDTIMN154671 OBJECTIV 0.133330   UPBROW35934 1.000000
    NEGGRDTIMN254672 FLAV*2   -1.000000   ACOCOSTS 0.106920
    NEGGRDTIMN254672 OBJECTIV 0.106920   UPBROW35936 1.000000
    NEGGRDTIMN354673 FLAV*3   -1.000000   UPBROW35938 1.000000
    NEGGRDTIMN454674 FLAV*4   -1.000000   UPBROW35940 1.000000
    NEGGRDTIMN554675 FLAV*5   -1.000000   UPBROW35942 1.000000
    NEGGRDTIMN654676 FLAV*6   -1.000000   UPBROW35944 1.000000
    SLACK54677 REVENUES -1.000000
    SLACK54678 ACOCOSTS -1.000000
    SLACK54679 SYSTDEPT -1.000000
    SLACK54680 ACMILES  -1.000000
    SLACK54681 ASMILES  -1.000000
    SLACK54682 PASSNGRS -1.000000
    SLACK54683 RPMILES  -1.000000
    SLACK54684 LFRPMASM -1.000000
    SLACK54685 ATONMILE -1.000000
    SLACK54686 RTONMILE -1.000000
    SLACK54687 LFTNMILE -1.000000
    SLACK54688 LF1001S1 -1.000000
    SLACK54689 LF1002S1 -1.000000
    SLACK54690 LF1002S2 -1.000000
    SLACK54691 LF1003S1 -1.000000
    SLACK54692 LF1004S1 -1.000000
    SLACK54693 LF1004S2 -1.000000
    SLACK54694 LF1005S1 -1.000000
    SLACK54695 LF1005S2 -1.000000
    SLACK54696 LF1105S1 -1.000000
    SLACK54697 LF1105S2 -1.000000
    SLACK54698 LF1006S1 -1.000000
    SLACK54699 LF1006S2 -1.000000
    SLACK54700 LF1007S1 -1.000000
    SLACK54701 LF1007S2 -1.000000
    SLACK54702 LF1008S1 -1.000000
    SLACK54703 LF1008S2 -1.000000
    SLACK54704 LF1008S3 -1.000000
    SLACK54705 LF1009S1 -1.000000
    SLACK54706 LF1009S2 -1.000000
    SLACK54707 LF1010S1 -1.000000
    SLACK54708 LF1011S1 -1.000000
    SLACK54709 LF1011S2 -1.000000
    SLACK54710 LF1012S1 -1.000000
    SLACK54711 LF1013S1 -1.000000
    SLACK54712 LF1013S2 -1.000000
    SLACK54713 LF1014S1 -1.000000
    SLACK54714 LF1014S2 -1.000000
    SLACK54715 LF1015S1 -1.000000
    SLACK54716 LF1015S2 -1.000000
    SLACK54717 LF1016S1 -1.000000
    SLACK54718 LF1016S2 -1.000000
    SLACK54719 LF1017S1 -1.000000
    SLACK54720 LF1017S2 -1.000000
    SLACK54721 LF1018S1 -1.000000
    SLACK54722 LF1018S2 -1.000000
    SLACK54723 LF1019S1 -1.000000
    SLACK54724 LF1019S2 -1.000000
    SLACK54725 LF1020S1 -1.000000
    SLACK54726 LF1021S1 -1.000000
    SLACK54727 LF1022S1 -1.000000
    SLACK54728 LF1022S2 -1.000000
    SLACK54729 LF1022S3 -1.000000
    SLACK54730 LF1023S1 -1.000000
    SLACK54731 LF1023S2 -1.000000
    SLACK54732 LF1023S3 -1.000000
    SLACK54733 LF1026S1 -1.000000
    SLACK54734 LF1026S2 -1.000000
    SLACK54735 LF1026S3 -1.000000
    SLACK54736 LF1027S1 -1.000000
    SLACK54737 LF1027S2 -1.000000
    SLACK54738 LF1027S3 -1.000000
    SLACK54739 LF1028S1 -1.000000
    SLACK54740 LF1028S2 -1.000000
    SLACK54741 LF1028S3 -1.000000
    SLACK54742 LF1029S1 -1.000000
    SLACK54743 LF1029S2 -1.000000
    SLACK54744 LF1029S3 -1.000000
    SLACK54745 LF1029S4 -1.000000
    SLACK54746 LF1029S5 -1.000000
    SLACK54747 LF1030S1 -1.000000
    SLACK54748 LF1030S2 -1.000000
    SLACK54749 LF1030S3 -1.000000
    SLACK54750 LF1030S4 -1.000000
    SLACK54751 LF1032S1 -1.000000
    SLACK54752 LF1032S2 -1.000000
    SLACK54753 LF1032S3 -1.000000
    SLACK54754 LF1032S4 -1.000000
    SLACK54755 LF1032S5 -1.000000
    SLACK54756 LF1033S1 -1.000000
    SLACK54757 LF1033S2 -1.000000
    SLACK54758 LF1033S3 -1.000000
    SLACK54759 LF1034S1 -1.000000
    SLACK54760 LF1034S2 -1.000000
    SLACK54761 LF1035S1 -1.000000
    SLACK54762 LF1035S2 -1.000000
    SLACK54763 LF1036S1 -1.000000
    SLACK54764 LF1036S2 -1.000000
    SLACK54765 LF1037S1 -1.000000
    SLACK54766 LF1037S2 -1.000000
    SLACK54767 LF1038S1 -1.000000
    SLACK54768 LF1039S1 -1.000000
    SLACK54769 LF1040S1 -1.000000
    SLACK54770 LF1040S2 -1.000000
    SLACK54771 LF1041S1 -1.000000
    SLACK54772 LF1042S1 -1.000000
    SLACK54773 LF1043S1 -1.000000
    SLACK54774 LF1044S1 -1.000000
    SLACK54775 LF1046S1 -1.000000
    SLACK54776 LF1046S2 -1.000000
    SLACK54777 LF1047S1 -1.000000
    SLACK54778 LF1047S2 -1.000000
    SLACK54779 LF1047S3 -1.000000
    SLACK54780 LF1050S1 -1.000000
    SLACK54781 LF1050S2 -1.000000
    SLACK54782 LF1051S1 -1.000000
    SLACK54783 NOPTLON0 1.000000
    SLACK54784 NOPTLON1 -1.000000
    SLACK54785 NOPTTYO0 1.000000
    SLACK54786 NOPTTYO1 -1.000000
    SLACK54787 DMBOSHNL 1.000000
    SLACK54788 DMBOSLAX 1.000000
    SLACK54789 DMBOSSEA 1.000000
    SLACK54790 DMBOSSFO 1.000000
    SLACK54791 DMBOSTPE 1.000000
    SLACK54792 DMBOSTYO 1.000000
    SLACK54793 DMBOSYUL 1.000000
    SLACK54794 DMBOSYVR 1.000000
    SLACK54795 DMBOSYWG 1.000000
    SLACK54796 DMBOSYYZ 1.000000
    SLACK54797 DMBUROAK 1.000000
    SLACK54798 DMBURSEA 1.000000
    SLACK54799 DMBURSFO 1.000000
    SLACK54800 DMHNLLAX 1.000000
    SLACK54801 DMHNLLON 1.000000
    SLACK54802 DMHNLPAR 1.000000
    SLACK54803 DMHNLSEA 1.000000
    SLACK54804 DMHNLSFO 1.000000
    SLACK54805 DMHNLYVR 1.000000
    SLACK54806 DMLASSEA 1.000000
    SLACK54807 DMLASYVR 1.000000
    SLACK54808 DMLAXOAK 1.000000
    SLACK54809 DMLAXSEA 1.000000
    SLACK54810 DMLAXSFO 1.000000
    SLACK54811 DMLAXTPE 1.000000
    SLACK54812 DMLAXTYO 1.000000
    SLACK54813 DMLAXYVR 1.000000
    SLACK54814 DMLONPAR 1.000000
    SLACK54815 DMLONSEA 1.000000
    SLACK54816 DMLONYVR 1.000000
    SLACK54817 DMOAKONT 1.000000
    SLACK54818 DMOAKSEA 1.000000
    SLACK54819 DMONTSFO 1.000000
    SLACK54820 DMONTSEA 1.000000
    SLACK54821 DMPARSEA 1.000000
    SLACK54822 DMPARYVR 1.000000
    SLACK54823 DMRNOSEA 1.000000
    SLACK54824 DMRNOYVR 1.000000
    SLACK54825 DMSEASFO 1.000000
    SLACK54826 DMSEATPE 1.000000
    SLACK54827 DMSEATYO 1.000000
    SLACK54828 DMSEAYVR 1.000000
    SLACK54829 DMSFOTPE 1.000000
    SLACK54830 DMSFOTYO 1.000000
    SLACK54831 DMSFOYVR 1.000000
    SLACK54832 DMTPETYO 1.000000
    SLACK54833 DMTPEYVR 1.000000
    SLACK54834 DMTYOYVR 1.000000
    SLACK54835 DMYULYVR 1.000000
    SLACK54836 DMYULYWG 1.000000
    SLACK54837 DMYULYYZ 1.000000
    SLACK54838 DMYVRYWG 1.000000
    SLACK54839 DMYVRYYZ 1.000000
    SLACK54840 DMYWGYYZ 1.000000
    SLACK54841 DMBOSOAK 1.000000
    SLACK54842 DMBOSBUR 1.000000
    SLACK54843 DMBOSONT 1.000000
    SLACK54844 DMBURYVR 1.000000
    SLACK54845 DMBURTYO 1.000000
    SLACK54846 DMBURTPE 1.000000
    SLACK54847 DMBURHNL 1.000000
    SLACK54848 DMHNLOAK 1.000000
    SLACK54849 DMHNLONT 1.000000
    SLACK54850 DMHNLYWG 1.000000
    SLACK54851 DMHNLYYZ 1.000000
    SLACK54852 DMHNLYUL 1.000000
    SLACK54853 DMLASTYO 1.000000
    SLACK54854 DMLASTPE 1.000000
    SLACK54855 DMLAXLON 1.000000
    SLACK54856 DMLAXPAR 1.000000
    SLACK54857 DMBURLON 1.000000
    SLACK54858 DMBURPAR 1.000000
    SLACK54859 DMLONONT 1.000000
    SLACK54860 DMLONOAK 1.000000
    SLACK54861 DMOAKPAR 1.000000
    SLACK54862 DMOAKTYO 1.000000
    SLACK54863 DMOAKTPE 1.000000
    SLACK54864 DMONTPAR 1.000000
    SLACK54865 DMONTTYO 1.000000
    SLACK54866 DMONTTPE 1.000000
    SLACK54867 DMPARSFO 1.000000
    SLACK54868 DMRNOTYO 1.000000
    SLACK54869 DMRNOTPE 1.000000
    SLACK54870 DMTPEYWG 1.000000
    SLACK54871 DMTPEYYZ 1.000000
    SLACK54872 DMTPEYUL 1.000000
    SLACK54873 DMTYOYUL 1.000000
    SLACK54874 DMTYOYYZ 1.000000
    SLACK54875 DMTYOYWG 1.000000
    SLACK54876 MSBOSHNL -1.000000
    SLACK54877 MSBOSSEA -1.000000
    SLACK54878 MSBOSSFO -1.000000
    SLACK54879 MSBOSYUL -1.000000
    SLACK54880 MSBOSYVR -1.000000
    SLACK54881 MSBOSYWG -1.000000
    SLACK54882 MSBOSYYZ -1.000000
    SLACK54883 MSBUROAK -1.000000
    SLACK54884 MSBURSEA -1.000000
    SLACK54885 MSBURSFO -1.000000
    SLACK54886 MSHNLLAX -1.000000
    SLACK54887 MSHNLSEA -1.000000
    SLACK54888 MSHNLSFO -1.000000
    SLACK54889 MSHNLYVR -1.000000
    SLACK54890 MSLASSEA -1.000000
    SLACK54891 MSLASYVR -1.000000
    SLACK54892 MSLAXOAK -1.000000
    SLACK54893 MSLAXSEA -1.000000
    SLACK54894 MSLAXSFO -1.000000
    SLACK54895 MSLAXTPE -1.000000
    SLACK54896 MSLAXYVR -1.000000
    SLACK54897 MSLONPAR -1.000000
    SLACK54898 MSLONSEA -1.000000
    SLACK54899 MSLONYVR 1.000000
    SLACK54900 MSOAKONT -1.000000
    SLACK54901 MSOAKSEA -1.000000
    SLACK54902 MSONTSFO -1.000000
    SLACK54903 MSONTSEA -1.000000
    SLACK54904 MSPARSEA 1.000000
    SLACK54905 MSRNOSEA -1.000000
    SLACK54906 MSRNOYVR -1.000000
    SLACK54907 MSSEASFO -1.000000
    SLACK54908 MSSEATPE -1.000000
    SLACK54909 MSSEATYO -1.000000
    SLACK54910 MSSEAYVR -1.000000
    SLACK54911 MSSFOYVR -1.000000
    SLACK54912 MSTPETYO -1.000000
    SLACK54913 MSYULYVR -1.000000
    SLACK54914 MSYULYWG -1.000000
    SLACK54915 MSYULYYZ -1.000000
    SLACK54916 MSYVRYWG -1.000000
    SLACK54917 MSYVRYYZ -1.000000
    SLACK54918 MSYWGYYZ -1.000000
    SLACK54919 MSBOSOAK -1.000000
    SLACK54920 MSHNLOAK -1.000000
    SLACK54921 MSLAXLON -1.000000
    SLACK54922 P1044X32 -1.000000
    SLACK54923 P1047X54 -1.000000
    SLACK54924 P1032X76 -1.000000
    SLACK54925 P1033X54 -1.000000
    SLACK54926 P1036X43 -1.000000
    SLACK54927 P1040X43 -1.000000
    SLACK54928 P1042X32 -1.000000
    SLACK54929 P1032X75 -1.000000
    SLACK54930 P1040X42 -1.000000
    SLACK54931 P1016X43 -1.000000
    SLACK54932 P1003X32 -1.000000
    SLACK54933 P1004X43 -1.000000
    SLACK54934 P1105X43 -1.000000
    SLACK54935 P1047X23 -1.000000
    SLACK54936 P1001X32 -1.000000
    SLACK54937 P1002X43 -1.000000
    SLACK54938 P1007X43 -1.000000
    SLACK54939 P1002X42 -1.000000
    SLACK54940 P1022X23 -1.000000
    SLACK54941 P1019X43 -1.000000
    SLACK54942 P1021X32 -1.000000
    SLACK54943 P1105X32 -1.000000
    SLACK54944 P1017X43 -1.000000
    SLACK54945 P1046X23 -1.000000
    SLACK54946 P1008X53 -1.000000
    SLACK54947 P1009X43 -1.000000
    SLACK54948 P1011X42 -1.000000
    SLACK54949 P1012X32 -1.000000
    SLACK54950 P1017X42 -1.000000
    SLACK54951 P1026X23 -1.000000
    SLACK54952 P1027X23 -1.000000
    SLACK54953 P1029X24 -1.000000
    SLACK54954 P1030X24 -1.000000
    SLACK54955 P1050X32 -1.000000
    SLACK54956 P1004X32 -1.000000
    SLACK54957 P1008X54 -1.000000
    SLACK54958 P1011X43 -1.000000
    SLACK54959 P1029X23 -1.000000
    SLACK54960 P1030X23 -1.000000
    SLACK54961 P1047X34 -1.000000
    SLACK54962 P1051X23 -1.000000
    SLACK54963 P1027X25 -1.000000
    SLACK54964 P1029X27 -1.000000
    SLACK54965 P1030X26 -1.000000
    SLACK54966 P1008X52 -1.000000
    SLACK54967 P1009X42 -1.000000
    SLACK54968 P1029X25 -1.000000
    SLACK54969 P1013X32 -1.000000
    SLACK54970 P1014X32 -1.000000
    SLACK54971 P1017X32 -1.000000
    SLACK54972 P1015X43 -1.000000
    SLACK54973 P1013X42 -1.000000
    SLACK54974 P1015X42 -1.000000
    SLACK54975 P1050X42 -1.000000
    SLACK54976 P1018X43 -1.000000
    SLACK54977 P1020X32 -1.000000
    SLACK54978 P1008X34 -1.000000
    SLACK54979 P1011X23 -1.000000
    SLACK54980 P1015X23 -1.000000
    SLACK54981 P1016X23 -1.000000
    SLACK54982 P1028X32 -1.000000
    SLACK54983 P1029X43 -1.000000
    SLACK54984 P1030X43 -1.000000
    SLACK54985 P1002X32 -1.000000
    SLACK54986 P1008X32 -1.000000
    SLACK54987 P1009X32 -1.000000
    SLACK54988 P1010X32 -1.000000
    SLACK54989 P1018X32 -1.000000
    SLACK54990 P1019X32 -1.000000
    SLACK54991 P1023X32 -1.000000
    SLACK54992 P1029X45 -1.000000
    SLACK54993 P1032X23 -1.000000
    SLACK54994 P1008X42 -1.000000
    SLACK54995 P1029X35 -1.000000
    SLACK54996 P1032X63 -1.000000
    SLACK54997 P1033X42 -1.000000
    SLACK54998 P1034X42 -1.000000
    SLACK54999 P1036X32 -1.000000
    SLACK55000 P1032X64 -1.000000
    SLACK55001 P1033X43 -1.000000
    SLACK55002 P1037X42 -1.000000
    SLACK55003 P1039X32 -1.000000
    SLACK55004 P1032X65 -1.000000
    SLACK55005 P1034X43 -1.000000
    SLACK55006 P1037X43 -1.000000
    SLACK55007 P1040X32 -1.000000
    SLACK55008 P1041X32 -1.000000
    SLACK55009 P1032X34 -1.000000
    SLACK55010 P1033X23 -1.000000
    SLACK55011 P1035X23 -1.000000
    SLACK55012 P1032X35 -1.000000
    SLACK55013 P1034X23 -1.000000
    SLACK55014 P1035X24 -1.000000
    SLACK55015 P1032X45 -1.000000
    SLACK55016 P1035X34 -1.000000
    SLACK55017 P1037X23 -1.000000
    SLACK55018 P1038X23 -1.000000
    SLACK55019 UPBROW35934 1.000000
    SLACK55020 UPBROW35935 1.000000
    SLACK55021 UPBROW35936 1.000000
    SLACK55022 UPBROW35937 1.000000
    SLACK55023 UPBROW35938 1.000000
    SLACK55024 UPBROW35939 1.000000
    SLACK55025 UPBROW35940 1.000000
    SLACK55026 UPBROW35941 1.000000
    SLACK55027 UPBROW35942 1.000000
    SLACK55028 UPBROW35943 1.000000
    SLACK55029 UPBROW35944 1.000000
    SLACK55030 UPBROW35945 1.000000
    SLACK55031 UPBROW35946 1.000000
    SLACK55032 UPBROW35947 1.000000
    SLACK55033 UPBROW35948 1.000000
    SLACK55034 UPBROW35949 1.000000
    SLACK55035 UPBROW35950 1.000000
    SLACK55036 UPBROW35951 1.000000
    SLACK55037 UPBROW35952 1.000000
    SLACK55038 UPBROW35953 1.000000
    SLACK55039 UPBROW35954 1.000000
    SLACK55040 UPBROW35955 1.000000
    SLACK55041 UPBROW35956 1.000000
    SLACK55042 UPBROW35957 1.000000
    SLACK55043 UPBROW35958 1.000000
    SLACK55044 UPBROW35959 1.000000
    SLACK55045 UPBROW35960 1.000000
    SLACK55046 UPBROW35961 1.000000
    SLACK55047 UPBROW35962 1.000000
    SLACK55048 UPBROW35963 1.000000
    SLACK55049 UPBROW35964 1.000000
    SLACK55050 UPBROW35965 1.000000
    SLACK55051 UPBROW35966 1.000000
    SLACK55052 UPBROW35967 1.000000
    SLACK55053 UPBROW35968 1.000000
    SLACK55054 UPBROW35969 1.000000
    SLACK55055 UPBROW35970 1.000000
    SLACK55056 UPBROW35971 1.000000
    SLACK55057 UPBROW35972 1.000000
    SLACK55058 UPBROW35973 1.000000
    SLACK55059 UPBROW35974 1.000000
    SLACK55060 UPBROW35975 1.000000
    SLACK55061 UPBROW35976 1.000000
    SLACK55062 UPBROW35977 1.000000
    SLACK55063 UPBROW35978 1.000000
    SLACK55064 UPBROW35979 1.000000
    SLACK55065 UPBROW35980 1.000000
    SLACK55066 UPBROW35981 1.000000
    SLACK55067 UPBROW35982 1.000000
    SLACK55068 UPBROW35983 1.000000
    SLACK55069 UPBROW35984 1.000000
    SLACK55070 UPBROW35985 1.000000
    SLACK55071 UPBROW35986 1.000000
    SLACK55072 UPBROW35987 1.000000
    SLACK55073 UPBROW35988 1.000000
    SLACK55074 UPBROW35989 1.000000
    SLACK55075 UPBROW35990 1.000000
    SLACK55076 UPBROW35991 1.000000
    SLACK55077 UPBROW35992 1.000000
    SLACK55078 UPBROW35993 1.000000
    SLACK55079 UPBROW35994 1.000000
    SLACK55080 UPBROW35995 1.000000
    SLACK55081 UPBROW35996 1.000000
    SLACK55082 UPBROW35997 1.000000
    SLACK55083 UPBROW35998 1.000000
    SLACK55084 UPBROW35999 1.000000
    SLACK55085 UPBROW36000 1.000000
    SLACK55086 UPBROW36001 1.000000
    SLACK55087 UPBROW36002 1.000000
    SLACK55088 UPBROW36003 1.000000
    SLACK55089 UPBROW36004 1.000000
    SLACK55090 UPBROW36005 1.000000
    SLACK55091 UPBROW36006 1.000000
    SLACK55092 UPBROW36007 1.000000
    SLACK55093 UPBROW36008 1.000000
    SLACK55094 UPBROW36009 1.000000
    SLACK55095 UPBROW36010 1.000000
    SLACK55096 UPBROW36011 1.000000
    SLACK55097 UPBROW36012 1.000000
    SLACK55098 UPBROW36013 1.000000
    SLACK55099 UPBROW36014 1.000000
    SLACK55100 UPBROW36015 1.000000
    SLACK55101 UPBROW36016 1.000000
    SLACK55102 UPBROW36017 1.000000
    SLACK55103 UPBROW36018 1.000000
    SLACK55104 UPBROW36019 1.000000
    SLACK55105 UPBROW36020 1.000000
    SLACK55106 UPBROW36021 1.000000
    SLACK55107 UPBROW36022 1.000000
    SLACK55108 UPBROW36023 1.000000
    SLACK55109 UPBROW36024 1.000000
    SLACK55110 UPBROW36025 1.000000
    SLACK55111 UPBROW36026 1.000000
    SLACK55112 UPBROW36027 1.000000
    SLACK55113 UPBROW36028 1.000000
    SLACK55114 UPBROW36029 1.000000
    SLACK55115 UPBROW36030 1.000000
    SLACK55116 UPBROW36031 1.000000
    SLACK55117 UPBROW36032 1.000000
    SLACK55118 UPBROW36033 1.000000
    SLACK55119 UPBROW36034 1.000000
    SLACK55120 UPBROW36035 1.000000
    SLACK55121 UPBROW36036 1.000000
    SLACK55122 UPBROW36037 1.000000
    SLACK55123 UPBROW36038 1.000000
    SLACK55124 UPBROW36039 1.000000
    SLACK55125 UPBROW36040 1.000000
    SLACK55126 UPBROW36041 1.000000
    SLACK55127 UPBROW36042 1.000000
    SLACK55128 UPBROW36043 1.000000
    SLACK55129 UPBROW36044 1.000000
    SLACK55130 UPBROW36045 1.000000
    SLACK55131 UPBROW36046 1.000000
    SLACK55132 UPBROW36047 1.000000
    SLACK55133 UPBROW36048 1.000000
    SLACK55134 UPBROW36049 1.000000
    SLACK55135 UPBROW36050 1.000000
    SLACK55136 UPBROW36051 1.000000
    SLACK55137 UPBROW36052 1.000000
    SLACK55138 UPBROW36053 1.000000
    SLACK55139 UPBROW36054 1.000000
    SLACK55140 UPBROW36055 1.000000
    SLACK55141 UPBROW36056 1.000000
    SLACK55142 UPBROW36057 1.000000
    SLACK55143 UPBROW36058 1.000000
    SLACK55144 UPBROW36059 1.000000
    SLACK55145 UPBROW36060 1.000000
    SLACK55146 UPBROW36061 1.000000
    SLACK55147 UPBROW36062 1.000000
    SLACK55148 UPBROW36063 1.000000
    SLACK55149 UPBROW36064 1.000000
    SLACK55150 UPBROW36065 1.000000
    SLACK55151 UPBROW36066 1.000000
    SLACK55152 UPBROW36067 1.000000
    SLACK55153 UPBROW36068 1.000000
    SLACK55154 UPBROW36069 1.000000
    SLACK55155 UPBROW36070 1.000000
    SLACK55156 UPBROW36071 1.000000
    SLACK55157 UPBROW36072 1.000000
    SLACK55158 UPBROW36073 1.000000
    SLACK55159 UPBROW36074 1.000000
    SLACK55160 UPBROW36075 1.000000
    SLACK55161 UPBROW36076 1.000000
    SLACK55162 UPBROW36077 1.000000
    SLACK55163 UPBROW36078 1.000000
    SLACK55164 UPBROW36079 1.000000
    SLACK55165 UPBROW36080 1.000000
    SLACK55166 UPBROW36081 1.000000
    SLACK55167 UPBROW36082 1.000000
    SLACK55168 UPBROW36083 1.000000
    SLACK55169 UPBROW36084 1.000000
    SLACK55170 UPBROW36085 1.000000
    SLACK55171 UPBROW36086 1.000000
    SLACK55172 UPBROW36087 1.000000
    SLACK55173 UPBROW36088 1.000000
    SLACK55174 UPBROW36089 1.000000
    SLACK55175 UPBROW36090 1.000000
    SLACK55176 UPBROW36091 1.000000
    SLACK55177 UPBROW36092 1.000000
    SLACK55178 UPBROW36093 1.000000
    SLACK55179 UPBROW36094 1.000000
    SLACK55180 UPBROW36095 1.000000
RHS
    RHS1     SYSTDEPT 200.000000
    RHS1     FLAV*1   10.500000
    RHS1     FLAV*2   13.650000
    RHS1     FLAV*3   23.500000
    RHS1     FLAV*4   21.750000
    RHS1     FLAV*5   21.750000
    RHS1     FLAV*6   24.300000
    RHS1     DMBOSHNL 12.000000
    RHS1     DMBOSLAX 14.000000
    RHS1     DMBOSSEA 45.000000
    RHS1     DMBOSSFO 122.000000
    RHS1     DMBOSTPE 1.000000
    RHS1     DMBOSTYO 3.000000
    RHS1     DMBOSYUL 676.000000
    RHS1     DMBOSYVR 26.000000
    RHS1     DMBOSYWG 37.000000
    RHS1     DMBOSYYZ 215.000000
    RHS1     DMBUROAK 27.000000
    RHS1     DMBURSEA 52.000000
    RHS1     DMBURSFO 271.000000
    RHS1     DMHNLLAX 297.000000
    RHS1     DMHNLLON 5.000000
    RHS1     DMHNLPAR 1.000000
    RHS1     DMHNLSEA 112.000000
    RHS1     DMHNLSFO 35.000000
    RHS1     DMHNLYVR 67.000000
    RHS1     DMLASSEA 370.000000
    RHS1     DMLASYVR 37.000000
    RHS1     DMLAXOAK 78.000000
    RHS1     DMLAXSEA 813.000000
    RHS1     DMLAXSFO 2952.000000
    RHS1     DMLAXTPE 31.000000
    RHS1     DMLAXTYO 41.000000
    RHS1     DMLAXYVR 193.000000
    RHS1     DMLONPAR 2.000000
    RHS1     DMLONSEA 92.000000
    RHS1     DMLONYVR 51.000000
    RHS1     DMOAKONT 13.000000
    RHS1     DMOAKSEA 110.000000
    RHS1     DMONTSFO 173.000000
    RHS1     DMONTSEA 42.000000
    RHS1     DMPARSEA 36.000000
    RHS1     DMPARYVR 24.000000
    RHS1     DMRNOSEA 284.000000
    RHS1     DMRNOYVR 67.000000
    RHS1     DMSEASFO 1417.000000
    RHS1     DMSEATPE 47.000000
    RHS1     DMSEATYO 114.000000
    RHS1     DMSEAYVR 547.000000
    RHS1     DMSFOTPE 6.000000
    RHS1     DMSFOTYO 17.000000
    RHS1     DMSFOYVR 298.000000
    RHS1     DMTPETYO 111.000000
    RHS1     DMTPEYVR 17.000000
    RHS1     DMTYOYVR 42.000000
    RHS1     DMYULYVR 262.000000
    RHS1     DMYULYWG 413.000000
    RHS1     DMYULYYZ 2612.000000
    RHS1     DMYVRYWG 375.000000
    RHS1     DMYVRYYZ 318.000000
    RHS1     DMYWGYYZ 278.000000
    RHS1     DMBOSOAK 11.000000
    RHS1     DMBOSBUR 7.000000
    RHS1     DMBOSONT 4.000000
    RHS1     DMBURYVR 26.000000
    RHS1     DMBURTYO 2.000000
    RHS1     DMBURTPE 1.000000
    RHS1     DMBURHNL 11.000000
    RHS1     DMHNLOAK 24.000000
    RHS1     DMHNLONT 16.000000
    RHS1     DMHNLYWG 3.000000
    RHS1     DMHNLYYZ 24.000000
    RHS1     DMHNLYUL 40.000000
    RHS1     DMLASTYO 5.000000
    RHS1     DMLASTPE 1.000000
    RHS1     DMLAXLON 13.000000
    RHS1     DMLAXPAR 8.000000
    RHS1     DMBURLON 1.000000
    RHS1     DMBURPAR 1.000000
    RHS1     DMLONONT 1.000000
    RHS1     DMLONOAK 1.000000
    RHS1     DMOAKPAR 2.000000
    RHS1     DMOAKTYO 7.000000
    RHS1     DMOAKTPE 2.000000
    RHS1     DMONTPAR 2.000000
    RHS1     DMONTTYO 2.000000
    RHS1     DMONTTPE 1.000000
    RHS1     DMPARSFO 2.000000
    RHS1     DMRNOTYO 5.000000
    RHS1     DMRNOTPE 2.000000
    RHS1     DMTPEYWG 21.000000
    RHS1     DMTPEYYZ 13.000000
    RHS1     DMTPEYUL 6.000000
    RHS1     DMTYOYUL 7.000000
    RHS1     DMTYOYYZ 17.000000
    RHS1     DMTYOYWG 25.000000
    RHS1     MSBOSHNL 1.000000
    RHS1     MSBOSSEA 1.000000
    RHS1     MSBOSSFO 2.000000
    RHS1     MSBOSYUL 7.000000
    RHS1     MSBOSYVR 1.000000
    RHS1     MSBOSYWG 1.000000
    RHS1     MSBOSYYZ 3.000000
    RHS1     MSBUROAK 1.000000
    RHS1     MSBURSEA 1.000000
    RHS1     MSBURSFO 4.000000
    RHS1     MSHNLLAX 3.000000
    RHS1     MSHNLSEA 2.000000
    RHS1     MSHNLSFO 1.000000
    RHS1     MSHNLYVR 2.000000
    RHS1     MSLASSEA 4.000000
    RHS1     MSLASYVR 1.000000
    RHS1     MSLAXOAK 2.000000
    RHS1     MSLAXSEA 7.000000
    RHS1     MSLAXSFO 21.000000
    RHS1     MSLAXTPE 2.000000
    RHS1     MSLAXYVR 3.000000
    RHS1     MSLONPAR 1.000000
    RHS1     MSLONSEA 1.000000
    RHS1     MSLONYVR 1.000000
    RHS1     MSOAKONT 1.000000
    RHS1     MSOAKSEA 3.000000
    RHS1     MSONTSFO 3.000000
    RHS1     MSONTSEA 2.000000
    RHS1     MSPARSEA 1.000000
    RHS1     MSRNOSEA 4.000000
    RHS1     MSRNOYVR 1.000000
    RHS1     MSSEASFO 10.000000
    RHS1     MSSEATPE 1.000000
    RHS1     MSSEATYO 1.000000
    RHS1     MSSEAYVR 6.000000
    RHS1     MSSFOYVR 5.000000
    RHS1     MSTPETYO 1.000000
    RHS1     MSYULYVR 7.000000
    RHS1     MSYULYWG 5.000000
    RHS1     MSYULYYZ 24.000000
    RHS1     MSYVRYWG 5.000000
    RHS1     MSYVRYYZ 5.000000
    RHS1     MSYWGYYZ 4.000000
    RHS1     MSBOSOAK 1.000000
    RHS1     MSHNLOAK 1.000000
    RHS1     MSLAXLON 1.000000
    RHS1     NOPTLON0 4.000000
    RHS1     NOPTLON1 2.000000
    RHS1     NOPTTYO0 4.000000
    RHS1     NOPTTYO1 2.000000
    RANGE1   DMBOSHNL 2.000000
    RANGE1   DMBOSLAX 2.000000
    RANGE1   DMBOSSEA 5.000000
    RANGE1   DMBOSSFO 13.000000
    RANGE1   DMBOSTPE 1.000000
    RANGE1   DMBOSTYO 3.000000
    RANGE1   DMBOSYUL 68.000000
    RANGE1   DMBOSYVR 3.000000
    RANGE1   DMBOSYWG 4.000000
    RANGE1   DMBOSYYZ 22.000000
    RANGE1   DMBUROAK 3.000000
    RANGE1   DMBURSEA 6.000000
    RANGE1   DMBURSFO 28.000000
    RANGE1   DMHNLLAX 30.000000
    RANGE1   DMHNLLON 5.000000
    RANGE1   DMHNLPAR 1.000000
    RANGE1   DMHNLSEA 12.000000
    RANGE1   DMHNLSFO 4.000000
    RANGE1   DMHNLYVR 7.000000
    RANGE1   DMLASSEA 38.000000
    RANGE1   DMLASYVR 4.000000
    RANGE1   DMLAXOAK 8.000000
    RANGE1   DMLAXSEA 82.000000
    RANGE1   DMLAXSFO 296.000000
    RANGE1   DMLAXTPE 4.000000
    RANGE1   DMLAXTYO 5.000000
    RANGE1   DMLAXYVR 20.000000
    RANGE1   DMLONPAR 2.000000
    RANGE1   DMLONSEA 10.000000
    RANGE1   DMLONYVR 6.000000
    RANGE1   DMOAKONT 2.000000
    RANGE1   DMOAKSEA 12.000000
    RANGE1   DMONTSFO 18.000000
    RANGE1   DMONTSEA 5.000000
    RANGE1   DMPARSEA 4.000000
    RANGE1   DMPARYVR 3.000000
    RANGE1   DMRNOSEA 29.000000
    RANGE1   DMRNOYVR 7.000000
    RANGE1   DMSEASFO 142.000000
    RANGE1   DMSEATPE 5.000000
    RANGE1   DMSEATYO 12.000000
    RANGE1   DMSEAYVR 55.000000
    RANGE1   DMSFOTPE 6.000000
    RANGE1   DMSFOTYO 2.000000
    RANGE1   DMSFOYVR 30.000000
    RANGE1   DMTPETYO 12.000000
    RANGE1   DMTPEYVR 2.000000
    RANGE1   DMTYOYVR 5.000000
    RANGE1   DMYULYVR 27.000000
    RANGE1   DMYULYWG 42.000000
    RANGE1   DMYULYYZ 262.000000
    RANGE1   DMYVRYWG 38.000000
    RANGE1   DMYVRYYZ 32.000000
    RANGE1   DMYWGYYZ 28.000000
    RANGE1   DMBOSOAK 2.000000
    RANGE1   DMBOSBUR 7.000000
    RANGE1   DMBOSONT 4.000000
    RANGE1   DMBURYVR 3.000000
    RANGE1   DMBURTYO 2.000000
    RANGE1   DMBURTPE 1.000000
    RANGE1   DMBURHNL 2.000000
    RANGE1   DMHNLOAK 3.000000
    RANGE1   DMHNLONT 2.000000
    RANGE1   DMHNLYWG 3.000000
    RANGE1   DMHNLYYZ 3.000000
    RANGE1   DMHNLYUL 5.000000
    RANGE1   DMLASTYO 5.000000
    RANGE1   DMLASTPE 1.000000
    RANGE1   DMLAXLON 2.000000
    RANGE1   DMLAXPAR 8.000000
    RANGE1   DMBURLON 1.000000
    RANGE1   DMBURPAR 1.000000
    RANGE1   DMLONONT 1.000000
    RANGE1   DMLONOAK 1.000000
    RANGE1   DMOAKPAR 2.000000
    RANGE1   DMOAKTYO 7.000000
    RANGE1   DMOAKTPE 2.000000
    RANGE1   DMONTPAR 2.000000
    RANGE1   DMONTTYO 2.000000
    RANGE1   DMONTTPE 1.000000
    RANGE1   DMPARSFO 2.000000
    RANGE1   DMRNOTYO 5.000000
    RANGE1   DMRNOTPE 2.000000
    RANGE1   DMTPEYWG 3.000000
    RANGE1   DMTPEYYZ 2.000000
    RANGE1   DMTPEYUL 6.000000
    RANGE1   DMTYOYUL 7.000000
    RANGE1   DMTYOYYZ 2.000000
    RANGE1   DMTYOYWG 3.000000
    BOUNDRHS UPBROW35934 105.000000
    BOUNDRHS UPBROW35935 0.000000
    BOUNDRHS UPBROW35936 91.000000
    BOUNDRHS UPBROW35937 0.000000
    BOUNDRHS UPBROW35938 47.000000
    BOUNDRHS UPBROW35939 0.000000
    BOUNDRHS UPBROW35940 43.500000
    BOUNDRHS UPBROW35941 0.000000
    BOUNDRHS UPBROW35942 87.000000
    BOUNDRHS UPBROW35943 0.000000
    BOUNDRHS UPBROW35944 81.000000
    BOUNDRHS UPBROW35945 0.000000
    BOUNDRHS UPBROW35946 3.000000
    BOUNDRHS UPBROW35947 3.000000
    BOUNDRHS UPBROW35948 3.000000
    BOUNDRHS UPBROW35949 3.000000
    BOUNDRHS UPBROW35950 3.000000
    BOUNDRHS UPBROW35951 3.000000
    BOUNDRHS UPBROW35952 4.000000
    BOUNDRHS UPBROW35953 4.000000
    BOUNDRHS UPBROW35954 4.000000
    BOUNDRHS UPBROW35955 4.000000
    BOUNDRHS UPBROW35956 4.000000
    BOUNDRHS UPBROW35957 4.000000
    BOUNDRHS UPBROW35958 2.000000
    BOUNDRHS UPBROW35959 1.000000
    BOUNDRHS UPBROW35960 2.000000
    BOUNDRHS UPBROW35961 2.000000
    BOUNDRHS UPBROW35962 2.000000
    BOUNDRHS UPBROW35963 2.000000
    BOUNDRHS UPBROW35964 7.000000
    BOUNDRHS UPBROW35965 7.000000
    BOUNDRHS UPBROW35966 7.000000
    BOUNDRHS UPBROW35967 7.000000
    BOUNDRHS UPBROW35968 7.000000
    BOUNDRHS UPBROW35969 7.000000
    BOUNDRHS UPBROW35970 7.000000
    BOUNDRHS UPBROW35971 7.000000
    BOUNDRHS UPBROW35972 7.000000
    BOUNDRHS UPBROW35973 7.000000
    BOUNDRHS UPBROW35974 7.000000
    BOUNDRHS UPBROW35975 7.000000
    BOUNDRHS UPBROW35976 7.000000
    BOUNDRHS UPBROW35977 7.000000
    BOUNDRHS UPBROW35978 7.000000
    BOUNDRHS UPBROW35979 7.000000
    BOUNDRHS UPBROW35980 7.000000
    BOUNDRHS UPBROW35981 7.000000
    BOUNDRHS UPBROW35982 7.000000
    BOUNDRHS UPBROW35983 7.000000
    BOUNDRHS UPBROW35984 7.000000
    BOUNDRHS UPBROW35985 7.000000
    BOUNDRHS UPBROW35986 7.000000
    BOUNDRHS UPBROW35987 7.000000
    BOUNDRHS UPBROW35988 7.000000
    BOUNDRHS UPBROW35989 7.000000
    BOUNDRHS UPBROW35990 7.000000
    BOUNDRHS UPBROW35991 7.000000
    BOUNDRHS UPBROW35992 4.000000
    BOUNDRHS UPBROW35993 4.000000
    BOUNDRHS UPBROW35994 4.000000
    BOUNDRHS UPBROW35995 4.000000
    BOUNDRHS UPBROW35996 4.000000
    BOUNDRHS UPBROW35997 4.000000
    BOUNDRHS UPBROW35998 4.000000
    BOUNDRHS UPBROW35999 4.000000
    BOUNDRHS UPBROW36000 4.000000
    BOUNDRHS UPBROW36001 4.000000
    BOUNDRHS UPBROW36002 4.000000
    BOUNDRHS UPBROW36003 4.000000
    BOUNDRHS UPBROW36004 4.000000
    BOUNDRHS UPBROW36005 4.000000
    BOUNDRHS UPBROW36006 4.000000
    BOUNDRHS UPBROW36007 4.000000
    BOUNDRHS UPBROW36008 4.000000
    BOUNDRHS UPBROW36009 4.000000
    BOUNDRHS UPBROW36010 4.000000
    BOUNDRHS UPBROW36011 4.000000
    BOUNDRHS UPBROW36012 7.000000
    BOUNDRHS UPBROW36013 7.000000
    BOUNDRHS UPBROW36014 7.000000
    BOUNDRHS UPBROW36015 7.000000
    BOUNDRHS UPBROW36016 7.000000
    BOUNDRHS UPBROW36017 7.000000
    BOUNDRHS UPBROW36018 7.000000
    BOUNDRHS UPBROW36019 7.000000
    BOUNDRHS UPBROW36020 7.000000
    BOUNDRHS UPBROW36021 7.000000
    BOUNDRHS UPBROW36022 7.000000
    BOUNDRHS UPBROW36023 7.000000
    BOUNDRHS UPBROW36024 7.000000
    BOUNDRHS UPBROW36025 7.000000
    BOUNDRHS UPBROW36026 7.000000
    BOUNDRHS UPBROW36027 7.000000
    BOUNDRHS UPBROW36028 7.000000
    BOUNDRHS UPBROW36029 7.000000
    BOUNDRHS UPBROW36030 7.000000
    BOUNDRHS UPBROW36031 7.000000
    BOUNDRHS UPBROW36032 7.000000
    BOUNDRHS UPBROW36033 7.000000
    BOUNDRHS UPBROW36034 1.000000
    BOUNDRHS UPBROW36035 1.000000
    BOUNDRHS UPBROW36036 1.000000
    BOUNDRHS UPBROW36037 1.000000
    BOUNDRHS UPBROW36038 1.000000
    BOUNDRHS UPBROW36039 1.000000
    BOUNDRHS UPBROW36040 1.000000
    BOUNDRHS UPBROW36041 1.000000
    BOUNDRHS UPBROW36042 1.000000
    BOUNDRHS UPBROW36043 1.000000
    BOUNDRHS UPBROW36044 1.000000
    BOUNDRHS UPBROW36045 1.000000
    BOUNDRHS UPBROW36046 5.000000
    BOUNDRHS UPBROW36047 5.000000
    BOUNDRHS UPBROW36048 5.000000
    BOUNDRHS UPBROW36049 5.000000
    BOUNDRHS UPBROW36050 5.000000
    BOUNDRHS UPBROW36051 5.000000
    BOUNDRHS UPBROW36052 5.000000
    BOUNDRHS UPBROW36053 5.000000
    BOUNDRHS UPBROW36054 5.000000
    BOUNDRHS UPBROW36055 5.000000
    BOUNDRHS UPBROW36056 5.000000
    BOUNDRHS UPBROW36057 5.000000
    BOUNDRHS UPBROW36058 5.000000
    BOUNDRHS UPBROW36059 5.000000
    BOUNDRHS UPBROW36060 5.000000
    BOUNDRHS UPBROW36061 5.000000
    BOUNDRHS UPBROW36062 5.000000
    BOUNDRHS UPBROW36063 5.000000
    BOUNDRHS UPBROW36064 10.000000
    BOUNDRHS UPBROW36065 10.000000
    BOUNDRHS UPBROW36066 7.000000
    BOUNDRHS UPBROW36067 7.000000
    BOUNDRHS UPBROW36068 10.000000
    BOUNDRHS UPBROW36069 10.000000
    BOUNDRHS UPBROW36070 10.000000
    BOUNDRHS UPBROW36071 20.000000
    BOUNDRHS UPBROW36072 20.000000
    BOUNDRHS UPBROW36073 20.000000
    BOUNDRHS UPBROW36074 20.000000
    BOUNDRHS UPBROW36075 20.000000
    BOUNDRHS UPBROW36076 20.000000
    BOUNDRHS UPBROW36077 3.000000
    BOUNDRHS UPBROW36078 3.000000
    BOUNDRHS UPBROW36079 3.000000
    BOUNDRHS UPBROW36080 3.000000
    BOUNDRHS UPBROW36081 3.000000
    BOUNDRHS UPBROW36082 3.000000
    BOUNDRHS UPBROW36083 2.000000
    BOUNDRHS UPBROW36084 1.000000
    BOUNDRHS UPBROW36085 1.000000
    BOUNDRHS UPBROW36086 1.000000
    BOUNDRHS UPBROW36087 5.000000
    BOUNDRHS UPBROW36088 5.000000
    BOUNDRHS UPBROW36089 5.000000
    BOUNDRHS UPBROW36090 20.000000
    BOUNDRHS UPBROW36091 20.000000
    BOUNDRHS UPBROW36092 20.000000
    BOUNDRHS UPBROW36093 20.000000
    BOUNDRHS UPBROW36094 20.000000
    BOUNDRHS UPBROW36095 20.000000
BOUNDS
ENDATA
