NAME          BORE3D
ROWS
 E  B...XI  
 E  TIE.MRAR
 E  BAB...XI
 E  BAC...XI
 E  BAD...XI
 E  BAF...XI
 E  BAG...XI
 E  BAH...XI
 E  BAN...XI
 E  BAR...XI
 E  BAS...XI
 E  BAY...XI
 E  BBT...XI
 E  BCC...XI
 E  BCE...XI
 E  BCF...XI
 E  BCK...XI
 E  BC2...XI
 E  BC3...XI
 E  BC4...XI
 E  BDC...XI
 E  BDF...XI
 E  BDH...XI
 E  BD1...XI
 E  BFF...XI
 E  BFG...XI
 E  BFH...XI
 E  BFI...XI
 E  BFL...XI
 E  BFN...XI
 E  BFP...XI
 E  BFS...XI
 E  BFX...XI
 E  BF1...XI
 E  BF2...XI
 E  BF3...XI
 E  BF4...XI
 E  BGF...XI
 E  BG1...XI
 E  BHB...XI
 E  BHF...XI
 E  BHG...XI
 E  BHH...XI
 E  BHN...XI
 E  BHP...XI
 E  BHR...XI
 E  BHS...XI
 E  BH1...XI
 E  BIC...XI
 E  BIF...XI
 E  BIL...XI
 E  BIP...XI
 E  BIS...XI
 E  BL2...XI
 E  BL3...XI
 E  BL4...XI
 E  BMM...XI
 E  BMR...XI
 E  BNF...XI
 E  BNH...XI
 E  BNP...XI
 E  BN1...XI
 E  BO2...XI
 E  BPR...XI
 E  BPS...XI
 E  BPX...XI
 E  BP1...XI
 E  BRS...XI
 E  BSB...XI
 E  BSS...XI
 E  BWP...XI
 E  BWS...XI
 E  BWW...XI
 E  BYD...XI
 E  BYF...XI
 E  BYG...XI
 E  BYH...XI
 E  BYN...XI
 E  BYS...XI
 E  BYY...XI
 E  B6H...XI
 E  B9H...XI
 E  BFH.VOXI
 E  BFL.VOXI
 E  BFN.VOXI
 E  BF1.VOXI
 E  BF2.VOXI
 E  BF3.VOXI
 E  BF4.VOXI
 E  BFH.WTXI
 E  BFL.WTXI
 E  BFN.WTXI
 E  BF1.WTXI
 E  BF2.WTXI
 E  BF3.WTXI
 E  BF4.WTXI
 E  CMC...XI
 E  COF.BBXI
 E  CUT.BBXI
 E  COF.BCXI
 E  CUT.BCXI
 E  CUT.BDXI
 E  CUT.BFXI
 E  CUT.BGXI
 E  COF.BHXI
 E  CUT.BHXI
 E  COF.CAXI
 E  CON.CGXI
 E  CUT.CTXI
 E  CON.CUXI
 E  CON.CXXI
 E  CTK.CXXI
 E  CTK.C3XI
 E  CTK.C4XI
 E  CON.DHXI
 E  CUT.DHXI
 E  CUT.DLXI
 E  CTK.DPXI
 E  CUT.DPXI
 E  CUT.DSXI
 E  CON.FDXI
 E  CON.FGXI
 E  CON.FHXI
 E  CON.FNXI
 E  C...FOXI
 E  CTK.FOXI
 E  CON.F1XI
 E  CON.F2XI
 E  CUT.GTXI
 E  CON.GXXI
 E  COF.HOXI
 E  CON.HOXI
 E  CTK.HOXI
 E  CON.HPXI
 E  CTK.HPXI
 E  COF.HSXI
 E  CON.HSXI
 E  CTK.HSXI
 E  CON.HYXI
 E  CUT.KWXI
 E  C...LEXI
 E  CON.LEXI
 E  CTK.LEXI
 E  CON.L1XI
 E  CTK.MMXI
 E  CON.M1XI
 E  CON.M2XI
 E  CON.M3XI
 E  CON.NCXI
 E  CON.NFXI
 E  CON.NNXI
 E  CON.NPXI
 E  CON.NRXI
 E  CON.NSXI
 E  C...OFXI
 E  COF.OFXI
 E  CON.OPXI
 E  CUT.PDXI
 E  CON.PHXI
 E  CTK.PHXI
 E  COF.POXI
 E  CON.POXI
 E  COF.PPXI
 E  CTK.PSXI
 E  C...RAXI
 E  CON.RAXI
 E  CTK.RAXI
 E  C...RDXI
 E  COF.RDXI
 E  CON.RDXI
 E  CUT.RSXI
 E  CUT.RTXI
 E  COF.SFXI
 E  CON.SGXI
 E  COF.SHXI
 E  CON.SHXI
 E  CTK.SHXI
 E  COF.SKXI
 E  CON.SKXI
 E  C...STXI
 E  CON.STXI
 E  CTK.STXI
 E  CON.SWXI
 E  COF.TAXI
 E  CUT.TGXI
 E  CUT.TWXI
 E  COF.WTXI
 E  KFG.PRXI
 E  KLQ.PRXI
 E  UBW...XI
 E  UCW...XI
 E  UDW...XI
 E  UFF...XI
 E  UFS...XI
 E  UHE...XI
 E  UKW...XI
 E  UMC...XI
 E  UOH...XI
 E  UOL...XI
 E  UOM...XI
 E  UPB...XI
 E  UPC...XI
 E  UPD...XI
 E  UPH...XI
 E  UPK...XI
 E  UPL...XI
 E  UPM...XI
 E  UPT...XI
 E  UPW...XI
 E  URW...XI
 E  USH...XI
 E  USL...XI
 E  USM...XI
 E  UTW...XI
 E  XGS.FHXI
 E  XSU.FHXI
 E  XGS.FLXI
 E  XSL.FLXI
 E  XSU.FLXI
 E  XGS.FNXI
 E  XSU.FNXI
 E  XGS.F1XI
 E  XSL.F1XI
 E  XSU.F1XI
 E  XGS.F2XI
 E  XSL.F2XI
 E  XSU.F2XI
 E  XGS.F3XI
 E  XSL.F3XI
 E  XSU.F3XI
 E  XGS.F4XI
 E  XSL.F4XI
 E  XSU.F4XI
 N  FAT0..J.
 E  UPBROW4669
 E  UPBROW4670
 E  UPBROW4671
 E  UPBROW4672
 E  UPBROW4673
 E  UPBROW4674
 E  UPBROW4675
 E  UPBROW4676
 E  UPBROW4677
 E  UPBROW4678
 E  UPBROW4679
 E  LOBROW4680
COLUMNS
    BNP.FHXI BNP...XI -1.000000   BFH...XI 0.092900
    BNP.FHXI BFH.VOXI 1.244250   BFH.WTXI 1.000000
    BNP.FHXI C...FOXI -1.397200
    BDC.FLXI BDC...XI -1.000000   BFL...XI 0.081700
    BDC.FLXI BFL.VOXI 1.084130   BFL.WTXI 1.000000
    BDC.FLXI XSU.FLXI 0.010000   C...FOXI -1.599500
    BDF.FLXI BDF...XI -1.000000   BFL...XI -0.500000
    BDF.FLXI BFL.VOXI 2.000000   BFL.WTXI 1.000000
    BDF.FLXI XSU.FLXI 0.900000   XSL.FLXI 0.300000
    BDF.FLXI C...FOXI -1.812000
    BDH.FLXI BDH...XI -1.000000   BFL...XI 0.053200
    BDH.FLXI BFL.VOXI 1.063830   BFL.WTXI 1.000000
    BDH.FLXI XSU.FLXI 0.010000   C...FOXI -1.599500
    BD1.FLXI BD1...XI -1.000000   BFL...XI 0.008300
    BD1.FLXI BFL.VOXI 1.007050   BFL.WTXI 1.000000
    BD1.FLXI XSU.FLXI 0.220000   C...FOXI -1.599500
    BGF.FLXI BGF...XI -1.000000   BFL...XI -0.122700
    BGF.FLXI BFL.VOXI 0.854700   BFL.WTXI 1.000000
    BGF.FLXI XSU.FLXI 1.100000   C...FOXI -1.812000
    BG1.FLXI BG1...XI -1.000000   BFL...XI -0.114000
    BG1.FLXI BFL.VOXI 0.880280   BFL.WTXI 1.000000
    BG1.FLXI XSU.FLXI 1.020000   C...FOXI -2.392300
    BHF.FLXI BHF...XI -1.000000   BFL...XI -0.107900
    BHF.FLXI BFL.VOXI 0.877190   BFL.WTXI 1.000000
    BHF.FLXI XSU.FLXI 1.000000   C...FOXI -1.812000
    BHG.FLXI BHG...XI -1.000000   BFL...XI -0.048400
    BHG.FLXI BFL.VOXI 0.951470   BFL.WTXI 1.000000
    BHG.FLXI XSU.FLXI 0.200000   C...FOXI -1.599500
    BHH.FLXI BHH...XI -1.000000   BFL...XI -0.500000
    BHH.FLXI BFL.VOXI 0.909090   BFL.WTXI 1.000000
    BHH.FLXI XSU.FLXI 0.010000   XSL.FLXI 0.400000
    BHH.FLXI C...FOXI -1.599500
    BHN.FLXI BHN...XI -1.000000   BFL...XI -0.000700
    BHN.FLXI BFL.VOXI 0.998000   BFL.WTXI 1.000000
    BHN.FLXI XSU.FLXI 0.080000   C...FOXI -1.599500
    BHR.FLXI BHR...XI -1.000000   BFL...XI -0.600000
    BHR.FLXI BFL.VOXI 1.250000   BFL.WTXI 1.000000
    BHR.FLXI XSU.FLXI 0.083000   XSL.FLXI 2.000000
    BHR.FLXI C...FOXI -1.599500
    BH1.FLXI BH1...XI -1.000000   BFL...XI -0.005700
    BH1.FLXI BFL.VOXI 0.990100   BFL.WTXI 1.000000
    BH1.FLXI XSU.FLXI 0.320000   C...FOXI -1.599500
    BP1.FLXI BP1...XI -1.000000   BFL...XI -0.147100
    BP1.FLXI BFL.VOXI 0.865050   BFL.WTXI 1.000000
    BP1.FLXI XSU.FLXI 1.300000   C...FOXI -2.392300
    BNF.FNXI C...FOXI -1.397200
    BNH.FNXI C...FOXI -1.397200
    BN1.FNXI C...FOXI -1.397200
    BDC.F1XI BDC...XI -1.000000   BF1...XI 0.081700
    BDC.F1XI BF1.VOXI 1.084130   BF1.WTXI 1.000000
    BDC.F1XI XSU.F1XI 0.010000   C...FOXI -1.599500
    BDF.F1XI BDF...XI -1.000000   BF1...XI -0.500000
    BDF.F1XI BF1.VOXI 2.000000   BF1.WTXI 1.000000
    BDF.F1XI XSU.F1XI 0.900000   XSL.F1XI 0.300000
    BDF.F1XI C...FOXI -1.812000
    BDH.F1XI BDH...XI -1.000000   BF1...XI 0.053200
    BDH.F1XI BF1.VOXI 1.063830   BF1.WTXI 1.000000
    BDH.F1XI XSU.F1XI 0.010000   C...FOXI -1.599500
    BD1.F1XI BD1...XI -1.000000   BF1...XI 0.008300
    BD1.F1XI BF1.VOXI 1.007050   BF1.WTXI 1.000000
    BD1.F1XI XSU.F1XI 0.220000   C...FOXI -1.599500
    BGF.F2XI C...FOXI -1.812000
    BG1.F2XI C...FOXI -2.392300
    BHF.F2XI C...FOXI -1.812000
    BHG.F2XI BHG...XI -1.000000   BF2...XI -0.048400
    BHG.F2XI BF2.VOXI 0.951470   BF2.WTXI 1.000000
    BHG.F2XI XSU.F2XI 0.200000   C...FOXI -1.599500
    BHH.F2XI C...FOXI -1.599500
    BHN.F2XI BHN...XI -1.000000   BF2...XI -0.000700
    BHN.F2XI BF2.VOXI 0.998000   BF2.WTXI 1.000000
    BHN.F2XI XSU.F2XI 0.080000   C...FOXI -1.599500
    BHR.F2XI BHR...XI -1.000000   BF2...XI -0.600000
    BHR.F2XI BF2.VOXI 1.250000   BF2.WTXI 1.000000
    BHR.F2XI XSU.F2XI 0.083000   XSL.F2XI 2.000000
    BHR.F2XI C...FOXI -1.599500
    BH1.F2XI C...FOXI -1.599500
    BP1.F2XI C...FOXI -2.392300
    BGF.F3XI C...FOXI -1.812000
    BG1.F3XI C...FOXI -2.392300
    BHF.F3XI C...FOXI -1.812000
    BHG.F3XI BHG...XI -1.000000   BF3...XI -0.048400
    BHG.F3XI BF3.VOXI 0.951470   BF3.WTXI 1.000000
    BHG.F3XI XSU.F3XI 0.200000   C...FOXI -1.599500
    BHH.F3XI C...FOXI -1.599500
    BHN.F3XI BHN...XI -1.000000   BF3...XI -0.000700
    BHN.F3XI BF3.VOXI 0.998000   BF3.WTXI 1.000000
    BHN.F3XI XSU.F3XI 0.080000   C...FOXI -1.599500
    BHP.F3XI BHP...XI -1.000000   BF3...XI -0.600000
    BHP.F3XI BF3.VOXI 0.833330   BF3.WTXI 1.000000
    BHP.F3XI XSU.F3XI 0.083000   XSL.F3XI 3.000000
    BHP.F3XI C...FOXI -1.812000
    BHR.F3XI BHR...XI -1.000000   BF3...XI -0.600000
    BHR.F3XI BF3.VOXI 1.250000   BF3.WTXI 1.000000
    BHR.F3XI XSU.F3XI 0.083000   XSL.F3XI 2.000000
    BHR.F3XI C...FOXI -1.599500
    BH1.F3XI C...FOXI -1.599500
    BP1.F3XI C...FOXI -2.392300
    BSB.F3XI BSB...XI -1.000000   BF3...XI -0.147100
    BSB.F3XI BF3.VOXI 0.839630   BF3.WTXI 1.000000
    BSB.F3XI XSU.F3XI 1.300000   XSL.F3XI 0.730000
    BSB.F3XI C...FOXI -1.812000
    BDC.F4XI C...FOXI -1.599500
    BDF.F4XI C...FOXI -1.812000
    BDH.F4XI C...FOXI -1.599500
    BD1.F4XI C...FOXI -1.599500
    BGF.F4XI C...FOXI -1.812000
    BG1.F4XI C...FOXI -2.392300
    BHF.F4XI C...FOXI -1.812000
    BHG.F4XI BHG...XI -1.000000   BF4...XI -0.048400
    BHG.F4XI BF4.VOXI 0.951470   BF4.WTXI 1.000000
    BHG.F4XI XSU.F4XI 0.200000   C...FOXI -1.599500
    BHH.F4XI C...FOXI -1.599500
    BHN.F4XI BHN...XI -1.000000   BF4...XI -0.000700
    BHN.F4XI BF4.VOXI 0.998000   BF4.WTXI 1.000000
    BHN.F4XI XSU.F4XI 0.080000   C...FOXI -1.599500
    BHR.F4XI BHR...XI -1.000000   BF4...XI -0.600000
    BHR.F4XI BF4.VOXI 1.250000   BF4.WTXI 1.000000
    BHR.F4XI XSU.F4XI 0.083000   XSL.F4XI 2.000000
    BHR.F4XI C...FOXI -1.599500
    BH1.F4XI C...FOXI -1.599500
    BP1.F4XI C...FOXI -2.392300
    DFH...XI BFH...XI -1.000000   FAT0..J. -1.000000
    DFH...XI UPBROW4669 1.000000
    DFN...XI BFN...XI -1.000000   FAT0..J. -1.000000
    DFN...XI UPBROW4670 1.000000
    DF1...XI BF1...XI -1.000000   FAT0..J. -1.000000
    DF1...XI UPBROW4671 1.000000
    DF2...XI BF2...XI -1.000000   FAT0..J. -1.000000
    DF2...XI UPBROW4672 1.000000
    DF3...XI BF3...XI -1.000000   FAT0..J. -1.000000
    DF3...XI UPBROW4673 1.000000
    DF4...XI BF4...XI -1.000000   FAT0..J. -1.000000
    DF4...XI UPBROW4674 1.000000
    DL2...XI BL2...XI -1.000000   FAT0..J. -1.000000
    DL2...XI UPBROW4675 1.000000
    DL3...XI BL3...XI -1.000000   FAT0..J. -1.000000
    DL3...XI UPBROW4676 1.000000
    DL4...XI BL4...XI -1.000000   FAT0..J. -1.000000
    DL4...XI UPBROW4677 1.000000
    DMM...XI BMM...XI -1.000000   FAT0..J. -1.000000
    DMM...XI CTK.MMXI -1.000000   UPBROW4678 1.000000
    DPS...XI BPS...XI -1.000000   FAT0..J. -1.000000
    DPS...XI CTK.PSXI -1.000000   UPBROW4679 1.000000
    EAR...XI BAR...XI 1.000000   TIE.MRAR 90.900000
    QWT0F4XI BF4...XI 1.000000   BF4.WTXI -1.000000
    QWT0F4XI XSU.F4XI -0.300000   XGS.F4XI 1.000000
    IMC...XI CMC...XI 1.000000   FAT0..J. 2.299760
    IOF.BBXI COF.BBXI 1.000000   FAT0..J. 3.343130
    IUT.BBXI CUT.BBXI 1.000000   FAT0..J. 24.866370
    IOF.BCXI COF.BCXI 1.000000   FAT0..J. 0.389190
    IUT.BCXI CUT.BCXI 1.000000   FAT0..J. 2.643360
    IUT.BDXI CUT.BDXI 1.000000
    IUT.BFXI CUT.BFXI 1.000000   FAT0..J. 0.080310
    IUT.BGXI CUT.BGXI 1.000000   FAT0..J. 1.259520
    IOF.BHXI COF.BHXI 1.000000   FAT0..J. 4.725750
    IUT.BHXI CUT.BHXI 1.000000   FAT0..J. 86.864470
    IOF.CAXI COF.CAXI 1.000000   FAT0..J. 3.575350
    ION.CGXI CON.CGXI 1.000000   FAT0..J. 10.717770
    IUT.CTXI CUT.CTXI 1.000000   FAT0..J. 0.010640
    ION.CUXI CON.CUXI 1.000000   FAT0..J. 11.326570
    ION.CXXI CON.CXXI 1.000000   FAT0..J. 1.780870
    ITK.CXXI CTK.CXXI 1.000000   FAT0..J. 1.011030
    ITK.C3XI CTK.C3XI 1.000000   FAT0..J. 35.831790
    ITK.C4XI CTK.C4XI 1.000000   FAT0..J. 8.100930
    ION.DHXI CON.DHXI 1.000000   FAT0..J. 3.690670
    IUT.DHXI CUT.DHXI 1.000000   FAT0..J. 2.610580
    IUT.DLXI CUT.DLXI 1.000000   FAT0..J. 2.240910
    ITK.DPXI CTK.DPXI 1.000000   FAT0..J. 52.422780
    IUT.DPXI CUT.DPXI 1.000000   FAT0..J. 3.798870
    IUT.DSXI CUT.DSXI 1.000000   FAT0..J. 0.247110
    ION.FDXI CON.FDXI 1.000000   FAT0..J. 2.058020
    ION.FGXI CON.FGXI 1.000000   FAT0..J. 2.282470
    ION.FHXI CON.FHXI 1.000000   FAT0..J. 2.754450
    ION.FNXI CON.FNXI 1.000000   FAT0..J. 1.546250
    ITK.FOXI CTK.FOXI 1.000000   FAT0..J. 0.527360
    ION.F1XI CON.F1XI 1.000000   FAT0..J. 40.544750
    ION.F2XI CON.F2XI 1.000000   FAT0..J. 32.446730
    IUT.GTXI CUT.GTXI 1.000000   FAT0..J. 13.816080
    ION.GXXI CON.GXXI 1.000000   FAT0..J. 335.354910
    IOF.HOXI COF.HOXI 1.000000   FAT0..J. 1.664440
    ION.HOXI CON.HOXI 1.000000   FAT0..J. 19.594330
    ITK.HOXI CTK.HOXI 1.000000   FAT0..J. 0.199630
    ION.HPXI CON.HPXI 1.000000   FAT0..J. 146.668310
    ITK.HPXI CTK.HPXI 1.000000   FAT0..J. 1.194120
    IOF.HSXI COF.HSXI 1.000000   FAT0..J. 0.485500
    ION.HSXI CON.HSXI 1.000000   FAT0..J. 29.966800
    ITK.HSXI CTK.HSXI 1.000000   FAT0..J. 0.182990
    ION.HYXI CON.HYXI 1.000000   FAT0..J. 8.567920
    IUT.KWXI CUT.KWXI 1.000000   FAT0..J. 0.003030
    ION.LEXI CON.LEXI 1.000000   FAT0..J. 0.640050
    ITK.LEXI CTK.LEXI 1.000000   FAT0..J. 0.687790
    ION.L1XI CON.L1XI 1.000000   FAT0..J. 4.257570
    ITK.MMXI CTK.MMXI 1.000000   FAT0..J. 36.700520
    ION.M1XI CON.M1XI 1.000000   FAT0..J. 7.643370
    ION.M2XI CON.M2XI 1.000000   FAT0..J. 6.198780
    ION.M3XI CON.M3XI 1.000000   FAT0..J. 4.546150
    ION.NCXI CON.NCXI 1.000000   FAT0..J. 10.350900
    ION.NFXI CON.NFXI 1.000000   FAT0..J. 1.874730
    ION.NNXI CON.NNXI 1.000000   FAT0..J. 3.694960
    ION.NPXI CON.NPXI 1.000000   FAT0..J. 3.839290
    ION.NRXI CON.NRXI 1.000000   FAT0..J. 8.897890
    ION.NSXI CON.NSXI 1.000000   FAT0..J. 2.724300
    IOF.OFXI COF.OFXI 1.000000   FAT0..J. 1.252240
    ION.OPXI CON.OPXI 1.000000   FAT0..J. 5.526210
    IUT.PDXI CUT.PDXI 1.000000   FAT0..J. 0.127590
    ION.PHXI CON.PHXI 1.000000   FAT0..J. 0.417980
    ITK.PHXI CTK.PHXI 1.000000   FAT0..J. 0.145390
    IOF.POXI COF.POXI 1.000000   FAT0..J. 0.967670
    ION.POXI CON.POXI 1.000000   FAT0..J. 7.027840
    IOF.PPXI COF.PPXI 1.000000   FAT0..J. 0.779730
    ITK.PSXI CTK.PSXI 1.000000   FAT0..J. 0.520050
    ION.RAXI CON.RAXI 1.000000   FAT0..J. 6.720310
    ITK.RAXI CTK.RAXI 1.000000   FAT0..J. 1.739730
    IOF.RDXI COF.RDXI 1.000000   FAT0..J. 0.007410
    ION.RDXI CON.RDXI 1.000000   FAT0..J. 0.604380
    IUT.RSXI CUT.RSXI 1.000000   FAT0..J. 0.126710
    IUT.RTXI CUT.RTXI 1.000000   FAT0..J. 0.072210
    IOF.SFXI COF.SFXI 1.000000   FAT0..J. 1.549990
    ION.SGXI CON.SGXI 1.000000   FAT0..J. 2.743210
    IOF.SHXI COF.SHXI 1.000000   FAT0..J. 0.009070
    ION.SHXI CON.SHXI 1.000000   FAT0..J. 1.624080
    ITK.SHXI CTK.SHXI 1.000000   FAT0..J. 0.276410
    IOF.SKXI COF.SKXI 1.000000   FAT0..J. 0.202750
    ION.SKXI CON.SKXI 1.000000   FAT0..J. 21.073280
    ION.STXI CON.STXI 1.000000   FAT0..J. 52.061340
    ITK.STXI CTK.STXI 1.000000   FAT0..J. 2.131270
    ION.SWXI CON.SWXI 1.000000   FAT0..J. 0.219510
    IOF.TAXI COF.TAXI 1.000000   FAT0..J. 0.376880
    IUT.TGXI CUT.TGXI 1.000000   FAT0..J. 0.004080
    IUT.TWXI CUT.TWXI 1.000000   FAT0..J. 0.000310
    IOF.WTXI COF.WTXI 1.000000   FAT0..J. 0.944430
    KLQ.PRXI KLQ.PRXI 1.000000   LOBROW4680 1.000000
    MFG.FFXI BFF...XI 1.000000   BFG...XI -1.000000
    MFI.FFXI BFF...XI 1.000000   BFI...XI -1.000000
    MBT.FGXI BBT...XI -1.000000   BFG...XI 1.139100
    MBT.FGXI CUT.DPXI -1.000000   CTK.DPXI -0.250000
    MBT.FGXI USL...XI -0.342200
    MFX.FGXI BFX...XI -1.000000   BFG...XI 0.900000
    MFX.FGXI BFS...XI 0.100000   CUT.DLXI -1.000000
    MFX.FGXI CUT.DHXI -0.146000
    MHB.FGXI BHB...XI -1.000000   BFG...XI 1.227000
    MHB.FGXI CON.DHXI -1.000000   CUT.DHXI -1.000000
    MHB.FGXI UCW...XI -0.461800   UKW...XI -0.554900
    MHB.FGXI UTW...XI -73.333000
    MPR.FGXI BPR...XI -1.000000   BFG...XI 1.154600
    MPR.FGXI CUT.DPXI -1.000000   CTK.DPXI -1.000000
    MPR.FGXI USL...XI -0.342200
    MIF.FIXI CUT.DLXI -0.500000   CUT.DHXI -0.146000
    MIF.FIXI BIF...XI -1.000000   BFI...XI 1.000000
    MIL.FIXI CUT.DLXI -0.500000   CUT.DHXI -0.146000
    MIL.FIXI BIL...XI -1.000000   BFI...XI 1.000000
    MIP.FIXI CUT.DLXI -0.500000   CUT.DHXI -0.146000
    MIP.FIXI BIP...XI -1.000000   BFI...XI 1.000000
    MIS.FIXI CUT.DLXI -0.500000   CUT.DHXI -0.146000
    MIS.FIXI BIS...XI -1.000000   BFI...XI 1.000000
    MC2.FPXI CUT.DHXI -1.000000   BC2...XI -1.000000
    MC2.FPXI BFP...XI 1.227000
    MC3.FPXI CUT.DHXI -1.000000   BC3...XI -1.000000
    MC3.FPXI BFP...XI 1.154600
    MC4.FPXI CUT.DHXI -1.000000   BC4...XI -1.000000
    MC4.FPXI BFP...XI 1.139100
    M6H.FPXI CUT.DHXI -1.000000   B6H...XI -1.000000
    M6H.FPXI BFP...XI 2.991600
    MFG.FSXI BFS...XI 1.000000   BFG...XI -1.000000
    MFI.FSXI BFS...XI 1.000000   BFI...XI -1.000000
    MH1.G1XI BG1...XI 1.000000   BH1...XI -1.000000
    MHB.L2XI BHB...XI -1.000000   BL2...XI 1.279000
    MHB.L2XI UKW...XI -1.844000   UTW...XI -243.687000
    MHB.L2XI UCW...XI -1.534000   CON.SGXI -1.000000
    MPR.L3XI BPR...XI -1.000000   BL3...XI 1.183300
    MPR.L3XI UKW...XI -1.309000   CTK.C3XI -1.000000
    MBT.L4XI BBT...XI -1.000000   BL4...XI 1.164000
    MBT.L4XI UKW...XI -1.527000   CTK.C4XI -1.000000
    PAD.BCXI BAD...XI -1.000000   BCE...XI 1.000000
    PAD.BCXI COF.BCXI -26.902000
    PAN.BCXI BAN...XI -1.000000   BCE...XI 1.000000
    PAN.BCXI COF.BCXI -31.677000
    PAS.BCXI BAS...XI -1.000000   BCE...XI 1.000000
    PAS.BCXI COF.BCXI -27.642800
    PYD.BCXI USL...XI -0.839300   UPB...XI -11.560700
    PYD.BCXI UMC...XI -1.881000   UPW...XI -0.728300
    PYD.BCXI UPH...XI 11.560700   UKW...XI -111.450000
    PYD.BCXI BYD...XI -1.000000   BCE...XI 0.139400
    PYD.BCXI BWS...XI 0.087600   COF.BCXI -5.955200
    PYD.BCXI CUT.BCXI -13.544000
    PYN.BCXI USL...XI -0.839300   UPB...XI -11.494300
    PYN.BCXI UMC...XI -1.970000   UPW...XI -0.762800
    PYN.BCXI UPH...XI 11.494300   UKW...XI -111.450000
    PYN.BCXI BYN...XI -1.000000   BCE...XI 0.146000
    PYN.BCXI BWS...XI 0.091750   COF.BCXI -5.921000
    PYN.BCXI CUT.BCXI -13.466000
    PYS.BCXI USL...XI -0.212700   UPB...XI -11.560700
    PYS.BCXI UMC...XI -1.881000   UPW...XI -0.728300
    PYS.BCXI UPH...XI 11.560700   UKW...XI -124.200000
    PYS.BCXI BYS...XI -1.000000   BCE...XI 0.139400
    PYS.BCXI BWS...XI 0.087600   COF.BCXI -16.852200
    PYS.BCXI CUT.BCXI -13.544000
    PFS.BGXI UFS...XI -1.000000   UKW...XI -118.106000
    PFS.BGXI UPB...XI -12.033700   UPH...XI 12.033700
    PFS.BGXI USL...XI -0.785800   CUT.BGXI -13.237100
    PAD.BHXI BCE...XI 1.000000   COF.BHXI -1.079500
    PAD.BHXI BAD...XI -1.000000
    PAN.BHXI BAN...XI -1.000000   BCE...XI 1.000000
    PAN.BHXI COF.BHXI -1.271100
    PAS.BHXI BCE...XI 1.000000   COF.BHXI -1.161900
    PAS.BHXI BAS...XI -1.000000
    PYD.BHXI UKW...XI -111.490000   UPB...XI -7.824000
    PYD.BHXI USL...XI -0.839900   UPH...XI 7.824000
    PYD.BHXI UPW...XI -0.604700   UMC...XI -1.559000
    PYD.BHXI UHE...XI 0.245500   BCE...XI 0.135530
    PYD.BHXI CUT.BHXI -0.245520   COF.BHXI -0.245520
    PYD.BHXI BYD...XI -1.000000
    PYN.BHXI UKW...XI -110.867000   UPB...XI -7.780000
    PYN.BHXI USL...XI -0.835200   UPH...XI 7.780000
    PYN.BHXI UPW...XI -0.601320   UMC...XI -1.971600
    PYN.BHXI UHE...XI 0.244100   BYN...XI -1.000000
    PYN.BHXI BCE...XI 0.145510   CUT.BHXI -0.244100
    PYN.BHXI COF.BHXI -0.244100
    PYS.BHXI UKW...XI -123.229000   UPB...XI -7.824000
    PYS.BHXI USL...XI -0.212600   UPH...XI 7.824000
    PYS.BHXI UPW...XI -0.604700   UMC...XI -1.559000
    PYS.BHXI UHE...XI 0.245500   BCE...XI 0.135530
    PYS.BHXI CUT.BHXI -0.245520   COF.BHXI -0.662400
    PYS.BHXI BYS...XI -1.000000
    PCC.CGXI UKW...XI -2.000000   UTW...XI -230.700000
    PCC.CGXI USL...XI -1.720000   UOM...XI 2.169000
    PCC.CGXI UBW...XI -2.169000   UCW...XI -26.700000
    PCC.CGXI UPW...XI -0.680000   UFF...XI -0.026200
    PCC.CGXI BFX...XI 0.661000   BPS...XI 0.072300
    PCC.CGXI BWS...XI 0.500000   BHS...XI 0.002900
    PCC.CGXI BMM...XI 0.004600   C...STXI -0.072300
    PCC.CGXI C...RAXI -0.004600   CON.CGXI -1.113000
    PCC.CGXI BCC...XI -1.000000
    PCF.CGXI UKW...XI -2.000000   UTW...XI -214.700000
    PCF.CGXI USL...XI -1.685000   UOM...XI 2.095000
    PCF.CGXI UBW...XI -2.095000   UCW...XI -25.800000
    PCF.CGXI UPW...XI -0.680000   UFF...XI -0.025300
    PCF.CGXI BFX...XI 0.672000   BPS...XI 0.054700
    PCF.CGXI BWS...XI 0.500000   BCF...XI -1.000000
    PCF.CGXI BHS...XI 0.002900   BMM...XI 0.004600
    PCF.CGXI C...STXI -0.054700   C...RAXI -0.004600
    PCF.CGXI CON.CGXI -1.091200
    PCK.CGXI UKW...XI -10.525000   UTW...XI -253.150000
    PCK.CGXI USL...XI -1.320000   UOL...XI 1.615000
    PCK.CGXI UBW...XI -1.615000   UCW...XI -14.900000
    PCK.CGXI UDW...XI -0.330000   BCK...XI -1.000000
    PCK.CGXI BFX...XI 0.663000   BPS...XI 0.032500
    PCK.CGXI BWS...XI 0.170000   BHS...XI 0.002000
    PCK.CGXI BMM...XI 0.001500   C...STXI -0.032500
    PCK.CGXI C...RAXI -0.001500   CON.CGXI -1.000000
    PAN.COXI UKW...XI -12.910000   USM...XI -0.197500
    PAN.COXI USL...XI -0.154400   UOL...XI 0.099600
    PAN.COXI UBW...XI -0.099600   UCW...XI -1.305300
    PAN.COXI BAN...XI -1.000000   BCK...XI -0.500000
    PAN.COXI BWS...XI 0.128900   BCE...XI 1.500000
    PAN.COXI CON.CXXI -1.000000   CTK.CXXI -1.000000
    PAN.COXI COF.CAXI -1.500000
    PYN.COXI UKW...XI -12.910000   USM...XI -0.197500
    PYN.COXI USL...XI -0.154400   UOL...XI 0.099600
    PYN.COXI UBW...XI -0.099600   UCW...XI -1.305300
    PYN.COXI BYN...XI -1.000000   BC2...XI 0.036600
    PYN.COXI BC3...XI 0.003800   BC4...XI 0.001500
    PYN.COXI BNF...XI 0.005700   BDF...XI 0.022300
    PYN.COXI BHF...XI 0.039400   BGF...XI 0.073500
    PYN.COXI BSB...XI 0.153300   BCK...XI 0.652900
    PYN.COXI BHS...XI 0.002300   BMM...XI 0.001100
    PYN.COXI BWS...XI 0.128900   B6H...XI 0.004500
    PYN.COXI C...LEXI -0.011000   C...RAXI -0.001100
    PYN.COXI CON.CXXI -1.000000   CTK.CXXI -1.000000
    PYN.COXI C...RDXI -0.051900
    PAN.CRXI UKW...XI -12.910000   USM...XI -0.223000
    PAN.CRXI USL...XI -0.154400   UOL...XI 0.099600
    PAN.CRXI UBW...XI -0.099600   UCW...XI -1.473800
    PAN.CRXI BAN...XI -1.000000   BCK...XI -0.500000
    PAN.CRXI BWS...XI 0.191700   BCE...XI 1.500000
    PAN.CRXI CON.CXXI -1.037000   CTK.CXXI -1.000000
    PAN.CRXI COF.CAXI -1.500000
    PYN.CRXI UKW...XI -12.910000   USM...XI -0.223000
    PYN.CRXI USL...XI -0.154400   UOL...XI 0.099600
    PYN.CRXI UBW...XI -0.099600   UCW...XI -1.473800
    PYN.CRXI BYN...XI -1.000000   BC2...XI 0.043700
    PYN.CRXI BC3...XI 0.004500   BC4...XI 0.001500
    PYN.CRXI BNF...XI 0.006300   BDF...XI 0.025000
    PYN.CRXI BHF...XI 0.044100   BGF...XI 0.082600
    PYN.CRXI BCK...XI 0.786100   BHS...XI 0.002300
    PYN.CRXI BMM...XI 0.001100   BWS...XI 0.191700
    PYN.CRXI B6H...XI 0.005500   C...LEXI -0.012300
    PYN.CRXI C...RAXI -0.001100   C...RDXI -0.051900
    PYN.CRXI CON.CXXI -1.037000   CTK.CXXI -1.000000
    PHS.CUXI UKW...XI -88.454000   UBW...XI -3.170000
    PHS.CUXI UFF...XI -0.061000   UOL...XI 3.170000
    PHS.CUXI BHS...XI -1.064000   BPS...XI 1.000000
    PHS.CUXI C...STXI -0.050000   CON.CUXI -1.000000
    PAB.FGXI UBW...XI -0.094400   UCW...XI -1.137100
    PAB.FGXI UFF...XI -0.002500   UOL...XI 0.094400
    PAB.FGXI USL...XI -0.012600   UKW...XI -5.963100
    PAB.FGXI BAB...XI -1.000000   BG1...XI -0.024500
    PAB.FGXI BWS...XI 0.007600   BYG...XI 0.024500
    PAB.FGXI BAG...XI 1.000000   CON.FGXI -1.000000
    PPX.FGXI UBW...XI -0.094400   UCW...XI -1.137100
    PPX.FGXI UFF...XI -0.002500   UOL...XI 0.094400
    PPX.FGXI USL...XI -0.012600   UKW...XI -5.963100
    PPX.FGXI BG1...XI -0.024500   BPX...XI -1.000000
    PPX.FGXI BWS...XI 0.007600   BYG...XI 1.024500
    PPX.FGXI CON.FGXI -1.000000   KFG.PRXI -1.000000
    P...FOXI USM...XI -0.003000   USL...XI -0.013600
    P...FOXI UKW...XI -0.000600   C...FOXI 1.000000
    P...FOXI CTK.FOXI -1.000000
    P...F1XI UKW...XI -27.867800   UFF...XI -1.122400
    P...F1XI UHE...XI 1.000000   CON.F1XI -1.000000
    PAD.GXXI BAD...XI -1.000000   CON.GXXI -1.000000
    PAG.GXXI CON.GXXI -1.000000   BAG...XI -1.000000
    PAH.GXXI CON.GXXI -1.000000   BAH...XI -1.000000
    PAN.GXXI BAN...XI -1.000000   CON.GXXI -1.000000
    PYD.GXXI BYD...XI -1.000000   CON.GXXI -1.000000
    PYG.GXXI CON.GXXI -1.000000   BYG...XI -1.000000
    PYH.GXXI CON.GXXI -1.000000   BYH...XI -1.000000
    PYN.GXXI BYN...XI -1.000000   CON.GXXI -1.000000
    PAD.HOXI BAD...XI -1.000000   BCE...XI 1.000000
    PAD.HOXI CON.HOXI -1.000000   COF.HOXI -1.000000
    PAD.HOXI CTK.HOXI -1.000000
    PAN.HOXI BCE...XI 1.000000   CON.HOXI -1.021880
    PAN.HOXI COF.HOXI -1.016200   CTK.HOXI -1.009400
    PAN.HOXI BAN...XI -1.000000
    PYD.HOXI UKW...XI -152.000000   UTW...XI -247.100000
    PYD.HOXI UCW...XI -20.920000   UDW...XI -2.184000
    PYD.HOXI USL...XI -1.230000   UMC...XI -1.150000
    PYD.HOXI BYD...XI -1.000000   BG1...XI -0.025100
    PYD.HOXI BO2...XI -1.012700   B9H...XI 0.208200
    PYD.HOXI BHB...XI 0.031000   BPS...XI 0.021700
    PYD.HOXI BWS...XI 0.526800   BCE...XI 0.010000
    PYD.HOXI CON.HOXI -1.000000   COF.HOXI -1.000000
    PYD.HOXI CTK.HOXI -1.000000
    PYN.HOXI UKW...XI -152.000000   UTW...XI -247.100000
    PYN.HOXI UCW...XI -20.920000   UDW...XI -2.184000
    PYN.HOXI USL...XI -1.230000   UMC...XI -1.150000
    PYN.HOXI BG1...XI -0.025100   BO2...XI -1.012700
    PYN.HOXI B9H...XI 0.209700   BHB...XI 0.031000
    PYN.HOXI BPS...XI 0.020200   BWS...XI 0.526800
    PYN.HOXI BCE...XI 0.010000   CON.HOXI -1.021880
    PYN.HOXI COF.HOXI -1.016200   CTK.HOXI -1.009400
    PYN.HOXI BYN...XI -1.000000
    PAC.HSXI BAC...XI -1.000000   BCE...XI 1.000000
    PAC.HSXI CON.HSXI -1.000000   COF.HSXI -1.000000
    PAC.HSXI CTK.HSXI -1.000000
    PAF.HSXI BCE...XI 1.000000   CON.HSXI -0.900000
    PAF.HSXI COF.HSXI -1.810000   CTK.HSXI -1.000000
    PAF.HSXI BAF...XI -1.000000
    PAY.HSXI BCE...XI 1.000000   CON.HSXI -0.900000
    PAY.HSXI COF.HSXI -2.140000   CTK.HSXI -1.000000
    PAY.HSXI BAY...XI -1.000000
    PIC.HSXI UKW...XI -176.900000   UTW...XI -231.100000
    PIC.HSXI UCW...XI -15.850000   UDW...XI -1.733000
    PIC.HSXI USL...XI -1.053000   UMC...XI -1.150000
    PIC.HSXI BIC...XI -1.000000   BO2...XI -0.795500
    PIC.HSXI B9H...XI 0.171500   BHB...XI 0.037600
    PIC.HSXI BPS...XI 0.048700   BWS...XI 0.526800
    PIC.HSXI BCE...XI 0.026000   CON.HSXI -1.000000
    PIC.HSXI COF.HSXI -1.000000   CTK.HSXI -1.000000
    PYF.HSXI UKW...XI -176.900000   UTW...XI -231.100000
    PYF.HSXI UCW...XI -15.850000   UDW...XI -1.733000
    PYF.HSXI USL...XI -1.053000   UMC...XI -1.150000
    PYF.HSXI BO2...XI -1.000000   B9H...XI 0.200000
    PYF.HSXI BHB...XI 0.037600   BPS...XI 0.031600
    PYF.HSXI BWS...XI 0.526800   BCE...XI 0.026000
    PYF.HSXI CON.HSXI -0.900000   COF.HSXI -1.810000
    PYF.HSXI CTK.HSXI -1.000000   BYF...XI -1.000000
    PYY.HSXI UKW...XI -176.900000   UTW...XI -231.100000
    PYY.HSXI UCW...XI -15.850000   UDW...XI -1.733000
    PYY.HSXI USL...XI -1.053000   UMC...XI -1.150000
    PYY.HSXI BO2...XI -1.000000   B9H...XI 0.200000
    PYY.HSXI BHB...XI 0.037600   BPS...XI 0.040300
    PYY.HSXI BWS...XI 0.526800   BCE...XI 0.026000
    PYY.HSXI CON.HSXI -0.900000   COF.HSXI -2.140000
    PYY.HSXI CTK.HSXI -1.000000   BYY...XI -1.000000
    PC2.HYXI UKW...XI -71.783800   UTW...XI -130.530000
    PC2.HYXI USM...XI -0.106500   UCW...XI -5.867000
    PC2.HYXI UMC...XI -1.167600   BC2...XI -1.000000
    PC2.HYXI BN1...XI -0.015800   BHB...XI 1.012600
    PC2.HYXI BPR...XI 0.001500   CON.HYXI -1.000000
    PC3.HYXI UKW...XI -225.020400   UTW...XI -130.530000
    PC3.HYXI USM...XI -0.106500   UCW...XI -5.867000
    PC3.HYXI UMC...XI -1.167600   BC3...XI -1.000000
    PC3.HYXI BHB...XI 0.180500   BPR...XI 0.786300
    PC3.HYXI BBT...XI 0.022200   CON.HYXI -1.000000
    PC4.HYXI UKW...XI -225.020400   UTW...XI -130.530000
    PC4.HYXI USM...XI -0.106500   UCW...XI -5.867000
    PC4.HYXI UMC...XI -1.167600   BC4...XI -1.000000
    PC4.HYXI BHB...XI 0.100300   BPR...XI 0.033500
    PC4.HYXI BBT...XI 0.822300   BNH...XI 0.025700
    PC4.HYXI CON.HYXI -1.000000
    P6H.HYXI UKW...XI -76.055200   UTW...XI -1426.904000
    P6H.HYXI USM...XI -0.106500   UCW...XI -62.674000
    P6H.HYXI UMC...XI -1.167600   B6H...XI -1.000000
    P6H.HYXI B9H...XI 0.870300   BHB...XI 0.068900
    P6H.HYXI BWS...XI 0.182800   CON.HYXI -1.000000
    P...LEXI UKW...XI -0.724000   USM...XI -0.257500
    P...LEXI USL...XI -0.001800   UCW...XI -8.643900
    P...LEXI UFF...XI -0.000100   UMC...XI -0.005400
    P...LEXI C...LEXI 1.000000   CON.LEXI -1.000000
    P...LEXI CTK.LEXI -1.000000
    PIC.M3XI UKW...XI -39.370000   UCW...XI -2.150000
    PIC.M3XI USL...XI -0.091000   UHE...XI -0.054100
    PIC.M3XI BC2...XI 0.070850   BC3...XI 0.030690
    PIC.M3XI BC4...XI 0.017600   BD1...XI 0.212870
    PIC.M3XI BG1...XI 0.041800   BHS...XI 0.032230
    PIC.M3XI BH1...XI 0.056880   BIC...XI -1.000000
    PIC.M3XI BMM...XI 0.005720   BN1...XI 0.164030
    PIC.M3XI BPX...XI 0.303630   BRS...XI -1.200000
    PIC.M3XI BSS...XI 1.200000   BWP...XI 0.164700
    PIC.M3XI BWS...XI 0.132000   B6H...XI 0.013310
    PIC.M3XI B9H...XI -0.051380   C...RAXI -0.005700
    PIC.M3XI C...RDXI -0.244000   C...LEXI -0.212300
    PIC.M3XI CON.M3XI -1.000000   C...OFXI -1.000000
    PIC.M3XI KLQ.PRXI -1.000000   KFG.PRXI 0.303630
    PGF.NCXI UCW...XI -2.220000   UKW...XI -29.400000
    PGF.NCXI UTW...XI -53.400000   UMC...XI -3.240000
    PGF.NCXI UFF...XI -0.050300   BC2...XI 0.012900
    PGF.NCXI BC3...XI 0.015000   BC4...XI 0.035200
    PGF.NCXI BHS...XI 0.008800   BWS...XI 0.042200
    PGF.NCXI B9H...XI -0.079000   BMM...XI 0.013400
    PGF.NCXI BNH...XI 0.280300   BGF...XI -1.000000
    PGF.NCXI CON.NCXI -1.000000   C...LEXI -0.050200
    PGF.NCXI C...RAXI -0.013400   C...RDXI -0.072000
    PGF.NCXI BDC...XI 0.653200
    PG1.NCXI UCW...XI -2.220000   UKW...XI -29.400000
    PG1.NCXI UTW...XI -53.400000   UMC...XI -3.240000
    PG1.NCXI UFF...XI -0.050300   BC2...XI 0.012900
    PG1.NCXI BC3...XI 0.015000   BC4...XI 0.035200
    PG1.NCXI BHS...XI 0.008800   BWS...XI 0.042200
    PG1.NCXI B9H...XI -0.078400   BMM...XI 0.013400
    PG1.NCXI BNH...XI 0.280300   BG1...XI -1.000000
    PG1.NCXI CON.NCXI -1.000000   C...LEXI -0.050200
    PG1.NCXI C...RAXI -0.013400   C...RDXI -0.072000
    PG1.NCXI BDC...XI 0.653200
    PHF.NCXI UCW...XI -2.220000   UKW...XI -29.400000
    PHF.NCXI UTW...XI -53.400000   UMC...XI -3.240000
    PHF.NCXI UFF...XI -0.050300   BC2...XI 0.012900
    PHF.NCXI BC3...XI 0.015000   BC4...XI 0.035200
    PHF.NCXI BHS...XI 0.008800   BWS...XI 0.042200
    PHF.NCXI B9H...XI -0.074000   BMM...XI 0.013400
    PHF.NCXI BNH...XI 0.280300   BHF...XI -1.000000
    PHF.NCXI CON.NCXI -1.000000   C...LEXI -0.050200
    PHF.NCXI C...RAXI -0.013400   C...RDXI -0.072000
    PHF.NCXI BDC...XI 0.653200
    PHH.NCXI UCW...XI -2.220000   UKW...XI -29.400000
    PHH.NCXI UTW...XI -53.400000   UMC...XI -3.240000
    PHH.NCXI UFF...XI -0.050300   BC2...XI 0.012900
    PHH.NCXI BC3...XI 0.015000   BC4...XI 0.035200
    PHH.NCXI BHS...XI 0.008800   BWS...XI 0.042200
    PHH.NCXI B9H...XI -0.042000   BMM...XI 0.013400
    PHH.NCXI BNH...XI 0.280300   BHH...XI -1.000000
    PHH.NCXI CON.NCXI -1.000000   C...LEXI -0.050200
    PHH.NCXI C...RAXI -0.013400   C...RDXI -0.072000
    PHH.NCXI BDC...XI 0.653200
    PH1.NCXI UCW...XI -2.220000   UKW...XI -29.400000
    PH1.NCXI UTW...XI -53.400000   UMC...XI -3.240000
    PH1.NCXI UFF...XI -0.050300   BC2...XI 0.012900
    PH1.NCXI BC3...XI 0.015000   BC4...XI 0.035200
    PH1.NCXI BHS...XI 0.008800   BWS...XI 0.042200
    PH1.NCXI B9H...XI -0.052100   BMM...XI 0.013400
    PH1.NCXI BNH...XI 0.280300   BH1...XI -1.000000
    PH1.NCXI CON.NCXI -1.000000   C...LEXI -0.050200
    PH1.NCXI C...RAXI -0.013400   C...RDXI -0.072000
    PH1.NCXI BDC...XI 0.653200
    PP1.NCXI UCW...XI -2.220000   UKW...XI -29.400000
    PP1.NCXI UTW...XI -53.400000   UMC...XI -3.240000
    PP1.NCXI UFF...XI -0.050300   BC2...XI 0.012900
    PP1.NCXI BC3...XI 0.015000   BC4...XI 0.035200
    PP1.NCXI BHS...XI 0.008800   BWS...XI 0.042200
    PP1.NCXI B9H...XI -0.087000   BMM...XI 0.013400
    PP1.NCXI BNH...XI 0.280300   BP1...XI -1.000000
    PP1.NCXI CON.NCXI -1.000000   C...LEXI -0.050200
    PP1.NCXI C...RAXI -0.013400   C...RDXI -0.072000
    PP1.NCXI BDC...XI 0.653200
    PNF.NFXI UCW...XI -1.256000   UKW...XI -18.020000
    PNF.NFXI UMC...XI -1.539000   UFF...XI -0.002600
    PNF.NFXI BMM...XI 0.000700   BC2...XI 0.002300
    PNF.NFXI BC3...XI 0.002300   BHS...XI 0.004590
    PNF.NFXI BNF...XI -1.000000   BNH...XI 0.677000
    PNF.NFXI B9H...XI -0.010960   BNP...XI 0.323000
    PNF.NFXI CON.NFXI -1.000000   C...LEXI 0.997700
    PNF.NFXI C...RAXI -0.000700   C...RDXI -0.037500
    PN1.NFXI UCW...XI -1.256000   UKW...XI -18.020000
    PN1.NFXI UMC...XI -1.539000   UFF...XI -0.002600
    PN1.NFXI BMM...XI 0.000700   BC2...XI 0.002300
    PN1.NFXI BC3...XI 0.002300   BHS...XI 0.004590
    PN1.NFXI BNH...XI 0.677000   BN1...XI -1.000000
    PN1.NFXI B9H...XI -0.010960   BNP...XI 0.323000
    PN1.NFXI CON.NFXI -1.000000   C...LEXI 0.997700
    PN1.NFXI C...RAXI -0.000700   C...RDXI -0.037500
    PNH.NPXI UCW...XI -0.907000   UKW...XI -29.020000
    PNH.NPXI UMC...XI -0.459000   UFF...XI -0.040700
    PNH.NPXI BC3...XI 0.015000   BC4...XI 0.023000
    PNH.NPXI BHB...XI 0.020000   BNH...XI -1.000000
    PNH.NPXI B9H...XI 0.034000   BNP...XI 0.907800
    PNH.NPXI CON.NPXI -1.000000   C...LEXI -0.038000
    P...OFXI UKW...XI -5.643300   UCW...XI -0.312300
    P...OFXI USL...XI -0.016700   UMC...XI -0.002000
    P...OFXI C...OFXI 1.000000   COF.OFXI -1.000000
    P...OPXI UTW...XI -428.564000   UCW...XI -24.459000
    P...OPXI BO2...XI 1.000000   CON.OPXI -1.000000
    PWP.PHXI UKW...XI -1.675300   USL...XI -0.034200
    PWP.PHXI UCW...XI -1.581500   UMC...XI -0.072500
    PWP.PHXI BWP...XI -1.000000   BWW...XI 1.000000
    PWP.PHXI CON.PHXI -1.000000   CTK.PHXI -1.000000
    PAD.POXI BAD...XI -1.000000   BCE...XI 1.000000
    PAD.POXI CON.POXI -1.000000   COF.POXI -1.000000
    PAG.POXI BCE...XI 1.000000   CON.POXI -1.080600
    PAG.POXI COF.POXI -1.103200   BAG...XI -1.000000
    PAH.POXI BAH...XI -1.000000   BCE...XI 1.000000
    PAH.POXI CON.POXI -1.005940   COF.POXI -1.254200
    PAN.POXI BCE...XI 1.000000   CON.POXI -1.023150
    PAN.POXI COF.POXI -1.016050   BAN...XI -1.000000
    PG1.POXI UKW...XI -69.700000   UTW...XI -69.500000
    PG1.POXI UCW...XI -3.500000   USL...XI -0.079000
    PG1.POXI UBW...XI -1.852300   UOH...XI 1.497200
    PG1.POXI BG1...XI -1.000000   BO2...XI -0.989000
    PG1.POXI BIP...XI 0.772600   BPS...XI 0.005100
    PG1.POXI BWS...XI 0.032500   BCE...XI 0.010000
    PG1.POXI CON.POXI -1.087650   COF.POXI -0.251400
    PH1.POXI UKW...XI -72.000000   UTW...XI -70.000000
    PH1.POXI UCW...XI -3.500000   USL...XI -0.079000
    PH1.POXI UBW...XI -1.852300   UOH...XI 1.497200
    PH1.POXI BO2...XI -1.021600   BIP...XI 0.817300
    PH1.POXI BPS...XI 0.003500   BWS...XI 0.032500
    PH1.POXI BH1...XI -1.000000   BCE...XI 0.010000
    PH1.POXI CON.POXI -1.087100   COF.POXI -0.251400
    PYD.POXI UKW...XI -64.780000   UTW...XI -62.440000
    PYD.POXI UCW...XI -3.194600   USL...XI -0.078900
    PYD.POXI UBW...XI -1.852300   UOH...XI 1.497200
    PYD.POXI BYD...XI -1.000000   BG1...XI -0.025100
    PYD.POXI BO2...XI -1.012700   BIP...XI 0.733800
    PYD.POXI BPS...XI 0.021700   BWS...XI 0.032500
    PYD.POXI BCE...XI 0.010000   CON.POXI -1.000000
    PYD.POXI COF.POXI -1.000000
    PYG.POXI UKW...XI -70.850000   UTW...XI -62.510000
    PYG.POXI UCW...XI -3.198000   USL...XI -0.093900
    PYG.POXI UBW...XI -1.848400   UOH...XI 1.470800
    PYG.POXI BG1...XI -0.026100   BO2...XI -1.014800
    PYG.POXI BIP...XI 0.717500   BPS...XI 0.030300
    PYG.POXI BWS...XI 0.013800   BCE...XI 0.010000
    PYG.POXI CON.POXI -1.080600   COF.POXI -1.103200
    PYG.POXI BYG...XI -1.000000
    PYH.POXI UKW...XI -81.140000   UTW...XI -62.630000
    PYH.POXI UCW...XI -3.205000   USL...XI -0.119200
    PYH.POXI UBW...XI -1.861700   UOH...XI 1.473800
    PYH.POXI BG1...XI -0.028200   BO2...XI -1.016900
    PYH.POXI BIP...XI 0.719000   BPS...XI 0.038500
    PYH.POXI BWS...XI 0.017700   BYH...XI -1.000000
    PYH.POXI BCE...XI 0.010000   CON.POXI -1.005940
    PYH.POXI COF.POXI -1.254200
    PYN.POXI UKW...XI -64.780000   UTW...XI -62.440000
    PYN.POXI UCW...XI -3.194600   USL...XI -0.078900
    PYN.POXI UBW...XI -1.852300   UOH...XI 1.497200
    PYN.POXI BG1...XI -0.025100   BO2...XI -1.012700
    PYN.POXI BIP...XI 0.738900   BPS...XI 0.019700
    PYN.POXI BWS...XI 0.032500   BCE...XI 0.010000
    PYN.POXI CON.POXI -1.023150   COF.POXI -1.016050
    PYN.POXI BYN...XI -1.000000
    PAR.PPXI UKW...XI -6.456900   BAR...XI -1.000000
    PAR.PPXI BAC...XI 1.000000   COF.PPXI -1.000000
    PMR.PPXI UKW...XI -6.456900   BMR...XI -1.000000
    PMR.PPXI BIC...XI 1.000000   COF.PPXI -1.000000
    P...RAXI UKW...XI -258.877000   UCW...XI -79.252200
    P...RAXI UMC...XI -5.686300   C...RAXI 1.000000
    P...RAXI CON.RAXI -1.000000   CTK.RAXI -1.000000
    P...RDXI USL...XI -0.422100   UKW...XI -9.183000
    P...RDXI UCW...XI -2.496100   UDW...XI -0.008900
    P...RDXI UMC...XI -0.154600   C...RDXI 1.000000
    P...RDXI CON.RDXI -1.000000   COF.RDXI -1.000000
    PAD.SFXI UKW...XI -144.000000   UCW...XI -8.000000
    PAD.SFXI UPW...XI -0.100000   BAD...XI -1.000000
    PAD.SFXI BAS...XI 1.000000   BWS...XI 0.100000
    PAD.SFXI COF.SFXI -1.000000
    PAG.SFXI UKW...XI -144.000000   UCW...XI -8.000000
    PAG.SFXI UPW...XI -0.100000   BWS...XI 0.100000
    PAG.SFXI COF.SFXI -1.000000   BAG...XI -1.000000
    PAG.SFXI BAF...XI 1.000000
    PYD.SFXI UKW...XI -144.000000   UCW...XI -8.000000
    PYD.SFXI UPW...XI -0.100000   BYD...XI -1.000000
    PYD.SFXI BYS...XI 1.000000   BWS...XI 0.100000
    PYD.SFXI COF.SFXI -1.000000
    PYG.SFXI UKW...XI -144.000000   UCW...XI -8.000000
    PYG.SFXI UPW...XI -0.100000   BWS...XI 0.100000
    PYG.SFXI COF.SFXI -1.000000   BYG...XI -1.000000
    PYG.SFXI BYF...XI 1.000000
    PD1.SHXI UKW...XI -1.069500   UCW...XI -0.835700
    PD1.SHXI UFF...XI -0.002200   USL...XI -0.070300
    PD1.SHXI UTW...XI -8.880300   UDW...XI -0.008400
    PD1.SHXI UMC...XI -0.619600   BD1...XI -1.000000
    PD1.SHXI B9H...XI -0.010300   BDH...XI 0.981100
    PD1.SHXI BC2...XI 0.001300   BC3...XI 0.000100
    PD1.SHXI BNH...XI 0.012400   BHS...XI 0.002300
    PD1.SHXI BMM...XI 0.000700   BWS...XI 0.018400
    PD1.SHXI B6H...XI 0.001600   CON.SHXI -1.000000
    PD1.SHXI COF.SHXI -1.000000   CTK.SHXI -1.000000
    PD1.SHXI C...RDXI -0.014400   C...RAXI -0.000700
    PH1.SHXI UKW...XI -1.069500   UCW...XI -0.835700
    PH1.SHXI UFF...XI -0.002200   USL...XI -0.070300
    PH1.SHXI UTW...XI -8.880300   UDW...XI -0.008400
    PH1.SHXI UMC...XI -0.619600   BH1...XI -1.000000
    PH1.SHXI B9H...XI -0.010300   BHH...XI 0.981100
    PH1.SHXI BC2...XI 0.001300   BC3...XI 0.000100
    PH1.SHXI BNH...XI 0.012400   BHS...XI 0.002300
    PH1.SHXI BMM...XI 0.000700   BWS...XI 0.018400
    PH1.SHXI B6H...XI 0.001600   CON.SHXI -1.000000
    PH1.SHXI COF.SHXI -1.000000   CTK.SHXI -1.000000
    PH1.SHXI C...RDXI -0.014400   C...RAXI -0.000700
    PSS.SHXI UKW...XI -1.069500   UCW...XI -0.835700
    PSS.SHXI UFF...XI -0.002200   UTW...XI -8.880300
    PSS.SHXI UDW...XI -0.008400   UMC...XI -0.619600
    PSS.SHXI BSS...XI -1.000000   BD1...XI -0.015400
    PSS.SHXI BH1...XI -0.003900   B9H...XI -0.010300
    PSS.SHXI BRS...XI 1.000000   BC2...XI 0.001300
    PSS.SHXI BC3...XI 0.000100   BNH...XI 0.012400
    PSS.SHXI BHS...XI 0.002300   BMM...XI 0.000700
    PSS.SHXI BWS...XI 0.018400   B6H...XI 0.001600
    PSS.SHXI CON.SHXI -1.000000   COF.SHXI -1.000000
    PSS.SHXI CTK.SHXI -1.000000   C...RDXI -0.014400
    PSS.SHXI C...RAXI -0.000700
    P...STXI UKW...XI -1137.988000   USL...XI -2.970600
    P...STXI UDW...XI -12.450700   UMC...XI -41.173700
    P...STXI C...STXI 1.000000   CON.STXI -1.000000
    P...STXI CTK.STXI -1.000000
    PWS.SWXI UKW...XI -0.754700   USL...XI -0.327700
    PWS.SWXI BWS...XI -1.000000   BWP...XI 1.000000
    PWS.SWXI CON.SWXI -1.000000
    PCE.TAXI UKW...XI -0.542200   UMC...XI -7.381000
    PCE.TAXI BCE...XI -1.000000   COF.TAXI -1.200000
    PWW.WTXI UKW...XI -7.955000   UMC...XI -0.620600
    PWW.WTXI UPW...XI 0.536200   BWW...XI -1.000000
    PWW.WTXI COF.WTXI -1.300000   CUT.RTXI -0.587800
    PWW.WTXI CUT.RSXI -0.587800
    UPH.BYXI UPH...XI 1.000000
    UPK.BYXI UPK...XI 1.000000
    UPL.BYXI UPL...XI 1.000000
    UPM.BYXI UPM...XI 1.000000
    URW.BYXI URW...XI 1.000000
    UPL.GMXI UPL...XI 1.000000   UPH...XI -1.000000
    UPL.GMXI CUT.DSXI -1.100000
    UFF.GNXI UFF...XI 1.000000   BFF...XI -1.000000
    UFS.GNXI UFS...XI 1.000000   BFS...XI -1.000000
    UMC.GNXI UMC...XI 1.000000   CMC...XI -1.000000
    UPB.GNXI UPB...XI 1.000000   UKW...XI -1.732800
    UPB.GNXI UPD...XI -0.597100   CUT.BFXI -1.100000
    UPB.GNXI USL...XI -0.046000   UMC...XI -0.014200
    UPC.GNXI UPC...XI 1.000000   UKW...XI -0.321300
    UPC.GNXI UPW...XI -0.044900   CUT.CTXI -1.100000
    UPC.GNXI USL...XI -0.003100   UMC...XI -0.011200
    UPD.GNXI UPD...XI 1.000000   URW...XI 0.135800
    UPD.GNXI UKW...XI -0.398400   UPW...XI -1.135800
    UPD.GNXI CUT.PDXI -1.100000   UMC...XI -0.005000
    UPL.GNXI UPL...XI 1.000000   UPM...XI -1.000000
    UPL.GNXI CUT.DSXI -1.100000
    UPM.GNXI UPM...XI 1.000000   UPH...XI -1.000000
    UPM.GNXI CUT.DSXI -1.100000
    UPT.GNXI UPT...XI 1.000000   UKW...XI -0.909100
    UPW.GNXI UPW...XI 1.000000   URW...XI -1.000000
    UPW.GNXI UKW...XI -0.198900   CUT.RTXI -1.100000
    UPW.GNXI UMC...XI -0.015700
    URW.GNXI URW...XI 1.000000   UKW...XI -1.595200
    URW.GNXI CUT.RSXI -1.100000
    UPH.GOXI UPH...XI 1.000000   UOH...XI -1.000000
    UPL.GOXI UPL...XI 1.000000   UOL...XI -1.000000
    UPM.GOXI UPM...XI 1.000000   UOM...XI -1.000000
    UBW.GPXI UBW...XI 1.000000   UPB...XI -1.150000
    UCW.GPXI UCW...XI 1.000000   UPC...XI -1.150000
    UDW.GPXI UDW...XI 1.000000   UPD...XI -1.300000
    UKW.GPXI UKW...XI 1.000000   CUT.KWXI -1.265000
    UKW.GPXI UPK...XI -1.150000
    USH.GPXI USH...XI 1.000000   UPH...XI -1.150000
    USH.GPXI CUT.DSXI -1.265000
    USL.GPXI USL...XI 1.000000   UPL...XI -1.150000
    USL.GPXI CUT.DSXI -1.265000
    USM.GPXI USM...XI 1.000000   UPM...XI -1.150000
    USM.GPXI CUT.DSXI -1.265000
    UTW.GPXI UTW...XI 1.000000   UPT...XI -1.100000
    UFF.GXXI UFF...XI -1.000000   BFF...XI -1.000000
    UFF.GXXI CON.GXXI -1.000000
    UFS.GXXI UFS...XI -1.000000   BFS...XI -1.000000
    UFS.GXXI CON.GXXI -1.000000
    UPH.GXXI UPH...XI -1.000000   CON.GXXI -1.000000
    UPL.GXXI UPL...XI -1.000000   CON.GXXI -1.000000
    UPM.GXXI UPM...XI -1.000000   CON.GXXI -1.000000
    UPK.G1XI UPK...XI 1.000000   UPH...XI -0.023500
    UPK.G1XI UPM...XI 0.023500   CUT.TGXI -1.100000
    UPT.G1XI UPT...XI 1.000000   CUT.TWXI -1.100000
    UPT.G1XI UPH...XI -0.035200   UPM...XI 0.035200
    UPT.G1XI CUT.DSXI -0.038700
    UPK.G2XI UPK...XI 1.000000   UPH...XI -0.008200
    UPK.G2XI UPL...XI 0.008200   CUT.TGXI -1.100000
    UPT.G2XI UPT...XI 1.000000   CUT.TWXI -1.100000
    UPT.G2XI UPH...XI -0.011800   UPL...XI 0.011800
    UPT.G2XI CUT.DSXI -0.013000
    UPK.G3XI UPK...XI 1.000000   UPH...XI -0.004400
    UPK.G3XI UCW...XI -0.127100   UPB...XI 0.004400
    UPK.G3XI CUT.TGXI -1.100000
    UPT.G3XI UPT...XI 1.000000   CUT.TWXI -1.100000
    UPT.G3XI UPH...XI -0.005700   UCW...XI -0.088300
    UPT.G3XI CUT.DSXI -0.006300
    UPT.G4XI UPT...XI 1.000000   CUT.TWXI -1.100000
    UPT.G4XI UPM...XI -0.018300   UPL...XI 0.018300
    UPT.G4XI CUT.DSXI -0.020100
    UPT.G5XI UPT...XI 1.000000   CUT.TWXI -1.100000
    UPT.G5XI UPM...XI -0.007300   UCW...XI -0.113100
    UPT.G5XI CUT.DSXI -0.008000
    B.FNXI   B...XI   -1.000000
    QVO0FHXI BFH.VOXI -1.000000   XGS.FHXI -10.000000
    QWT0FHXI BFH...XI 1.000000   BFH.WTXI -1.000000
    QWT0FHXI XSU.FHXI -0.300000   XGS.FHXI 1.000000
    QVO0FLXI BFL.VOXI -1.000000   XGS.FLXI -10.000000
    QWT0FLXI BFL...XI 1.000000   BFL.WTXI -1.000000
    QWT0FLXI XSU.FLXI -0.300000   XGS.FLXI 1.000000
    QVO0FNXI BFN.VOXI -1.000000   XGS.FNXI -10.000000
    QWT0FNXI BFN...XI 1.000000   BFN.WTXI -1.000000
    QWT0FNXI XSU.FNXI -1.000000   XGS.FNXI 1.000000
    QVO0F1XI BF1.VOXI -1.000000   XGS.F1XI -10.000000
    QWT0F1XI BF1...XI 1.000000   BF1.WTXI -1.000000
    QWT0F1XI XSU.F1XI -0.300000   XGS.F1XI 1.000000
    QVO0F2XI BF2.VOXI -1.000000   XGS.F2XI -10.000000
    QWT0F2XI BF2...XI 1.000000   BF2.WTXI -1.000000
    QWT0F2XI XSU.F2XI -10.000000   XGS.F2XI 1.000000
    QVO0F3XI BF3.VOXI -1.000000   XGS.F3XI -10.000000
    QWT0F3XI BF3...XI 1.000000   BF3.WTXI -1.000000
    QWT0F3XI XSU.F3XI -10.000000   XGS.F3XI 1.000000
    QWT0F3XI XSL.F3XI -0.150000
    QVO0F4XI BF4.VOXI -1.000000   XGS.F4XI -10.000000
    SLACK8158 XGS.FHXI 1.000000
    SLACK8159 XSU.FHXI 1.000000
    SLACK8160 XGS.FLXI 1.000000
    SLACK8161 XSL.FLXI 1.000000
    SLACK8162 XSU.FLXI 1.000000
    SLACK8163 XGS.FNXI 1.000000
    SLACK8164 XSU.FNXI 1.000000
    SLACK8165 XGS.F1XI 1.000000
    SLACK8166 XSL.F1XI 1.000000
    SLACK8167 XSU.F1XI 1.000000
    SLACK8168 XGS.F2XI 1.000000
    SLACK8169 XSL.F2XI 1.000000
    SLACK8170 XSU.F2XI 1.000000
    SLACK8171 XGS.F3XI 1.000000
    SLACK8172 XSL.F3XI 1.000000
    SLACK8173 XSU.F3XI 1.000000
    SLACK8174 XGS.F4XI 1.000000
    SLACK8175 XSL.F4XI 1.000000
    SLACK8176 XSU.F4XI 1.000000
    SLACK8177 UPBROW4669 1.000000
    SLACK8178 UPBROW4670 1.000000
    SLACK8179 UPBROW4671 1.000000
    SLACK8180 UPBROW4672 1.000000
    SLACK8181 UPBROW4673 1.000000
    SLACK8182 UPBROW4674 1.000000
    SLACK8183 UPBROW4675 1.000000
    SLACK8184 UPBROW4676 1.000000
    SLACK8185 UPBROW4677 1.000000
    SLACK8186 UPBROW4678 1.000000
    SLACK8187 UPBROW4679 1.000000
    SLACK8188 LOBROW4680 -1.000000
RHS
    BOUNDRHS UPBROW4669 100.000000
    BOUNDRHS UPBROW4670 100.000000
    BOUNDRHS UPBROW4671 100.000000
    BOUNDRHS UPBROW4672 100.000000
    BOUNDRHS UPBROW4673 100.000000
    BOUNDRHS UPBROW4674 100.000000
    BOUNDRHS UPBROW4675 100.000000
    BOUNDRHS UPBROW4676 100.000000
    BOUNDRHS UPBROW4677 100.000000
    BOUNDRHS UPBROW4678 100.000000
    BOUNDRHS UPBROW4679 100.000000
    FXIMPLICITRHS BMR...XI -17.932700
    FXIMPLICITRHS FAT0..J. -643.041516
    FXIMPLICITRHS TIE.MRAR 163.187570
    BOUNDRHS LOBROW4680 10.000000
BOUNDS
ENDATA
