NAME          BRANDY
ROWS
 N  10000A  
 E  10001A  
 E  10002A  
 E  10003A  
 E  10004A  
 E  10006A  
 E  10007A  
 E  10008A  
 E  10009A  
 E  10010A  
 E  10011A  
 E  10012A  
 E  10013A  
 E  10014A  
 E  10015A  
 E  10016A  
 E  10017A  
 E  10018A  
 E  10019A  
 E  10020A  
 E  10021A  
 E  10022A  
 E  10023A  
 E  10024A  
 E  10025A  
 E  10026A  
 E  10027A  
 E  10028A  
 E  10029A  
 E  10030A  
 E  10031A  
 E  10032A  
 E  10033A  
 E  10034A  
 E  10035A  
 E  10036A  
 E  10037A  
 E  10038A  
 E  10039A  
 E  10040A  
 E  10041A  
 E  10042A  
 E  10043A  
 E  10044A  
 E  10045A  
 E  10046A  
 E  10047A  
 E  10048A  
 E  10049A  
 E  10050A  
 E  10051A  
 E  10052A  
 E  10053A  
 E  10054A  
 E  10055A  
 E  10056A  
 E  10057A  
 E  10058A  
 E  10059A  
 E  10060A  
 E  10061A  
 E  10062A  
 E  10063A  
 E  10064A  
 E  10065A  
 E  10066A  
 E  10067A  
 E  10068A  
 E  10069A  
 E  10070A  
 E  10071A  
 E  10072A  
 E  10073A  
 E  10074A  
 E  10075A  
 E  10076A  
 E  10077A  
 E  10078A  
 E  10079A  
 E  10080A  
 E  10081A  
 E  10082A  
 E  10083A  
 E  10084A  
 E  10085A  
 E  10086A  
 E  10087A  
 E  10088A  
 E  10089A  
 E  10090A  
 E  10091A  
 E  10092A  
 E  10093A  
 E  10094A  
 E  10095A  
 E  10096A  
 E  10097A  
 E  10098A  
 E  10099A  
 E  10100A  
 E  10101A  
 E  10102A  
 E  10103A  
 E  10104A  
 E  10105A  
 E  10106A  
 E  10107A  
 E  10108A  
 E  10109A  
 E  10110A  
 E  10111A  
 E  10112A  
 E  10113A  
 E  10114A  
 E  10115A  
 E  10116A  
 E  10117A  
 E  10118A  
 E  10119A  
 E  10120A  
 E  10121A  
 E  10122A  
 E  10123A  
 E  10124A  
 E  10125A  
 E  10126A  
 E  10127A  
 E  10128A  
 E  10129A  
 E  10130A  
 E  10131A  
 E  10132A  
 E  10133A  
 E  10134A  
 E  10135A  
 E  10136A  
 E  10137A  
 E  10138A  
 E  10139A  
 E  10140A  
 E  10141A  
 E  10142A  
 E  10143A  
 E  10144A  
 E  10145A  
 E  10146A  
 E  10147A  
 E  10148A  
 E  10149A  
 E  10150A  
 E  10151A  
 E  10152A  
 E  10153A  
 E  10154A  
 E  10155A  
 E  10156A  
 E  10157A  
 E  10158A  
 E  10159A  
 E  10160A  
 E  10161A  
 E  10162A  
 E  10163A  
 E  10164A  
 E  10165A  
 E  10166A  
 E  10167A  
 E  10168A  
 E  10169A  
 E  10170A  
 E  10171A  
 E  10172A  
 E  10173A  
 E  10174A  
 E  10175A  
 E  10176A  
 E  10177A  
 E  10178A  
 E  10179A  
 E  10180A  
 E  10181A  
 E  10182A  
 E  10183A  
 E  10184A  
 E  10185A  
 E  10186A  
 E  10187A  
 E  10188A  
 E  10189A  
 E  10190A  
 E  10191A  
 E  10192A  
 E  10193A  
 E  10194A  
 E  10195A  
 E  10196A  
 E  10197A  
 E  10198A  
 E  10199A  
 E  10200A  
 E  10201A  
 E  10202A  
 E  10203A  
 E  10204A  
 E  10205A  
 E  10206A  
 E  10207A  
 E  10208A  
 E  10209A  
 E  10210A  
 E  10211A  
 E  10212A  
 E  10213A  
 E  10214A  
 E  10215A  
 E  10216A  
 E  10217A  
 E  10218A  
 E  10219A  
 E  10220A  
 E  10221A  
COLUMNS
    100001   10000A   1.000000   10056A   -1.000000
    100002   10000A   1.000000   10025A   -1.000000
    100100   10006A   1.000000   10008A   1.000000
    100100   10025A   7.000000   10043A   0.003000
    100100   10044A   0.067000   10045A   0.022000
    100100   10056A   0.010000   10063A   0.220000
    100100   10064A   0.100000   10065A   0.112000
    100100   10066A   0.349000   10068A   0.125000
    100100   10144A   0.020000
    100101   10006A   1.000000   10014A   1.000000
    100101   10025A   7.050000   10043A   0.002000
    100101   10044A   0.012000   10045A   0.003000
    100101   10047A   0.041000   10048A   0.043000
    100101   10049A   0.017000   10050A   0.090000
    100101   10051A   0.037000   10056A   0.010000
    100101   10061A   0.006000   10062A   0.120000
    100101   10065A   0.101000   10066A   0.221000
    100101   10068A   0.161000   10144A   0.020000
    100101   10154A   0.149000
    100103   10006A   1.000000   10014A   1.000000
    100103   10025A   7.050000   10043A   0.002000
    100103   10044A   0.012000   10045A   0.003000
    100103   10047A   0.041000   10048A   0.043000
    100103   10049A   0.017000   10050A   0.090000
    100103   10051A   0.062000   10056A   0.010000
    100103   10061A   0.007000   10063A   0.173000
    100103   10064A   0.063000   10065A   0.107000
    100103   10066A   0.221000   10068A   0.161000
    100103   10144A   0.020000
    100109   10094A   1.000000   10107A   1.000000
    100110   10006A   1.000000   10025A   7.600000
    100110   10043A   0.005000   10044A   0.022000
    100110   10045A   0.005000   10047A   0.061000
    100110   10048A   0.060000   10049A   0.023000
    100110   10050A   0.117000   10051A   0.074000
    100110   10056A   0.010000   10061A   0.009000
    100110   10063A   0.170000   10064A   0.062000
    100110   10065A   0.107000   10066A   0.205000
    100110   10068A   0.080000   10144A   0.020000
    100110   10160A   1.000000
    100112   10006A   1.000000   10025A   7.240000
    100112   10043A   0.003000   10044A   0.015000
    100112   10045A   0.005000   10047A   0.037000
    100112   10048A   0.048000   10049A   0.045000
    100112   10050A   0.127000   10051A   0.052000
    100112   10056A   0.010000   10061A   0.005000
    100112   10063A   0.164000   10064A   0.081000
    100112   10065A   0.102000   10066A   0.252000
    100112   10068A   0.062000   10144A   0.020000
    100112   10162A   1.000000
    100113   10006A   1.000000   10025A   7.170000
    100113   10043A   0.002000   10044A   0.007000
    100113   10045A   0.002000   10047A   0.036000
    100113   10048A   0.041000   10049A   0.019000
    100113   10050A   0.098000   10051A   0.058000
    100113   10056A   0.010000   10061A   0.006000
    100113   10063A   0.179000   10064A   0.068000
    100113   10065A   0.118000   10066A   0.250000
    100113   10068A   0.117000   10144A   0.020000
    100113   10163A   1.000000
    100114   10014A   -1.000000   10164A   1.000000
    100120   10007A   1.000000   10010A   1.000000
    100120   10025A   6.640000   10043A   0.002000
    100120   10044A   0.010000   10045A   0.003000
    100120   10047A   0.050000   10048A   0.053000
    100120   10049A   0.022000   10050A   0.108000
    100120   10051A   0.065000   10053A   0.133000
    100120   10054A   0.099000   10055A   0.263000
    100120   10056A   0.020000   10057A   0.181000
    100120   10061A   0.012000   10144A   0.022000
    100121   10007A   1.000000   10009A   1.000000
    100121   10025A   5.900000   10043A   0.001000
    100121   10044A   0.003000   10045A   0.001000
    100121   10047A   0.021000   10048A   0.022000
    100121   10049A   0.010000   10050A   0.052000
    100121   10051A   0.042000   10053A   0.122000
    100121   10054A   0.115000   10055A   0.330000
    100121   10056A   0.020000   10057A   0.276000
    100121   10061A   0.008000   10144A   0.022000
    100122   10007A   1.000000   10025A   6.500000
    100122   10043A   0.001000   10044A   0.004000
    100122   10045A   0.001000   10047A   0.026000
    100122   10048A   0.028000   10049A   0.013000
    100122   10050A   0.072000   10051A   0.054000
    100122   10053A   0.158000   10054A   0.155000
    100122   10055A   0.326000   10056A   0.020000
    100122   10057A   0.154000   10061A   0.011000
    100122   10144A   0.022000   10167A   1.000000
    100125   10007A   1.000000   10010A   1.000000
    100125   10025A   6.640000   10043A   0.002000
    100125   10044A   0.010000   10045A   0.003000
    100125   10047A   0.050000   10048A   0.053000
    100125   10049A   0.022000   10050A   0.108000
    100125   10051A   0.065000   10054A   0.032000
    100125   10055A   0.263000   10056A   0.020000
    100125   10057A   0.181000   10058A   0.200000
    100125   10061A   0.012000   10144A   0.022000
    100125   10149A   -2.230000   10150A   -0.067000
    100126   10007A   1.000000   10009A   1.000000
    100126   10025A   5.900000   10043A   0.001000
    100126   10044A   0.003000   10045A   0.001000
    100126   10047A   0.021000   10048A   0.022000
    100126   10049A   0.010000   10050A   0.052000
    100126   10051A   0.042000   10054A   0.040000
    100126   10055A   0.330000   10056A   0.020000
    100126   10057A   0.276000   10058A   0.197000
    100126   10061A   0.008000   10144A   0.022000
    100126   10149A   -2.520000   10150A   -0.112000
    100130   10007A   0.670000   10012A   1.000000
    100130   10025A   5.500000   10044A   0.750000
    100130   10045A   0.250000   10056A   0.030000
    100130   10144A   0.027000
    100131   10007A   0.670000   10025A   7.000000
    100131   10044A   0.050000   10045A   0.950000
    100131   10056A   0.030000   10122A   1.000000
    100131   10144A   0.027000
    100132   10007A   0.670000   10011A   1.000000
    100132   10025A   7.500000   10047A   0.700000
    100132   10048A   0.200000   10049A   0.100000
    100132   10056A   0.010000   10144A   0.021000
    100133   10006A   1.000000   10025A   4.000000
    100133   10044A   0.750000   10045A   0.250000
    100133   10056A   0.030000   10144A   0.027000
    100133   10159A   1.000000
    100134   10025A   8.500000   10044A   0.050000
    100134   10045A   0.950000
    100140   10048A   -0.710000   10049A   -0.290000
    100140   10151A   1.000000
    100150   10043A   -0.130000   10044A   -0.060000
    100150   10045A   -0.050000   10046A   -0.040000
    100150   10047A   -0.040000   10048A   -0.040000
    100150   10049A   -0.040000   10050A   -0.140000
    100150   10051A   -0.050000   10070A   -0.080000
    100150   10073A   -0.030000   10080A   -0.070000
    100150   10081A   -0.030000   10096A   -0.020000
    100150   10097A   -0.010000   10098A   -0.010000
    100150   10100A   1.000000   10104A   -0.001200
    100150   10105A   -0.001200   10107A   -0.080000
    100150   10120A   -0.060000
    100200   10017A   1.000000   10018A   0.565000
    100200   10041A   0.032000   10043A   0.047000
    100200   10044A   0.007000   10045A   0.027000
    100200   10046A   0.049000   10056A   0.030000
    100200   10069A   1.000000   10070A   0.120000
    100200   10076A   0.134000   10081A   0.052000
    100200   10086A   0.180000   10087A   0.152000
    100200   10091A   0.219000   10092A   0.032000
    100200   10093A   0.043000   10144A   0.055000
    100200   10145A   -1.000000   10146A   -29.000000
    100200   10147A   -0.750000
    100201   10017A   1.250000   10018A   0.539000
    100201   10041A   0.032000   10043A   0.041000
    100201   10044A   0.005000   10045A   0.024000
    100201   10046A   0.044000   10056A   0.030000
    100201   10069A   1.000000   10070A   0.120000
    100201   10076A   0.149000   10081A   0.056000
    100201   10086A   0.193000   10087A   0.163000
    100201   10091A   0.193000   10092A   0.032000
    100201   10093A   0.041000   10124A   0.810000
    100201   10125A   0.060000   10126A   0.720000
    100201   10127A   -0.001500   10144A   0.058000
    100201   10145A   -1.000000   10146A   -29.000000
    100201   10147A   -0.750000   10207A   0.820000
    100203   10017A   1.500000   10018A   0.526000
    100203   10041A   0.032000   10043A   0.037000
    100203   10044A   0.005000   10045A   0.020000
    100203   10046A   0.041000   10056A   0.040000
    100203   10069A   1.000000   10070A   0.120000
    100203   10076A   0.160000   10081A   0.058000
    100203   10086A   0.203000   10087A   0.170000
    100203   10091A   0.175000   10092A   0.032000
    100203   10093A   0.040000   10124A   1.880000
    100203   10125A   0.110000   10126A   1.250000
    100203   10127A   -0.002500   10144A   0.061000
    100203   10145A   -1.000000   10146A   -29.000000
    100203   10147A   -0.750000   10207A   1.880000
    100204   10017A   1.000000   10018A   0.758000
    100204   10041A   0.032000   10043A   0.065000
    100204   10044A   0.014000   10045A   0.045000
    100204   10046A   0.061000   10056A   0.030000
    100204   10069A   1.000000   10070A   0.130000
    100204   10078A   0.164000   10081A   0.058000
    100204   10086A   0.157000   10087A   0.127000
    100204   10091A   0.165000   10092A   0.032000
    100204   10093A   0.058000   10144A   0.066000
    100204   10145A   -1.000000   10146A   -29.000000
    100204   10147A   -0.750000
    100205   10017A   1.250000   10018A   0.719000
    100205   10041A   0.032000   10043A   0.060000
    100205   10044A   0.012000   10045A   0.040000
    100205   10046A   0.054000   10056A   0.030000
    100205   10069A   1.000000   10070A   0.130000
    100205   10078A   0.183000   10081A   0.063000
    100205   10086A   0.169000   10087A   0.136000
    100205   10091A   0.142000   10092A   0.032000
    100205   10093A   0.055000   10124A   1.340000
    100205   10125A   0.060000   10126A   0.700000
    100205   10127A   -0.000800   10144A   0.068000
    100205   10145A   -1.000000   10146A   -29.000000
    100205   10147A   -0.750000   10207A   1.300000
    100207   10017A   1.500000   10018A   0.707000
    100207   10041A   0.032000   10043A   0.053000
    100207   10044A   0.011000   10045A   0.037000
    100207   10046A   0.051000   10056A   0.040000
    100207   10069A   1.000000   10070A   0.130000
    100207   10078A   0.196000   10081A   0.066000
    100207   10086A   0.179000   10087A   0.145000
    100207   10091A   0.122000   10092A   0.032000
    100207   10093A   0.054000   10124A   3.320000
    100207   10125A   0.090000   10126A   0.760000
    100207   10127A   -0.001700   10144A   0.072000
    100207   10145A   -1.000000   10146A   -29.000000
    100207   10147A   -0.750000   10207A   3.270000
    100208   10017A   1.000000   10018A   1.015000
    100208   10041A   0.032000   10043A   0.094000
    100208   10044A   0.023000   10045A   0.066000
    100208   10046A   0.072000   10056A   0.030000
    100208   10069A   1.000000   10070A   0.140000
    100208   10080A   0.177000   10081A   0.060000
    100208   10086A   0.134000   10087A   0.102000
    100208   10091A   0.112000   10092A   0.032000
    100208   10093A   0.078000   10144A   0.078000
    100208   10145A   -1.000000   10146A   -29.000000
    100208   10147A   -0.750000
    100209   10017A   1.250000   10018A   0.962000
    100209   10041A   0.032000   10043A   0.082000
    100209   10044A   0.020000   10045A   0.061000
    100209   10046A   0.064000   10056A   0.040000
    100209   10069A   1.000000   10070A   0.140000
    100209   10080A   0.204000   10081A   0.066000
    100209   10086A   0.146000   10087A   0.112000
    100209   10091A   0.088000   10092A   0.032000
    100209   10093A   0.074000   10124A   1.630000
    100209   10125A   0.040000   10126A   0.890000
    100209   10127A   -0.000900   10144A   0.081000
    100209   10145A   -1.000000   10146A   -29.000000
    100209   10147A   -0.750000   10207A   1.700000
    100212   10017A   1.000000   10018A   0.668000
    100212   10041A   0.010000   10043A   0.070000
    100212   10044A   0.015000   10045A   0.058000
    100212   10046A   0.058000   10056A   0.030000
    100212   10064A   -1.000000   10069A   1.000000
    100212   10070A   0.094000   10072A   6.100000
    100212   10074A   -6.520000   10081A   0.046000
    100212   10082A   0.165000   10086A   0.159000
    100212   10087A   0.318000   10091A   0.017000
    100212   10092A   0.010000   10093A   0.051000
    100212   10136A   -0.215000   10137A   -3.180000
    100212   10144A   0.061000   10208A   3.130000
    100213   10017A   1.000000   10018A   0.468000
    100213   10043A   0.057000   10044A   0.010000
    100213   10045A   0.042000   10046A   0.037000
    100213   10053A   -1.000000   10056A   0.030000
    100213   10069A   1.000000   10070A   0.081000
    100213   10072A   3.900000   10074A   -12.040000
    100213   10081A   0.234000   10083A   0.138000
    100213   10086A   0.391000   10093A   0.036000
    100213   10136A   -0.020000   10137A   -5.860000
    100213   10144A   0.054000   10208A   3.440000
    100214   10017A   1.500000   10018A   1.195000
    100214   10041A   0.031000   10043A   0.110000
    100214   10044A   0.029000   10045A   0.079000
    100214   10046A   0.070000   10056A   0.040000
    100214   10069A   1.000000   10070A   0.150000
    100214   10081A   0.065000   10086A   0.135000
    100214   10087A   0.095000   10091A   0.018000
    100214   10092A   0.031000   10093A   0.091000
    100214   10124A   5.700000   10125A   -0.020000
    100214   10126A   2.000000   10127A   -0.001200
    100214   10144A   0.096000   10145A   -1.000000
    100214   10146A   -29.000000   10147A   -0.750000
    100214   10158A   0.231000   10207A   5.450000
    100215   10017A   1.500000   10018A   0.924000
    100215   10041A   0.032000   10043A   0.073000
    100215   10044A   0.020000   10045A   0.057000
    100215   10046A   0.061000   10056A   0.040000
    100215   10069A   1.000000   10070A   0.140000
    100215   10080A   0.221000   10081A   0.069000
    100215   10086A   0.156000   10087A   0.120000
    100215   10091A   0.069000   10092A   0.032000
    100215   10093A   0.071000   10124A   4.460000
    100215   10125A   0.060000   10126A   1.450000
    100215   10127A   -0.001400   10144A   0.083000
    100215   10145A   -1.000000   10146A   -29.000000
    100215   10147A   -0.750000   10207A   4.240000
    100216   10017A   1.000000   10018A   1.323000
    100216   10041A   0.031000   10043A   0.137000
    100216   10044A   0.033000   10045A   0.089000
    100216   10046A   0.083000   10056A   0.040000
    100216   10069A   1.000000   10070A   0.150000
    100216   10081A   0.054000   10086A   0.110000
    100216   10087A   0.075000   10091A   0.066000
    100216   10092A   0.031000   10093A   0.101000
    100216   10144A   0.093000   10145A   -1.000000
    100216   10146A   -29.000000   10147A   -0.750000
    100216   10158A   0.174000
    100217   10017A   1.250000   10018A   1.234000
    100217   10041A   0.031000   10043A   0.122000
    100217   10044A   0.030000   10045A   0.083000
    100217   10046A   0.074000   10056A   0.040000
    100217   10069A   1.000000   10070A   0.150000
    100217   10081A   0.061000   10086A   0.124000
    100217   10087A   0.086000   10091A   0.039000
    100217   10092A   0.031000   10093A   0.094000
    100217   10124A   2.440000   10125A   -0.020000
    100217   10126A   1.300000   10127A   -0.000900
    100217   10144A   0.094000   10145A   -1.000000
    100217   10146A   -29.000000   10147A   -0.750000
    100217   10158A   0.211000   10207A   2.390000
    100218   10017A   1.000000   10018A   0.588000
    100218   10041A   0.006000   10043A   0.064000
    100218   10044A   0.012000   10045A   0.051000
    100218   10046A   0.051000   10056A   0.030000
    100218   10069A   1.000000   10070A   0.081000
    100218   10072A   8.000000   10074A   -8.030000
    100218   10081A   0.080000   10082A   0.147000
    100218   10086A   0.385000   10087A   0.119000
    100218   10091A   0.010000   10092A   0.006000
    100218   10093A   0.045000   10124A   -0.010000
    100218   10125A   0.060000   10126A   0.260000
    100218   10127A   -0.002200   10136A   -0.247000
    100218   10137A   -0.270000   10144A   0.056000
    100218   10154A   -1.000000   10208A   4.270000
    100220   10015A   1.000000   10016A   0.640000
    100220   10043A   0.051000   10044A   0.007000
    100220   10045A   0.021000   10046A   0.044000
    100220   10056A   0.030000   10070A   0.120000
    100220   10071A   0.137000   10084A   0.180000
    100220   10085A   0.152000   10090A   0.219000
    100220   10092A   0.032000   10093A   0.032000
    100220   10098A   0.052000   10144A   0.058000
    100220   10148A   -1.000000   10149A   -26.000000
    100220   10150A   -2.100000
    100221   10015A   1.250000   10016A   0.628000
    100221   10043A   0.044000   10044A   0.005000
    100221   10045A   0.018000   10046A   0.039000
    100221   10056A   0.030000   10070A   0.120000
    100221   10071A   0.152000   10084A   0.193000
    100221   10085A   0.163000   10090A   0.193000
    100221   10092A   0.032000   10093A   0.031000
    100221   10098A   0.056000   10124A   0.820000
    100221   10125A   0.070000   10126A   0.680000
    100221   10127A   -0.004400   10144A   0.062000
    100221   10148A   -1.000000   10149A   -26.000000
    100221   10150A   -2.100000   10207A   0.680000
    100223   10015A   1.500000   10016A   1.099000
    100223   10043A   0.087000   10044A   0.018000
    100223   10045A   0.046000   10046A   0.052000
    100223   10056A   0.040000   10070A   0.140000
    100223   10075A   0.210000   10084A   0.156000
    100223   10085A   0.120000   10090A   0.069000
    100223   10092A   0.032000   10093A   0.054000
    100223   10098A   0.069000   10124A   4.430000
    100223   10125A   0.100000   10126A   1.480000
    100223   10127A   -0.005500   10144A   0.090000
    100223   10148A   -1.000000   10149A   -26.000000
    100223   10150A   -2.100000   10207A   4.390000
    100224   10015A   1.000000   10016A   0.864000
    100224   10043A   0.074000   10044A   0.014000
    100224   10045A   0.035000   10046A   0.053000
    100224   10056A   0.030000   10070A   0.130000
    100224   10073A   0.164000   10084A   0.157000
    100224   10085A   0.127000   10090A   0.165000
    100224   10092A   0.032000   10093A   0.043000
    100224   10098A   0.058000   10144A   0.070000
    100224   10148A   -1.000000   10149A   -26.000000
    100224   10150A   -2.100000
    100225   10015A   1.250000   10016A   0.850000
    100225   10043A   0.065000   10044A   0.012000
    100225   10045A   0.032000   10046A   0.048000
    100225   10056A   0.040000   10070A   0.130000
    100225   10073A   0.185000   10084A   0.169000
    100225   10085A   0.136000   10090A   0.142000
    100225   10092A   0.032000   10093A   0.042000
    100225   10098A   0.063000   10124A   1.240000
    100225   10125A   0.070000   10126A   0.750000
    100225   10127A   -0.003700   10144A   0.074000
    100225   10148A   -1.000000   10149A   -26.000000
    100225   10150A   -2.100000   10207A   1.310000
    100228   10015A   1.000000   10016A   1.192000
    100228   10043A   0.112000   10044A   0.021000
    100228   10045A   0.054000   10046A   0.063000
    100228   10056A   0.030000   10070A   0.140000
    100228   10075A   0.168000   10084A   0.134000
    100228   10085A   0.102000   10090A   0.112000
    100228   10092A   0.032000   10093A   0.059000
    100228   10098A   0.060000   10144A   0.085000
    100228   10148A   -1.000000   10149A   -26.000000
    100228   10150A   -2.100000
    100229   10015A   1.250000   10016A   1.113000
    100229   10043A   0.096000   10044A   0.018000
    100229   10045A   0.049000   10046A   0.055000
    100229   10056A   0.040000   10070A   0.140000
    100229   10075A   0.195000   10084A   0.146000
    100229   10085A   0.112000   10090A   0.088000
    100229   10092A   0.032000   10093A   0.055000
    100229   10098A   0.066000   10124A   1.620000
    100229   10125A   0.070000   10126A   0.950000
    100229   10127A   -0.003600   10144A   0.087000
    100229   10148A   -1.000000   10149A   -26.000000
    100229   10150A   -2.100000   10207A   1.570000
    100232   10015A   1.000000   10016A   1.545000
    100232   10043A   0.166000   10044A   0.031000
    100232   10045A   0.074000   10046A   0.071000
    100232   10056A   0.030000   10070A   0.150000
    100232   10084A   0.110000   10085A   0.075000
    100232   10090A   0.066000   10092A   0.031000
    100232   10093A   0.076000   10098A   0.054000
    100232   10144A   0.102000   10148A   -1.000000
    100232   10149A   -26.000000   10150A   -2.100000
    100232   10156A   0.151000
    100233   10015A   1.250000   10016A   1.440000
    100233   10043A   0.140000   10044A   0.028000
    100233   10045A   0.069000   10046A   0.063000
    100233   10056A   0.040000   10070A   0.150000
    100233   10084A   0.124000   10085A   0.086000
    100233   10090A   0.039000   10092A   0.031000
    100233   10093A   0.071000   10098A   0.061000
    100233   10124A   2.530000   10125A   0.040000
    100233   10126A   1.700000   10127A   -0.003900
    100233   10144A   0.102000   10148A   -1.000000
    100233   10149A   -26.000000   10150A   -2.100000
    100233   10156A   0.192000   10207A   2.440000
    100234   10015A   1.500000   10016A   0.616000
    100234   10043A   0.039000   10044A   0.005000
    100234   10045A   0.015000   10046A   0.036000
    100234   10056A   0.040000   10070A   0.120000
    100234   10071A   0.162000   10084A   0.203000
    100234   10085A   0.170000   10090A   0.175000
    100234   10092A   0.032000   10093A   0.030000
    100234   10098A   0.058000   10124A   2.220000
    100234   10125A   0.120000   10126A   1.130000
    100234   10127A   -0.006900   10144A   0.065000
    100234   10148A   -1.000000   10149A   -26.000000
    100234   10150A   -2.100000   10207A   1.980000
    100235   10015A   1.500000   10016A   0.838000
    100235   10043A   0.059000   10044A   0.011000
    100235   10045A   0.028000   10046A   0.043000
    100235   10056A   0.040000   10070A   0.130000
    100235   10073A   0.196000   10084A   0.179000
    100235   10085A   0.145000   10090A   0.122000
    100235   10092A   0.032000   10093A   0.041000
    100235   10098A   0.065000   10124A   3.550000
    100235   10125A   0.100000   10126A   1.140000
    100235   10127A   -0.005800   10144A   0.077000
    100235   10148A   -1.000000   10149A   -26.000000
    100235   10150A   -2.100000   10207A   3.580000
    100236   10015A   1.500000   10016A   1.400000
    100236   10043A   0.131000   10044A   0.027000
    100236   10045A   0.065000   10046A   0.058000
    100236   10056A   0.040000   10070A   0.150000
    100236   10084A   0.135000   10085A   0.095000
    100236   10090A   0.018000   10092A   0.031000
    100236   10093A   0.069000   10098A   0.065000
    100236   10124A   5.940000   10125A   0.060000
    100236   10126A   2.490000   10127A   -0.005900
    100236   10144A   0.104000   10148A   -1.000000
    100236   10149A   -26.000000   10150A   -2.100000
    100236   10156A   0.211000   10207A   5.800000
    100240   10017A   0.150000   10065A   -1.150000
    100240   10081A   0.150000   10145A   1.000000
    100240   10146A   32.300000   10147A   0.357000
    100241   10066A   -1.000000   10145A   1.000000
    100241   10146A   27.000000   10147A   0.512000
    100242   10101A   -1.000000   10145A   1.000000
    100242   10146A   30.600000   10147A   0.780000
    100243   10054A   -1.000000   10145A   1.000000
    100243   10146A   31.400000   10147A   1.570000
    100245   10102A   -1.000000   10145A   1.000000
    100245   10146A   25.600000   10147A   2.600000
    100250   10054A   -1.000000   10148A   1.000000
    100250   10149A   31.600000   10150A   1.540000
    100251   10015A   0.050000   10055A   -1.050000
    100251   10098A   0.050000   10148A   1.000000
    100251   10149A   22.700000   10150A   2.510000
    100252   10102A   -1.000000   10148A   1.000000
    100252   10149A   25.600000   10150A   2.600000
    100254   10101A   -1.000000   10148A   1.000000
    100254   10149A   30.600000   10150A   0.780000
    100270   10069A   -1.000000
    100280   10018A   -0.004000   10041A   -0.004000
    100280   10044A   -0.003000   10045A   -0.006000
    100280   10046A   -0.005000   10056A   -0.001000
    100280   10070A   -0.004000   10072A   -0.130000
    100280   10074A   1.330000   10080A   -0.006000
    100280   10086A   0.006000   10087A   0.019000
    100280   10091A   -0.003000   10092A   -0.004000
    100280   10124A   -0.150000   10125A   -0.070000
    100280   10126A   -0.120000   10127A   0.014200
    100280   10136A   0.088000   10137A   -0.230000
    100280   10139A   0.025000   10140A   -0.270000
    100280   10144A   -0.001000   10147A   -0.320000
    100280   10207A   -0.150000   10208A   -0.050000
    100281   10018A   0.004000   10041A   0.004000
    100281   10044A   0.003000   10045A   0.006000
    100281   10046A   0.005000   10056A   0.001000
    100281   10070A   0.004000   10072A   0.130000
    100281   10074A   -1.330000   10080A   0.006000
    100281   10086A   -0.006000   10087A   -0.019000
    100281   10091A   0.003000   10092A   0.004000
    100281   10124A   0.150000   10125A   0.070000
    100281   10126A   0.120000   10127A   -0.014200
    100281   10136A   -0.088000   10137A   0.230000
    100281   10139A   -0.025000   10140A   0.270000
    100281   10144A   0.001000   10147A   0.320000
    100281   10207A   0.150000   10208A   0.050000
    100282   10018A   -0.336000   10041A   -0.021000
    100282   10043A   -0.036000   10044A   -0.009000
    100282   10045A   -0.007000   10046A   -0.017000
    100282   10056A   -0.003000   10070A   -0.030000
    100282   10072A   2.470000   10074A   3.350000
    100282   10080A   -0.045000   10081A   0.005000
    100282   10086A   0.018000   10087A   0.112000
    100282   10091A   0.017000   10092A   -0.021000
    100282   10093A   -0.026000   10124A   -0.340000
    100282   10125A   -0.100000   10126A   0.150000
    100282   10127A   0.002700   10136A   0.016000
    100282   10137A   -4.650000   10139A   -0.013000
    100282   10140A   -1.180000   10144A   -0.018000
    100282   10146A   -5.000000   10207A   -0.340000
    100282   10208A   1.150000
    100283   10018A   0.336000   10041A   0.021000
    100283   10043A   0.036000   10044A   0.009000
    100283   10045A   0.007000   10046A   0.017000
    100283   10056A   0.003000   10070A   0.030000
    100283   10072A   -2.470000   10074A   -3.350000
    100283   10080A   0.045000   10081A   -0.005000
    100283   10086A   -0.018000   10087A   -0.112000
    100283   10091A   -0.017000   10092A   0.021000
    100283   10093A   0.026000   10124A   0.340000
    100283   10125A   0.100000   10126A   -0.150000
    100283   10127A   -0.002700   10136A   -0.016000
    100283   10137A   4.650000   10139A   0.013000
    100283   10140A   1.180000   10144A   0.018000
    100283   10146A   5.000000   10207A   0.340000
    100283   10208A   -1.150000
    100290   10016A   -0.026000   10043A   -0.002000
    100290   10044A   -0.003000   10045A   -0.006000
    100290   10046A   -0.006000   10056A   -0.001000
    100290   10070A   -0.008000   10072A   -0.140000
    100290   10073A   -0.011000   10074A   -2.080000
    100290   10084A   0.003000   10085A   0.029000
    100290   10090A   0.003000   10092A   -0.006000
    100290   10093A   -0.001000   10124A   -0.090000
    100290   10125A   -0.050000   10126A   -0.040000
    100290   10127A   0.024700   10136A   0.121000
    100290   10137A   -1.470000   10139A   0.067000
    100290   10140A   -0.740000   10144A   -0.002000
    100290   10150A   -0.500000   10207A   -0.090000
    100290   10208A   -0.080000
    100291   10016A   -0.245000   10043A   -0.008000
    100291   10044A   -0.008000   10045A   -0.008000
    100291   10046A   -0.015000   10056A   -0.003000
    100291   10070A   -0.032000   10072A   4.520000
    100291   10073A   -0.048000   10074A   -7.830000
    100291   10084A   0.019000   10085A   0.170000
    100291   10090A   -0.059000   10092A   -0.025000
    100291   10093A   -0.012000   10098A   0.001000
    100291   10124A   -0.080000   10125A   -0.070000
    100291   10126A   0.130000   10127A   0.012800
    100291   10136A   -0.107000   10137A   -2.770000
    100291   10139A   0.015000   10140A   -1.540000
    100291   10144A   -0.014000   10149A   -5.000000
    100291   10207A   -0.080000   10208A   2.290000
    100292   10016A   0.245000   10043A   0.008000
    100292   10044A   0.008000   10045A   0.008000
    100292   10046A   0.015000   10056A   0.003000
    100292   10070A   0.032000   10072A   -4.520000
    100292   10073A   0.048000   10074A   7.830000
    100292   10084A   -0.019000   10085A   -0.170000
    100292   10090A   0.059000   10092A   0.025000
    100292   10093A   0.012000   10098A   -0.001000
    100292   10124A   0.080000   10125A   0.070000
    100292   10126A   -0.130000   10127A   -0.012800
    100292   10136A   0.107000   10137A   2.770000
    100292   10139A   -0.015000   10140A   1.540000
    100292   10144A   0.014000   10149A   5.000000
    100292   10207A   0.080000   10208A   -2.290000
    100293   10016A   0.026000   10043A   0.002000
    100293   10044A   0.003000   10045A   0.006000
    100293   10046A   0.006000   10056A   0.001000
    100293   10070A   0.008000   10072A   0.140000
    100293   10073A   0.011000   10074A   2.080000
    100293   10084A   -0.003000   10085A   -0.029000
    100293   10090A   -0.003000   10092A   0.006000
    100293   10093A   0.001000   10124A   0.090000
    100293   10125A   0.050000   10126A   0.040000
    100293   10127A   -0.024700   10136A   -0.121000
    100293   10137A   1.470000   10139A   -0.067000
    100293   10140A   0.740000   10144A   0.002000
    100293   10150A   0.500000   10207A   0.090000
    100293   10208A   0.080000
    100400   10043A   0.098000   10044A   0.033000
    100400   10045A   0.022000   10052A   -1.000000
    100400   10056A   0.440000   10106A   0.838000
    100400   10144A   0.078000   10168A   1.000000
    100401   10043A   0.105000   10044A   0.037000
    100401   10045A   0.024000   10052A   -1.000000
    100401   10056A   0.440000   10107A   0.821000
    100401   10144A   0.080000   10168A   1.000000
    100402   10043A   0.044000   10044A   -0.330000
    100402   10045A   0.294000   10056A   0.490000
    100402   10089A   1.000000   10144A   0.031000
    100402   10168A   2.500000
    100403   10023A   1.000000   10043A   0.098000
    100403   10044A   0.033000   10045A   0.022000
    100403   10052A   -1.000000   10056A   0.400000
    100403   10106A   0.838000   10144A   0.062000
    100404   10023A   1.000000   10043A   0.105000
    100404   10044A   0.037000   10045A   0.024000
    100404   10052A   -1.000000   10056A   0.400000
    100404   10107A   0.821000   10144A   0.063000
    100405   10023A   1.000000   10043A   0.116000
    100405   10044A   0.043000   10045A   0.029000
    100405   10052A   -1.000000   10056A   0.400000
    100405   10108A   0.798000   10144A   0.065000
    100410   10024A   1.000000   10043A   0.098000
    100410   10044A   0.033000   10045A   0.022000
    100410   10052A   -1.000000   10056A   0.110000
    100410   10106A   0.838000   10144A   0.067000
    100411   10024A   1.000000   10043A   0.105000
    100411   10044A   0.037000   10045A   0.024000
    100411   10052A   -1.000000   10056A   0.110000
    100411   10107A   0.821000   10144A   0.068000
    100412   10024A   1.000000   10043A   0.116000
    100412   10044A   0.043000   10045A   0.029000
    100412   10052A   -1.000000   10056A   0.110000
    100412   10108A   0.798000   10144A   0.070000
    100413   10024A   1.000000   10043A   0.100000
    100413   10044A   0.033000   10045A   0.022000
    100413   10049A   -0.330000   10052A   -0.670000
    100413   10056A   0.110000   10106A   0.832000
    100413   10125A   0.330000   10126A   1.160000
    100413   10144A   0.067000
    100414   10024A   1.000000   10043A   0.107000
    100414   10044A   0.037000   10045A   0.025000
    100414   10049A   -0.330000   10052A   -0.670000
    100414   10056A   0.110000   10107A   0.815000
    100414   10125A   0.330000   10126A   1.060000
    100414   10144A   0.068000
    100415   10024A   1.000000   10043A   0.119000
    100415   10044A   0.043000   10045A   0.030000
    100415   10049A   -0.330000   10052A   -0.670000
    100415   10056A   0.110000   10108A   0.793000
    100415   10125A   0.240000   10126A   0.630000
    100415   10144A   0.070000
    100440   10050A   -1.000000   10052A   1.000000
    100441   10051A   -1.000000   10052A   1.000000
    100500   10019A   1.000000   10022A   0.067000
    100500   10043A   0.053000   10044A   0.009000
    100500   10045A   0.002000   10046A   0.007000
    100500   10056A   0.250000   10057A   -1.000000
    100500   10095A   0.039000   10097A   0.148000
    100500   10102A   0.523000   10105A   0.067000
    100500   10144A   0.058000
    100502   10019A   1.000000   10022A   0.060000
    100502   10043A   0.056000   10044A   0.011000
    100502   10045A   0.002000   10046A   0.009000
    100502   10056A   0.240000   10068A   -1.000000
    100502   10095A   0.052000   10096A   0.190000
    100502   10101A   0.515000   10104A   0.060000
    100502   10144A   0.060000
    100503   10020A   1.000000   10021A   0.060000
    100503   10043A   0.056000   10044A   0.011000
    100503   10045A   0.002000   10046A   0.009000
    100503   10056A   0.190000   10068A   -1.000000
    100503   10095A   0.052000   10096A   0.190000
    100503   10101A   0.515000   10104A   0.060000
    100503   10144A   0.061000
    100505   10020A   1.000000   10021A   0.067000
    100505   10043A   0.053000   10044A   0.009000
    100505   10045A   0.002000   10046A   0.007000
    100505   10056A   0.200000   10057A   -1.000000
    100505   10095A   0.039000   10097A   0.148000
    100505   10102A   0.523000   10105A   0.067000
    100505   10144A   0.059000
    100506   10019A   1.000000   10022A   0.009000
    100506   10042A   1.000000   10043A   0.008000
    100506   10044A   0.001000   10046A   0.001000
    100506   10051A   -0.053000   10053A   -0.096000
    100506   10054A   -0.078000   10055A   -0.061000
    100506   10056A   0.070000   10057A   -0.041000
    100506   10063A   -0.143000   10065A   -0.164000
    100506   10066A   -0.054000   10068A   -0.100000
    100506   10080A   -0.210000   10095A   0.007000
    100506   10096A   0.195000   10097A   0.093000
    100506   10101A   0.648000   10102A   0.021000
    100506   10104A   0.006000   10105A   0.003000
    100506   10144A   0.047000
    100600   10045A   -1.000000   10116A   1.000000
    100601   10046A   -1.000000   10117A   1.000000
    100602   10043A   0.625000   10044A   -0.368000
    100602   10045A   -0.562000   10046A   -0.241000
    100602   10118A   0.018000   10119A   0.153000
    100602   10204A   1.000000
    100700   10056A   0.760000   10116A   -0.663000
    100700   10117A   -0.571000   10120A   1.000000
    100700   10144A   0.020000
    100702   10056A   1.560000   10060A   1.000000
    100702   10070A   -0.606000   10116A   -0.606000
    100702   10120A   1.000000   10124A   1.600000
    100702   10125A   -3.600000   10126A   -12.100000
    100702   10127A   0.024000   10130A   13.700000
    100702   10131A   16.100000   10132A   -0.300000
    100702   10133A   -9.900000   10144A   0.020000
    100702   10207A   1.200000
    100796   10056A   0.040000   10076A   -1.000000
    100796   10123A   1.000000   10124A   12.900000
    100796   10125A   3.400000   10126A   -0.500000
    100796   10127A   0.185000   10128A   1.000000
    100796   10207A   2.000000
    100797   10056A   0.040000   10123A   1.000000
    100797   10124A   8.100000   10125A   5.300000
    100797   10126A   5.400000   10127A   0.019000
    100797   10128A   1.000000   10158A   -1.000000
    100797   10207A   -3.400000
    100798   10056A   0.040000   10071A   -1.000000
    100798   10123A   1.000000   10124A   20.400000
    100798   10125A   3.400000   10126A   -1.000000
    100798   10127A   0.416000   10128A   1.000000
    100798   10207A   6.400000
    100799   10056A   0.040000   10123A   1.000000
    100799   10124A   10.400000   10125A   5.400000
    100799   10126A   5.300000   10127A   0.057000
    100799   10128A   1.000000   10156A   -1.000000
    100799   10207A   -3.300000
    100800   10044A   -1.000000   10123A   1.000000
    100800   10124A   -4.500000   10125A   65.000000
    100800   10126A   125.000000   10127A   0.010000
    100800   10128A   1.000000   10207A   -1.400000
    100801   10116A   -1.000000   10123A   1.000000
    100801   10124A   -22.200000   10125A   87.000000
    100801   10126A   125.000000   10127A   0.010000
    100801   10128A   1.000000   10207A   -20.200000
    100802   10117A   -1.000000   10123A   1.000000
    100802   10124A   -6.600000   10125A   70.000000
    100802   10126A   125.000000   10127A   0.010000
    100802   10128A   1.000000   10207A   -16.500000
    100803   10118A   -1.000000   10123A   1.000000
    100803   10124A   -22.200000   10125A   87.000000
    100803   10126A   125.000000   10127A   0.010000
    100803   10128A   1.000000   10207A   -20.200000
    100804   10119A   -1.000000   10123A   1.000000
    100804   10124A   -6.600000   10125A   70.000000
    100804   10126A   125.000000   10127A   0.010000
    100804   10128A   1.000000   10207A   -16.500000
    100805   10047A   -1.000000   10056A   0.020000
    100805   10123A   1.000000   10124A   49.300000
    100805   10125A   9.700000   10126A   58.300000
    100805   10127A   0.051000   10128A   1.000000
    100805   10207A   58.600000
    100806   10056A   0.030000   10070A   -1.000000
    100806   10123A   1.000000   10124A   9.000000
    100806   10125A   12.500000   10126A   70.000000
    100806   10127A   0.050000   10128A   1.000000
    100806   10207A   -6.500000
    100807   10056A   0.030000   10095A   -1.000000
    100807   10123A   1.000000   10124A   55.500000
    100807   10125A   12.500000   10126A   70.000000
    100807   10127A   0.080000   10128A   1.000000
    100807   10207A   47.300000
    100810   10056A   0.040000   10078A   -1.000000
    100810   10123A   1.000000   10124A   12.400000
    100810   10125A   4.000000   10126A   1.500000
    100810   10127A   0.094000   10128A   1.000000
    100810   10207A   0.700000
    100812   10056A   0.040000   10080A   -1.000000
    100812   10123A   1.000000   10124A   10.400000
    100812   10125A   4.700000   10126A   3.500000
    100812   10127A   0.047000   10128A   1.000000
    100812   10207A   -1.600000
    100813   10056A   0.040000   10081A   -1.000000
    100813   10123A   1.000000   10124A   76.000000
    100813   10125A   0.500000   10126A   -3.600000
    100813   10127A   0.160000   10128A   1.000000
    100813   10207A   50.500000
    100814   10056A   0.040000   10082A   -1.000000
    100814   10123A   1.000000   10124A   -9.800000
    100814   10125A   9.400000   10126A   9.000000
    100814   10127A   -0.008000   10128A   1.000000
    100814   10207A   -33.400000
    100815   10056A   0.040000   10083A   -1.000000
    100815   10123A   1.000000   10124A   203.700000
    100815   10125A   6.800000   10126A   26.000000
    100815   10127A   0.564000   10128A   1.000000
    100815   10207A   176.000000
    100818   10056A   0.040000   10073A   -1.000000
    100818   10123A   1.000000   10124A   18.500000
    100818   10125A   4.000000   10126A   1.100000
    100818   10127A   0.212000   10128A   1.000000
    100818   10207A   4.100000
    100820   10056A   0.040000   10075A   -1.000000
    100820   10123A   1.000000   10124A   14.900000
    100820   10125A   4.700000   10126A   3.100000
    100820   10127A   0.111000   10128A   1.000000
    100820   10207A   0.400000
    100821   10056A   0.040000   10096A   -1.000000
    100821   10123A   1.000000   10124A   129.000000
    100821   10125A   6.000000   10126A   -7.500000
    100821   10127A   0.200000   10128A   1.000000
    100821   10207A   125.000000
    100822   10056A   0.040000   10097A   -1.000000
    100822   10123A   1.000000   10124A   143.000000
    100822   10125A   6.000000   10126A   -7.500000
    100822   10127A   0.900000   10128A   1.000000
    100822   10207A   139.000000
    100823   10056A   0.040000   10098A   -1.000000
    100823   10123A   1.000000   10124A   81.000000
    100823   10125A   0.500000   10126A   -2.700000
    100823   10127A   0.600000   10128A   1.000000
    100823   10207A   53.000000
    100825   10106A   -1.000000   10123A   1.000000
    100825   10124A   7.200000   10125A   3.100000
    100825   10126A   3.600000   10128A   1.000000
    100826   10107A   -1.000000   10123A   1.000000
    100826   10124A   0.500000   10125A   3.400000
    100826   10126A   4.800000   10128A   1.000000
    100826   10207A   -8.500000
    100827   10108A   -1.000000   10123A   1.000000
    100827   10124A   -5.800000   10125A   3.800000
    100827   10126A   6.800000   10128A   1.000000
    100827   10207A   -18.300000
    100835   10120A   -1.000000   10123A   1.000000
    100835   10124A   -11.100000   10125A   2.700000
    100835   10126A   1.200000   10127A   0.010000
    100835   10128A   1.000000   10207A   -6.500000
    100836   10121A   -1.000000   10123A   1.000000
    100836   10124A   26.100000   10125A   0.500000
    100836   10126A   -6.000000   10127A   0.020000
    100836   10128A   1.000000   10207A   31.500000
    100838   10048A   -1.000000   10056A   0.020000
    100838   10123A   1.000000   10124A   62.400000
    100838   10125A   6.400000   10126A   36.100000
    100838   10127A   0.044000   10128A   1.000000
    100838   10207A   70.800000
    100839   10049A   -1.000000   10056A   0.020000
    100839   10123A   1.000000   10124A   91.200000
    100839   10125A   1.800000   10126A   -5.100000
    100839   10127A   0.039000   10128A   1.000000
    100839   10207A   97.100000
    100840   10027A   1.000000   10056A   0.295000
    100840   10123A   -1.000000   10124A   -20.600000
    100840   10127A   -0.115000
    100841   10027A   1.000000   10056A   0.395000
    100841   10123A   -1.000000   10124A   -25.600000
    100841   10127A   -0.115000
    100842   10027A   1.000000   10056A   0.495000
    100842   10123A   -1.000000   10124A   -29.800000
    100842   10127A   -0.115000
    100843   10027A   1.000000   10056A   0.595000
    100843   10123A   -1.000000   10124A   -33.500000
    100843   10127A   -0.115000
    100845   10125A   -11.300000   10126A   -33.200000
    100845   10128A   -1.000000
    100846   10125A   -11.500000   10126A   -31.200000
    100846   10128A   -1.000000
    100847   10125A   -11.700000   10126A   -27.200000
    100847   10128A   -1.000000
    100848   10025A   50.000000   10125A   -12.850000
    100848   10126A   -35.750000   10128A   -1.000000
    100849   10025A   50.000000   10125A   -12.850000
    100849   10126A   -22.000000   10128A   -1.000000
    100850   10044A   -1.000000   10129A   1.000000
    100850   10130A   8.600000   10131A   13.200000
    100850   10132A   65.000000   10133A   125.000000
    100855   10047A   -1.000000   10056A   0.020000
    100855   10129A   1.000000   10130A   78.700000
    100855   10131A   92.200000   10132A   10.200000
    100855   10133A   54.700000
    100856   10056A   0.030000   10070A   -1.000000
    100856   10129A   1.000000   10130A   43.000000
    100856   10131A   24.000000   10132A   12.500000
    100856   10133A   70.000000
    100857   10056A   0.020000   10129A   1.000000
    100857   10130A   92.000000   10131A   105.400000
    100857   10132A   5.100000   10133A   24.200000
    100857   10151A   -1.000000
    100875   10106A   -1.000000   10129A   1.000000
    100875   10130A   34.000000   10131A   31.300000
    100875   10132A   3.100000   10133A   3.600000
    100876   10107A   -1.000000   10129A   1.000000
    100876   10130A   26.500000   10131A   21.500000
    100876   10132A   3.400000   10133A   4.800000
    100877   10108A   -1.000000   10129A   1.000000
    100877   10130A   18.500000   10131A   11.200000
    100877   10132A   3.800000   10133A   6.800000
    100885   10120A   -1.000000   10129A   1.000000
    100885   10130A   0.500000   10131A   9.200000
    100885   10132A   2.700000   10133A   1.200000
    100886   10121A   -1.000000   10129A   1.000000
    100886   10130A   39.800000   10131A   45.500000
    100886   10132A   0.500000   10133A   -6.000000
    100890   10026A   1.000000   10056A   0.323000
    100890   10129A   -1.000000   10130A   -18.600000
    100890   10131A   -21.100000   10134A   -1.000000
    100891   10026A   1.000000   10056A   0.423000
    100891   10129A   -1.000000   10130A   -23.600000
    100891   10131A   -26.100000   10134A   -1.000000
    100892   10026A   1.000000   10056A   0.523000
    100892   10129A   -1.000000   10130A   -27.800000
    100892   10131A   -30.300000   10134A   -1.000000
    100893   10026A   1.000000   10056A   0.623000
    100893   10129A   -1.000000   10130A   -31.500000
    100893   10131A   -34.000000   10134A   -1.000000
    100895   10132A   -11.300000   10133A   -33.200000
    100895   10134A   1.000000
    100896   10132A   -11.500000   10133A   -31.200000
    100896   10134A   1.000000
    100897   10132A   -11.700000   10133A   -27.200000
    100897   10134A   1.000000
    100898   10025A   50.000000   10132A   -12.850000
    100898   10133A   -35.200000   10134A   1.000000
    100899   10025A   50.000000   10132A   -12.850000
    100899   10133A   -22.000000   10134A   1.000000
    100900   10028A   1.000000   10044A   -0.050000
    100900   10056A   0.890000   10110A   -0.050000
    100900   10120A   -0.889000   10121A   0.089000
    100900   10144A   0.020000   10151A   -0.100000
    101000   10056A   0.030000   10062A   -0.500000
    101000   10063A   -0.500000   10152A   1.000000
    101012   10029A   1.000000   10051A   -0.400000
    101012   10056A   0.270000   10062A   -0.250000
    101012   10151A   -0.350000
    101013   10029A   1.000000   10056A   0.270000
    101013   10061A   -0.400000   10062A   -0.250000
    101013   10151A   -0.350000
    101021   10030A   1.000000   10051A   -0.450000
    101021   10056A   0.050000   10062A   -0.550000
    101099   10031A   1.000000   10051A   -1.000000
    101099   10056A   0.030000
    101100   10031A   1.000000   10056A   0.030000
    101100   10063A   -1.000000
    101101   10031A   1.000000   10053A   -0.150000
    101101   10056A   0.030000   10063A   -0.850000
    101102   10032A   1.000000   10056A   0.040000
    101102   10063A   -0.800000   10064A   -0.200000
    101103   10032A   1.000000   10053A   -0.120000
    101103   10056A   0.040000   10063A   -0.680000
    101103   10064A   -0.200000
    101107   10034A   1.000000   10056A   0.030000
    101107   10084A   -0.670000   10086A   -0.130000
    101107   10087A   -0.200000
    101108   10034A   1.000000   10056A   0.030000
    101108   10084A   -0.380000   10085A   -0.290000
    101108   10086A   -0.170000   10087A   -0.030000
    101108   10098A   -0.130000
    101109   10034A   1.000000   10056A   0.030000
    101109   10086A   -0.850000   10087A   -0.150000
    101110   10063A   -1.000000   10072A   54.100000
    101110   10074A   -23.600000   10135A   1.000000
    101110   10136A   0.072000   10137A   -18.000000
    101110   10208A   42.100000
    101111   10064A   -1.000000   10072A   60.700000
    101111   10074A   0.700000   10135A   1.000000
    101111   10136A   0.217000   10137A   61.000000
    101111   10208A   35.700000
    101112   10053A   -1.000000   10072A   48.900000
    101112   10074A   -31.000000   10135A   1.000000
    101112   10136A   0.610000   10137A   -29.000000
    101112   10208A   40.300000
    101113   10072A   28.500000   10074A   -4.200000
    101113   10084A   -1.000000   10135A   1.000000
    101113   10136A   1.900000   10137A   -21.000000
    101113   10208A   26.600000
    101114   10072A   36.000000   10074A   4.300000
    101114   10085A   -1.000000   10135A   1.000000
    101114   10136A   1.950000   10137A   32.000000
    101114   10208A   22.900000
    101115   10072A   30.000000   10074A   4.500000
    101115   10086A   -1.000000   10135A   1.000000
    101115   10136A   0.670000   10137A   -16.000000
    101115   10208A   27.800000
    101116   10072A   41.000000   10074A   11.000000
    101116   10087A   -1.000000   10135A   1.000000
    101116   10136A   0.710000   10137A   54.000000
    101116   10208A   25.400000
    101117   10058A   -1.000000   10072A   50.300000
    101117   10074A   -20.200000   10135A   1.000000
    101117   10136A   0.893000   10137A   -16.000000
    101117   10208A   37.300000
    101118   10072A   58.900000   10074A   -6.200000
    101118   10135A   1.000000   10136A   0.185000
    101118   10137A   26.000000   10154A   -1.000000
    101118   10208A   37.300000
    101119   10061A   -1.000000   10072A   50.000000
    101119   10074A   -30.000000   10135A   1.000000
    101119   10136A   0.110000   10137A   -39.000000
    101119   10208A   48.200000
    101120   10072A   31.000000   10074A   -18.200000
    101120   10081A   -1.000000   10135A   1.000000
    101120   10136A   0.160000   10137A   -38.000000
    101120   10208A   36.300000
    101121   10051A   -1.000000   10072A   50.000000
    101121   10074A   -30.000000   10135A   1.000000
    101121   10136A   0.110000   10137A   -40.000000
    101121   10208A   48.700000
    101122   10072A   28.000000   10074A   -8.700000
    101122   10084A   -0.728000   10098A   -0.272000
    101122   10135A   1.000000   10136A   1.550000
    101122   10137A   -26.000000   10208A   28.500000
    101123   10056A   0.020000   10137A   -5.000000
    101123   10211A   1.000000
    101124   10056A   0.040000   10137A   -10.000000
    101124   10211A   1.000000
    101125   10033A   1.000000   10056A   0.040000
    101125   10135A   -1.000000   10136A   -0.650000
    101125   10137A   10.000000   10211A   -1.000000
    101126   10025A   50.000000   10033A   1.000000
    101126   10056A   0.040000   10135A   -1.000000
    101126   10136A   -0.650000   10137A   13.000000
    101126   10211A   -1.000000
    101API   10208A   -1.000000
    101201   10035A   1.000000   10084A   -0.245000
    101201   10086A   -0.272000   10141A   -0.483000
    101202   10035A   1.000000   10084A   -0.154000
    101202   10085A   -0.124000   10086A   -0.149000
    101202   10087A   -0.114000   10141A   -0.459000
    101203   10036A   1.000000   10090A   -0.130000
    101203   10091A   -0.130000   10141A   -0.740000
    101204   10037A   1.000000   10194A   -1.000000
    101204   10195A   -1.050000   10196A   -60.000000
    101206   10038A   1.000000   10141A   -1.000000
    101207   10035A   1.000000   10086A   -0.327000
    101207   10087A   -0.250000   10141A   -0.423000
    101210   10057A   -1.000000   10138A   1.000000
    101210   10139A   4.140000   10140A   96.900000
    101211   10068A   -1.000000   10138A   1.000000
    101211   10139A   0.939000   10140A   89.200000
    101213   10090A   -1.000000   10138A   1.000000
    101213   10139A   2.300000   10140A   8.000000
    101214   10091A   -1.000000   10138A   1.000000
    101214   10139A   0.820000   10140A   8.000000
    101215   10085A   -1.000000   10138A   1.000000
    101215   10139A   1.950000   10140A   -2.100000
    101216   10086A   -1.000000   10138A   1.000000
    101216   10139A   0.710000   10140A   4.600000
    101217   10084A   -1.000000   10138A   1.000000
    101217   10139A   1.900000   10140A   -10.600000
    101219   10138A   -1.000000   10139A   -2.800000
    101219   10140A   -60.000000   10141A   1.000000
    101220   10092A   -1.000000   10142A   0.977000
    101220   10143A   0.977000
    101221   10040A   1.000000   10068A   -1.000000
    101221   10142A   0.972000   10143A   0.972000
    101222   10025A   50.000000   10057A   -0.700000
    101222   10090A   -0.300000   10142A   0.947000
    101222   10143A   0.947000
    101224   10090A   -1.000000   10142A   0.918000
    101224   10143A   0.918000
    101225   10043A   -1.000000   10142A   1.000000
    101226   10093A   -1.000000   10142A   1.000000
    101227   10025A   6.210000   10142A   1.000000
    101227   10169A   1.000000
    101228   10013A   1.000000   10025A   4.970000
    101228   10142A   1.000000
    101229   10044A   -1.000000   10142A   0.636000
    101230   10141A   -1.000000   10142A   0.943000
    101230   10143A   0.943000
    101231   10142A   0.931000   10143A   0.931000
    101231   10153A   -1.000000
    101232   10085A   -0.500000   10090A   -0.500000
    101232   10142A   0.915000   10143A   0.915000
    101234   10143A   -1.000000
    101235   10142A   -1.000000   10144A   -1.000000
    101236   10068A   -1.000000   10194A   1.000000
    101236   10195A   0.939000   10196A   89.200000
    101237   10091A   -1.000000   10194A   1.000000
    101237   10195A   0.820000   10196A   8.000000
    101238   10064A   -1.000000   10194A   1.000000
    101238   10195A   0.220000   10196A   -4.900000
    101239   10041A   -1.000000   10092A   -1.000000
    101239   10194A   1.000000   10195A   1.260000
    101239   10196A   61.500000
    101300   10039A   1.000000   10051A   -0.016000
    101300   10056A   0.180000   10062A   -0.005000
    101300   10065A   -0.325000   10066A   -0.755000
    101300   10084A   -0.065000   10085A   -0.054000
    101300   10144A   0.042000   10147A   0.310000
    101300   10153A   0.220000
    101CET   10072A   -1.000000
    101400   10057A   0.750000   10197A   1.000000
    101400   10203A   0.250000
    101401   10066A   0.075000   10068A   0.525000
    101401   10198A   1.000000   10203A   0.400000
    101402   10057A   1.000000   10199A   1.000000
    101403   10066A   0.170000   10068A   0.830000
    101403   10200A   1.000000
    101404   10057A   -0.750000   10203A   -0.250000
    101404   10209A   1.000000
    101405   10066A   -0.075000   10068A   -0.525000
    101405   10203A   -0.400000   10210A   1.000000
    101406   10057A   -1.000000   10201A   1.000000
    101407   10066A   -0.170000   10068A   -0.830000
    101407   10202A   1.000000
    101408   10051A   -0.470000   10084A   -0.360000
    101408   10090A   -0.170000   10203A   1.000000
    101VIS   10074A   1.000000
    101600   10025A   -17.860000   10105A   -1.000000
    101601   10025A   -23.210000   10104A   -1.000000
    101I93   10207A   -1.000000
    102000   10001A   -1.000000   10025A   10.500000
    102000   10027A   1.000000
    102001   10025A   15.000000   10026A   1.000000
    102002   10025A   50.000000   10031A   1.000000
    102003   10025A   50.000000   10033A   1.000000
    102004   10025A   50.000000   10038A   1.000000
    102006   10025A   20.000000   10110A   1.000000
    102500   10027A   -1.000000
    102502   10031A   -1.000000
    102503   10033A   -1.000000
    102504   10038A   -1.000000
    102I93   10207A   1.000000
    103000   10031A   1.000000   10170A   1.000000
    103001   10033A   1.000000   10171A   1.000000
    103002   10038A   1.000000   10172A   1.000000
    103003   10037A   1.000000   10173A   1.000000
    103005   10145A   1.000000   10146A   29.000000
    103005   10147A   0.750000   10175A   1.000000
    103006   10148A   1.000000   10149A   26.000000
    103006   10150A   2.100000   10176A   1.000000
    103007   10044A   0.250000   10116A   0.300000
    103007   10117A   0.450000   10177A   1.000000
    104003   10215A   100.000000
    104004   10038A   -1.000000   10183A   1.000000
    104004   10219A   100.000000
    104030   10059A   1.000000   10090A   -1.000000
    104030   10183A   1.000000   10216A   100.000000
    104120   10084A   -1.000000   10190A   1.000000
    104120   10193A   1.000000   10217A   100.000000
    104171   10148A   -1.000000   10149A   -26.000000
    104171   10150A   -2.100000   10191A   1.000000
    104171   10192A   1.000000   10218A   100.000000
    104191   10084A   -0.600000   10085A   -0.400000
    104191   10191A   1.000000   10193A   1.000000
    104191   10220A   100.000000
    SLACK44305 10006A   1.000000
    SLACK44306 10007A   1.000000
    SLACK44307 10009A   1.000000
    SLACK44308 10010A   1.000000
    SLACK44309 10011A   1.000000
    SLACK44310 10012A   1.000000
    SLACK44311 10013A   1.000000
    SLACK44312 10015A   1.000000
    SLACK44313 10016A   1.000000
    SLACK44314 10017A   1.000000
    SLACK44315 10018A   1.000000
    SLACK44316 10019A   1.000000
    SLACK44317 10020A   1.000000
    SLACK44318 10021A   1.000000
    SLACK44319 10022A   1.000000
    SLACK44320 10023A   1.000000
    SLACK44321 10024A   1.000000
    SLACK44322 10040A   1.000000
    SLACK44323 10059A   1.000000
    SLACK44324 10060A   1.000000
    SLACK44325 10089A   1.000000
    SLACK44326 10122A   1.000000
    SLACK44327 10125A   1.000000
    SLACK44328 10127A   1.000000
    SLACK44329 10130A   1.000000
    SLACK44330 10131A   1.000000
    SLACK44331 10132A   1.000000
    SLACK44332 10136A   1.000000
    SLACK44333 10137A   1.000000
    SLACK44334 10139A   1.000000
    SLACK44335 10160A   1.000000
    SLACK44336 10162A   1.000000
    SLACK44337 10163A   1.000000
    SLACK44338 10164A   1.000000
    SLACK44339 10167A   1.000000
    SLACK44340 10168A   1.000000
    SLACK44341 10169A   1.000000
    SLACK44342 10178A   1.000000
    SLACK44343 10179A   1.000000
    SLACK44344 10180A   1.000000
    SLACK44345 10181A   1.000000
    SLACK44346 10182A   1.000000
    SLACK44347 10183A   1.000000
    SLACK44348 10184A   1.000000
    SLACK44349 10185A   1.000000
    SLACK44350 10186A   1.000000
    SLACK44351 10187A   1.000000
    SLACK44352 10188A   1.000000
    SLACK44353 10189A   1.000000
    SLACK44354 10190A   1.000000
    SLACK44355 10191A   1.000000
    SLACK44356 10192A   1.000000
    SLACK44357 10193A   1.000000
    SLACK44358 10195A   1.000000
RHS
    ZZZZ0001 10006A   132.500000
    ZZZZ0001 10007A   87.500000
    ZZZZ0001 10008A   8.100000
    ZZZZ0001 10009A   55.000000
    ZZZZ0001 10010A   45.000000
    ZZZZ0001 10011A   3.000000
    ZZZZ0001 10012A   2.600000
    ZZZZ0001 10013A   2.600000
    ZZZZ0001 10014A   80.000000
    ZZZZ0001 10015A   52.000000
    ZZZZ0001 10016A   30.000000
    ZZZZ0001 10017A   65.600000
    ZZZZ0001 10018A   45.000000
    ZZZZ0001 10019A   12.500000
    ZZZZ0001 10020A   15.000000
    ZZZZ0001 10021A   0.834000
    ZZZZ0001 10022A   0.536000
    ZZZZ0001 10024A   20.200000
    ZZZZ0001 10026A   21.400000
    ZZZZ0001 10027A   65.600000
    ZZZZ0001 10028A   2.000000
    ZZZZ0001 10029A   5.700000
    ZZZZ0001 10030A   3.300000
    ZZZZ0001 10031A   10.300000
    ZZZZ0001 10032A   9.000000
    ZZZZ0001 10033A   33.000000
    ZZZZ0001 10034A   3.000000
    ZZZZ0001 10035A   4.350000
    ZZZZ0001 10036A   0.650000
    ZZZZ0001 10037A   4.000000
    ZZZZ0001 10038A   13.400000
    ZZZZ0001 10039A   7.200000
    ZZZZ0001 10040A   1.500000
    ZZZZ0001 10042A   4.000000
    ZZZZ0001 10043A   3.500000
    ZZZZ0001 10060A   0.800000
    ZZZZ0001 10089A   5.000000
    ZZZZ0001 10094A   0.200000
    ZZZZ0001 10100A   2.000000
    ZZZZ0001 10143A   3.500000
    ZZZZ0001 10144A   -6.800000
    ZZZZ0001 10152A   1.700000
    ZZZZ0001 10159A   0.600000
    ZZZZ0001 10160A   40.000000
    ZZZZ0001 10163A   8.000000
    ZZZZ0001 10164A   14.000000
    ZZZZ0001 10167A   5.000000
    ZZZZ0001 10168A   10.600000
    ZZZZ0001 10169A   0.900000
    ZZZZ0001 10201A   2.900000
    ZZZZ0001 10202A   2.500000
    ZZZZ0001 10204A   1.060000
    ZZZZ0001 10209A   2.100000
    ZZZZ0001 10210A   0.500000
BOUNDS
ENDATA
