NAME          CAPRI
ROWS
 E  VLRES   
 N  OBJEC   
 E  RAI72   
 E  CVI72   
 E  TRS72   
 E  FPR72   
 E  DEP72   
 E  DEP73   
 E  INV72   
 E  INC72   
 E  INT72   
 E  TRS73   
 E  CAF72   
 E  FPR73   
 E  RAI73   
 E  CVI73   
 E  DEP74   
 E  INV73   
 E  INC73   
 E  INT73   
 E  TRS74   
 E  CAF73   
 E  FPR74   
 E  RAI74   
 E  CVI74   
 E  DEP75   
 E  INV74   
 E  INC74   
 E  INT74   
 E  TRS75   
 E  CAF74   
 E  FPR75   
 E  RAI75   
 E  CVI75   
 E  DEP76   
 E  INV75   
 E  INC75   
 E  INT75   
 E  TRS76   
 E  CAF75   
 E  FPR76   
 E  RAI76   
 E  CVI76   
 E  DEP77   
 E  INV76   
 E  INC76   
 E  INT76   
 E  TRS77   
 E  CAF76   
 E  FPR77   
 E  RAI77   
 E  CVI77   
 E  DEP78   
 E  INV77   
 E  INC77   
 E  INT77   
 E  TRS78   
 E  CAF77   
 E  FPR78   
 E  RAI78   
 E  CVI78   
 E  DEP79   
 E  INV78   
 E  INC78   
 E  INT78   
 E  TRS79   
 E  CAF78   
 E  FPR79   
 E  RAI79   
 E  CVI79   
 E  DEP80   
 E  INV79   
 E  INC79   
 E  INT79   
 E  TRS80   
 E  CAF79   
 E  FPR80   
 E  RAI80   
 E  CVI80   
 E  DEP81   
 E  INV80   
 E  INC80   
 E  INT80   
 E  TRS81   
 E  CAF80   
 E  FPR81   
 E  RAI81   
 E  CVI81   
 E  INV81   
 E  INC81   
 E  INT81   
 E  CAF81   
 E  L1378   
 E  L1379   
 E  R1378   
 E  FXE78   
 E  FXE79   
 E  FXE80   
 E  FXE81   
 E  XX178   
 E  XX179   
 E  XX378   
 E  XX379   
 E  L2378   
 E  L2379   
 E  R2378   
 E  XX278   
 E  XX279   
 E  L3578   
 E  L3579   
 E  R3578   
 E  XX578   
 E  XX579   
 E  L5478   
 E  L5479   
 E  R5478   
 E  L5678   
 E  L5679   
 E  R5678   
 E  L1380   
 E  R1379   
 E  XX180   
 E  XX380   
 E  L2380   
 E  R2379   
 E  XX280   
 E  L3580   
 E  R3579   
 E  XX580   
 E  L5480   
 E  R5479   
 E  L5680   
 E  R5679   
 E  L1381   
 E  R1380   
 E  XX181   
 E  XX381   
 E  L2381   
 E  R2380   
 E  XX281   
 E  L3581   
 E  R3580   
 E  XX581   
 E  L5481   
 E  R5480   
 E  L5681   
 E  R5680   
 E  R1381   
 E  R2381   
 E  R3581   
 E  R5481   
 E  R5681   
 E  HCP78   
 E  HED78   
 E  RES78   
 E  RES79   
 E  RES80   
 E  RES81   
 E  OUT2X   
 E  HCP79   
 E  HED79   
 E  HCP80   
 E  HED80   
 E  CASCX   
 E  HCP81   
 E  HED81   
 E  CHALX   
 E  RCP78   
 E  RCP79   
 E  RCP80   
 E  RCP81   
 E  GCP78   
 E  GCP79   
 E  GCP80   
 E  GCP81   
 E  NCP78   
 E  NCP79   
 E  NCP80   
 E  NCP81   
 E  BCP78   
 E  BCP79   
 E  BCP80   
 E  BCP81   
 E  ACP78   
 E  CRS78   
 E  ACP79   
 E  AAH78   
 E  CCH78   
 E  AAN78   
 E  CCN78   
 E  AAT78   
 E  CCT78   
 E  AAB78   
 E  CCB78   
 E  AAR78   
 E  CCR78   
 E  AAG78   
 E  CCG78   
 E  CRS79   
 E  ACP80   
 E  AAH79   
 E  CCH79   
 E  AAN79   
 E  CCN79   
 E  AAT79   
 E  CCT79   
 E  AAB79   
 E  CCB79   
 E  AAR79   
 E  CCR79   
 E  AAG79   
 E  CCG79   
 E  CRS80   
 E  ACP81   
 E  AAH80   
 E  CCH80   
 E  AAN80   
 E  CCN80   
 E  AAT80   
 E  CCT80   
 E  AAB80   
 E  CCB80   
 E  AAR80   
 E  CCR80   
 E  AAG80   
 E  CCG80   
 E  CRS81   
 E  AAH81   
 E  CCH81   
 E  AAN81   
 E  CCN81   
 E  AAT81   
 E  CCT81   
 E  AAB81   
 E  CCB81   
 E  AAR81   
 E  CCR81   
 E  AAG81   
 E  CCG81   
 E  EEH78   
 E  EEH79   
 E  RPM78   
 E  EEN78   
 E  TCP78   
 E  TCP79   
 E  EET78   
 E  EET79   
 E  EET80   
 E  EET81   
 E  EEB78   
 E  EEB79   
 E  EEB80   
 E  EEB81   
 E  EER78   
 E  EEG78   
 E  EEH80   
 E  RPM79   
 E  EEN79   
 E  TCP80   
 E  EER79   
 E  EEG79   
 E  EEH81   
 E  RPM80   
 E  EEN80   
 E  TCP81   
 E  EER80   
 E  EEG80   
 E  RPM81   
 E  EEN81   
 E  EER81   
 E  EEG81   
 E  DGRES   
 E  UPBROW33767
 E  UPBROW33768
 E  UPBROW33769
 E  UPBROW33770
 E  UPBROW33771
 E  UPBROW33772
 E  UPBROW33773
 E  UPBROW33774
 E  UPBROW33775
 E  UPBROW33776
 E  UPBROW33777
 E  UPBROW33778
 E  UPBROW33779
 E  UPBROW33780
 E  UPBROW33781
 E  UPBROW33782
 E  UPBROW33783
 E  UPBROW33784
 E  UPBROW33785
 E  UPBROW33786
 E  UPBROW33787
 E  UPBROW33788
 E  UPBROW33789
 E  UPBROW33790
 E  UPBROW33791
 E  UPBROW33792
 E  UPBROW33793
 E  UPBROW33794
 E  UPBROW33795
 E  UPBROW33796
 E  UPBROW33797
 E  UPBROW33798
 E  UPBROW33799
 E  UPBROW33800
 E  UPBROW33801
 E  UPBROW33802
 E  UPBROW33803
 E  UPBROW33804
 E  UPBROW33805
 E  UPBROW33806
 E  UPBROW33807
 E  UPBROW33808
 E  UPBROW33809
 E  UPBROW33810
 E  UPBROW33811
 E  UPBROW33812
 E  UPBROW33813
 E  UPBROW33814
 E  UPBROW33815
 E  UPBROW33816
 E  UPBROW33817
 E  UPBROW33818
 E  UPBROW33819
 E  UPBROW33820
 E  UPBROW33821
 E  UPBROW33822
 E  UPBROW33823
 E  UPBROW33824
 E  UPBROW33825
 E  UPBROW33826
 E  UPBROW33827
 E  UPBROW33828
 E  UPBROW33829
 E  UPBROW33830
 E  UPBROW33831
 E  UPBROW33832
 E  UPBROW33833
 E  UPBROW33834
 E  UPBROW33835
 E  UPBROW33836
 E  UPBROW33837
 E  UPBROW33838
 E  UPBROW33839
 E  UPBROW33840
 E  UPBROW33841
 E  UPBROW33842
 E  UPBROW33843
 E  UPBROW33844
 E  UPBROW33845
 E  UPBROW33846
 E  UPBROW33847
 E  UPBROW33848
 E  UPBROW33849
 E  UPBROW33850
 E  UPBROW33851
 E  UPBROW33852
 E  UPBROW33853
 E  UPBROW33854
 E  UPBROW33855
 E  UPBROW33856
 E  UPBROW33857
 E  UPBROW33858
 E  UPBROW33859
 E  UPBROW33860
 E  UPBROW33861
 E  UPBROW33862
 E  UPBROW33863
 E  UPBROW33864
 E  UPBROW33865
 E  UPBROW33866
 E  UPBROW33867
 E  UPBROW33868
 E  UPBROW33869
 E  UPBROW33870
 E  UPBROW33871
 E  UPBROW33872
 E  UPBROW33873
 E  UPBROW33874
 E  UPBROW33875
 E  UPBROW33876
 E  UPBROW33877
 E  UPBROW33878
 E  UPBROW33879
 E  UPBROW33880
 E  UPBROW33881
 E  UPBROW33882
 E  UPBROW33883
 E  UPBROW33884
 E  UPBROW33885
 E  UPBROW33886
 E  UPBROW33887
 E  UPBROW33888
 E  UPBROW33889
 E  UPBROW33890
 E  UPBROW33891
 E  UPBROW33892
 E  UPBROW33893
 E  UPBROW33894
 E  UPBROW33895
 E  UPBROW33896
 E  UPBROW33897
COLUMNS
    VALRES   VLRES    -1.000000   OBJEC    0.424090
    RNAI72   RAI72    -1.000000   CVI72    1.000000
    RNAI72   TRS72    1.000000   FPR72    1.000000
    RVAD72   RAI72    1.000000   OBJEC    1.000000
    DEPN72   DEP72    -1.000000   DEP73    1.000000
    DEPN72   RAI72    -1.000000   TRS72    1.000000
    INVT72   INV72    -1.000000   TRS72    -1.000000
    INTC72   INC72    -1.000000   FPR72    1.000000
    INTC72   TRS72    1.000000
    INTT72   INT72    -1.000000   CVI72    -1.250020
    INTT72   TRS72    -1.000000   FPR72    -1.000000
    DETT72   INT72    0.085000   TRS72    1.000000
    DETT72   TRS73    -1.000000   CAF72    -1.000000
    FOPR72   FPR72    -1.000000   FPR73    1.000000
    FOPR72   CAF72    4.000070
    RNAI73   RAI73    -1.000000   CVI73    1.000000
    RNAI73   TRS73    1.000000   FPR73    1.000000
    RVAD73   RAI73    1.000000   OBJEC    0.909090
    DEPN73   DEP73    -1.000000   DEP74    1.000000
    DEPN73   RAI73    -1.000000   TRS73    1.000000
    INVT73   INV73    -1.000000   TRS73    -1.000000
    INTC73   INC73    -1.000000   FPR73    1.000000
    INTC73   TRS73    1.000000
    INTT73   INT73    -1.000000   CVI73    -1.250020
    INTT73   TRS73    -1.000000   FPR73    -1.000000
    DETT73   INT73    0.085000   TRS73    1.000000
    DETT73   TRS74    -1.000000   CAF73    -1.000000
    FOPR73   FPR73    -1.000000   FPR74    1.000000
    FOPR73   CAF73    4.000070
    RNAI74   RAI74    -1.000000   CVI74    1.000000
    RNAI74   TRS74    1.000000   FPR74    1.000000
    RVAD74   RAI74    1.000000   OBJEC    0.826440
    DEPN74   DEP74    -1.000000   DEP75    1.000000
    DEPN74   RAI74    -1.000000   TRS74    1.000000
    INVT74   INV74    -1.000000   TRS74    -1.000000
    INTC74   INC74    -1.000000   FPR74    1.000000
    INTC74   TRS74    1.000000
    INTT74   INT74    -1.000000   CVI74    -1.250020
    INTT74   TRS74    -1.000000   FPR74    -1.000000
    DETT74   INT74    0.085000   TRS74    1.000000
    DETT74   TRS75    -1.000000   CAF74    -1.000000
    FOPR74   FPR74    -1.000000   FPR75    1.000000
    FOPR74   CAF74    4.000070
    RNAI75   RAI75    -1.000000   CVI75    1.000000
    RNAI75   TRS75    1.000000   FPR75    1.000000
    RVAD75   RAI75    1.000000   OBJEC    0.751310
    DEPN75   DEP75    -1.000000   DEP76    1.000000
    DEPN75   RAI75    -1.000000   TRS75    1.000000
    INVT75   INV75    -1.000000   TRS75    -1.000000
    INTC75   INC75    -1.000000   FPR75    1.000000
    INTC75   TRS75    1.000000
    INTT75   INT75    -1.000000   CVI75    -1.250020
    INTT75   TRS75    -1.000000   FPR75    -1.000000
    DETT75   INT75    0.085000   TRS75    1.000000
    DETT75   TRS76    -1.000000   CAF75    -1.000000
    FOPR75   FPR75    -1.000000   FPR76    1.000000
    FOPR75   CAF75    4.000070
    RNAI76   RAI76    -1.000000   CVI76    1.000000
    RNAI76   TRS76    1.000000   FPR76    1.000000
    RVAD76   RAI76    1.000000   OBJEC    0.683010
    DEPN76   DEP76    -1.000000   DEP77    1.000000
    DEPN76   RAI76    -1.000000   TRS76    1.000000
    INVT76   INV76    -1.000000   TRS76    -1.000000
    INTC76   INC76    -1.000000   FPR76    1.000000
    INTC76   TRS76    1.000000
    INTT76   INT76    -1.000000   CVI76    -1.250020
    INTT76   TRS76    -1.000000   FPR76    -1.000000
    DETT76   INT76    0.085000   TRS76    1.000000
    DETT76   TRS77    -1.000000   CAF76    -1.000000
    FOPR76   FPR76    -1.000000   FPR77    1.000000
    FOPR76   CAF76    4.000070
    RNAI77   RAI77    -1.000000   CVI77    1.000000
    RNAI77   TRS77    1.000000   FPR77    1.000000
    RVAD77   RAI77    1.000000   OBJEC    0.620920
    DEPN77   DEP77    -1.000000   DEP78    1.000000
    DEPN77   RAI77    -1.000000   TRS77    1.000000
    INVT77   INV77    -1.000000   TRS77    -1.000000
    INTC77   INC77    -1.000000   FPR77    1.000000
    INTC77   TRS77    1.000000
    INTT77   INT77    -1.000000   CVI77    -1.250020
    INTT77   TRS77    -1.000000   FPR77    -1.000000
    DETT77   INT77    0.085000   TRS77    1.000000
    DETT77   TRS78    -1.000000   CAF77    -1.000000
    FOPR77   FPR77    -1.000000   FPR78    1.000000
    FOPR77   CAF77    4.000070
    RNAI78   RAI78    -1.000000   CVI78    1.000000
    RNAI78   TRS78    1.000000   FPR78    1.000000
    RVAD78   RAI78    1.000000   OBJEC    0.564470
    DEPN78   DEP78    -1.000000   DEP79    1.000000
    DEPN78   RAI78    -1.000000   TRS78    1.000000
    INVT78   INV78    -1.000000   TRS78    -1.000000
    INTC78   INC78    -1.000000   FPR78    1.000000
    INTC78   TRS78    1.000000
    INTT78   INT78    -1.000000   CVI78    -1.250020
    INTT78   TRS78    -1.000000   FPR78    -1.000000
    DETT78   INT78    0.085000   TRS78    1.000000
    DETT78   TRS79    -1.000000   CAF78    -1.000000
    FOPR78   FPR78    -1.000000   FPR79    1.000000
    FOPR78   CAF78    4.000070
    RNAI79   RAI79    -1.000000   CVI79    1.000000
    RNAI79   TRS79    1.000000   FPR79    1.000000
    RVAD79   RAI79    1.000000   OBJEC    0.513150
    DEPN79   DEP79    -1.000000   DEP80    1.000000
    DEPN79   RAI79    -1.000000   TRS79    1.000000
    INVT79   INV79    -1.000000   TRS79    -1.000000
    INTC79   INC79    -1.000000   FPR79    1.000000
    INTC79   TRS79    1.000000
    INTT79   INT79    -1.000000   CVI79    -1.250020
    INTT79   TRS79    -1.000000   FPR79    -1.000000
    DETT79   INT79    0.085000   TRS79    1.000000
    DETT79   TRS80    -1.000000   CAF79    -1.000000
    FOPR79   FPR79    -1.000000   FPR80    1.000000
    FOPR79   CAF79    4.000070
    RNAI80   RAI80    -1.000000   CVI80    1.000000
    RNAI80   TRS80    1.000000   FPR80    1.000000
    RVAD80   RAI80    1.000000   OBJEC    0.466500
    DEPN80   DEP80    -1.000000   DEP81    1.000000
    DEPN80   RAI80    -1.000000   TRS80    1.000000
    INVT80   INV80    -1.000000   TRS80    -1.000000
    INTC80   INC80    -1.000000   FPR80    1.000000
    INTC80   TRS80    1.000000
    INTT80   INT80    -1.000000   CVI80    -1.250020
    INTT80   TRS80    -1.000000   FPR80    -1.000000
    DETT80   INT80    0.085000   TRS80    1.000000
    DETT80   TRS81    -1.000000   CAF80    -1.000000
    FOPR80   FPR80    -1.000000   FPR81    1.000000
    FOPR80   CAF80    4.000070
    RNAI81   RAI81    -1.000000   CVI81    1.000000
    RNAI81   TRS81    1.000000   FPR81    1.000000
    RVAD81   RAI81    1.000000   OBJEC    0.424090
    DEPN81   DEP81    -1.000000   RAI81    -1.000000
    DEPN81   TRS81    1.000000
    INVT81   INV81    -1.000000   TRS81    -1.000000
    INTC81   INC81    -1.000000   FPR81    1.000000
    INTC81   TRS81    1.000000
    INTT81   INT81    -1.000000   CVI81    -1.250020
    INTT81   TRS81    -1.000000   FPR81    -1.000000
    INTT81   VLRES    9.999830
    DETT81   INT81    0.085000   TRS81    1.000000
    DETT81   CAF81    -1.000000
    FOPR81   FPR81    -1.000000   CAF81    4.000070
    CP1378   L1378    -1.000000   L1379    1.000000
    CP1378   R1378    -1.000000
    XX1378   R1378    1.000000   XX178    -1.000000
    XX1378   XX179    1.000000   XX378    1.000000
    XX1378   XX379    -1.000000
    CP2378   L2378    -1.000000   L2379    1.000000
    CP2378   R2378    -1.000000
    XX2378   R2378    1.000000   XX278    -1.000000
    XX2378   XX279    1.000000   XX378    1.000000
    XX2378   XX379    -1.000000
    CP3578   L3578    -1.000000   L3579    1.000000
    CP3578   R3578    -1.000000
    XX3578   R3578    1.000000   XX378    -1.000000
    XX3578   XX379    1.000000   XX578    1.000000
    XX3578   XX579    -1.000000
    CP5478   L5478    -1.000000   L5479    1.000000
    CP5478   R5478    -1.000000
    XX5478   R5478    1.000000   XX578    -1.000000
    XX5478   XX579    1.000000
    CP5678   L5678    -1.000000   L5679    1.000000
    CP5678   R5678    -1.000000
    XX5678   R5678    1.000000   XX578    -1.000000
    XX5678   XX579    1.000000
    CP1379   L1379    -1.000000   L1380    1.000000
    CP1379   R1379    -1.000000
    XX1379   R1379    1.000000   XX179    -1.000000
    XX1379   XX180    1.000000   XX379    1.000000
    XX1379   XX380    -1.000000
    CP2379   L2379    -1.000000   L2380    1.000000
    CP2379   R2379    -1.000000
    XX2379   R2379    1.000000   XX279    -1.000000
    XX2379   XX280    1.000000   XX379    1.000000
    XX2379   XX380    -1.000000
    CP3579   L3579    -1.000000   L3580    1.000000
    CP3579   R3579    -1.000000
    XX3579   R3579    1.000000   XX379    -1.000000
    XX3579   XX380    1.000000   XX579    1.000000
    XX3579   XX580    -1.000000
    CP5479   L5479    -1.000000   L5480    1.000000
    CP5479   R5479    -1.000000
    XX5479   R5479    1.000000   XX579    -1.000000
    XX5479   XX580    1.000000
    CP5679   L5679    -1.000000   L5680    1.000000
    CP5679   R5679    -1.000000
    XX5679   R5679    1.000000   XX579    -1.000000
    XX5679   XX580    1.000000
    CP1380   L1380    -1.000000   L1381    1.000000
    CP1380   R1380    -1.000000
    XX1380   R1380    1.000000   XX180    -1.000000
    XX1380   XX181    1.000000   XX380    1.000000
    XX1380   XX381    -1.000000
    CP2380   L2380    -1.000000   L2381    1.000000
    CP2380   R2380    -1.000000
    XX2380   R2380    1.000000   XX280    -1.000000
    XX2380   XX281    1.000000   XX380    1.000000
    XX2380   XX381    -1.000000
    CP3580   L3580    -1.000000   L3581    1.000000
    CP3580   R3580    -1.000000
    XX3580   R3580    1.000000   XX380    -1.000000
    XX3580   XX381    1.000000   XX580    1.000000
    XX3580   XX581    -1.000000
    CP5480   L5480    -1.000000   L5481    1.000000
    CP5480   R5480    -1.000000
    XX5480   R5480    1.000000   XX580    -1.000000
    XX5480   XX581    1.000000
    CP5680   L5680    -1.000000   L5681    1.000000
    CP5680   R5680    -1.000000
    XX5680   R5680    1.000000   XX580    -1.000000
    XX5680   XX581    1.000000
    CP1381   L1381    -1.000000   R1381    -1.000000
    XX1381   R1381    1.000000   XX181    -1.000000
    XX1381   XX381    1.000000
    CP2381   L2381    -1.000000   R2381    -1.000000
    XX2381   R2381    1.000000   XX281    -1.000000
    XX2381   XX381    1.000000
    CP3581   L3581    -1.000000   R3581    -1.000000
    XX3581   R3581    1.000000   XX381    -1.000000
    XX3581   XX581    1.000000
    CP5481   L5481    -1.000000   R5481    -1.000000
    XX5481   R5481    1.000000   XX581    -1.000000
    CP5681   L5681    -1.000000   R5681    -1.000000
    XX5681   R5681    1.000000   XX581    -1.000000
    FEXE78   FXE78    -1.000000   RAI78    -1.000000
    ACHT78   ACP78    -1.000000   CRS78    0.114160
    ACHT78   ACP79    1.000000   AAH78    -1.000000
    ACHT78   CCH78    -0.114160   AAN78    -1.000000
    ACHT78   CCN78    -0.114160   AAT78    -1.000000
    ACHT78   CCT78    -0.114160   AAB78    -1.000000
    ACHT78   CCB78    -0.114160   AAR78    -1.000000
    ACHT78   CCR78    -0.114160   AAG78    -1.000000
    ACHT78   CCG78    -0.114160
    FEXE79   FXE79    -1.000000   RAI79    -1.000000
    ACHT79   ACP79    -1.000000   CRS79    0.114160
    ACHT79   ACP80    1.000000   AAH79    -1.000000
    ACHT79   CCH79    -0.114160   AAN79    -1.000000
    ACHT79   CCN79    -0.114160   AAT79    -1.000000
    ACHT79   CCT79    -0.114160   AAB79    -1.000000
    ACHT79   CCB79    -0.114160   AAR79    -1.000000
    ACHT79   CCR79    -0.114160   AAG79    -1.000000
    ACHT79   CCG79    -0.114160
    FEXE80   FXE80    -1.000000   RAI80    -1.000000
    ACHT80   ACP80    -1.000000   CRS80    0.114160
    ACHT80   ACP81    1.000000   AAH80    -1.000000
    ACHT80   CCH80    -0.114160   AAN80    -1.000000
    ACHT80   CCN80    -0.114160   AAT80    -1.000000
    ACHT80   CCT80    -0.114160   AAB80    -1.000000
    ACHT80   CCB80    -0.114160   AAR80    -1.000000
    ACHT80   CCR80    -0.114160   AAG80    -1.000000
    ACHT80   CCG80    -0.114160
    FEXE81   FXE81    -1.000000   RAI81    -1.000000
    ACHT81   ACP81    -1.000000   CRS81    0.114160
    ACHT81   AAH81    -1.000000   CCH81    -0.114160
    ACHT81   AAN81    -1.000000   CCN81    -0.114160
    ACHT81   AAT81    -1.000000   CCT81    -0.114160
    ACHT81   AAB81    -1.000000   CCB81    -0.114160
    ACHT81   AAR81    -1.000000   CCR81    -0.114160
    ACHT81   AAG81    -1.000000   CCG81    -0.114160
    ESEC78   EEH78    1.000000   RAI78    -0.350010
    ESEC78   OBJEC    -0.282240
    GRES78   EEH78    0.024330   EEH79    -0.025080
    GRES78   UPBROW33767 1.000000
    HEND78   HED78    -1.000000   HED79    1.000000
    HEND78   EEH78    -1.000000
    HCAP78   HCP78    -1.000000   HCP79    1.000000
    HCAP78   CRS78    1.000000   CCH78    -0.988020
    HCAP78   CCN78    -0.988020   CCT78    -0.988020
    HCAP78   CCB78    -0.988020   CCR78    -0.988020
    HCAP78   CCG78    -0.988020
    WK1H78   AAH78    8.760150   CCH78    1.000000
    WK1H78   UPBROW33768 1.000000
    WK2H78   AAH78    6.132100   CCH78    1.000000
    WK2H78   UPBROW33769 1.000000
    WK3H78   AAH78    4.029670   CCH78    1.000000
    WK3H78   UPBROW33770 1.000000
    WK4H78   AAH78    1.752030   CCH78    1.000000
    WK4H78   UPBROW33771 1.000000
    EHRP78   EEH78    1.000000   RPM78    -0.750010
    EHRP78   RAI78    -0.500010
    HENE78   RAI78    -0.500010   AAH78    -1.000000
    HENE78   AAN78    -1.000000   AAT78    -1.000000
    HENE78   AAB78    -1.000000   AAR78    -1.000000
    HENE78   AAG78    -1.000000   EEH78    1.000000
    HENE78   OBJEC    -0.282240
    NCAP78   NCP78    -1.000000   NCP79    1.000000
    NCAP78   CRS78    1.000000   EEN78    -7.008130
    NCAP78   CCN78    -0.850010   CCT78    -0.850010
    NCAP78   CCB78    -0.850010   CCR78    -0.850010
    NCAP78   CCG78    -0.850010
    WK1N78   AAN78    8.760150   CCN78    1.000000
    WK1N78   UPBROW33772 1.000000
    WK2N78   AAN78    6.132100   CCN78    1.000000
    WK2N78   UPBROW33773 1.000000
    WK3N78   AAN78    4.029670   CCN78    1.000000
    WK3N78   UPBROW33774 1.000000
    WK4N78   AAN78    1.752030   CCN78    1.000000
    WK4N78   UPBROW33775 1.000000
    ENRP78   EEN78    1.000000   RPM78    -0.750010
    ENRP78   RAI78    -0.742820
    NENE78   RAI78    -0.742820   AAN78    -1.000000
    NENE78   AAT78    -1.000000   AAB78    -1.000000
    NENE78   AAR78    -1.000000   AAG78    -1.000000
    NENE78   EEN78    1.000000
    TCAP78   TCP78    -1.000000   TCP79    1.000000
    TCAP78   CRS78    1.000000   EET78    -6.132010
    TCAP78   EET79    -0.438000   EET80    -0.262800
    TCAP78   EET81    -0.175200   CCT78    -0.750000
    TCAP78   CCT79    -0.070000   CCT80    -0.030000
    TCAP78   CCB78    -0.750000   CCB79    -0.070000
    TCAP78   CCB80    -0.030000   CCR78    -0.750000
    TCAP78   CCR79    -0.070000   CCR80    -0.030000
    TCAP78   CCG78    -0.750000   CCG79    -0.070000
    TCAP78   CCG80    -0.030000
    WK1T78   AAT78    8.760150   CCT78    1.000000
    WK1T78   UPBROW33776 1.000000
    WK2T78   AAT78    6.132100   CCT78    1.000000
    WK2T78   UPBROW33777 1.000000
    WK3T78   AAT78    4.029670   CCT78    1.000000
    WK3T78   UPBROW33778 1.000000
    WK4T78   AAT78    1.752030   CCT78    1.000000
    WK4T78   UPBROW33779 1.000000
    ETRP78   EET78    1.000000   RPM78    -0.750010
    ETRP78   RAI78    -5.064370
    TENE78   RAI78    -5.064370   AAT78    -1.000000
    TENE78   AAB78    -1.000000   AAR78    -1.000000
    TENE78   AAG78    -1.000000   EET78    1.000000
    BCAP78   BCP78    -1.000000   BCP79    1.000000
    BCAP78   CRS78    1.000000   EEB78    -7.008130
    BCAP78   CCB78    -0.750010   CCB79    -0.050000
    BCAP78   CCB80    -0.030000   CCB81    -0.020000
    BCAP78   CCR78    -0.750010   CCR79    -0.050000
    BCAP78   CCR80    -0.030000   CCR81    -0.020000
    BCAP78   CCG78    -0.750010   CCG79    -0.050000
    BCAP78   CCG80    -0.030000   CCG81    -0.020000
    WK1B78   AAB78    8.760150   CCB78    1.000000
    WK1B78   UPBROW33780 1.000000
    WK2B78   AAB78    6.132100   CCB78    1.000000
    WK2B78   UPBROW33781 1.000000
    WK3B78   AAB78    4.029670   CCB78    1.000000
    WK3B78   UPBROW33782 1.000000
    WK4B78   AAB78    1.752030   CCB78    1.000000
    WK4B78   UPBROW33783 1.000000
    EBRP78   EEB78    1.000000   RPM78    -0.750010
    EBRP78   RAI78    -5.401470
    BENE78   RAI78    -5.401470   AAB78    -1.000000
    BENE78   AAR78    -1.000000   AAG78    -1.000000
    BENE78   EEB78    1.000000
    RCAP78   RCP78    -1.000000   RCP79    1.000000
    RCAP78   CRS78    1.000000   EER78    -2.190040
    RCAP78   CCR78    -0.988020   CCG78    -0.988020
    WK1R78   AAR78    8.760150   CCR78    1.000000
    WK1R78   UPBROW33784 1.000000
    WK2R78   AAR78    6.132100   CCR78    1.000000
    WK2R78   UPBROW33785 1.000000
    WK3R78   AAR78    4.029670   CCR78    1.000000
    WK3R78   UPBROW33786 1.000000
    WK4R78   AAR78    1.752030   CCR78    1.000000
    WK4R78   UPBROW33787 1.000000
    RENE78   AAR78    -1.000000   AAG78    -1.000000
    RENE78   EER78    1.000000   RPM78    1.000000
    GCAP78   GCP78    -1.000000   GCP79    1.000000
    GCAP78   CRS78    1.000000   EEG78    -3.504060
    GCAP78   CCG78    -0.900020
    NEGACHT8151499 ACP81    1.000000   CRS81    -0.114160
    NEGACHT8151499 AAH81    1.000000   CCH81    0.114160
    NEGACHT8151499 AAN81    1.000000   CCN81    0.114160
    NEGACHT8151499 AAT81    1.000000   CCT81    0.114160
    NEGACHT8151499 AAB81    1.000000   CCB81    0.114160
    NEGACHT8151499 AAR81    1.000000   CCR81    0.114160
    NEGACHT8151499 AAG81    1.000000   CCG81    0.114160
    NEGACHT8051498 ACP80    1.000000   CRS80    -0.114160
    NEGACHT8051498 ACP81    -1.000000   AAH80    1.000000
    NEGACHT8051498 CCH80    0.114160   AAN80    1.000000
    NEGACHT8051498 CCN80    0.114160   AAT80    1.000000
    NEGACHT8051498 CCT80    0.114160   AAB80    1.000000
    NEGACHT8051498 CCB80    0.114160   AAR80    1.000000
    NEGACHT8051498 CCR80    0.114160   AAG80    1.000000
    NEGACHT8051498 CCG80    0.114160
    NEGACHT7951497 ACP79    1.000000   CRS79    -0.114160
    NEGACHT7951497 ACP80    -1.000000   AAH79    1.000000
    NEGACHT7951497 CCH79    0.114160   AAN79    1.000000
    NEGACHT7951497 CCN79    0.114160   AAT79    1.000000
    NEGACHT7951497 CCT79    0.114160   AAB79    1.000000
    NEGACHT7951497 CCB79    0.114160   AAR79    1.000000
    NEGACHT7951497 CCR79    0.114160   AAG79    1.000000
    NEGACHT7951497 CCG79    0.114160
    NEGACHT7851496 ACP78    1.000000   CRS78    -0.114160
    NEGACHT7851496 ACP79    -1.000000   AAH78    1.000000
    NEGACHT7851496 CCH78    0.114160   AAN78    1.000000
    NEGACHT7851496 CCN78    0.114160   AAT78    1.000000
    NEGACHT7851496 CCT78    0.114160   AAB78    1.000000
    NEGACHT7851496 CCB78    0.114160   AAR78    1.000000
    NEGACHT7851496 CCR78    0.114160   AAG78    1.000000
    NEGACHT7851496 CCG78    0.114160
    GENE78   RAI78    -16.093440   AAG78    -1.000000
    GENE78   EEG78    1.000000
    ESEC79   EEH79    1.000000   RAI79    -0.350010
    ESEC79   OBJEC    -0.256590
    GRES79   EEH79    0.024330   EEH80    -0.025080
    GRES79   UPBROW33788 1.000000
    HEND79   HED79    -1.000000   HED80    1.000000
    HEND79   EEH79    -1.000000
    HCAP79   HCP79    -1.000000   HCP80    1.000000
    HCAP79   CRS79    1.000000   CCH79    -0.988020
    HCAP79   CCN79    -0.988020   CCT79    -0.988020
    HCAP79   CCB79    -0.988020   CCR79    -0.988020
    HCAP79   CCG79    -0.988020
    WK1H79   AAH79    8.760150   CCH79    1.000000
    WK1H79   UPBROW33789 1.000000
    WK2H79   AAH79    6.132100   CCH79    1.000000
    WK2H79   UPBROW33790 1.000000
    WK3H79   AAH79    4.029670   CCH79    1.000000
    WK3H79   UPBROW33791 1.000000
    WK4H79   AAH79    1.752030   CCH79    1.000000
    WK4H79   UPBROW33792 1.000000
    EHRP79   EEH79    1.000000   RPM79    -0.750010
    EHRP79   RAI79    -0.500010
    HENE79   RAI79    -0.500010   AAH79    -1.000000
    HENE79   AAN79    -1.000000   AAT79    -1.000000
    HENE79   AAB79    -1.000000   AAR79    -1.000000
    HENE79   AAG79    -1.000000   EEH79    1.000000
    HENE79   OBJEC    -0.256590
    NCAP79   NCP79    -1.000000   NCP80    1.000000
    NCAP79   CRS79    1.000000   EEN79    -7.008130
    NCAP79   CCN79    -0.850010   CCT79    -0.850010
    NCAP79   CCB79    -0.850010   CCR79    -0.850010
    NCAP79   CCG79    -0.850010
    WK1N79   AAN79    8.760150   CCN79    1.000000
    WK1N79   UPBROW33793 1.000000
    WK2N79   AAN79    6.132100   CCN79    1.000000
    WK2N79   UPBROW33794 1.000000
    WK3N79   AAN79    4.029670   CCN79    1.000000
    WK3N79   UPBROW33795 1.000000
    WK4N79   AAN79    1.752030   CCN79    1.000000
    WK4N79   UPBROW33796 1.000000
    ENRP79   EEN79    1.000000   RPM79    -0.750010
    ENRP79   RAI79    -0.750250
    NENE79   RAI79    -0.750250   AAN79    -1.000000
    NENE79   AAT79    -1.000000   AAB79    -1.000000
    NENE79   AAR79    -1.000000   AAG79    -1.000000
    NENE79   EEN79    1.000000
    TCAP79   TCP79    -1.000000   TCP80    1.000000
    TCAP79   CRS79    1.000000   EET79    -6.132010
    TCAP79   EET80    -0.438000   EET81    -0.262800
    TCAP79   CCT79    -0.750000   CCT80    -0.070000
    TCAP79   CCT81    -0.030000   CCB79    -0.750000
    TCAP79   CCB80    -0.070000   CCB81    -0.030000
    TCAP79   CCR79    -0.750000   CCR80    -0.070000
    TCAP79   CCR81    -0.030000   CCG79    -0.750000
    TCAP79   CCG80    -0.070000   CCG81    -0.030000
    WK1T79   AAT79    8.760150   CCT79    1.000000
    WK1T79   UPBROW33797 1.000000
    WK2T79   AAT79    6.132100   CCT79    1.000000
    WK2T79   UPBROW33798 1.000000
    WK3T79   AAT79    4.029670   CCT79    1.000000
    WK3T79   UPBROW33799 1.000000
    WK4T79   AAT79    1.752030   CCT79    1.000000
    WK4T79   UPBROW33800 1.000000
    ETRP79   EET79    1.000000   RPM79    -0.750010
    ETRP79   RAI79    -5.165660
    TENE79   RAI79    -5.165660   AAT79    -1.000000
    TENE79   AAB79    -1.000000   AAR79    -1.000000
    TENE79   AAG79    -1.000000   EET79    1.000000
    BCAP79   BCP79    -1.000000   BCP80    1.000000
    BCAP79   CRS79    1.000000   EEB79    -7.008130
    BCAP79   CCB79    -0.750010   CCB80    -0.050000
    BCAP79   CCB81    -0.030000   CCR79    -0.750010
    BCAP79   CCR80    -0.050000   CCR81    -0.030000
    BCAP79   CCG79    -0.750010   CCG80    -0.050000
    BCAP79   CCG81    -0.030000
    WK1B79   AAB79    8.760150   CCB79    1.000000
    WK1B79   UPBROW33801 1.000000
    WK2B79   AAB79    6.132100   CCB79    1.000000
    WK2B79   UPBROW33802 1.000000
    WK3B79   AAB79    4.029670   CCB79    1.000000
    WK3B79   UPBROW33803 1.000000
    WK4B79   AAB79    1.752030   CCB79    1.000000
    WK4B79   UPBROW33804 1.000000
    EBRP79   EEB79    1.000000   RPM79    -0.750010
    EBRP79   RAI79    -5.509490
    BENE79   RAI79    -5.509490   AAB79    -1.000000
    BENE79   AAR79    -1.000000   AAG79    -1.000000
    BENE79   EEB79    1.000000
    RCAP79   RCP79    -1.000000   RCP80    1.000000
    RCAP79   CRS79    1.000000   EER79    -2.190040
    RCAP79   CCR79    -0.988020   CCG79    -0.988020
    WK1R79   AAR79    8.760150   CCR79    1.000000
    WK1R79   UPBROW33805 1.000000
    WK2R79   AAR79    6.132100   CCR79    1.000000
    WK2R79   UPBROW33806 1.000000
    WK3R79   AAR79    4.029670   CCR79    1.000000
    WK3R79   UPBROW33807 1.000000
    WK4R79   AAR79    1.752030   CCR79    1.000000
    WK4R79   UPBROW33808 1.000000
    RENE79   AAR79    -1.000000   AAG79    -1.000000
    RENE79   EER79    1.000000   RPM79    1.000000
    GCAP79   GCP79    -1.000000   GCP80    1.000000
    GCAP79   CRS79    1.000000   EEG79    -3.504060
    GCAP79   CCG79    -0.900020
    NEGRVAD8151495 RAI81    -1.000000   OBJEC    -0.424090
    NEGRVAD8051494 RAI80    -1.000000   OBJEC    -0.466500
    NEGRVAD7951493 RAI79    -1.000000   OBJEC    -0.513150
    NEGRVAD7851492 RAI78    -1.000000   OBJEC    -0.564470
    GENE79   RAI79    -16.415300   AAG79    -1.000000
    GENE79   EEG79    1.000000
    ESEC80   EEH80    1.000000   RAI80    -0.350010
    ESEC80   OBJEC    -0.233260
    GRES80   EEH80    0.024330   EEH81    -0.025080
    GRES80   DGRES    -1.000000   UPBROW33809 1.000000
    HEND80   HED80    -1.000000   HED81    1.000000
    HEND80   EEH80    -1.000000
    HCAP80   HCP80    -1.000000   HCP81    1.000000
    HCAP80   CRS80    1.000000   CCH80    -0.988020
    HCAP80   CCN80    -0.988020   CCT80    -0.988020
    HCAP80   CCB80    -0.988020   CCR80    -0.988020
    HCAP80   CCG80    -0.988020
    WK1H80   AAH80    8.760150   CCH80    1.000000
    WK1H80   UPBROW33810 1.000000
    WK2H80   AAH80    6.132100   CCH80    1.000000
    WK2H80   UPBROW33811 1.000000
    WK3H80   AAH80    4.029670   CCH80    1.000000
    WK3H80   UPBROW33812 1.000000
    WK4H80   AAH80    1.752030   CCH80    1.000000
    WK4H80   UPBROW33813 1.000000
    EHRP80   EEH80    1.000000   RPM80    -0.750010
    EHRP80   RAI80    -0.500010
    HENE80   RAI80    -0.500010   AAH80    -1.000000
    HENE80   AAN80    -1.000000   AAT80    -1.000000
    HENE80   AAB80    -1.000000   AAR80    -1.000000
    HENE80   AAG80    -1.000000   EEH80    1.000000
    HENE80   OBJEC    -0.233260
    NCAP80   NCP80    -1.000000   NCP81    1.000000
    NCAP80   CRS80    1.000000   EEN80    -7.008130
    NCAP80   CCN80    -0.850010   CCT80    -0.850010
    NCAP80   CCB80    -0.850010   CCR80    -0.850010
    NCAP80   CCG80    -0.850010
    WK1N80   AAN80    8.760150   CCN80    1.000000
    WK1N80   UPBROW33814 1.000000
    WK2N80   AAN80    6.132100   CCN80    1.000000
    WK2N80   UPBROW33815 1.000000
    WK3N80   AAN80    4.029670   CCN80    1.000000
    WK3N80   UPBROW33816 1.000000
    WK4N80   AAN80    1.752030   CCN80    1.000000
    WK4N80   UPBROW33817 1.000000
    ENRP80   EEN80    1.000000   RPM80    -0.750010
    ENRP80   RAI80    -0.757750
    NENE80   RAI80    -0.757750   AAN80    -1.000000
    NENE80   AAT80    -1.000000   AAB80    -1.000000
    NENE80   AAR80    -1.000000   AAG80    -1.000000
    NENE80   EEN80    1.000000
    TCAP80   TCP80    -1.000000   TCP81    1.000000
    TCAP80   CRS80    1.000000   EET80    -6.132010
    TCAP80   EET81    -0.438000   CCT80    -0.750000
    TCAP80   CCT81    -0.070000   CCB80    -0.750000
    TCAP80   CCB81    -0.070000   CCR80    -0.750000
    TCAP80   CCR81    -0.070000   CCG80    -0.750000
    TCAP80   CCG81    -0.070000
    WK1T80   AAT80    8.760150   CCT80    1.000000
    WK1T80   UPBROW33818 1.000000
    WK2T80   AAT80    6.132100   CCT80    1.000000
    WK2T80   UPBROW33819 1.000000
    WK3T80   AAT80    4.029670   CCT80    1.000000
    WK3T80   UPBROW33820 1.000000
    WK4T80   AAT80    1.752030   CCT80    1.000000
    WK4T80   UPBROW33821 1.000000
    ETRP80   EET80    1.000000   RPM80    -0.750010
    ETRP80   RAI80    -5.268960
    TENE80   RAI80    -5.268960   AAT80    -1.000000
    TENE80   AAB80    -1.000000   AAR80    -1.000000
    TENE80   AAG80    -1.000000   EET80    1.000000
    BCAP80   BCP80    -1.000000   BCP81    1.000000
    BCAP80   CRS80    1.000000   EEB80    -7.008130
    BCAP80   CCB80    -0.750010   CCB81    -0.050000
    BCAP80   CCR80    -0.750010   CCR81    -0.050000
    BCAP80   CCG80    -0.750010   CCG81    -0.050000
    WK1B80   AAB80    8.760150   CCB80    1.000000
    WK1B80   UPBROW33822 1.000000
    WK2B80   AAB80    6.132100   CCB80    1.000000
    WK2B80   UPBROW33823 1.000000
    WK3B80   AAB80    4.029670   CCB80    1.000000
    WK3B80   UPBROW33824 1.000000
    WK4B80   AAB80    1.752030   CCB80    1.000000
    WK4B80   UPBROW33825 1.000000
    EBRP80   EEB80    1.000000   RPM80    -0.750010
    EBRP80   RAI80    -5.619680
    BENE80   RAI80    -5.619680   AAB80    -1.000000
    BENE80   AAR80    -1.000000   AAG80    -1.000000
    BENE80   EEB80    1.000000
    RCAP80   RCP80    -1.000000   RCP81    1.000000
    RCAP80   CRS80    1.000000   EER80    -2.190040
    RCAP80   CCR80    -0.988020   CCG80    -0.988020
    WK1R80   AAR80    8.760150   CCR80    1.000000
    WK1R80   UPBROW33826 1.000000
    WK2R80   AAR80    6.132100   CCR80    1.000000
    WK2R80   UPBROW33827 1.000000
    WK3R80   AAR80    4.029670   CCR80    1.000000
    WK3R80   UPBROW33828 1.000000
    WK4R80   AAR80    1.752030   CCR80    1.000000
    WK4R80   UPBROW33829 1.000000
    RENE80   AAR80    -1.000000   AAG80    -1.000000
    RENE80   EER80    1.000000   RPM80    1.000000
    GCAP80   GCP80    -1.000000   GCP81    1.000000
    GCAP80   CRS80    1.000000   EEG80    -3.504060
    GCAP80   CCG80    -0.900020
    NEGRVAD7751491 RAI77    -1.000000   OBJEC    -0.620920
    NEGRVAD7651490 RAI76    -1.000000   OBJEC    -0.683010
    NEGRVAD7551489 RAI75    -1.000000   OBJEC    -0.751310
    NEGRVAD7451488 RAI74    -1.000000   OBJEC    -0.826440
    GENE80   RAI80    -16.743590   AAG80    -1.000000
    GENE80   EEG80    1.000000
    ESEC81   EEH81    1.000000   RAI81    -0.350010
    ESEC81   OBJEC    -0.212050   VLRES    -1.500010
    GRES81   EEH81    0.024330   DGRES    1.000000
    GRES81   UPBROW33830 1.000000
    HEND81   HED81    -1.000000   EEH81    -1.000000
    HCAP81   HCP81    -1.000000   CRS81    1.000000
    HCAP81   CCH81    -0.988020   CCN81    -0.988020
    HCAP81   CCT81    -0.988020   CCB81    -0.988020
    HCAP81   CCR81    -0.988020   CCG81    -0.988020
    WK1H81   AAH81    8.760150   CCH81    1.000000
    WK1H81   UPBROW33831 1.000000
    WK2H81   AAH81    6.132100   CCH81    1.000000
    WK2H81   UPBROW33832 1.000000
    WK3H81   AAH81    4.029670   CCH81    1.000000
    WK3H81   UPBROW33833 1.000000
    WK4H81   AAH81    1.752030   CCH81    1.000000
    WK4H81   UPBROW33834 1.000000
    EHRP81   EEH81    1.000000   RPM81    -0.750010
    EHRP81   RAI81    -0.500010   VLRES    -0.000090
    HENE81   RAI81    -0.500010   AAH81    -1.000000
    HENE81   AAN81    -1.000000   AAT81    -1.000000
    HENE81   AAB81    -1.000000   AAR81    -1.000000
    HENE81   AAG81    -1.000000   EEH81    1.000000
    HENE81   OBJEC    -0.212050   VLRES    -0.000090
    NCAP81   NCP81    -1.000000   CRS81    1.000000
    NCAP81   EEN81    -7.008130   CCN81    -0.850010
    NCAP81   CCT81    -0.850010   CCB81    -0.850010
    NCAP81   CCR81    -0.850010   CCG81    -0.850010
    WK1N81   AAN81    8.760150   CCN81    1.000000
    WK1N81   UPBROW33835 1.000000
    WK2N81   AAN81    6.132100   CCN81    1.000000
    WK2N81   UPBROW33836 1.000000
    WK3N81   AAN81    4.029670   CCN81    1.000000
    WK3N81   UPBROW33837 1.000000
    WK4N81   AAN81    1.752030   CCN81    1.000000
    WK4N81   UPBROW33838 1.000000
    ENRP81   EEN81    1.000000   RPM81    -0.750010
    ENRP81   RAI81    -0.765330   VLRES    8.588460
    NENE81   RAI81    -0.765330   AAN81    -1.000000
    NENE81   AAT81    -1.000000   AAB81    -1.000000
    NENE81   AAR81    -1.000000   AAG81    -1.000000
    NENE81   EEN81    1.000000   VLRES    8.588460
    TCAP81   TCP81    -1.000000   CRS81    1.000000
    TCAP81   EET81    -6.132010   CCT81    -0.750000
    TCAP81   CCB81    -0.750000   CCR81    -0.750000
    TCAP81   CCG81    -0.750000
    WK1T81   AAT81    8.760150   CCT81    1.000000
    WK1T81   UPBROW33839 1.000000
    WK2T81   AAT81    6.132100   CCT81    1.000000
    WK2T81   UPBROW33840 1.000000
    WK3T81   AAT81    4.029670   CCT81    1.000000
    WK3T81   UPBROW33841 1.000000
    WK4T81   AAT81    1.752030   CCT81    1.000000
    WK4T81   UPBROW33842 1.000000
    ETRP81   EET81    1.000000   RPM81    -0.750010
    ETRP81   RAI81    -5.374340   VLRES    68.521190
    TENE81   RAI81    -5.374340   AAT81    -1.000000
    TENE81   AAB81    -1.000000   AAR81    -1.000000
    TENE81   AAG81    -1.000000   EET81    1.000000
    TENE81   VLRES    68.521190
    BCAP81   BCP81    -1.000000   CRS81    1.000000
    BCAP81   EEB81    -7.008130   CCB81    -0.750010
    BCAP81   CCR81    -0.750010   CCG81    -0.750010
    WK1B81   AAB81    8.760150   CCB81    1.000000
    WK1B81   UPBROW33843 1.000000
    WK2B81   AAB81    6.132100   CCB81    1.000000
    WK2B81   UPBROW33844 1.000000
    WK3B81   AAB81    4.029670   CCB81    1.000000
    WK3B81   UPBROW33845 1.000000
    WK4B81   AAB81    1.752030   CCB81    1.000000
    WK4B81   UPBROW33846 1.000000
    EBRP81   EEB81    1.000000   RPM81    -0.750010
    EBRP81   RAI81    -5.732070   VLRES    73.082120
    BENE81   RAI81    -5.732070   AAB81    -1.000000
    BENE81   AAR81    -1.000000   AAG81    -1.000000
    BENE81   EEB81    1.000000   VLRES    73.082120
    RCAP81   RCP81    -1.000000   CRS81    1.000000
    RCAP81   EER81    -2.190040   CCR81    -0.988020
    RCAP81   CCG81    -0.988020
    WK1R81   AAR81    8.760150   CCR81    1.000000
    WK1R81   UPBROW33847 1.000000
    WK2R81   AAR81    6.132100   CCR81    1.000000
    WK2R81   UPBROW33848 1.000000
    WK3R81   AAR81    4.029670   CCR81    1.000000
    WK3R81   UPBROW33849 1.000000
    WK4R81   AAR81    1.752030   CCR81    1.000000
    WK4R81   UPBROW33850 1.000000
    RENE81   AAR81    -1.000000   AAG81    -1.000000
    RENE81   EER81    1.000000   RPM81    1.000000
    GCAP81   GCP81    -1.000000   CRS81    1.000000
    GCAP81   EEG81    -3.504060   CCG81    -0.900020
    NEGRVAD7351487 RAI73    -1.000000   OBJEC    -0.909090
    NEGRVAD7251486 RAI72    -1.000000   OBJEC    -1.000000
    T75081   INV76    2.536100   INC76    0.099340
    T75081   INV77    18.558620   INC77    0.917860
    T75081   INV78    35.248350   INC78    2.953640
    T75081   INV79    67.750430   INC79    6.756820
    T75081   INV80    43.329060   INC80    10.578580
    T75081   DEP81    3.779410   FXE81    1.898190
    T75081   BCP81    0.750010   RES81    0.418330
    T75081   XX281    0.750010   VLRES    70.196670
    T75081   UPBROW33897 1.000000
    T75080   INV75    2.438550   INC75    0.095520
    T75080   INV76    17.847560   INC76    0.882670
    T75080   INV77    33.898680   INC77    2.840480
    T75080   INV78    65.168790   INC78    6.498530
    T75080   INV79    41.694020   INC79    10.175360
    T75080   DEP80    3.634900   FXE80    1.852160
    T75080   FXE81    1.898190   BCP80    0.750010
    T75080   RES80    0.422640   RES81    0.345570
    T75080   XX280    0.750010   VLRES    69.127880
    T75080   UPBROW33896 1.000000
    GENE81   RAI81    -17.078450   AAG81    -1.000000
    GENE81   EEG81    1.000000   VLRES    217.744810
    RESV78   RES78    -1.000000   CRS78    -1.000000
    RESV79   RES79    -1.000000   CRS79    -1.000000
    RESV80   RES80    -1.000000   CRS80    -1.000000
    RESV81   RES81    -1.000000   CRS81    -1.000000
    EGRP81   VLRES    217.744810
    AD1378   L1378    0.500010   INV76    2.255380
    AD1378   INC76    0.091950   INV77    1.571990
    AD1378   INC77    0.247980   DEP78    0.016880
    AD1378   FXE78    0.231750   FXE79    0.237540
    AD1378   FXE80    0.243480   FXE81    0.249570
    AD1378   UPBROW33851 1.000000
    AD2378   L2378    0.500010   INV76    3.383070
    AD2378   INC76    0.137920   INV77    2.473020
    AD2378   INC77    0.376660   DEP78    0.029260
    AD2378   FXE78    0.579370   FXE79    0.593850
    AD2378   FXE80    0.608700   FXE81    0.623910
    AD2378   UPBROW33852 1.000000
    AD3578   L3578    1.000020   INV76    0.902150
    AD3578   INC76    0.036780   INV77    1.111900
    AD3578   INC77    0.118890   DEP78    0.007880
    AD3578   FXE78    0.081110   FXE79    0.083140
    AD3578   FXE80    0.085220   FXE81    0.087350
    AD3578   UPBROW33853 1.000000
    AD5478   L5478    0.500010   INV76    2.255380
    AD5478   INC76    0.091950   INV77    1.571990
    AD5478   INC77    0.247980   DEP78    0.016880
    AD5478   FXE78    0.023170   FXE79    0.023750
    AD5478   FXE80    0.024350   FXE81    0.024960
    AD5478   UPBROW33854 1.000000
    AD5678   L5678    0.200000   INV76    5.638440
    AD5678   INC76    0.229860   INV77    2.549700
    AD5678   INC77    0.563670   DEP78    0.067520
    AD5678   FXE78    0.405560   FXE79    0.415690
    AD5678   FXE80    0.426090   FXE81    0.436740
    AD5678   UPBROW33855 1.000000
    AD1379   L1379    0.500010   INV77    2.300480
    AD1379   INC77    0.093780   INV78    1.603430
    AD1379   INC78    0.252940   DEP79    0.017220
    AD1379   FXE79    0.237540   FXE80    0.243480
    AD1379   FXE81    0.249560   UPBROW33856 1.000000
    AD2379   L2379    0.500010   INV77    3.450720
    AD2379   INC77    0.140680   INV78    2.522470
    AD2379   INC78    0.384190   DEP79    0.029850
    AD2379   FXE79    0.593850   FXE80    0.608700
    AD2379   FXE81    0.623910   UPBROW33857 1.000000
    AD3579   L3579    1.000020   INV77    0.920190
    AD3579   INC77    0.037510   INV78    1.134140
    AD3579   INC78    0.121260   DEP79    0.008040
    AD3579   FXE79    0.083140   FXE80    0.085220
    AD3579   FXE81    0.087350   UPBROW33858 1.000000
    AD5479   L5479    0.500010   INV77    2.300480
    AD5479   INC77    0.093780   INV78    1.603430
    AD5479   INC78    0.252940   DEP79    0.017220
    AD5479   FXE79    0.023750   FXE80    0.024350
    AD5479   FXE81    0.024960   UPBROW33859 1.000000
    AD5679   L5679    0.200000   INV77    5.751210
    AD5679   INC77    0.234460   INV78    2.600690
    AD5679   INC78    0.574950   DEP79    0.068880
    AD5679   FXE79    0.415690   FXE80    0.426090
    AD5679   FXE81    0.436740   UPBROW33860 1.000000
    AD1380   L1380    0.500010   INV78    2.346490
    AD1380   INC78    0.095660   INV79    1.635500
    AD1380   INC79    0.258000   DEP80    0.017560
    AD1380   FXE80    0.243480   FXE81    0.249560
    AD1380   UPBROW33861 1.000000
    AD2380   L2380    0.500010   INV78    3.519730
    AD2380   INC78    0.143490   INV79    2.572920
    AD2380   INC79    0.391870   DEP80    0.030440
    AD2380   FXE80    0.608700   FXE81    0.623910
    AD2380   UPBROW33862 1.000000
    AD3580   L3580    1.000020   INV78    0.938600
    AD3580   INC78    0.038260   INV79    1.156820
    AD3580   INC79    0.123690   DEP80    0.008200
    AD3580   FXE80    0.085220   FXE81    0.087350
    AD3580   UPBROW33863 1.000000
    AD5480   L5480    0.500010   INV78    2.346490
    AD5480   INC78    0.095660   INV79    1.635500
    AD5480   INC79    0.258000   DEP80    0.017560
    AD5480   FXE80    0.024350   FXE81    0.024960
    AD5480   UPBROW33864 1.000000
    AD5680   L5680    0.200000   INV78    5.866230
    AD5680   INC78    0.239150   INV79    2.652700
    AD5680   INC79    0.586450   DEP80    0.070250
    AD5680   FXE80    0.426090   FXE81    0.436740
    AD5680   UPBROW33865 1.000000
    AD1381   L1381    0.500010   INV79    2.393420
    AD1381   INC79    0.097570   INV80    1.668210
    AD1381   INC80    0.263160   DEP81    0.017910
    AD1381   FXE81    0.249560   UPBROW33866 1.000000
    AD2381   L2381    0.500010   INV79    3.590130
    AD2381   INC79    0.146360   INV80    2.624380
    AD2381   INC80    0.399710   DEP81    0.031050
    AD2381   FXE81    0.623910   UPBROW33867 1.000000
    AD3581   L3581    1.000020   INV79    0.957370
    AD3581   INC79    0.039030   INV80    1.179950
    AD3581   INC80    0.126160   DEP81    0.008360
    AD3581   FXE81    0.087350   UPBROW33868 1.000000
    AD5481   L5481    0.500010   INV79    2.393420
    AD5481   INC79    0.097570   INV80    1.668210
    AD5481   INC80    0.263160   DEP81    0.017910
    AD5481   FXE81    0.024960   UPBROW33869 1.000000
    AD5681   L5681    0.200000   INV79    5.983540
    AD5681   INC79    0.243930   INV80    2.705750
    AD5681   INC80    0.598170   DEP81    0.071660
    AD5681   FXE81    0.436740   UPBROW33870 1.000000
    OUT278   INV72    1.655740   INC72    0.064860
    OUT278   INV73    5.673330   INC73    0.346860
    OUT278   INV74    22.618210   INC74    1.427900
    OUT278   INV75    47.274490   INC75    4.053810
    OUT278   INV76    53.495820   INC76    7.683510
    OUT278   INV77    32.859970   INC77    10.464220
    OUT278   DEP78    1.435460   FXE78    0.501390
    OUT278   FXE79    0.525770   FXE80    0.551360
    OUT278   FXE81    0.578210   HCP78    0.397010
    OUT278   HED78    2.070030   RES78    0.027790
    OUT278   RES79    0.027790   RES80    0.027240
    OUT278   RES81    0.012640   VLRES    27.453410
    OUT278   OUT2X    1.000000   UPBROW33871 1.000000
    OUT279   INV73    1.721970   INC73    0.067450
    OUT279   INV74    5.900260   INC74    0.360740
    OUT279   INV75    23.520680   INC75    1.484930
    OUT279   INV76    49.160490   INC76    4.215600
    OUT279   INV77    55.615710   INC77    7.989540
    OUT279   INV78    34.148470   INC78    10.879790
    OUT279   DEP79    1.492690   FXE79    0.525770
    OUT279   FXE80    0.551360   FXE81    0.578210
    OUT279   HCP79    0.397010   HED79    2.070030
    OUT279   RES79    0.027790   RES80    0.027510
    OUT279   RES81    0.026960   VLRES    27.962480
    OUT279   OUT2X    1.000000   UPBROW33872 1.000000
    OUT280   INV74    1.790850   INC74    0.070150
    OUT280   INV75    6.136270   INC75    0.375170
    OUT280   INV76    24.459180   INC76    1.544230
    OUT280   INV77    51.121800   INC77    4.383850
    OUT280   INV78    57.819950   INC78    8.307780
    OUT280   INV79    35.488010   INC79    11.311900
    OUT280   DEP80    1.552200   FXE80    0.551360
    OUT280   FXE81    0.578210   HCP80    0.397010
    OUT280   HED80    2.070030   RES80    0.027510
    OUT280   RES81    0.027240   VLRES    28.497830
    OUT280   OUT2X    1.000000   UPBROW33873 1.000000
    CASC78   INV74    3.505410   INC74    0.137310
    CASC78   INV75    13.658780   INC75    0.798890
    CASC78   INV76    18.450090   INC76    1.994050
    CASC78   INV77    13.037320   INC77    3.071230
    CASC78   DEP78    0.443530   FXE78    0.309570
    CASC78   FXE79    0.325040   FXE80    0.341300
    CASC78   FXE81    0.358360   HCP78    0.224000
    CASC78   HED78    0.467010   RES78    0.015680
    CASC78   RES79    0.015680   RES80    0.015370
    CASC78   RES81    0.007130   XX378    0.224000
    CASC78   VLRES    12.320120   CASCX    1.000000
    CASC78   UPBROW33874 1.000000
    CASC79   INV75    3.645630   INC75    0.142800
    CASC79   INV76    14.205130   INC76    0.830850
    CASC79   INV77    19.188100   INC77    2.073810
    CASC79   INV78    13.558810   INC78    3.194070
    CASC79   DEP79    0.461270   FXE79    0.325040
    CASC79   FXE80    0.341300   FXE81    0.358360
    CASC79   HCP79    0.224000   HED79    0.467010
    CASC79   RES79    0.015680   RES80    0.015520
    CASC79   RES81    0.015210   XX379    0.224000
    CASC79   VLRES    12.477920   CASCX    1.000000
    CASC79   UPBROW33875 1.000000
    CASC80   INV76    3.791450   INC76    0.148520
    CASC80   INV77    14.773320   INC77    0.864080
    CASC80   INV78    19.955600   INC78    2.156760
    CASC80   INV79    14.101150   INC79    3.321830
    CASC80   DEP80    0.479720   FXE80    0.341300
    CASC80   FXE81    0.358360   HCP80    0.224000
    CASC80   HED80    0.467010   RES80    0.015520
    CASC80   RES81    0.015370   XX380    0.224000
    CASC80   VLRES    12.643880   CASCX    1.000000
    CASC80   UPBROW33876 1.000000
    CASC81   INV77    3.943100   INC77    0.154460
    CASC81   INV78    15.364250   INC78    0.898650
    CASC81   INV79    20.753810   INC79    2.243030
    CASC81   INV80    14.665190   INC80    3.454710
    CASC81   DEP81    0.498910   FXE81    0.358360
    CASC81   HCP81    0.224000   HED81    0.467010
    CASC81   RES81    0.015370   XX381    0.224000
    CASC81   VLRES    12.818230   CASCX    1.000000
    CASC81   UPBROW33877 1.000000
    CHAL78   INV74    2.961800   INC74    0.116020
    CHAL78   INV75    13.084750   INC75    0.735490
    CHAL78   INV76    17.001110   INC76    1.856370
    CHAL78   INV77    12.925850   INC77    2.883210
    CHAL78   DEP78    0.398500   FXE78    0.341730
    CHAL78   FXE79    0.357850   FXE80    0.374760
    CHAL78   FXE81    0.392490   HCP78    0.124000
    CHAL78   HED78    0.190000   RES78    0.008680
    CHAL78   RES79    0.008680   RES80    0.008510
    CHAL78   RES81    0.003950   XX378    0.124000
    CHAL78   VLRES    12.260720   CHALX    1.000000
    CHAL78   UPBROW33878 1.000000
    CHAL79   INV75    3.077180   INC75    0.120540
    CHAL79   INV76    13.601300   INC76    0.764410
    CHAL79   INV77    17.653730   INC77    1.928820
    CHAL79   INV78    13.407280   INC78    2.994400
    CHAL79   DEP79    0.414170   FXE79    0.357850
    CHAL79   FXE80    0.374760   FXE81    0.392490
    CHAL79   HCP79    0.124000   HED79    0.190000
    CHAL79   RES79    0.008680   RES80    0.008590
    CHAL79   RES81    0.008420   XX379    0.124000
    CHAL79   VLRES    12.400260   CHALX    1.000000
    CHAL79   UPBROW33879 1.000000
    CHAL80   INV76    3.197110   INC76    0.125230
    CHAL80   INV77    14.138370   INC77    0.794470
    CHAL80   INV78    18.331890   INC78    2.004130
    CHAL80   INV79    13.907250   INC79    3.109960
    CHAL80   DEP80    0.430470   FXE80    0.374760
    CHAL80   FXE81    0.392490   HCP80    0.124000
    CHAL80   HED80    0.190000   RES80    0.008590
    CHAL80   RES81    0.008510   XX380    0.124000
    CHAL80   VLRES    12.546950   CHALX    1.000000
    CHAL80   UPBROW33880 1.000000
    CHAL81   INV77    3.321770   INC77    0.130120
    CHAL81   INV78    14.696780   INC78    0.825730
    CHAL81   INV79    19.036640   INC79    2.082420
    CHAL81   INV80    14.426500   INC80    3.230060
    CHAL81   DEP81    0.447420   FXE81    0.392490
    CHAL81   HCP81    0.124000   HED81    0.190000
    CHAL81   RES81    0.008510   XX381    0.124000
    CHAL81   VLRES    12.701010   CHALX    1.000000
    CHAL81   UPBROW33881 1.000000
    CHAI78   INV72    1.150120   INC72    0.045050
    CHAI78   INV73    11.889580   INC73    0.552300
    CHAI78   INV74    26.332870   INC74    2.006250
    CHAI78   INV75    38.208300   INC75    4.377230
    CHAI78   INV76    55.278320   INC76    7.696280
    CHAI78   INV77    36.200040   INC77    10.676640
    CHAI78   DEP78    1.417200   FXE78    0.610430
    CHAI78   FXE79    0.637540   FXE80    0.665940
    CHAI78   FXE81    0.695690   RCP78    0.800010
    CHAI78   RES78    0.088000   RES79    0.085540
    CHAI78   RES80    0.083110   RES81    0.062720
    CHAI78   XX378    0.800010   VLRES    28.906160
    CHAI78   UPBROW33882 1.000000
    CHAI79   INV73    1.196120   INC73    0.046850
    CHAI79   INV74    12.365160   INC74    0.574390
    CHAI79   INV75    27.375020   INC75    2.086060
    CHAI79   INV76    39.712010   INC76    4.550510
    CHAI79   INV77    57.390730   INC77    7.997630
    CHAI79   INV78    37.519900   INC78    11.088840
    CHAI79   DEP79    1.472950   FXE79    0.637540
    CHAI79   FXE80    0.665940   FXE81    0.695690
    CHAI79   RCP79    0.800010   RES79    0.087120
    CHAI79   RES80    0.084670   RES81    0.083110
    CHAI79   XX379    0.800010   VLRES    29.402300
    CHAI79   UPBROW33883 1.000000
    CHAI80   INV74    1.243970   INC74    0.048730
    CHAI80   INV75    12.859760   INC75    0.597370
    CHAI80   INV76    28.458600   INC76    2.169060
    CHAI80   INV77    41.275330   INC77    4.730690
    CHAI80   INV78    59.585600   INC78    8.310910
    CHAI80   INV79    38.890000   INC79    11.517210
    CHAI80   DEP80    1.530910   FXE80    0.665940
    CHAI80   FXE81    0.695690   RCP80    0.800010
    CHAI80   RES80    0.086240   RES81    0.084670
    CHAI80   XX380    0.800010   VLRES    29.923890
    CHAI80   UPBROW33884 1.000000
    CHAI81   INV75    1.293730   INC75    0.050680
    CHAI81   INV76    13.374150   INC76    0.621260
    CHAI81   INV77    29.585300   INC77    2.255360
    CHAI81   INV78    42.900710   INC78    4.918030
    CHAI81   INV79    61.866290   INC79    8.636580
    CHAI81   INV80    40.312270   INC80    11.962420
    CHAI81   DEP81    1.591160   FXE81    0.695690
    CHAI81   RCP81    0.800010   RES81    0.086240
    CHAI81   XX381    0.800010   VLRES    30.471650
    CHAI81   UPBROW33885 1.000000
    TGAZ78   INV76    0.885870   INC76    0.034700
    TGAZ78   INV77    5.882390   INC77    0.297100
    TGAZ78   DEP78    0.261020   FXE78    0.069320
    TGAZ78   FXE79    0.072650   FXE80    0.076140
    TGAZ78   FXE81    0.079810   GCP78    0.060000
    TGAZ78   RES78    0.007500   RES79    0.007310
    TGAZ78   RES80    0.007190   RES81    0.007060
    TGAZ78   XX378    0.060000   VLRES    5.025600
    TGAZ78   UPBROW33886 1.000000
    TGAZ79   INV77    0.914230   INC77    0.035810
    TGAZ79   INV78    6.085140   INC78    0.307180
    TGAZ79   DEP79    0.270000   FXE79    0.072650
    TGAZ79   FXE80    0.076140   FXE81    0.079810
    TGAZ79   GCP79    0.060000   RES79    0.007430
    TGAZ79   RES80    0.007310   RES81    0.007110
    TGAZ79   XX379    0.060000   VLRES    5.069040
    TGAZ79   UPBROW33887 1.000000
    TGAZ80   INV78    0.943530   INC78    0.036960
    TGAZ80   INV79    6.294930   INC79    0.317600
    TGAZ80   DEP80    0.279280   FXE80    0.076140
    TGAZ80   FXE81    0.079810   GCP80    0.060000
    TGAZ80   RES80    0.007430   RES81    0.007230
    TGAZ80   XX380    0.060000   VLRES    5.118330
    TGAZ80   UPBROW33888 1.000000
    TGAZ81   INV79    0.973800   INC79    0.038140
    TGAZ81   INV80    6.511990   INC80    0.328380
    TGAZ81   DEP81    0.288880   FXE81    0.079810
    TGAZ81   GCP81    0.060000   RES81    0.007350
    TGAZ81   XX381    0.060000   VLRES    5.173420
    TGAZ81   UPBROW33889 1.000000
    N60078   INV72    16.924130   INC72    0.662940
    N60078   INV73    36.586530   INC73    2.707080
    N60078   INV74    65.806430   INC74    6.505840
    N60078   INV75    77.634900   INC75    11.614920
    N60078   INV76    76.103670   INC76    16.727080
    N60078   INV77    64.468900   INC77    20.922990
    N60078   DEP78    7.195420   FXE78    3.013040
    N60078   FXE79    3.073300   FXE80    3.134760
    N60078   FXE81    3.197450   NCP78    0.600010
    N60078   RES78    0.291010   RES79    0.228700
    N60078   RES80    0.167590   RES81    0.151330
    N60078   XX178    0.600010   VLRES    129.211200
    N60078   UPBROW33890 1.000000
    N60079   INV73    17.601090   INC73    0.689460
    N60079   INV74    38.049990   INC74    2.815360
    N60079   INV75    68.432720   INC75    6.765840
    N60079   INV76    80.727190   INC76    12.078550
    N60079   INV77    79.095230   INC77    17.392680
    N60079   INV78    66.979320   INC78    21.751980
    N60079   DEP79    7.481380   FXE79    3.073300
    N60079   FXE80    3.134760   FXE81    3.197450
    N60079   NCP79    0.600010   RES79    0.288100
    N60079   RES80    0.226390   RES81    0.165880
    N60079   XX179    0.600010   VLRES    131.169890
    N60079   UPBROW33891 1.000000
    N60080   INV74    18.305110   INC74    0.717030
    N60080   INV75    39.571960   INC75    2.927970
    N60080   INV76    71.163880   INC76    7.036230
    N60080   INV77    83.942840   INC77    12.560710
    N60080   INV78    82.205400   INC78    18.084870
    N60080   INV79    69.588780   INC79    22.613970
    N60080   DEP80    7.778740   FXE80    3.134760
    N60080   FXE81    3.197450   NCP80    0.600010
    N60080   RES80    0.285190   RES81    0.224080
    N60080   XX180    0.600010   VLRES    133.291870
    N60080   UPBROW33892 1.000000
    N60081   INV75    19.037320   INC75    0.745710
    N60081   INV76    41.154820   INC76    3.045090
    N60081   INV77    74.004210   INC77    7.317440
    N60081   INV78    87.286880   INC78    13.062130
    N60081   INV79    85.438870   INC79    18.804640
    N60081   INV80    72.301240   INC80    23.510270
    N60081   DEP81    8.087950   FXE81    3.197450
    N60081   NCP81    0.600010   RES81    0.282280
    N60081   XX181    0.600010   VLRES    135.578870
    N60081   UPBROW33893 1.000000
    T75078   INV73    2.254580   INC73    0.088310
    T75078   INV74    16.506300   INC74    0.816280
    T75078   INV75    31.352740   INC75    2.627020
    T75078   INV76    60.298230   INC76    6.011290
    T75078   INV77    38.608370   INC77    9.414630
    T75078   DEP78    3.362300   FXE78    1.763420
    T75078   FXE79    1.807240   FXE80    1.852160
    T75078   FXE81    1.898190   BCP78    0.750010
    T75078   RES78    0.431260   RES79    0.352700
    T75078   RES80    0.275630   RES81    0.236450
    T75078   XX278    0.750010   VLRES    67.220890
    T75078   UPBROW33894 1.000000
    T75079   INV74    2.344760   INC74    0.091850
    T75079   INV75    17.163820   INC75    0.848830
    T75079   INV76    32.600810   INC76    2.731660
    T75079   INV77    62.686020   INC77    6.250150
    T75079   INV78    40.121260   INC78    9.787580
    T75079   DEP79    3.495940   FXE79    1.807240
    T75079   FXE80    1.852160   FXE81    1.898190
    T75079   BCP79    0.750010   RES79    0.426950
    T75079   RES80    0.349140   RES81    0.272820
    T75079   XX279    0.750010   VLRES    68.136230
    T75079   UPBROW33895 1.000000
    SLACK51500 CVI72    -1.000000
    SLACK51501 TRS72    -1.000000
    SLACK51502 TRS73    -1.000000
    SLACK51503 CAF72    -1.000000
    SLACK51504 CVI73    -1.000000
    SLACK51505 TRS74    -1.000000
    SLACK51506 CAF73    -1.000000
    SLACK51507 CVI74    -1.000000
    SLACK51508 TRS75    -1.000000
    SLACK51509 CAF74    -1.000000
    SLACK51510 CVI75    -1.000000
    SLACK51511 TRS76    -1.000000
    SLACK51512 CAF75    -1.000000
    SLACK51513 CVI76    -1.000000
    SLACK51514 TRS77    -1.000000
    SLACK51515 CAF76    -1.000000
    SLACK51516 CVI77    -1.000000
    SLACK51517 TRS78    -1.000000
    SLACK51518 CAF77    -1.000000
    SLACK51519 CVI78    -1.000000
    SLACK51520 TRS79    -1.000000
    SLACK51521 CAF78    -1.000000
    SLACK51522 CVI79    -1.000000
    SLACK51523 TRS80    -1.000000
    SLACK51524 CAF79    -1.000000
    SLACK51525 CVI80    -1.000000
    SLACK51526 TRS81    -1.000000
    SLACK51527 CAF80    -1.000000
    SLACK51528 CVI81    -1.000000
    SLACK51529 CAF81    -1.000000
    SLACK51530 R1378    1.000000
    SLACK51531 R2378    1.000000
    SLACK51532 R3578    1.000000
    SLACK51533 R5478    1.000000
    SLACK51534 R5678    1.000000
    SLACK51535 R1379    1.000000
    SLACK51536 R2379    1.000000
    SLACK51537 R3579    1.000000
    SLACK51538 R5479    1.000000
    SLACK51539 R5679    1.000000
    SLACK51540 R1380    1.000000
    SLACK51541 R2380    1.000000
    SLACK51542 R3580    1.000000
    SLACK51543 R5480    1.000000
    SLACK51544 R5680    1.000000
    SLACK51545 R1381    1.000000
    SLACK51546 R2381    1.000000
    SLACK51547 R3581    1.000000
    SLACK51548 R5481    1.000000
    SLACK51549 R5681    1.000000
    SLACK51550 OUT2X    1.000000
    SLACK51551 CASCX    1.000000
    SLACK51552 CHALX    1.000000
    SLACK51553 CRS78    -1.000000
    SLACK51554 AAH78    -1.000000
    SLACK51555 CCH78    1.000000
    SLACK51556 AAN78    -1.000000
    SLACK51557 CCN78    1.000000
    SLACK51558 AAT78    -1.000000
    SLACK51559 CCT78    1.000000
    SLACK51560 AAB78    -1.000000
    SLACK51561 CCB78    1.000000
    SLACK51562 AAR78    -1.000000
    SLACK51563 CCR78    1.000000
    SLACK51564 CCG78    1.000000
    SLACK51565 CRS79    -1.000000
    SLACK51566 AAH79    -1.000000
    SLACK51567 CCH79    1.000000
    SLACK51568 AAN79    -1.000000
    SLACK51569 CCN79    1.000000
    SLACK51570 AAT79    -1.000000
    SLACK51571 CCT79    1.000000
    SLACK51572 AAB79    -1.000000
    SLACK51573 CCB79    1.000000
    SLACK51574 AAR79    -1.000000
    SLACK51575 CCR79    1.000000
    SLACK51576 CCG79    1.000000
    SLACK51577 CRS80    -1.000000
    SLACK51578 AAH80    -1.000000
    SLACK51579 CCH80    1.000000
    SLACK51580 AAN80    -1.000000
    SLACK51581 CCN80    1.000000
    SLACK51582 AAT80    -1.000000
    SLACK51583 CCT80    1.000000
    SLACK51584 AAB80    -1.000000
    SLACK51585 CCB80    1.000000
    SLACK51586 AAR80    -1.000000
    SLACK51587 CCR80    1.000000
    SLACK51588 CCG80    1.000000
    SLACK51589 CRS81    -1.000000
    SLACK51590 AAH81    -1.000000
    SLACK51591 CCH81    1.000000
    SLACK51592 AAN81    -1.000000
    SLACK51593 CCN81    1.000000
    SLACK51594 AAT81    -1.000000
    SLACK51595 CCT81    1.000000
    SLACK51596 AAB81    -1.000000
    SLACK51597 CCB81    1.000000
    SLACK51598 AAR81    -1.000000
    SLACK51599 CCR81    1.000000
    SLACK51600 CCG81    1.000000
    SLACK51601 EEH78    1.000000
    SLACK51602 EEH79    1.000000
    SLACK51603 RPM78    1.000000
    SLACK51604 EEN78    1.000000
    SLACK51605 EET78    1.000000
    SLACK51606 EET79    1.000000
    SLACK51607 EET80    1.000000
    SLACK51608 EET81    1.000000
    SLACK51609 EEB78    1.000000
    SLACK51610 EEB79    1.000000
    SLACK51611 EEB80    1.000000
    SLACK51612 EEB81    1.000000
    SLACK51613 EER78    1.000000
    SLACK51614 EEG78    1.000000
    SLACK51615 EEH80    1.000000
    SLACK51616 RPM79    1.000000
    SLACK51617 EEN79    1.000000
    SLACK51618 EER79    1.000000
    SLACK51619 EEG79    1.000000
    SLACK51620 EEH81    1.000000
    SLACK51621 RPM80    1.000000
    SLACK51622 EEN80    1.000000
    SLACK51623 EER80    1.000000
    SLACK51624 EEG80    1.000000
    SLACK51625 RPM81    1.000000
    SLACK51626 EEN81    1.000000
    SLACK51627 EER81    1.000000
    SLACK51628 EEG81    1.000000
    SLACK51629 UPBROW33767 1.000000
    SLACK51630 UPBROW33768 1.000000
    SLACK51631 UPBROW33769 1.000000
    SLACK51632 UPBROW33770 1.000000
    SLACK51633 UPBROW33771 1.000000
    SLACK51634 UPBROW33772 1.000000
    SLACK51635 UPBROW33773 1.000000
    SLACK51636 UPBROW33774 1.000000
    SLACK51637 UPBROW33775 1.000000
    SLACK51638 UPBROW33776 1.000000
    SLACK51639 UPBROW33777 1.000000
    SLACK51640 UPBROW33778 1.000000
    SLACK51641 UPBROW33779 1.000000
    SLACK51642 UPBROW33780 1.000000
    SLACK51643 UPBROW33781 1.000000
    SLACK51644 UPBROW33782 1.000000
    SLACK51645 UPBROW33783 1.000000
    SLACK51646 UPBROW33784 1.000000
    SLACK51647 UPBROW33785 1.000000
    SLACK51648 UPBROW33786 1.000000
    SLACK51649 UPBROW33787 1.000000
    SLACK51650 UPBROW33788 1.000000
    SLACK51651 UPBROW33789 1.000000
    SLACK51652 UPBROW33790 1.000000
    SLACK51653 UPBROW33791 1.000000
    SLACK51654 UPBROW33792 1.000000
    SLACK51655 UPBROW33793 1.000000
    SLACK51656 UPBROW33794 1.000000
    SLACK51657 UPBROW33795 1.000000
    SLACK51658 UPBROW33796 1.000000
    SLACK51659 UPBROW33797 1.000000
    SLACK51660 UPBROW33798 1.000000
    SLACK51661 UPBROW33799 1.000000
    SLACK51662 UPBROW33800 1.000000
    SLACK51663 UPBROW33801 1.000000
    SLACK51664 UPBROW33802 1.000000
    SLACK51665 UPBROW33803 1.000000
    SLACK51666 UPBROW33804 1.000000
    SLACK51667 UPBROW33805 1.000000
    SLACK51668 UPBROW33806 1.000000
    SLACK51669 UPBROW33807 1.000000
    SLACK51670 UPBROW33808 1.000000
    SLACK51671 UPBROW33809 1.000000
    SLACK51672 UPBROW33810 1.000000
    SLACK51673 UPBROW33811 1.000000
    SLACK51674 UPBROW33812 1.000000
    SLACK51675 UPBROW33813 1.000000
    SLACK51676 UPBROW33814 1.000000
    SLACK51677 UPBROW33815 1.000000
    SLACK51678 UPBROW33816 1.000000
    SLACK51679 UPBROW33817 1.000000
    SLACK51680 UPBROW33818 1.000000
    SLACK51681 UPBROW33819 1.000000
    SLACK51682 UPBROW33820 1.000000
    SLACK51683 UPBROW33821 1.000000
    SLACK51684 UPBROW33822 1.000000
    SLACK51685 UPBROW33823 1.000000
    SLACK51686 UPBROW33824 1.000000
    SLACK51687 UPBROW33825 1.000000
    SLACK51688 UPBROW33826 1.000000
    SLACK51689 UPBROW33827 1.000000
    SLACK51690 UPBROW33828 1.000000
    SLACK51691 UPBROW33829 1.000000
    SLACK51692 UPBROW33830 1.000000
    SLACK51693 UPBROW33831 1.000000
    SLACK51694 UPBROW33832 1.000000
    SLACK51695 UPBROW33833 1.000000
    SLACK51696 UPBROW33834 1.000000
    SLACK51697 UPBROW33835 1.000000
    SLACK51698 UPBROW33836 1.000000
    SLACK51699 UPBROW33837 1.000000
    SLACK51700 UPBROW33838 1.000000
    SLACK51701 UPBROW33839 1.000000
    SLACK51702 UPBROW33840 1.000000
    SLACK51703 UPBROW33841 1.000000
    SLACK51704 UPBROW33842 1.000000
    SLACK51705 UPBROW33843 1.000000
    SLACK51706 UPBROW33844 1.000000
    SLACK51707 UPBROW33845 1.000000
    SLACK51708 UPBROW33846 1.000000
    SLACK51709 UPBROW33847 1.000000
    SLACK51710 UPBROW33848 1.000000
    SLACK51711 UPBROW33849 1.000000
    SLACK51712 UPBROW33850 1.000000
    SLACK51713 UPBROW33851 1.000000
    SLACK51714 UPBROW33852 1.000000
    SLACK51715 UPBROW33853 1.000000
    SLACK51716 UPBROW33854 1.000000
    SLACK51717 UPBROW33855 1.000000
    SLACK51718 UPBROW33856 1.000000
    SLACK51719 UPBROW33857 1.000000
    SLACK51720 UPBROW33858 1.000000
    SLACK51721 UPBROW33859 1.000000
    SLACK51722 UPBROW33860 1.000000
    SLACK51723 UPBROW33861 1.000000
    SLACK51724 UPBROW33862 1.000000
    SLACK51725 UPBROW33863 1.000000
    SLACK51726 UPBROW33864 1.000000
    SLACK51727 UPBROW33865 1.000000
    SLACK51728 UPBROW33866 1.000000
    SLACK51729 UPBROW33867 1.000000
    SLACK51730 UPBROW33868 1.000000
    SLACK51731 UPBROW33869 1.000000
    SLACK51732 UPBROW33870 1.000000
    SLACK51733 UPBROW33871 1.000000
    SLACK51734 UPBROW33872 1.000000
    SLACK51735 UPBROW33873 1.000000
    SLACK51736 UPBROW33874 1.000000
    SLACK51737 UPBROW33875 1.000000
    SLACK51738 UPBROW33876 1.000000
    SLACK51739 UPBROW33877 1.000000
    SLACK51740 UPBROW33878 1.000000
    SLACK51741 UPBROW33879 1.000000
    SLACK51742 UPBROW33880 1.000000
    SLACK51743 UPBROW33881 1.000000
    SLACK51744 UPBROW33882 1.000000
    SLACK51745 UPBROW33883 1.000000
    SLACK51746 UPBROW33884 1.000000
    SLACK51747 UPBROW33885 1.000000
    SLACK51748 UPBROW33886 1.000000
    SLACK51749 UPBROW33887 1.000000
    SLACK51750 UPBROW33888 1.000000
    SLACK51751 UPBROW33889 1.000000
    SLACK51752 UPBROW33890 1.000000
    SLACK51753 UPBROW33891 1.000000
    SLACK51754 UPBROW33892 1.000000
    SLACK51755 UPBROW33893 1.000000
    SLACK51756 UPBROW33894 1.000000
    SLACK51757 UPBROW33895 1.000000
    SLACK51758 UPBROW33896 1.000000
    SLACK51759 UPBROW33897 1.000000
RHS
    RHS1     RAI72    -329.005620
    RHS1     TRS72    73.001250
    RHS1     FPR72    -1048.017800
    RHS1     DEP72    -65.001110
    RHS1     DEP73    -5.000110
    RHS1     INV72    -349.005860
    RHS1     INC72    -54.000930
    RHS1     INT72    -192.003340
    RHS1     TRS73    139.822370
    RHS1     CAF72    2846.049100
    RHS1     FPR73    -6.000100
    RHS1     RAI73    -336.456540
    RHS1     DEP74    -4.000060
    RHS1     INV73    -313.005370
    RHS1     INC73    -50.000870
    RHS1     INT73    -191.003300
    RHS1     TRS74    148.637130
    RHS1     CAF73    2697.046100
    RHS1     FPR74    -6.000100
    RHS1     RAI74    -343.056400
    RHS1     DEP75    -4.000060
    RHS1     INV74    -302.005130
    RHS1     INC74    -49.000820
    RHS1     INT74    -184.003200
    RHS1     TRS75    160.446300
    RHS1     CAF74    2539.043200
    RHS1     FPR75    -5.000090
    RHS1     RAI75    -345.832280
    RHS1     DEP76    -9.000150
    RHS1     INV75    -320.005620
    RHS1     INC75    -60.001020
    RHS1     INT75    -174.002960
    RHS1     TRS76    100.248670
    RHS1     CAF75    2369.040000
    RHS1     FPR76    -4.000070
    RHS1     RAI76    -367.807370
    RHS1     DEP77    -4.000060
    RHS1     INV76    -267.004640
    RHS1     INC76    -65.001110
    RHS1     INT76    -167.002850
    RHS1     TRS77    105.046110
    RHS1     CAF76    2259.038100
    RHS1     FPR77    -4.000070
    RHS1     RAI77    -387.000730
    RHS1     DEP78    -3.000030
    RHS1     INV77    -231.004040
    RHS1     INC77    -33.000560
    RHS1     INT77    -161.002790
    RHS1     TRS78    117.837690
    RHS1     CAF77    2144.035900
    RHS1     FPR78    -3.000050
    RHS1     RAI78    -399.191890
    RHS1     DEP79    -5.000090
    RHS1     INV78    -190.003250
    RHS1     INC78    -30.000520
    RHS1     INT78    -154.002700
    RHS1     TRS79    98.622410
    RHS1     CAF78    2016.033400
    RHS1     FPR79    -2.000040
    RHS1     RAI79    -427.510250
    RHS1     DEP80    -3.000110
    RHS1     INV79    -183.003160
    RHS1     INC79    -31.000530
    RHS1     INT79    -151.002560
    RHS1     TRS80    113.401320
    RHS1     CAF79    1907.031300
    RHS1     FPR80    -1.000020
    RHS1     RAI80    -456.949460
    RHS1     DEP81    -7.000090
    RHS1     INV80    -192.003340
    RHS1     INC80    -30.000520
    RHS1     INT80    -144.002460
    RHS1     TRS81    161.174120
    RHS1     CAF80    1783.028800
    RHS1     FPR81    -1.000020
    RHS1     RAI81    -487.490970
    RHS1     INV81    -202.003480
    RHS1     INC81    -30.000520
    RHS1     INT81    -137.002350
    RHS1     CAF81    1611.025600
    RHS1     L1378    -3.000050
    RHS1     XX178    -2.990050
    RHS1     XX179    -0.110000
    RHS1     XX378    0.100000
    RHS1     XX379    -0.100000
    RHS1     L2378    -4.000070
    RHS1     L2379    -0.100000
    RHS1     XX278    -3.900070
    RHS1     XX279    0.200000
    RHS1     L3578    -7.000120
    RHS1     XX578    0.700010
    RHS1     L5478    -4.000070
    RHS1     L5678    -3.000050
    RHS1     L5679    0.900020
    RHS1     XX180    -0.400010
    RHS1     XX280    0.200000
    RHS1     XX580    -0.100000
    RHS1     XX281    0.100000
    RHS1     HCP78    -10.000170
    RHS1     HED78    -93.469560
    RHS1     RES78    -2.300040
    RHS1     RES79    -2.200040
    RHS1     RES80    -2.100030
    RHS1     RES81    -2.100030
    RHS1     OUT2X    1.000000
    RHS1     CASCX    1.000000
    RHS1     CHALX    1.000000
    RHS1     RCP78    -4.000000
    RHS1     GCP78    -0.500010
    RHS1     NCP78    -1.000020
    RHS1     ACP78    -0.355010
    RHS1     CRS78    15.350270
    RHS1     ACP79    0.037000
    RHS1     CCT78    0.085000
    RHS1     CCB78    0.085000
    RHS1     CCR78    0.085000
    RHS1     CCG78    -12.885930
    RHS1     CRS79    16.560270
    RHS1     CCT79    0.030000
    RHS1     CCB79    0.030000
    RHS1     CCR79    0.030000
    RHS1     CCG79    -13.963400
    RHS1     CRS80    17.860280
    RHS1     ACP81    0.202000
    RHS1     CRS81    19.270290
    RHS1     EEH78    7.121540
    RHS1     TCP78    -1.000020
    RHS1     EET78    0.621960
    RHS1     EET79    0.350400
    RHS1     EET80    0.175200
    BOUNDRHS UPBROW33767 284.004880
    BOUNDRHS UPBROW33768 8.079070
    BOUNDRHS UPBROW33769 1.792440
    BOUNDRHS UPBROW33770 1.579570
    BOUNDRHS UPBROW33771 1.519850
    BOUNDRHS UPBROW33772 8.079070
    BOUNDRHS UPBROW33773 1.792440
    BOUNDRHS UPBROW33774 1.579570
    BOUNDRHS UPBROW33775 1.519850
    BOUNDRHS UPBROW33776 8.079070
    BOUNDRHS UPBROW33777 1.792440
    BOUNDRHS UPBROW33778 1.579570
    BOUNDRHS UPBROW33779 1.519850
    BOUNDRHS UPBROW33780 8.079070
    BOUNDRHS UPBROW33781 1.792440
    BOUNDRHS UPBROW33782 1.579570
    BOUNDRHS UPBROW33783 1.519850
    BOUNDRHS UPBROW33784 8.079070
    BOUNDRHS UPBROW33785 1.792440
    BOUNDRHS UPBROW33786 1.579570
    BOUNDRHS UPBROW33787 1.519850
    FXIMPLICITRHS AAG78    -90.793255
    BOUNDRHS UPBROW33788 284.004880
    BOUNDRHS UPBROW33789 8.715930
    BOUNDRHS UPBROW33790 1.933730
    BOUNDRHS UPBROW33791 1.704080
    BOUNDRHS UPBROW33792 1.639660
    BOUNDRHS UPBROW33793 8.715930
    BOUNDRHS UPBROW33794 1.933730
    BOUNDRHS UPBROW33795 1.704080
    BOUNDRHS UPBROW33796 1.639660
    BOUNDRHS UPBROW33797 8.715930
    BOUNDRHS UPBROW33798 1.933730
    BOUNDRHS UPBROW33799 1.704080
    BOUNDRHS UPBROW33800 1.639660
    BOUNDRHS UPBROW33801 8.715930
    BOUNDRHS UPBROW33802 1.933730
    BOUNDRHS UPBROW33803 1.704080
    BOUNDRHS UPBROW33804 1.639660
    BOUNDRHS UPBROW33805 8.715930
    BOUNDRHS UPBROW33806 1.933730
    BOUNDRHS UPBROW33807 1.704080
    BOUNDRHS UPBROW33808 1.639660
    FXIMPLICITRHS AAG79    -97.950293
    BOUNDRHS UPBROW33809 284.004880
    BOUNDRHS UPBROW33810 9.400150
    BOUNDRHS UPBROW33811 2.085530
    BOUNDRHS UPBROW33812 1.837850
    BOUNDRHS UPBROW33813 1.768370
    BOUNDRHS UPBROW33814 9.400150
    BOUNDRHS UPBROW33815 2.085530
    BOUNDRHS UPBROW33816 1.837850
    BOUNDRHS UPBROW33817 1.768370
    BOUNDRHS UPBROW33818 9.400150
    BOUNDRHS UPBROW33819 2.085530
    BOUNDRHS UPBROW33820 1.837850
    BOUNDRHS UPBROW33821 1.768370
    BOUNDRHS UPBROW33822 9.400150
    BOUNDRHS UPBROW33823 2.085530
    BOUNDRHS UPBROW33824 1.837850
    BOUNDRHS UPBROW33825 1.768370
    BOUNDRHS UPBROW33826 9.400150
    BOUNDRHS UPBROW33827 2.085530
    BOUNDRHS UPBROW33828 1.837850
    BOUNDRHS UPBROW33829 1.768370
    FXIMPLICITRHS AAG80    -105.639569
    FXIMPLICITRHS CCG80    -15.091900
    BOUNDRHS UPBROW33830 284.004880
    BOUNDRHS UPBROW33831 10.142260
    BOUNDRHS UPBROW33832 2.250180
    BOUNDRHS UPBROW33833 1.982950
    BOUNDRHS UPBROW33834 1.907980
    BOUNDRHS UPBROW33835 10.142260
    BOUNDRHS UPBROW33836 2.250180
    BOUNDRHS UPBROW33837 1.982950
    BOUNDRHS UPBROW33838 1.907980
    BOUNDRHS UPBROW33839 10.142260
    BOUNDRHS UPBROW33840 2.250180
    BOUNDRHS UPBROW33841 1.982950
    BOUNDRHS UPBROW33842 1.907980
    BOUNDRHS UPBROW33843 10.142260
    BOUNDRHS UPBROW33844 2.250180
    BOUNDRHS UPBROW33845 1.982950
    BOUNDRHS UPBROW33846 1.907980
    BOUNDRHS UPBROW33847 10.142260
    BOUNDRHS UPBROW33848 2.250180
    BOUNDRHS UPBROW33849 1.982950
    BOUNDRHS UPBROW33850 1.907980
    FXIMPLICITRHS AAG81    -113.979520
    FXIMPLICITRHS CCG81    -16.283370
    BOUNDRHS UPBROW33851 10.000000
    BOUNDRHS UPBROW33852 10.000000
    BOUNDRHS UPBROW33853 10.000000
    BOUNDRHS UPBROW33854 10.000000
    BOUNDRHS UPBROW33855 10.000000
    BOUNDRHS UPBROW33856 10.000000
    BOUNDRHS UPBROW33857 10.000000
    BOUNDRHS UPBROW33858 10.000000
    BOUNDRHS UPBROW33859 10.000000
    BOUNDRHS UPBROW33860 10.000000
    BOUNDRHS UPBROW33861 10.000000
    BOUNDRHS UPBROW33862 10.000000
    BOUNDRHS UPBROW33863 10.000000
    BOUNDRHS UPBROW33864 10.000000
    BOUNDRHS UPBROW33865 10.000000
    BOUNDRHS UPBROW33866 10.000000
    BOUNDRHS UPBROW33867 10.000000
    BOUNDRHS UPBROW33868 10.000000
    BOUNDRHS UPBROW33869 10.000000
    BOUNDRHS UPBROW33870 10.000000
    BOUNDRHS UPBROW33871 1.000000
    BOUNDRHS UPBROW33872 1.000000
    BOUNDRHS UPBROW33873 1.000000
    BOUNDRHS UPBROW33874 1.000000
    BOUNDRHS UPBROW33875 1.000000
    BOUNDRHS UPBROW33876 1.000000
    BOUNDRHS UPBROW33877 1.000000
    BOUNDRHS UPBROW33878 1.000000
    BOUNDRHS UPBROW33879 1.000000
    BOUNDRHS UPBROW33880 1.000000
    BOUNDRHS UPBROW33881 1.000000
    BOUNDRHS UPBROW33882 1.000000
    BOUNDRHS UPBROW33883 1.000000
    BOUNDRHS UPBROW33884 1.000000
    BOUNDRHS UPBROW33885 1.000000
    BOUNDRHS UPBROW33886 10.000000
    BOUNDRHS UPBROW33887 10.000000
    BOUNDRHS UPBROW33888 10.000000
    BOUNDRHS UPBROW33889 10.000000
    BOUNDRHS UPBROW33890 2.000000
    BOUNDRHS UPBROW33891 2.000000
    BOUNDRHS UPBROW33892 2.000000
    BOUNDRHS UPBROW33893 2.000000
    BOUNDRHS UPBROW33894 2.000000
    BOUNDRHS UPBROW33895 2.000000
    BOUNDRHS UPBROW33896 2.000000
    BOUNDRHS UPBROW33897 2.000000
BOUNDS
ENDATA
