NAME          E226
ROWS
 N  ...000  
 E  ...010  
 E  ...011  
 E  ...012  
 E  ...013  
 E  ...014  
 E  ...015  
 E  ...016  
 E  ...017  
 E  ...018  
 E  ...019  
 E  ...020  
 E  ...021  
 E  ...022  
 E  ...023  
 E  ...024  
 E  ...025  
 E  ...026  
 E  ...027  
 E  ...028  
 E  ...029  
 E  ...030  
 E  ...031  
 E  ...032  
 E  ...033  
 E  ...034  
 E  ...035  
 E  ...036  
 E  ...037  
 E  ...038  
 E  ...039  
 E  ...040  
 E  ...041  
 E  ...042  
 E  ...043  
 E  ...044  
 E  ...045  
 E  ...046  
 E  ...047  
 E  ...048  
 E  ...049  
 E  ...050  
 E  ...051  
 E  ...052  
 E  ...053  
 E  ...054  
 E  ...055  
 E  ...056  
 E  ...057  
 E  ...058  
 E  ...059  
 E  ...060  
 E  ...120  
 E  ...133  
 E  ...134  
 E  ...135  
 E  ...136  
 E  ...137  
 E  ...138  
 E  ...139  
 E  ...140  
 E  ...141  
 E  ...142  
 E  ...143  
 E  ...144  
 E  ...145  
 E  ...146  
 E  ...147  
 E  ...148  
 E  ...149  
 E  ...150  
 E  ...151  
 E  ...152  
 E  ...153  
 E  ...154  
 E  ...155  
 E  ...156  
 E  ...157  
 E  ...158  
 E  ...159  
 E  ...160  
 E  ...161  
 E  ...162  
 E  ...163  
 E  ...164  
 E  ...165  
 E  ...166  
 E  ...167  
 E  ...168  
 E  ...169  
 E  ...170  
 E  ...171  
 E  ...172  
 E  ...173  
 E  ...174  
 E  ...175  
 E  ...176  
 E  ...177  
 E  ...178  
 E  ...179  
 E  ...180  
 E  ...181  
 E  ...182  
 E  ...183  
 E  ...184  
 E  ...185  
 E  ...186  
 E  ...187  
 E  ...188  
 E  ...189  
 E  ...190  
 E  ...191  
 E  ...192  
 E  ...193  
 E  ...194  
 E  ...195  
 E  ...196  
 E  ...197  
 E  ...198  
 E  ...199  
 E  ...200  
 E  ...201  
 E  ...202  
 E  ...203  
 E  ...204  
 E  ...205  
 E  ...206  
 E  ...207  
 E  ...208  
 E  ...209  
 E  ...210  
 E  ...211  
 E  ...212  
 E  ...213  
 E  ...214  
 E  ...215  
 E  ...216  
 E  ...217  
 E  ...218  
 E  ...219  
 E  ...220  
 E  ...221  
 E  ...222  
 E  ...223  
 E  ...224  
 E  ...225  
 E  ...226  
 E  ...227  
 E  ...228  
 E  ...229  
 E  ...230  
 E  ...231  
 E  ...232  
 E  ...233  
 E  ...234  
 E  ...235  
 E  ...236  
 E  ...237  
 E  ...238  
 E  ...239  
 E  ...240  
 E  ...241  
 E  ...242  
 E  ...243  
 E  ...244  
 E  ...245  
 E  ...246  
 E  ...247  
 E  ...248  
 E  ...249  
 E  ...250  
 E  ...251  
 E  ...252  
 E  ...253  
 E  ...254  
 E  ...255  
 E  ...256  
 E  ...257  
 E  ...258  
 E  ...259  
 E  ...260  
 E  ...261  
 E  ...262  
 E  ...263  
 E  ...264  
 E  ...265  
 E  ...267  
 E  ...266  
 E  ...268  
 E  ...269  
 E  ...270  
 E  ...271  
 E  ...272  
 E  ...273  
 E  ...274  
 E  ...275  
 E  ...276  
 E  ...277  
 E  ...278  
 E  ...279  
 E  ...280  
 E  ...281  
 E  ...282  
 E  ...283  
 E  ...284  
 E  ...285  
 E  ...286  
 E  ...287  
 E  ...288  
 E  ...289  
 E  ...290  
 E  ...291  
 E  ...292  
 E  ...293  
 E  ...294  
 E  ...295  
 E  ...296  
 E  ...297  
 E  ...298  
 E  ...299  
 E  ...300  
 E  ...301  
 E  ...302  
 E  ...303  
COLUMNS
    .ETHSD   ...269   1.000000   ...270   1.000000
    .ETHSD   ...000   -10.197400
    .BUDSD   ...271   1.000000   ...293   1.000000
    .BUDSD   ...000   -29.116300
    .HEPTS   ...267   1.000000   ...268   1.000000
    .HEPTS   ...000   -12.846200
    .M28IS   ...032   1.000000   ...055   1.000000
    .TF0SD   ...300   1.000000   ...301   0.630000
    .TF0SD   ...302   0.370000   ...000   -4.711300
    .RKDIS   ...028   1.000000   ...055   1.000000
    .ADHD1   ...056   2.857000   ...133   0.984000
    .ADHD1   ...140   1.000000   ...000   -3.982400
    .PREHT   ...289   1.000000   ...290   1.000000
    .C4LPG   ...169   1.000000   ...173   1.000000
    .C4LPG   ...174   1.000000   ...000   -2.721400
    .M28SL   ...033   1.000000   ...049   1.000000
    .M28SL   ...045   -0.428600   ...000   -6.588400
    .HEPP0   ...267   1.000000   ...274   -1.000000
    .RKSLD   ...029   1.000000   ...031   1.000000
    .RKSLD   ...045   -0.219500   ...000   -4.158000
    .UN010   ...010   -1.000000
    .XCAPY   ...182   1.000000
    .REDBA   ...294   0.100000   ...013   -0.040000
    .TFVIS   ...051   0.362000   ...052   1.000000
    .TFVIS   ...053   0.362000   ...054   0.829000
    .TFVIS   ...056   2.127000   ...000   -4.355700
    .T0TMX   ...168   1.000000   ...170   -0.250000
    .T0TMX   ...171   0.120000   ...173   1.000000
    .T0TMX   ...174   1.000000   ...000   -3.103000
    .EGV0L   ...000   -5.989800   ...211   1.000000
    .EGV0L   ...212   1.000000
    .VNNF2   ...193   -0.272000   ...192   -0.272000
    .VNNF2   ...194   -0.272000   ...195   -0.272000
    .C5FDP   ...181   1.000000   ...183   -1.000000
    .C5FDP   ...184   -0.161400   ...185   1.161400
    .C5FDP   ...186   1.161400
    .TFNS1   ...050   1.000000   ...051   -1.000000
    .TFNS1   ...000   0.008700
    .CFMSU   ...261   -2.915500   ...278   1.000000
    .VN4PH   ...179   1.000000   ...198   -1.000000
    .CFMSG   ...279   1.000000   ...285   0.652600
    .ERV0L   ...233   1.000000   ...234   1.000000
    .ERV0L   ...000   -4.449700
    .PKDIS   ...026   1.000000   ...055   1.000000
    .EEV0L   ...000   -5.348000   ...222   1.000000
    .EEV0L   ...223   1.000000
    .CS1TP   ...189   -1.000000   ...191   1.000000
    .CS1TP   ...190   1.000000   ...000   0.007800
    .JP5DS   ...046   1.000000   ...047   -0.500000
    .JP5DS   ...048   1.000000   ...050   1.000000
    .JP5DS   ...000   -4.033700
    .DMD0S   ...144   1.000000   ...145   1.000000
    .DMD0S   ...000   -3.820200
    .PKSLD   ...027   1.250000   ...030   1.000000
    .PKSLD   ...045   -0.250000   ...000   -4.342500
    .VNSW2   ...051   1.000000   ...189   -1.000000
    .VNSW2   ...000   0.015000
    .TGAS1   ...134   1.000000   ...135   1.000000
    .TGAS1   ...137   -1.667000
    .TGAS2   ...137   -1.367000   ...134   1.000000
    .TGAS2   ...136   1.000000
    .LD1EG   ...219   5.263800   ...244   7.593000
    .LD1EG   ...000   -1.000000
    .LD2EG   ...219   15.782900   ...245   18.518500
    .LD2EG   ...000   -1.000000
    .JP1TF   ...034   1.000000   ...050   1.000000
    .JP1TF   ...301   -1.000000
    .JP1DS   ...034   1.000000   ...035   1.000000
    .JP1DS   ...036   -0.200000   ...050   1.000000
    .JP1DS   ...000   -4.506600
    .JP4DS   ...038   1.000000   ...041   1.000000
    .JP4DS   ...050   1.000000   ...000   -2.770400
    .VN4DB   ...051   1.000000   ...179   1.000000
    .VN4DB   ...204   2.000000   ...281   1.000000
    .VN4DB   ...000   -4.373900
    .T5JP5   ...037   1.000000   ...046   -1.000000
    .T5JP5   ...047   1.000000   ...050   -1.000000
    .T5JP5   ...000   -0.008700
    .J4210   ...041   1.000000   ...042   1.062000
    .J4210   ...044   0.063800   ...050   1.000000
    .J4210   ...000   -3.062600
    .T5JP1   ...034   -1.000000   ...036   1.000000
    .T5JP1   ...037   1.000000   ...050   -1.000000
    .T5JP1   ...000   -0.008700
    .TFCAT   ...054   -11.055000   ...156   24.476000
    .TFCAT   ...157   1.000000   ...281   -2.538600
    .TFCAT   ...282   10.037500
    .VNSW1   ...050   1.000000   ...189   -1.000000
    .VNSW1   ...000   0.008700
    .ETHRF   ...264   -0.420000   ...269   1.000000
    .ETHRF   ...000   1.350000
    .LD1ER   ...241   75.920200   ...248   19.723900
    .LD1ER   ...000   -1.000000
    .LD2ER   ...000   -1.000000   ...241   151.840500
    .LD2ER   ...249   12.330500
    .LD1EE   ...000   -1.000000   ...230   14.537700
    .LD1EE   ...246   14.104400
    .LD2EE   ...000   -1.000000   ...230   25.399500
    .LD2EE   ...247   12.330500
    .PC4TF   ...264   -0.660000   ...265   0.660000
    .PC4TF   ...273   1.000000
    .C5TRF   ...183   1.000000   ...264   -0.700000
    .C5TRF   ...265   0.700000
    .CCSRF   ...156   17.372000   ...157   1.000000
    .CCSRF   ...264   -0.900000   ...266   1.000000
    .CCSRF   ...000   -0.200000
    .DGHDS   ...137   8.330000   ...138   1.000000
    .DGHDS   ...139   1.483000   ...262   -9.648000
    .DGHDS   ...264   -0.014000   ...265   0.014000
    .DGHDS   ...000   -5.921800
    .ADHDS   ...133   0.982000   ...137   10.000000
    .ADHDS   ...140   1.000000   ...262   -9.648000
    .ADHDS   ...000   -3.994200   ...264   -0.012600
    .ADHDS   ...265   0.012600
    .VN4RF   ...179   1.000000   ...264   -0.780000
    .VN4RF   ...265   0.780000
    .GWG0S   ...142   1.000000   ...143   1.000000
    .GWG0S   ...000   -4.019500
    .DGFDG   ...139   -1.000000   ...141   1.000000
    .DGFDG   ...142   1.000000
    .ADFHD   ...140   -1.000000   ...142   0.776300
    .ADFHD   ...156   4.401000   ...157   0.223700
    .C4VIS   ...173   -1.000000   ...200   1.000000
    .CATFI   ...147   -1.000000   ...276   -6.000000
    .CATFI   ...277   -3.300000   ...278   -1.600000
    .CATFI   ...279   -0.916000   ...000   3.225300
    .C3LPG   ...167   1.000000   ...172   1.000000
    .C3LPG   ...174   1.000000   ...202   1.000000
    .C3LPG   ...000   -2.790400
    .PETCF   ...147   -1.000000   ...148   1.000000
    .PETCF   ...276   -18.400000   ...277   0.462000
    .PETCF   ...278   -4.200000   ...279   -0.966000
    .C3MIX   ...170   1.000000   ...171   -1.000000
    .C3MIX   ...172   1.000000   ...173   -1.000000
    .C3MIX   ...202   1.000000
    .CB1H1   ...147   -1.000000   ...158   1.000000
    .CB1H1   ...276   -5.400000   ...277   -3.960000
    .CB1H1   ...278   -1.680000   ...279   -0.927000
    .CB1H3   ...147   -1.000000   ...159   1.000000
    .CB1H3   ...276   -7.100000   ...277   9.900000
    .CB1H3   ...278   -1.970000   ...279   -0.946000
    .PS1LF   ...147   -1.000000   ...149   1.000000
    .PS1LF   ...276   -2.500000   ...277   -20.460000
    .PS1LF   ...278   -1.600000   ...279   -0.861000
    .PS1H1   ...147   -1.000000   ...150   1.000000
    .PS1H1   ...276   -2.800000   ...277   -14.685000
    .PS1H1   ...278   -2.600000   ...279   -0.892000
    .PS1H2   ...147   -1.000000   ...151   1.000000
    .PS1H2   ...276   -3.700000   ...277   3.135000
    .PS1H2   ...278   -2.800000   ...279   -0.915000
    .PS1H3   ...147   -1.000000   ...152   1.000000
    .PS1H3   ...276   -3.400000   ...277   9.735000
    .PS1H3   ...278   -3.100000   ...279   -0.942000
    .PS2LF   ...147   -1.000000   ...153   1.000000
    .PS2LF   ...276   -1.100000   ...277   -16.500000
    .PS2LF   ...278   -1.740000   ...279   -0.862000
    .PS2HF   ...147   -1.000000   ...154   1.000000
    .PS2HF   ...276   -3.900000   ...277   -1.650000
    .PS2HF   ...278   -2.710000   ...279   -0.894000
    .GTSGB   ...175   1.000000   ...260   1.000000
    .GTSGB   ...000   -2.966200
    .MD0CF   ...145   1.000000   ...147   -1.000000
    .MD0CF   ...276   0.300000   ...277   -23.100000
    .MD0CF   ...278   -1.250000   ...279   -0.845000
    .SPSU1   ...260   0.000260   ...261   1.000000
    .SPSU1   ...263   1.000000   ...000   -0.001760
    .SPSU2   ...260   0.000260   ...262   1.000000
    .SPSU2   ...263   1.000000   ...000   -0.001760
    .C3VRF   ...202   1.000000   ...264   -0.560000
    .PS3HF   ...147   -1.000000   ...155   1.000000
    .PS3HF   ...276   -1.100000   ...277   -9.900000
    .PS3HF   ...278   -2.150000   ...279   -0.878000
    .BF0SD   ...164   1.000000   ...165   1.000000
    .BF0SD   ...000   -2.614300
    .C4VRF   ...200   1.000000   ...264   -0.660000
    .C4VRF   ...265   0.660000
    .CCSF6   ...157   1.000000   ...164   -1.000000
    .CCSVF   ...156   1.000000   ...166   -1.000000
    .FCTEM   ...260   -0.002900   ...283   -0.000700
    .FCTEM   ...284   0.440000   ...285   -0.045900
    .FCTEM   ...286   1.000000   ...289   -0.780000
    .FCTEM   ...000   -0.000490
    .VN0ER   ...188   1.000000   ...241   -1.125000
    .GASRF   ...260   1.000000   ...264   -1.000000
    .G0TCF   ...142   1.000000   ...147   -1.000000
    .G0TCF   ...276   1.200000   ...277   -23.100000
    .G0TCF   ...278   -1.000000   ...279   -0.832000
    .PC4TG   ...213   64.000000   ...214   -66.000000
    .PC4TG   ...215   73.000000   ...216   -92.000000
    .PC4TG   ...217   40.000000   ...218   -50.000000
    .PC4TG   ...220   317.500000   ...221   -613.200000
    .PC4TG   ...219   0.240000   ...211   -1.000000
    .PC4TG   ...244   -1.000000   ...245   -1.000000
    .PC4TG   ...273   1.000000
    .P0LYG   ...213   1.000000   ...214   -3.000000
    .P0LYG   ...215   -17.000000   ...216   -2.000000
    .P0LYG   ...217   -24.000000   ...218   14.000000
    .P0LYG   ...220   -5.100000   ...221   -19.200000
    .P0LYG   ...219   1.290000   ...211   -1.000000
    .P0LYG   ...244   -1.000000   ...245   -1.000000
    .P0LYG   ...274   1.000000
    .P90BG   ...256   1.000000   ...213   -9.000000
    .P90BG   ...214   7.000000   ...215   -52.000000
    .P90BG   ...216   33.000000   ...217   -70.000000
    .P90BG   ...218   60.000000   ...220   -81.000000
    .P90BG   ...221   95.800000   ...219   -0.700000
    .P90BG   ...211   -1.000000   ...244   -1.000000
    .P90BG   ...245   -1.000000   ...000   0.002300
    .P93BG   ...213   -9.000000   ...214   7.000000
    .P93BG   ...215   -52.000000   ...216   33.000000
    .P93BG   ...217   -69.000000   ...218   59.000000
    .P93BG   ...220   -80.600000   ...221   95.800000
    .P93BG   ...219   -3.230000   ...211   -1.000000
    .P93BG   ...244   -1.000000   ...245   -1.000000
    .P93BG   ...257   1.000000   ...000   0.002300
    .P96BG   ...213   -9.000000   ...214   7.000000
    .P96BG   ...215   -52.000000   ...216   33.000000
    .P96BG   ...217   -68.000000   ...218   58.000000
    .P96BG   ...220   -80.200000   ...221   95.800000
    .P96BG   ...219   -4.940000   ...211   -1.000000
    .P96BG   ...244   -1.000000   ...245   -1.000000
    .P96BG   ...258   1.000000   ...000   0.002300
    .P990G   ...213   1.100000   ...214   -3.100000
    .P990G   ...215   22.000000   ...216   -41.000000
    .P990G   ...217   49.000000   ...218   -59.000000
    .P990G   ...220   44.000000   ...221   -59.000000
    .P990G   ...219   7.480000   ...211   -1.000000
    .P990G   ...244   -1.000000   ...245   -1.000000
    .P990G   ...255   1.000000   ...000   0.002300
    .P99BG   ...213   -9.000000   ...214   7.000000
    .P99BG   ...215   -52.000000   ...216   33.000000
    .P99BG   ...217   -67.000000   ...218   57.000000
    .P99BG   ...220   -79.800000   ...221   95.800000
    .P99BG   ...219   -6.210000   ...211   -1.000000
    .P99BG   ...244   -1.000000   ...245   -1.000000
    .P99BG   ...259   1.000000   ...000   0.002300
    .C5TEG   ...213   4.000000   ...214   -6.000000
    .C5TEG   ...215   58.000000   ...216   -77.000000
    .C5TEG   ...217   40.000000   ...218   -50.000000
    .C5TEG   ...220   70.000000   ...221   -118.200000
    .C5TEG   ...219   10.990000   ...211   -1.000000
    .C5TEG   ...244   -1.000000   ...245   -1.000000
    .C5TEG   ...183   1.000000   ...250   1.000000
    .C5TEG   ...251   -1.000000
    .LCN0G   ...213   1.500000   ...214   -3.500000
    .LCN0G   ...215   40.000000   ...216   -59.000000
    .LCN0G   ...217   38.000000   ...218   -48.000000
    .LCN0G   ...220   50.200000   ...221   -80.200000
    .LCN0G   ...219   2.980000   ...211   -1.000000
    .LCN0G   ...244   -1.000000   ...245   -1.000000
    .LCN0G   ...250   1.000000   ...280   1.000000
    .LCN0G   ...000   0.008900
    .FCREC   ...156   -0.797700   ...260   -0.007100
    .FCREC   ...280   -0.005900   ...281   -0.003900
    .FCREC   ...282   -0.003300   ...283   0.006500
    .FCREC   ...284   -0.090000   ...285   -0.056400
    .FCREC   ...287   1.000000   ...289   -0.925000
    .FCREC   ...000   -0.001230
    .FCMAR   ...260   -0.001700   ...276   1.000000
    .FCMAR   ...280   0.003600   ...281   0.002400
    .FCMAR   ...282   0.002000   ...283   0.001100
    .FCMAR   ...284   0.320000   ...285   0.069600
    .FCMBR   ...156   0.152000   ...277   1.000000
    .FCMBR   ...283   -0.002300   ...280   0.000600
    .FCMBR   ...281   0.000400   ...282   0.000350
    .FCMBR   ...260   -0.000500   ...284   0.042000
    .FCC0N   ...260   0.000600   ...280   -0.001120
    .FCC0N   ...281   -0.000750   ...282   -0.000630
    .FCC0N   ...283   -0.039000   ...284   1.000000
    .FCC0N   ...285   0.196900   ...288   1.000000
    .FCC0N   ...289   2.375000   ...156   0.607500
    .FCC0N   ...157   0.050000   ...000   0.000580
    .VN1ER   ...187   1.000000   ...239   1.000000
    .VN1ER   ...240   -1.000000   ...242   0.400000
    .FCTPT   ...147   1.000000   ...156   -7.383000
    .FCTPT   ...157   -0.400000   ...260   -0.044950
    .FCTPT   ...280   -0.196540   ...281   -0.131030
    .FCTPT   ...282   -0.109190   ...283   -0.225730
    .FCTPT   ...284   4.569000   ...286   -6.000000
    .FCTPT   ...287   -2.000000   ...288   -2.000000
    .FCTPT   ...289   1.490000   ...290   -1.300000
    .FCTPT   ...291   1.000000   ...292   1.000000
    .FCTPT   ...000   0.018600
    .VNRER   ...235   1.000000   ...236   -1.000000
    .VNRER   ...242   4.000000   ...243   -8.000000
    .VNRER   ...177   1.000000
    .VN7ER   ...237   1.000000   ...238   -1.000000
    .VN7ER   ...242   0.500000   ...243   -1.000000
    .VN7ER   ...178   1.000000
    .C4VEG   ...213   53.000000   ...214   -55.000000
    .C4VEG   ...215   73.000000   ...216   -92.000000
    .C4VEG   ...217   40.000000   ...218   -50.000000
    .C4VEG   ...220   273.500000   ...221   -525.200000
    .C4VEG   ...219   7.340000   ...211   -1.000000
    .C4VEG   ...244   -1.000000   ...245   -1.000000
    .C4VEG   ...200   1.000000
    .C3VEG   ...213   169.000000   ...214   -171.000000
    .C3VEG   ...215   98.000000   ...216   -117.000000
    .C3VEG   ...217   70.000000   ...218   -80.000000
    .C3VEG   ...220   762.000000   ...221   -1478.200000
    .C3VEG   ...219   -2.560000   ...211   -1.000000
    .C3VEG   ...244   -1.000000   ...245   -1.000000
    .C3VEG   ...202   1.000000
    .G0IF6   ...164   -1.000000   ...166   -20.051000
    .G0IF6   ...000   4.002100
    .MD0IF   ...164   -1.000000   ...166   -15.911000
    .MD0IF   ...000   3.716700
    .CFIF6   ...164   -1.000000   ...166   -5.395000
    .CFIF6   ...000   3.225300
    .F1V0L   ...160   1.000000   ...164   1.000000
    .F1V0L   ...166   7.925000   ...000   -3.101100
    .F2V0L   ...161   1.000000   ...164   1.000000
    .F2V0L   ...166   3.117000   ...000   -2.804900
    .F3V0L   ...162   1.000000   ...164   1.000000
    .F3V0L   ...166   1.954000   ...000   -2.723500
    .F4V0L   ...163   1.000000   ...164   1.000000
    .F4V0L   ...166   -1.117000   ...000   -2.814600
    .PETF6   ...164   -1.000000   ...148   1.000000
    .PETF6   ...166   -6.192000
    .KEBF6   ...044   1.000000   ...164   -1.000000
    .KEBF6   ...166   -27.459800
    .WKEF6   ...045   1.000000   ...164   -1.000000
    .WKEF6   ...166   -28.869000
    .CB161   ...158   1.000000   ...164   -1.000000
    .CB161   ...166   -6.248000
    .CB163   ...159   1.000000   ...164   -1.000000
    .CB163   ...166   -2.346000
    .PS1L6   ...149   1.000000   ...164   -1.000000
    .PS1L6   ...166   -15.619000
    .PS161   ...150   1.000000   ...164   -1.000000
    .PS161   ...166   -9.972000
    .PS162   ...151   1.000000   ...164   -1.000000
    .PS162   ...166   -5.883000
    .PS163   ...152   1.000000   ...164   -1.000000
    .PS163   ...166   -0.923000
    .PS2L6   ...153   1.000000   ...164   -1.000000
    .PS2L6   ...166   -15.292000
    .PS2H6   ...154   1.000000   ...164   -1.000000
    .PS2H6   ...166   -9.503000
    .MD0F6   ...145   1.000000   ...164   -1.000000
    .MD0F6   ...166   -15.911000
    .PTF0E   ...224   -2.500000   ...225   0.500000
    .PTF0E   ...226   -14.320000   ...227   -5.700000
    .PTF0E   ...228   9.000000   ...229   -19.000000
    .PTF0E   ...231   -4.560000   ...232   16.100000
    .PTF0E   ...230   2.010000   ...222   -1.000000
    .PTF0E   ...246   -1.000000   ...247   -1.000000
    .PTF0E   ...303   1.000000
    .SCNTE   ...224   -0.200000   ...225   -1.800000
    .SCNTE   ...226   1.640000   ...227   -21.600000
    .SCNTE   ...228   30.000000   ...229   -40.000000
    .SCNTE   ...231   21.020000   ...232   -18.200000
    .SCNTE   ...230   6.610000   ...222   -1.000000
    .SCNTE   ...246   -1.000000   ...247   -1.000000
    .SCNTE   ...275   1.000000   ...000   0.000500
    .SCNTR   ...235   -0.200000   ...236   -1.800000
    .SCNTR   ...237   9.000000   ...238   -29.000000
    .SCNTR   ...239   30.000000   ...240   -40.000000
    .SCNTR   ...242   24.700000   ...243   -25.600000
    .SCNTR   ...241   -2.380000   ...233   -1.000000
    .SCNTR   ...248   -1.000000   ...249   -1.000000
    .SCNTR   ...275   1.000000   ...000   0.000500
    .PTF0R   ...235   -2.500000   ...236   0.500000
    .PTF0R   ...237   -12.000000   ...238   -8.000000
    .PTF0R   ...239   9.000000   ...240   -19.000000
    .PTF0R   ...242   -3.400000   ...243   13.800000
    .PTF0R   ...241   -6.930000   ...233   -1.000000
    .PTF0R   ...248   -1.000000   ...249   -1.000000
    .PTF0R   ...303   1.000000
    .PC4TE   ...224   66.000000   ...225   -68.000000
    .PC4TE   ...226   51.800000   ...227   -71.800000
    .PC4TE   ...228   40.000000   ...229   -50.000000
    .PC4TE   ...231   314.900000   ...232   -598.000000
    .PC4TE   ...230   -3.780000   ...222   -1.000000
    .PC4TE   ...246   -1.000000   ...247   -1.000000
    .PC4TE   ...273   1.000000
    .P0LYE   ...224   3.000000   ...225   -5.000000
    .P0LYE   ...226   -16.600000   ...227   -3.400000
    .P0LYE   ...228   -24.000000   ...229   14.000000
    .P0LYE   ...231   3.100000   ...232   -25.600000
    .P0LYE   ...230   -2.690000   ...222   -1.000000
    .P0LYE   ...246   -1.000000   ...247   -1.000000
    .P0LYE   ...274   1.000000
    .PC4TR   ...273   1.000000   ...235   66.000000
    .PC4TR   ...236   -68.000000   ...237   75.000000
    .PC4TR   ...238   -95.000000   ...239   40.000000
    .PC4TR   ...240   -50.000000   ...242   326.500000
    .PC4TR   ...243   -621.200000   ...241   -12.740000
    .PC4TR   ...233   -1.000000   ...248   -1.000000
    .PC4TR   ...249   -1.000000
    .P0LYR   ...235   3.000000   ...236   -5.000000
    .P0LYR   ...237   -15.000000   ...238   -5.000000
    .P0LYR   ...239   -24.000000   ...240   14.000000
    .P0LYR   ...242   3.900000   ...243   -27.200000
    .P0LYR   ...241   -6.680000   ...233   -1.000000
    .P0LYR   ...248   -1.000000   ...249   -1.000000
    .P0LYR   ...274   1.000000
    .P900E   ...225   -2.000000   ...226   -0.640000
    .P900E   ...227   -19.400000   ...228   45.000000
    .P900E   ...229   -55.000000   ...231   26.680000
    .P900E   ...232   -17.600000   ...230   5.740000
    .P900E   ...222   -1.000000   ...246   -1.000000
    .P900E   ...247   -1.000000   ...252   1.000000
    .P900E   ...000   0.002300
    .P930E   ...224   1.000000   ...225   -3.000000
    .P930E   ...226   3.160000   ...227   -23.200000
    .P930E   ...228   46.000000   ...229   -56.000000
    .P930E   ...231   32.980000   ...232   -29.400000
    .P930E   ...230   5.550000   ...222   -1.000000
    .P930E   ...246   -1.000000   ...247   -1.000000
    .P930E   ...253   1.000000   ...000   0.002300
    .P960E   ...224   2.000000   ...225   -4.000000
    .P960E   ...226   6.960000   ...227   -27.000000
    .P960E   ...228   47.000000   ...229   -57.000000
    .P960E   ...231   39.280000   ...232   -41.200000
    .P960E   ...230   5.150000   ...222   -1.000000
    .P960E   ...246   -1.000000   ...247   -1.000000
    .P960E   ...254   1.000000   ...000   0.002300
    .P900R   ...236   -2.000000   ...237   6.000000
    .P900R   ...238   -26.000000   ...239   45.000000
    .P900R   ...240   -55.000000   ...242   30.000000
    .P900R   ...243   -24.200000   ...241   -1.050000
    .P900R   ...233   -1.000000   ...248   -1.000000
    .P900R   ...249   -1.000000   ...252   1.000000
    .P900R   ...000   0.002300
    .P930R   ...235   1.000000   ...236   -3.000000
    .P930R   ...237   11.000000   ...238   -31.000000
    .P930R   ...239   46.000000   ...240   -56.000000
    .P930R   ...242   36.900000   ...243   -37.200000
    .P930R   ...241   -1.270000   ...233   -1.000000
    .P930R   ...248   -1.000000   ...249   -1.000000
    .P930R   ...253   1.000000   ...000   0.002300
    .P960R   ...235   2.000000   ...236   -4.000000
    .P960R   ...237   16.000000   ...238   -36.000000
    .P960R   ...239   47.000000   ...240   -57.000000
    .P960R   ...242   43.800000   ...243   -50.200000
    .P960R   ...241   -1.710000   ...233   -1.000000
    .P960R   ...248   -1.000000   ...249   -1.000000
    .P960R   ...254   1.000000   ...000   0.002300
    .F0RFF   ...164   1.000000   ...264   -1.000000
    .F0RFF   ...000   0.300000
    .P90BE   ...224   -7.000000   ...225   5.000000
    .P90BE   ...226   -43.200000   ...227   23.200000
    .P90BE   ...228   -70.000000   ...229   60.000000
    .P90BE   ...231   -68.600000   ...232   81.000000
    .P90BE   ...230   -3.650000   ...222   -1.000000
    .P90BE   ...246   -1.000000   ...247   -1.000000
    .P90BE   ...256   1.000000   ...000   0.002300
    .P93BE   ...224   -7.000000   ...225   5.000000
    .P93BE   ...226   -43.200000   ...227   23.200000
    .P93BE   ...228   -69.000000   ...229   59.000000
    .P93BE   ...231   -68.200000   ...232   81.000000
    .P93BE   ...230   -5.850000   ...222   -1.000000
    .P93BE   ...246   -1.000000   ...247   -1.000000
    .P93BE   ...257   1.000000   ...000   0.002300
    .P96BE   ...224   -7.000000   ...225   5.000000
    .P96BE   ...226   -43.200000   ...227   23.200000
    .P96BE   ...228   -68.000000   ...229   58.000000
    .P96BE   ...231   -67.800000   ...232   81.000000
    .P96BE   ...230   -7.630000   ...222   -1.000000
    .P96BE   ...246   -1.000000   ...247   -1.000000
    .P96BE   ...258   1.000000   ...000   0.002300
    .P990E   ...224   3.500000   ...225   -5.500000
    .P990E   ...226   13.040000   ...227   -33.000000
    .P990E   ...228   49.000000   ...229   -59.000000
    .P990E   ...231   49.120000   ...232   -59.200000
    .P990E   ...230   4.430000   ...222   -1.000000
    .P990E   ...246   -1.000000   ...247   -1.000000
    .P990E   ...255   1.000000   ...000   0.002300
    .P99BE   ...224   -7.000000   ...225   5.000000
    .P99BE   ...226   -43.200000   ...227   23.200000
    .P99BE   ...228   -67.000000   ...229   57.000000
    .P99BE   ...231   -67.400000   ...232   81.000000
    .P99BE   ...230   -8.380000   ...222   -1.000000
    .P99BE   ...246   -1.000000   ...247   -1.000000
    .P99BE   ...259   1.000000   ...000   0.002300
    .P90BR   ...235   -7.000000   ...236   5.000000
    .P90BR   ...237   -50.000000   ...238   30.000000
    .P90BR   ...239   -70.000000   ...240   60.000000
    .P90BR   ...242   -72.000000   ...243   87.800000
    .P90BR   ...241   -10.340000   ...233   -1.000000
    .P90BR   ...248   -1.000000   ...249   -1.000000
    .P90BR   ...256   1.000000   ...000   0.002300
    .P93BR   ...235   -7.000000   ...236   5.000000
    .P93BR   ...237   -50.000000   ...238   30.000000
    .P93BR   ...239   -69.000000   ...240   59.000000
    .P93BR   ...242   -71.600000   ...243   87.800000
    .P93BR   ...241   -12.380000   ...233   -1.000000
    .P93BR   ...248   -1.000000   ...249   -1.000000
    .P93BR   ...257   1.000000   ...000   0.002300
    .P96BR   ...235   -7.000000   ...236   5.000000
    .P96BR   ...237   -50.000000   ...238   30.000000
    .P96BR   ...239   -68.000000   ...240   58.000000
    .P96BR   ...242   -71.200000   ...243   87.800000
    .P96BR   ...241   -14.060000   ...233   -1.000000
    .P96BR   ...248   -1.000000   ...249   -1.000000
    .P96BR   ...258   1.000000   ...000   0.002300
    .P990R   ...235   3.500000   ...236   -5.500000
    .P990R   ...237   24.000000   ...238   -44.000000
    .P990R   ...239   49.000000   ...240   -59.000000
    .P990R   ...242   54.600000   ...243   -70.200000
    .P990R   ...241   -2.380000   ...233   -1.000000
    .P990R   ...248   -1.000000   ...249   -1.000000
    .P990R   ...255   1.000000   ...000   0.002300
    .P99BR   ...235   -7.000000   ...236   5.000000
    .P99BR   ...237   -50.000000   ...238   30.000000
    .P99BR   ...239   -67.000000   ...240   57.000000
    .P99BR   ...242   -70.800000   ...243   87.800000
    .P99BR   ...241   -14.970000   ...233   -1.000000
    .P99BR   ...248   -1.000000   ...249   -1.000000
    .P99BR   ...259   1.000000   ...000   0.002300
    .PS3H6   ...155   1.000000   ...164   -1.000000
    .PS3H6   ...166   -13.855000
    .HCNTE   ...224   -6.500000   ...225   4.500000
    .HCNTE   ...226   -34.080000   ...227   14.100000
    .HCNTE   ...228   -50.000000   ...229   40.000000
    .HCNTE   ...231   -54.040000   ...222   -1.000000
    .HCNTE   ...246   -1.000000   ...232   67.900000
    .HCNTE   ...230   2.440000   ...247   -1.000000
    .HCNTE   ...282   1.000000
    .HCNTR   ...235   -6.500000   ...236   4.500000
    .HCNTR   ...237   -38.000000   ...240   40.000000
    .HCNTR   ...242   -56.000000   ...243   71.800000
    .HCNTR   ...241   -6.680000   ...233   -1.000000
    .HCNTR   ...248   -1.000000   ...238   18.000000
    .HCNTR   ...239   -50.000000   ...249   -1.000000
    .HCNTR   ...282   1.000000
    .LCNBE   ...224   -8.000000   ...225   6.000000
    .LCNBE   ...226   -29.520000   ...227   21.700000
    .LCNBE   ...228   -56.000000   ...229   46.000000
    .LCNBE   ...231   -60.160000   ...232   87.500000
    .LCNBE   ...230   1.920000   ...222   -1.000000
    .LCNBE   ...246   -1.000000   ...247   -1.000000
    .LCNBE   ...281   1.000000   ...000   0.010300
    .LCNBR   ...235   -8.000000   ...236   6.000000
    .LCNBR   ...237   -48.000000   ...238   28.000000
    .LCNBR   ...239   -56.000000   ...240   46.000000
    .LCNBR   ...242   -69.400000   ...243   93.800000
    .LCNBR   ...241   -7.020000   ...233   -1.000000
    .LCNBR   ...248   -1.000000   ...249   -1.000000
    .LCNBR   ...281   1.000000   ...000   0.010300
    .C5TEE   ...224   6.000000   ...225   -8.000000
    .C5TEE   ...226   40.400000   ...227   -60.400000
    .C5TEE   ...228   40.000000   ...229   -50.000000
    .C5TEE   ...231   69.200000   ...232   -106.600000
    .C5TEE   ...230   6.960000   ...222   -1.000000
    .C5TEE   ...246   -1.000000   ...247   -1.000000
    .C5TEE   ...183   1.000000   ...250   1.000000
    .C5TEE   ...251   0.200830
    .LCN0E   ...224   3.500000   ...225   -5.500000
    .LCN0E   ...226   26.720000   ...227   -46.700000
    .LCN0E   ...228   38.000000   ...229   -48.000000
    .LCN0E   ...231   51.560000   ...232   -72.900000
    .LCN0E   ...230   -1.190000   ...222   -1.000000
    .LCN0E   ...246   -1.000000   ...247   -1.000000
    .LCN0E   ...250   1.000000   ...280   1.000000
    .LCN0E   ...000   0.008900
    .LCN0R   ...235   3.500000   ...236   -5.500000
    .LCN0R   ...237   42.000000   ...238   -62.000000
    .LCN0R   ...239   38.000000   ...240   -48.000000
    .LCN0R   ...242   59.200000   ...243   -88.200000
    .LCN0R   ...241   -10.170000   ...233   -1.000000
    .LCN0R   ...248   -1.000000   ...249   -1.000000
    .LCN0R   ...250   1.000000   ...280   1.000000
    .LCN0R   ...000   0.008900
    .G0TF6   ...142   1.000000   ...146   -1.000000
    .G0TF6   ...164   -1.000000   ...166   -20.051000
    .DACFP   ...120   2.630000   ...147   -0.330000
    .DACFP   ...164   0.330000   ...166   0.490000
    .DACFP   ...276   -2.013000   ...277   3.267000
    .DACFP   ...278   -1.016400   ...279   -0.310200
    .DACFP   ...000   0.031100
    .C4VEE   ...200   1.000000   ...224   55.000000
    .C4VEE   ...225   -57.000000   ...226   51.800000
    .C4VEE   ...227   -71.800000   ...228   40.000000
    .C4VEE   ...229   -50.000000   ...231   270.900000
    .C4VEE   ...232   -510.000000   ...230   3.250000
    .C4VEE   ...222   -1.000000   ...246   -1.000000
    .C4VEE   ...247   -1.000000
    .C3VEE   ...202   1.000000   ...224   171.000000
    .C3VEE   ...225   -173.000000   ...226   70.800000
    .C3VEE   ...227   -90.800000   ...228   70.000000
    .C3VEE   ...229   -80.000000   ...231   756.400000
    .C3VEE   ...232   -1457.000000   ...230   -6.360000
    .C3VEE   ...222   -1.000000   ...246   -1.000000
    .C3VEE   ...247   -1.000000
    .C4VER   ...200   1.000000   ...201   1.000000
    .C4VER   ...235   55.000000   ...236   -57.000000
    .C4VER   ...237   75.000000   ...238   -95.000000
    .C4VER   ...239   40.000000   ...240   -50.000000
    .C4VER   ...242   282.500000   ...243   -533.200000
    .C4VER   ...241   -5.810000   ...233   -1.000000
    .C4VER   ...248   -1.000000   ...249   -1.000000
    .C3VER   ...202   1.000000   ...203   1.000000
    .C3VER   ...235   171.000000   ...236   -173.000000
    .C3VER   ...237   100.000000   ...238   -120.000000
    .C3VER   ...239   70.000000   ...240   -80.000000
    .C3VER   ...242   771.000000   ...243   -1486.200000
    .C3VER   ...241   -15.150000   ...233   -1.000000
    .C3VER   ...248   -1.000000   ...249   -1.000000
    .SCSRT   ...164   -0.033000   ...166   -0.007000
    .SCSRT   ...180   1.000000   ...182   1.000000
    .SCSRT   ...186   1.000000   ...260   -0.079000
    .SCSRT   ...269   -0.335100   ...271   -0.034700
    .SCSRT   ...275   -0.376900
    .P0LYF   ...164   -0.005900   ...166   -0.114000
    .P0LYF   ...260   -0.080200   ...267   -0.042700
    .P0LYF   ...271   -0.058600   ...273   -0.191700
    .P0LYF   ...274   -0.405800   ...283   1.000000
    .P0LYF   ...000   0.127300
    .VNVER   ...176   1.000000   ...189   1.000000
    .VNVER   ...235   -9.000000   ...236   7.000000
    .VNVER   ...237   -40.000000   ...238   20.000000
    .VNVER   ...239   -60.000000   ...240   50.000000
    .VNVER   ...242   -71.000000   ...243   93.800000
    .VNVER   ...241   65.120000   ...233   -1.000000
    .VNVER   ...248   -1.000000   ...249   -1.000000
    .VN2PT   ...134   -5.700000   ...164   -0.010000
    .VN2PT   ...166   -0.151000   ...196   1.000000
    .VN2PT   ...199   0.476200   ...264   0.085000
    .VN2PT   ...260   -0.315000   ...302   -0.198000
    .VN2PT   ...303   -0.462000
    .IMPP0   ...134   -5.050000   ...164   -0.005000
    .IMPP0   ...166   -0.076000   ...199   0.467300
    .IMPP0   ...252   -0.340000   ...256   -0.413000
    .IMPP0   ...264   0.085000   ...260   -0.219000
    .IMPP0   ...000   3.316900
    .IMPP3   ...134   -5.380000   ...164   -0.005000
    .IMPP3   ...166   -0.076000   ...199   0.467300
    .IMPP3   ...253   -0.316000   ...260   -0.259000
    .IMPP3   ...000   3.320100   ...257   -0.401000
    .IMPP3   ...264   0.085000
    .IMPP6   ...134   -5.700000   ...164   -0.010000
    .IMPP6   ...166   -0.151000   ...199   0.657000
    .IMPP6   ...254   -0.288000   ...258   -0.372000
    .IMPP6   ...264   0.085000   ...260   -0.315000
    .IMPP6   ...000   3.323300
    .IMPP9   ...134   -5.700000   ...164   -0.010000
    .IMPP9   ...166   -0.151000   ...199   1.212900
    .IMPP9   ...255   -0.235000   ...259   -0.349000
    .IMPP9   ...264   0.085000   ...260   -0.395000
    .IMPP9   ...000   3.330500
    .VN3P0   ...134   -5.470000   ...164   -0.005000
    .VN3P0   ...166   -0.076000   ...197   1.000000
    .VN3P0   ...199   0.467300   ...252   -0.209000
    .VN3P0   ...256   -0.561000   ...264   0.085000
    .VN3P0   ...260   -0.200000   ...000   0.048100
    .VN3P3   ...134   -6.130000   ...164   -0.010000
    .VN3P3   ...166   -0.151000   ...197   1.000000
    .VN3P3   ...199   0.467300   ...253   -0.212000
    .VN3P3   ...257   -0.521000   ...264   0.085000
    .VN3P3   ...260   -0.235000   ...000   0.051300
    .VN3P6   ...134   -6.790000   ...164   -0.010000
    .VN3P6   ...166   -0.151000   ...197   1.000000
    .VN3P6   ...199   0.493200   ...254   -0.222000
    .VN3P6   ...258   -0.471000   ...264   0.085000
    .VN3P6   ...260   -0.282000   ...000   0.054500
    .VN4P0   ...134   -5.800000   ...164   -0.052000
    .VN4P0   ...166   -0.786000   ...198   1.000000
    .VN4P0   ...199   0.467300   ...252   -0.218000
    .VN4P0   ...256   -0.538000   ...264   0.085000
    .VN4P0   ...260   -0.167000   ...000   0.048100
    .VN4P3   ...134   -6.510000   ...164   -0.057000
    .VN4P3   ...166   -0.861000   ...198   1.000000
    .VN4P3   ...199   0.467300   ...253   -0.231000
    .VN4P3   ...257   -0.502000   ...264   0.085000
    .VN4P3   ...260   -0.188000   ...000   0.051300
    .VN4P6   ...134   -7.210000   ...164   -0.081000
    .VN4P6   ...166   -1.224000   ...198   1.000000
    .VN4P6   ...199   0.505500   ...254   -0.231000
    .VN4P6   ...258   -0.442000   ...264   0.085000
    .VN4P6   ...260   -0.225000   ...000   0.054500
    .VN2P0   ...134   -5.050000   ...164   -0.005000
    .VN2P0   ...166   -0.076000   ...196   1.000000
    .VN2P0   ...199   0.467300   ...252   -0.340000
    .VN2P0   ...256   -0.413000   ...264   0.085000
    .VN2P0   ...260   -0.219000   ...000   0.048100
    .VN2P3   ...134   -5.380000   ...164   -0.005000
    .VN2P3   ...166   -0.076000   ...196   1.000000
    .VN2P3   ...199   0.467300   ...253   -0.316000
    .VN2P3   ...257   -0.401000   ...264   0.085000
    .VN2P3   ...260   -0.259000   ...000   0.051300
    .VN2P6   ...134   -5.700000   ...164   -0.010000
    .VN2P6   ...166   -0.151000   ...196   1.000000
    .VN2P6   ...199   0.657000   ...254   -0.288000
    .VN2P6   ...258   -0.372000   ...264   0.085000
    .VN2P6   ...260   -0.315000   ...000   0.054500
    .VN3P9   ...134   -7.450000   ...164   -0.015000
    .VN3P9   ...166   -0.227000   ...197   1.000000
    .VN3P9   ...199   1.130600   ...255   -0.216000
    .VN3P9   ...259   -0.427000   ...264   0.085000
    .VN3P9   ...260   -0.331000   ...000   0.057700
    .VN4P9   ...134   -7.920000   ...164   -0.086000
    .VN4P9   ...166   -1.299000   ...198   1.000000
    .VN4P9   ...199   0.878900   ...255   -0.230000
    .VN4P9   ...259   -0.394000   ...264   0.085000
    .VN4P9   ...260   -0.279000   ...000   0.057700
    .VN2P9   ...134   -5.700000   ...164   -0.010000
    .VN2P9   ...166   -0.151000   ...196   1.000000
    .VN2P9   ...199   1.212900   ...255   -0.235000
    .VN2P9   ...259   -0.349000   ...264   0.085000
    .VN2P9   ...260   -0.395000   ...000   0.057700
    .NIMP1   ...176   -1.000000   ...177   -8.500000
    .NIMP1   ...178   -62.500000   ...187   -100.000000
    .NIMP1   ...188   -55.950000   ...000   3.473600
    .NIMP2   ...000   3.173600   ...176   -1.000000
    .NIMP2   ...177   -0.900000   ...178   16.000000
    .NIMP2   ...187   20.000000   ...188   -46.040000
    .C4FVN   ...176   1.000000   ...177   64.000000
    .C4FVN   ...178   115.000000   ...184   1.000000
    .C4FVN   ...187   100.000000   ...188   64.000000
    .WSDIS   ...023   0.920000   ...024   1.000000
    .WSDIS   ...025   1.000000   ...176   -0.080000
    .WSDIS   ...177   -0.856000   ...178   -3.720000
    .WSDIS   ...187   -4.656000   ...188   -4.431200
    .WSDIS   ...000   -4.663000
    .C5TVN   ...176   -1.000000   ...177   -15.000000
    .C5TVN   ...178   -100.000000   ...183   1.000000
    .C5TVN   ...184   0.161400   ...187   -100.000000
    .C5TVN   ...188   -60.280000
    .ST13T   ...043   1.000000   ...044   -0.700000
    .ST13T   ...045   1.000000   ...176   -0.300000
    .ST13T   ...178   6.300000   ...187   6.000000
    .ST13T   ...188   -19.314000   ...000   0.017700
    .VN0SC   ...176   1.000000   ...177   8.500000
    .VN0SC   ...178   62.500000   ...180   -0.620000
    .VN0SC   ...181   -0.380000   ...187   100.000000
    .VN0SC   ...188   55.950000   ...193   0.652000
    .VN0SC   ...194   0.652000   ...000   0.000500
    .VN4VN   ...176   -1.000000   ...177   -0.900000
    .VN4VN   ...178   16.000000   ...179   1.000000
    .VN4VN   ...187   20.000000   ...188   -46.040000
    .VN2PH   ...176   1.000000   ...177   2.200000
    .VN2PH   ...178   -16.000000   ...187   22.400000
    .VN2PH   ...188   49.120000   ...194   0.430000
    .VN2PH   ...195   0.430000   ...196   -1.000000
    .VN3PH   ...176   1.000000   ...177   1.100000
    .VN3PH   ...178   -30.000000   ...187   -7.400000
    .VN3PH   ...188   48.080000   ...192   0.534000
    .VN3PH   ...195   0.534000   ...197   -1.000000
    .VN1SC   ...176   1.000000   ...177   11.000000
    .VN1SC   ...178   94.000000   ...180   -0.419000
    .VN1SC   ...181   -0.581000   ...187   100.000000
    .VN1SC   ...188   59.000000   ...192   0.742000
    .VN1SC   ...193   0.742000   ...000   0.000500
    .C4TS2   ...176   1.000000   ...177   64.000000
    .C4TS2   ...178   115.000000   ...187   100.000000
    .C4TS2   ...188   64.000000   ...189   1.000000
    .C4TS2   ...210   1.000000   ...000   -2.872100
    .C5TS2   ...176   1.000000   ...177   15.000000
    .C5TS2   ...178   100.000000   ...187   100.000000
    .C5TS2   ...188   60.280000   ...189   1.000000
    .C5TS2   ...210   1.000000   ...000   -2.872100
    .VN2S2   ...176   1.000000   ...177   2.200000
    .VN2S2   ...178   -16.000000   ...187   22.400000
    .VN2S2   ...188   49.120000   ...189   1.000000
    .VN2S2   ...210   1.000000   ...000   -2.872100
    .VN3S2   ...176   1.000000   ...177   1.100000
    .VN3S2   ...178   -30.000000   ...187   -7.400000
    .VN3S2   ...188   48.080000   ...189   1.000000
    .VN3S2   ...210   1.000000   ...000   -2.872100
    .VN4S2   ...176   1.000000   ...177   0.900000
    .VN4S2   ...178   -16.000000   ...187   -20.000000
    .VN4S2   ...188   46.040000   ...189   1.000000
    .VN4S2   ...210   1.000000   ...000   -2.872100
    .VN0S2   ...176   1.000000   ...177   8.500000
    .VN0S2   ...178   62.500000   ...187   100.000000
    .VN0S2   ...188   55.950000   ...189   1.000000
    .VN0S2   ...210   1.000000   ...000   -2.872100
    .VN1RF   ...176   1.000000   ...177   11.000000
    .VN1RF   ...178   94.000000   ...187   100.000000
    .VN1RF   ...188   59.000000   ...264   -0.710000
    .VN1RF   ...265   0.710000
    .VN2RF   ...176   1.000000   ...177   2.200000
    .VN2RF   ...178   -16.000000   ...188   49.120000
    .VN2RF   ...187   22.400000   ...264   -0.740000
    .VN2RF   ...265   0.740000
    .VN3RF   ...176   1.000000   ...177   1.100000
    .VN3RF   ...178   -30.000000   ...187   -7.400000
    .VN3RF   ...188   48.080000   ...264   -0.750000
    .VN3RF   ...265   0.750000
    .VN0RF   ...176   1.000000   ...177   8.500000
    .VN0RF   ...178   62.500000   ...187   100.000000
    .VN0RF   ...188   55.950000   ...264   -0.720000
    .VN0RF   ...265   0.720000
    .C4TS1   ...176   1.000000   ...272   50.500000
    .C4TS1   ...177   64.000000   ...178   115.000000
    .C4TS1   ...187   100.000000   ...188   64.000000
    .C4TS1   ...189   1.000000   ...205   1.000000
    .C4TS1   ...206   0.096000   ...207   -0.126000
    .C4TS1   ...208   55.000000   ...209   -50.000000
    .C4TS1   ...000   -2.872100
    .C5TS1   ...176   1.000000   ...177   15.000000
    .C5TS1   ...272   1.500000   ...178   100.000000
    .C5TS1   ...187   100.000000   ...188   60.280000
    .C5TS1   ...189   1.000000   ...205   1.000000
    .C5TS1   ...206   0.050000   ...207   -0.080000
    .C5TS1   ...208   50.000000   ...209   -50.000000
    .C5TS1   ...000   -2.872100
    .VN1S1   ...176   1.000000   ...177   11.000000
    .VN1S1   ...178   94.000000   ...187   100.000000
    .VN1S1   ...188   59.000000   ...189   1.000000
    .VN1S1   ...205   1.000000   ...206   0.030000
    .VN1S1   ...207   -0.060000   ...208   47.000000
    .VN1S1   ...209   -50.000000   ...272   -2.500000
    .VN1S1   ...000   -2.872100
    .VN2S1   ...176   1.000000   ...177   2.200000
    .VN2S1   ...178   -16.000000   ...187   22.400000
    .VN2S1   ...188   49.120000   ...189   1.000000
    .VN2S1   ...205   1.000000   ...206   -0.060000
    .VN2S1   ...207   0.030000   ...208   -50.000000
    .VN2S1   ...209   14.000000   ...272   -11.300000
    .VN2S1   ...000   -2.872100
    .VN3S1   ...176   1.000000   ...177   1.100000
    .VN3S1   ...178   -30.000000   ...187   -7.400000
    .VN3S1   ...188   48.080000   ...189   1.000000
    .VN3S1   ...205   1.000000   ...206   -0.069000
    .VN3S1   ...207   0.039000   ...208   -73.000000
    .VN3S1   ...209   45.000000   ...272   -12.400000
    .VN3S1   ...000   -2.872100
    .VN4S1   ...176   1.000000   ...177   0.900000
    .VN4S1   ...178   -16.000000   ...187   -20.000000
    .VN4S1   ...188   46.040000   ...189   1.000000
    .VN4S1   ...205   1.000000   ...206   -0.083000
    .VN4S1   ...207   0.053000   ...208   -68.000000
    .VN4S1   ...209   60.000000   ...272   -12.600000
    .VN4S1   ...000   -2.872100
    .VN0S1   ...176   1.000000   ...177   8.500000
    .VN0S1   ...178   62.500000   ...187   100.000000
    .VN0S1   ...188   55.950000   ...189   1.000000
    .VN0S1   ...205   1.000000   ...206   0.006000
    .VN0S1   ...207   -0.036000   ...208   15.000000
    .VN0S1   ...209   -50.000000   ...272   -5.000000
    .VN0S1   ...000   -2.872100
    .NJP46   ...039   3.600000   ...040   -4.400000
    .NJP46   ...041   -1.000000   ...050   -1.000000
    .NJP46   ...176   1.000000   ...177   6.000000
    .NJP46   ...178   26.000000   ...187   54.000000
    .NJP46   ...188   53.080000   ...189   1.000000
    .NJP46   ...000   -0.008700
    .NJP47   ...039   4.600000   ...040   -5.400000
    .NJP47   ...041   -1.000000   ...050   -1.000000
    .NJP47   ...176   1.000000   ...177   7.000000
    .NJP47   ...178   27.500000   ...187   54.800000
    .NJP47   ...188   53.270000   ...189   1.000000
    .NJP47   ...000   -0.008700
    .NJP48   ...039   5.600000   ...040   -6.400000
    .NJP48   ...041   -1.000000   ...050   -1.000000
    .NJP48   ...176   1.000000   ...177   8.000000
    .NJP48   ...178   29.000000   ...187   55.600000
    .NJP48   ...188   53.460000   ...189   1.000000
    .NJP48   ...000   -0.008700
    .VNFEE   ...224   1.700000   ...225   -3.700000
    .VNFEE   ...226   -0.260000   ...227   -19.700000
    .VNFEE   ...228   -1.800000   ...229   -8.200000
    .VNFEE   ...231   14.950000   ...232   -31.500000
    .VNFEE   ...230   12.860000   ...222   -1.000000
    .VNFEE   ...246   -1.000000   ...247   -1.000000
    .VNFEE   ...176   1.000000   ...177   10.700000
    .VNFEE   ...178   46.500000   ...187   58.200000
    .VNFEE   ...188   55.390000   ...189   1.000000
    .HNGWR   ...014   1.000000   ...021   1.000000
    .HNGWR   ...142   -0.340000   ...164   -0.366000
    .HNGWR   ...166   -0.091000   ...176   -0.285700
    .HNGWR   ...177   -1.999900   ...178   -5.399700
    .HNGWR   ...187   -11.570900   ...188   -15.105000
    .HNGWR   ...200   -0.004300   ...202   -0.002000
    .HNGWR   ...260   -0.001120   ...000   2.814500
    .INGNR   ...013   1.000000   ...021   1.000000
    .INGNR   ...142   -0.340000   ...164   -0.366000
    .INGNR   ...166   -0.908800   ...176   -0.285600
    .INGNR   ...177   -1.999200   ...178   -5.397800
    .INGNR   ...187   -11.538200   ...188   -15.105000
    .INGNR   ...200   -0.004400   ...202   -0.002000
    .INGNR   ...260   -0.001120   ...000   2.831700
    .B1MW2   ...011   1.000000   ...019   1.000000
    .B1MW2   ...034   -0.135000   ...145   -0.266000
    .B1MW2   ...154   -0.152000   ...164   -0.210000
    .B1MW2   ...166   1.483900   ...176   -0.201800
    .B1MW2   ...177   -1.412600   ...178   -3.814000
    .B1MW2   ...187   -11.744800   ...188   -10.796300
    .B1MW2   ...200   -0.017200   ...202   -0.008000
    .B1MW2   ...260   -0.005040   ...000   2.908900
    .TNTWT   ...017   0.746000   ...058   -0.290000
    .TNTWT   ...142   -0.238000   ...145   -0.035000
    .TNTWT   ...158   -0.242000   ...159   -0.048000
    .TNTWT   ...164   -0.290000   ...166   3.690000
    .TNTWT   ...176   -0.129200   ...177   -0.904400
    .TNTWT   ...178   -2.118900   ...187   -5.542700
    .TNTWT   ...188   -7.210700   ...200   -0.005800
    .TNTWT   ...202   -0.006000   ...260   -0.003360
    .TNTWT   ...000   3.215000
    .TNBWT   ...017   1.111000   ...057   -0.205000
    .TNBWT   ...142   -0.238000   ...145   -0.035000
    .TNBWT   ...158   -0.237000   ...159   -0.138000
    .TNBWT   ...164   -0.205000   ...166   2.714000
    .TNBWT   ...176   -0.129200   ...177   -0.904400
    .TNBWT   ...178   -2.118900   ...187   -5.542700
    .TNBWT   ...188   -7.210700   ...200   -0.005800
    .TNBWT   ...202   -0.006000   ...260   -0.003360
    .TNBWT   ...000   3.215000
    .KNGWR   ...299   1.000000   ...012   -1.000000
    .KNGWR   ...021   1.000000   ...142   -0.280000
    .KNGWR   ...164   -0.467000   ...166   0.601000
    .KNGWR   ...176   -0.232100   ...177   -1.624700
    .KNGWR   ...178   -4.409900   ...187   -8.982300
    .KNGWR   ...188   -12.018100   ...200   -0.006900
    .KNGWR   ...202   -0.005000   ...260   -0.005040
    .KNGWR   ...000   2.692900
    .KNGWC   ...012   -1.000000   ...299   1.000000
    .KNGWC   ...022   1.000000   ...142   -0.280000
    .KNGWC   ...146   0.280000   ...164   -0.467000
    .KNGWC   ...166   0.601000   ...176   -0.232100
    .KNGWC   ...177   -1.624700   ...178   -4.409900
    .KNGWC   ...187   -8.982300   ...188   -12.018100
    .KNGWC   ...200   -0.006900   ...202   -0.005000
    .KNGWC   ...260   -0.005040   ...000   2.695700
    .TNLWT   ...017   0.746000   ...059   -0.290000
    .TNLWT   ...060   -0.030000   ...142   -0.238000
    .TNLWT   ...145   -0.035000   ...158   -0.260000
    .TNLWT   ...159   -0.030000   ...164   -0.290000
    .TNLWT   ...166   3.690000   ...176   -0.129200
    .TNLWT   ...177   -0.904400   ...178   -2.118900
    .TNLWT   ...187   -5.542700   ...188   -7.210700
    .TNLWT   ...200   -0.005800   ...202   -0.006000
    .TNLWT   ...260   -0.003360   ...000   3.215000
    .A5MW3   ...010   1.000000   ...020   0.111000
    .A5MW3   ...046   -0.126000   ...145   -0.222000
    .A5MW3   ...155   -0.019000   ...164   -0.360000
    .A5MW3   ...166   0.334100   ...176   -0.272900
    .A5MW3   ...177   -1.910300   ...178   -3.847900
    .A5MW3   ...187   -8.932800   ...188   -13.979300
    .A5MW3   ...200   0.003900   ...202   -0.001000
    .A5MW3   ...260   -0.001700   ...000   2.877100
    .B5MW3   ...011   1.000000   ...020   0.111000
    .B5MW3   ...046   -0.116000   ...145   -0.160000
    .B5MW3   ...155   -0.025000   ...164   -0.390000
    .B5MW3   ...166   0.014800   ...176   -0.284700
    .B5MW3   ...177   -1.992900   ...178   -3.843500
    .B5MW3   ...187   -10.932500   ...188   -14.804400
    .B5MW3   ...200   -0.008300   ...202   -0.008000
    .B5MW3   ...260   -0.005040   ...000   2.906600
    .T5TWT   ...017   0.746000   ...037   -0.150000
    .T5TWT   ...058   -0.290000   ...142   -0.088000
    .T5TWT   ...145   -0.035000   ...158   -0.242000
    .T5TWT   ...159   -0.048000   ...164   -0.290000
    .T5TWT   ...166   3.690000   ...176   -0.129200
    .T5TWT   ...177   -0.904400   ...178   -2.118900
    .T5TWT   ...187   -5.542700   ...188   -7.210700
    .T5TWT   ...200   -0.005800   ...202   -0.006000
    .T5TWT   ...260   -0.003360   ...000   3.215000
    .T5BWT   ...017   1.111000   ...037   -0.150000
    .T5BWT   ...057   -0.205000   ...142   -0.088000
    .T5BWT   ...145   -0.035000   ...158   -0.237000
    .T5BWT   ...159   -0.138000   ...164   -0.205000
    .T5BWT   ...166   2.724000   ...176   -0.129200
    .T5BWT   ...177   -0.904400   ...178   -2.118900
    .T5BWT   ...187   -5.542700   ...188   -7.210700
    .T5BWT   ...200   -0.005800   ...202   -0.006000
    .T5BWT   ...260   -0.003360   ...000   3.215000
    .T5LWT   ...017   0.746000   ...037   -0.150000
    .T5LWT   ...059   -0.290000   ...060   -0.030000
    .T5LWT   ...142   -0.088000   ...145   -0.035000
    .T5LWT   ...158   -0.260000   ...159   -0.030000
    .T5LWT   ...164   -0.290000   ...166   3.690000
    .T5LWT   ...176   -0.129200   ...177   -0.904400
    .T5LWT   ...178   -2.118900   ...187   -5.542700
    .T5LWT   ...188   -7.210700   ...200   -0.005800
    .T5LWT   ...202   -0.006000   ...260   -0.003360
    .T5LWT   ...000   3.215000
    .B1MN3   ...011   1.000000   ...020   0.111000
    .B1MN3   ...034   -0.116000   ...145   -0.306000
    .B1MN3   ...164   -0.342000   ...166   0.559500
    .B1MN3   ...176   -0.201800   ...177   -1.412600
    .B1MN3   ...178   -3.814000   ...187   -11.744800
    .B1MN3   ...188   -10.796300   ...200   -0.017200
    .B1MN3   ...202   -0.008000   ...260   -0.005040
    .B1MN3   ...000   2.906100
    .QKMW2   ...026   -0.134300   ...016   1.000000
    .QKMW2   ...019   1.000000   ...027   -0.235000
    .QKMW2   ...145   -0.115000   ...153   -0.062000
    .QKMW2   ...154   -0.146000   ...164   -0.140000
    .QKMW2   ...166   0.524700   ...176   -0.275500
    .QKMW2   ...177   -1.928500   ...178   -5.234500
    .QKMW2   ...187   -6.997700   ...188   -14.502300
    .QKMW2   ...200   -0.012500   ...202   -0.009000
    .QKMW2   ...260   -0.002800   ...000   2.996900
    .IKMW2   ...026   -0.129300   ...013   1.000000
    .IKMW2   ...019   1.000000   ...027   -0.190000
    .IKMW2   ...145   -0.190000   ...153   -0.037000
    .IKMW2   ...154   -0.193000   ...164   -0.160000
    .IKMW2   ...166   1.589000   ...176   -0.216500
    .IKMW2   ...177   -1.515500   ...178   -6.516700
    .IKMW2   ...187   -13.812700   ...188   -11.658500
    .IKMW2   ...200   -0.009500   ...202   -0.002000
    .IKMW2   ...260   -0.001120   ...000   2.840900
    .JNGW2   ...015   1.000000   ...019   1.000000
    .JNGW2   ...142   -0.299000   ...153   -0.050000
    .JNGW2   ...154   -0.175000   ...164   -0.180000
    .JNGW2   ...166   1.787000   ...176   -0.196500
    .JNGW2   ...177   -1.375500   ...178   -5.816400
    .JNGW2   ...179   -0.085000   ...187   -12.359900
    .JNGW2   ...188   -10.577600   ...200   -0.006500
    .JNGW2   ...202   -0.004000   ...260   -0.002240
    .JNGW2   ...000   2.823600
    .AKMW2   ...026   -0.114300   ...010   1.000000
    .AKMW2   ...019   1.000000   ...027   -0.200000
    .AKMW2   ...145   -0.160000   ...153   -0.052000
    .AKMW2   ...154   -0.200000   ...164   -0.160000
    .AKMW2   ...166   1.519700   ...176   -0.223200
    .AKMW2   ...177   -1.562400   ...178   -6.071000
    .AKMW2   ...187   -9.731500   ...188   -11.376500
    .AKMW2   ...200   -0.000800   ...202   -0.001000
    .AKMW2   ...260   -0.001680   ...000   2.879600
    .KN8W3   ...012   -1.000000   ...020   0.132000
    .KN8W3   ...299   1.000000   ...032   -0.700000
    .KN8W3   ...033   -0.196000   ...155   -0.060000
    .KN8W3   ...164   -0.437000   ...166   1.092700
    .KN8W3   ...176   -0.142900   ...177   -1.000300
    .KN8W3   ...178   -4.215600   ...179   -0.080000
    .KN8W3   ...187   -9.702900   ...188   -7.638000
    .KN8W3   ...200   -0.016100   ...202   -0.005000
    .KN8W3   ...260   -0.005040   ...000   2.699200
    .BKMW2   ...026   -0.108600   ...011   1.000000
    .BKMW2   ...019   1.000000   ...027   -0.190000
    .BKMW2   ...145   -0.140000   ...153   -0.042000
    .BKMW2   ...154   -0.187000   ...164   -0.210000
    .BKMW2   ...166   1.484000   ...176   -0.196300
    .BKMW2   ...177   -1.374100   ...178   -4.829000
    .BKMW2   ...187   -11.797600   ...188   -10.525600
    .BKMW2   ...200   -0.017700   ...202   -0.008000
    .BKMW2   ...260   -0.005040   ...000   2.908900
    .KRMN2   ...299   1.000000   ...028   -0.077700
    .KRMN2   ...012   -1.000000   ...019   1.000000
    .KRMN2   ...029   -0.111520   ...145   -0.120000
    .KRMN2   ...153   -0.080000   ...154   -0.182000
    .KRMN2   ...164   -0.255000   ...166   2.274000
    .KRMN2   ...176   -0.201500   ...177   -1.410500
    .KRMN2   ...178   -3.909100   ...187   -9.148100
    .KRMN2   ...188   -10.498200   ...200   -0.011500
    .KRMN2   ...202   -0.005000   ...260   -0.005040
    .KRMN2   ...000   2.702300
    .QKMN3   ...016   1.000000   ...020   0.118000
    .QKMN3   ...026   -0.122900   ...027   -0.215000
    .QKMN3   ...145   -0.155000   ...155   -0.075000
    .QKMN3   ...164   -0.253000   ...166   -0.372200
    .QKMN3   ...176   -0.275500   ...177   -1.928500
    .QKMN3   ...178   -5.234500   ...187   -6.997700
    .QKMN3   ...188   -14.502300   ...200   -0.012500
    .QKMN3   ...202   -0.009000   ...260   -0.002800
    .QKMN3   ...000   2.994100
    .A1GW2   ...010   1.000000   ...019   1.000000
    .A1GW2   ...034   -0.141000   ...142   -0.212000
    .A1GW2   ...153   -0.054000   ...154   -0.200000
    .A1GW2   ...164   -0.160000   ...166   1.519700
    .A1GW2   ...176   -0.228600   ...177   -1.600200
    .A1GW2   ...178   -3.703300   ...187   -9.532600
    .A1GW2   ...188   -11.802600   ...200   -0.000400
    .A1GW2   ...202   -0.001000   ...260   -0.001680
    .A1GW2   ...000   2.879700
    .B1GW2   ...011   1.000000   ...019   1.000000
    .B1GW2   ...034   -0.135000   ...142   -0.216000
    .B1GW2   ...153   -0.015000   ...154   -0.187000
    .B1GW2   ...164   -0.210000   ...166   1.483900
    .B1GW2   ...176   -0.201800   ...177   -1.412600
    .B1GW2   ...178   -3.814000   ...187   -11.744800
    .B1GW2   ...188   -10.796300   ...200   -0.017200
    .B1GW2   ...202   -0.008000   ...260   -0.005040
    .B1GW2   ...000   2.908900
    .IRGW3   ...028   -0.108600   ...013   1.000000
    .IRGW3   ...020   0.111000   ...029   -0.155800
    .IRGW3   ...142   -0.150000   ...155   -0.075000
    .IRGW3   ...164   -0.355000   ...166   0.576500
    .IRGW3   ...176   -0.216500   ...177   -1.515500
    .IRGW3   ...178   -6.624900   ...187   -13.812700
    .IRGW3   ...188   -11.658500   ...200   -0.009500
    .IRGW3   ...202   -0.002000   ...260   -0.001120
    .IRGW3   ...000   2.838100
    .IKMN3   ...013   1.000000   ...020   0.118000
    .IKMN3   ...026   -0.098300   ...027   -0.172000
    .IKMN3   ...145   -0.216000   ...155   -0.035000
    .IKMN3   ...164   -0.323000   ...166   0.435000
    .IKMN3   ...176   -0.242400   ...177   -1.696800
    .IKMN3   ...178   -6.326600   ...187   -13.210800
    .IKMN3   ...188   -12.956300   ...200   -0.007600
    .IKMN3   ...202   -0.002000   ...260   -0.001120
    .IKMN3   ...000   2.838300
    .IKMN4   ...013   1.000000   ...020   0.139000
    .IKMN4   ...026   -0.098300   ...027   -0.172000
    .IKMN4   ...145   -0.216000   ...155   -0.118000
    .IKMN4   ...164   -0.240000   ...166   1.618600
    .IKMN4   ...176   -0.242100   ...177   -1.694700
    .IKMN4   ...178   -6.391400   ...187   -13.170200
    .IKMN4   ...188   -12.937800   ...200   -0.007900
    .IKMN4   ...202   -0.002000   ...260   -0.001120
    .IKMN4   ...000   2.838300
    .AKMW3   ...010   1.000000   ...020   0.111000
    .AKMW3   ...026   -0.114300   ...027   -0.200000
    .AKMW3   ...145   -0.160000   ...155   -0.052000
    .AKMW3   ...164   -0.360000   ...166   0.334100
    .AKMW3   ...176   -0.223200   ...177   -1.562400
    .AKMW3   ...178   -6.071000   ...187   -9.731500
    .AKMW3   ...188   -11.376500   ...200   -0.000800
    .AKMW3   ...202   -0.001000   ...260   -0.001680
    .AKMW3   ...000   2.876800
    .CNGW3   ...294   1.000000   ...020   0.114000
    .CNGW3   ...142   -0.252000   ...155   -0.081000
    .CNGW3   ...000   2.380000   ...164   -0.493000
    .CNGW3   ...166   3.436000   ...176   -0.140900
    .CNGW3   ...177   -0.986300   ...178   -2.846200
    .CNGW3   ...179   -0.026000   ...187   -7.045000
    .CNGW3   ...188   -7.714300   ...200   -0.003100
    .CNGW3   ...202   -0.003000   ...260   -0.000560
    .A5GW3   ...010   1.000000   ...020   0.111000
    .A5GW3   ...046   -0.126000   ...142   -0.164000
    .A5GW3   ...155   -0.077000   ...164   -0.360000
    .A5GW3   ...166   0.334100   ...176   -0.272900
    .A5GW3   ...177   -1.910300   ...178   -3.847900
    .A5GW3   ...187   -8.923800   ...188   -13.939700
    .A5GW3   ...200   0.003900   ...202   -0.001000
    .A5GW3   ...260   -0.001700   ...000   2.877100
    .B5GW3   ...011   1.000000   ...020   0.111000
    .B5GW3   ...046   -0.116000   ...142   -0.110000
    .B5GW3   ...155   -0.075000   ...164   -0.390000
    .B5GW3   ...166   0.014800   ...176   -0.284700
    .B5GW3   ...177   -1.992900   ...178   -3.843500
    .B5GW3   ...187   -10.932500   ...188   -14.804400
    .B5GW3   ...200   -0.008300   ...202   -0.008000
    .B5GW3   ...260   -0.005040   ...000   2.906600
    .INGW3   ...013   1.000000   ...020   0.115000
    .INGW3   ...142   -0.306000   ...155   -0.066000
    .INGW3   ...164   -0.334000   ...166   0.346000
    .INGW3   ...176   -0.188200   ...177   -1.317400
    .INGW3   ...178   -6.737600   ...179   -0.090000
    .INGW3   ...187   -14.227900   ...188   -10.238100
    .INGW3   ...200   -0.011800   ...202   -0.002000
    .INGW3   ...260   -0.001120   ...000   2.837900
    .A1GW3   ...010   1.000000   ...020   0.111000
    .A1GW3   ...034   -0.141000   ...142   -0.212000
    .A1GW3   ...155   -0.054000   ...164   -0.360000
    .A1GW3   ...166   0.334100   ...176   -0.228600
    .A1GW3   ...177   -1.600200   ...178   -3.703300
    .A1GW3   ...187   -9.532600   ...188   -11.802600
    .A1GW3   ...200   -0.000400   ...202   -0.001000
    .A1GW3   ...260   -0.001680   ...000   2.876900
    .B1GW3   ...011   1.000000   ...020   0.111000
    .B1GW3   ...034   -0.135000   ...142   -0.216000
    .B1GW3   ...155   -0.022000   ...164   -0.390000
    .B1GW3   ...166   0.014800   ...176   -0.201800
    .B1GW3   ...177   -1.412600   ...178   -3.814000
    .B1GW3   ...187   -11.744800   ...188   -10.796300
    .B1GW3   ...200   -0.017200   ...202   -0.008000
    .B1GW3   ...260   -0.005040   ...000   2.906100
    .KTGW1   ...299   1.000000   ...012   -1.000000
    .KTGW1   ...018   1.000000   ...053   -0.152000
    .KTGW1   ...142   -0.143000   ...149   -0.046000
    .KTGW1   ...150   -0.105000   ...151   -0.065000
    .KTGW1   ...152   -0.065000   ...164   -0.255000
    .KTGW1   ...166   2.274000   ...176   -0.138800
    .KTGW1   ...177   -0.971600   ...178   -4.233400
    .KTGW1   ...187   -9.688200   ...188   -7.423000
    .KTGW1   ...200   -0.016200   ...202   -0.005000
    .KTGW1   ...260   -0.005040   ...000   2.698800
    .KWGW1   ...012   -1.000000   ...299   1.000000
    .KWGW1   ...018   1.000000   ...141   -0.245000
    .KWGW1   ...142   -0.245000   ...150   -0.100000
    .KWGW1   ...151   -0.065000   ...152   -0.065000
    .KWGW1   ...164   -0.255000   ...166   2.274000
    .KWGW1   ...176   -0.193800   ...177   -1.356600
    .KWGW1   ...178   -3.914800   ...187   -9.147400
    .KWGW1   ...188   -10.144000   ...200   -0.012200
    .KWGW1   ...202   -0.005000   ...025   -0.050000
    .KWGW1   ...260   -0.005040   ...000   2.699200
    .KKMN1   ...299   1.000000   ...026   -0.077700
    .KKMN1   ...012   -1.000000   ...018   1.000000
    .KKMN1   ...027   -0.136000   ...145   -0.120000
    .KKMN1   ...149   -0.027000   ...150   -0.105000
    .KKMN1   ...151   -0.065000   ...152   -0.065000
    .KKMN1   ...164   -0.255000   ...166   2.274000
    .KKMN1   ...176   -0.201500   ...177   -1.410500
    .KKMN1   ...178   -3.909100   ...187   -9.148100
    .KKMN1   ...188   -10.498200   ...200   -0.011500
    .KKMN1   ...202   -0.005000   ...260   -0.005040
    .KKMN1   ...000   2.699200
    .K5GW1   ...299   1.000000   ...012   -1.000000
    .K5GW1   ...018   1.000000   ...046   -0.100000
    .K5GW1   ...142   -0.070000   ...149   -0.082000
    .K5GW1   ...150   -0.105000   ...151   -0.065000
    .K5GW1   ...152   -0.065000   ...164   -0.255000
    .K5GW1   ...166   2.274000   ...176   -0.237700
    .K5GW1   ...177   -1.663900   ...178   -4.563800
    .K5GW1   ...187   -8.985100   ...188   -12.298600
    .K5GW1   ...200   -0.006300   ...202   -0.005000
    .K5GW1   ...260   -0.005040   ...000   2.699400
    .QKGW2   ...026   -0.134300   ...016   1.000000
    .QKGW2   ...019   1.000000   ...027   -0.235000
    .QKGW2   ...142   -0.090000   ...153   -0.087000
    .QKGW2   ...154   -0.146000   ...164   -0.140000
    .QKGW2   ...166   0.524700   ...176   -0.275500
    .QKGW2   ...177   -1.928500   ...178   -5.234500
    .QKGW2   ...187   -6.997700   ...188   -14.502300
    .QKGW2   ...200   -0.012500   ...202   -0.009000
    .QKGW2   ...260   -0.002800   ...000   2.996900
    .K1GW1   ...299   1.000000   ...012   -1.000000
    .K1GW1   ...018   1.000000   ...034   -0.110000
    .K1GW1   ...142   -0.129000   ...149   -0.052000
    .K1GW1   ...150   -0.105000   ...151   -0.065000
    .K1GW1   ...152   -0.065000   ...164   -0.255000
    .K1GW1   ...166   2.274000   ...176   -0.192800
    .K1GW1   ...177   -1.349400   ...178   -3.894600
    .K1GW1   ...187   -9.147400   ...188   -10.071900
    .K1GW1   ...200   -0.012200   ...202   -0.005000
    .K1GW1   ...260   -0.005040   ...000   2.699200
    .IKGW2   ...026   -0.129300   ...013   1.000000
    .IKGW2   ...019   1.000000   ...027   -0.190000
    .IKGW2   ...142   -0.150000   ...153   -0.077000
    .IKGW2   ...154   -0.193000   ...164   -0.160000
    .IKGW2   ...166   1.589000   ...176   -0.216500
    .IKGW2   ...177   -1.515500   ...178   -6.516700
    .IKGW2   ...187   -13.812700   ...188   -11.658500
    .IKGW2   ...200   -0.009500   ...202   -0.002000
    .IKGW2   ...260   -0.001120   ...000   2.840900
    .KNGW1   ...299   1.000000   ...012   -1.000000
    .KNGW1   ...018   1.000000   ...142   -0.280000
    .KNGW1   ...150   -0.082000   ...151   -0.065000
    .KNGW1   ...152   -0.065000   ...164   -0.255000
    .KNGW1   ...166   2.274000   ...176   -0.142900
    .KNGW1   ...177   -1.000300   ...178   -4.215600
    .KNGW1   ...179   -0.080000   ...187   -9.702900
    .KNGW1   ...188   -7.638000   ...200   -0.016100
    .KNGW1   ...202   -0.005000   ...260   -0.005040
    .KNGW1   ...000   2.698900
    .A4GW2   ...010   1.000000   ...019   1.000000
    .A4GW2   ...039   -0.424800   ...040   0.283200
    .A4GW2   ...041   -0.177000   ...154   -0.200000
    .A4GW2   ...164   -0.160000   ...166   1.519700
    .A4GW2   ...176   -0.179200   ...177   -1.254400
    .A4GW2   ...178   -3.781100   ...187   -10.447400
    .A4GW2   ...188   -9.390100   ...200   -0.004800
    .A4GW2   ...202   -0.001000   ...260   -0.001680
    .A4GW2   ...000   2.879400
    .AKGW2   ...026   -0.114300   ...010   1.000000
    .AKGW2   ...019   1.000000   ...027   -0.200000
    .AKGW2   ...142   -0.104000   ...153   -0.108000
    .AKGW2   ...154   -0.200000   ...164   -0.160000
    .AKGW2   ...166   1.520000   ...176   -0.223200
    .AKGW2   ...177   -1.562400   ...178   -4.955000
    .AKGW2   ...187   -9.731500   ...188   -11.548400
    .AKGW2   ...200   -0.000800   ...202   -0.001000
    .AKGW2   ...260   -0.001680   ...000   2.879600
    .BKGW2   ...026   -0.108600   ...011   1.000000
    .BKGW2   ...019   1.000000   ...027   -0.190000
    .BKGW2   ...142   -0.090000   ...153   -0.092000
    .BKGW2   ...154   -0.187000   ...164   -0.210000
    .BKGW2   ...166   1.483900   ...176   -0.196400
    .BKGW2   ...177   -1.374800   ...178   -4.851100
    .BKGW2   ...187   -11.803600   ...188   -10.531000
    .BKGW2   ...200   -0.017600   ...202   -0.008000
    .BKGW2   ...260   -0.005040   ...000   2.908900
    .B4GW2   ...011   1.000000   ...019   1.000000
    .B4GW2   ...039   -0.398400   ...040   0.265600
    .B4GW2   ...041   -0.166000   ...142   -0.094000
    .B4GW2   ...153   -0.045000   ...154   -0.283000
    .B4GW2   ...164   -0.210000   ...166   1.483900
    .B4GW2   ...176   -0.146000   ...177   -1.022000
    .B4GW2   ...178   -6.584600   ...187   -12.293200
    .B4GW2   ...188   -7.976000   ...200   -0.021000
    .B4GW2   ...202   -0.008000   ...260   -0.005040
    .B4GW2   ...000   2.908600
    .C4GW3   ...294   1.000000   ...020   0.114000
    .C4GW3   ...000   2.380000   ...039   -0.350400
    .C4GW3   ...040   0.233600   ...041   -0.146000
    .C4GW3   ...142   -0.124000   ...155   -0.118000
    .C4GW3   ...164   -0.493000   ...166   3.436000
    .C4GW3   ...176   -0.108900   ...177   -0.762300
    .C4GW3   ...178   -2.591800   ...187   -7.252700
    .C4GW3   ...188   -6.017800   ...200   -0.006100
    .C4GW3   ...202   -0.003000   ...260   -0.000560
    .QKGW3   ...016   1.000000   ...020   0.118000
    .QKGW3   ...026   -0.134300   ...027   -0.235000
    .QKGW3   ...142   -0.090000   ...155   -0.120000
    .QKGW3   ...164   -0.253000   ...166   -0.280000
    .QKGW3   ...176   -0.275600   ...177   -1.929200
    .QKGW3   ...178   -5.264000   ...187   -7.027800
    .QKGW3   ...188   -14.507600   ...200   -0.012400
    .QKGW3   ...202   -0.009000   ...260   -0.002800
    .QKGW3   ...000   2.994100
    .QKGW4   ...016   1.000000   ...020   0.139000
    .QKGW4   ...026   -0.134300   ...027   -0.235000
    .QKGW4   ...142   -0.090000   ...155   -0.203000
    .QKGW4   ...164   -0.170000   ...166   0.346800
    .QKGW4   ...176   -0.275500   ...177   -1.928500
    .QKGW4   ...178   -4.408000   ...187   -6.997700
    .QKGW4   ...188   -14.502300   ...200   -0.012500
    .QKGW4   ...202   -0.009000   ...260   -0.002800
    .QKGW4   ...000   2.994100
    .A4GW3   ...010   1.000000   ...020   0.111000
    .A4GW3   ...039   -0.424800   ...040   0.283200
    .A4GW3   ...041   -0.177000   ...142   -0.230000
    .A4GW3   ...155   -0.045000   ...164   -0.360000
    .A4GW3   ...166   0.334100   ...176   -0.179200
    .A4GW3   ...177   -1.254400   ...178   -3.781100
    .A4GW3   ...187   -10.447400   ...188   -9.390100
    .A4GW3   ...200   -0.004800   ...202   -0.001000
    .A4GW3   ...260   -0.001680   ...000   2.876600
    .BKGW3   ...011   1.000000   ...020   0.111000
    .BKGW3   ...026   -0.108600   ...027   -0.190000
    .BKGW3   ...142   -0.090000   ...155   -0.099000
    .BKGW3   ...164   -0.390000   ...166   1.503100
    .BKGW3   ...176   -0.196400   ...177   -1.374800
    .BKGW3   ...178   -4.851100   ...187   -11.803600
    .BKGW3   ...188   -10.531000   ...200   -0.017600
    .BKGW3   ...202   -0.008000   ...260   -0.005040
    .BKGW3   ...000   2.906100
    .B4GW3   ...011   1.000000   ...020   0.111000
    .B4GW3   ...039   -0.398400   ...040   0.265600
    .B4GW3   ...041   -0.166000   ...142   -0.094000
    .B4GW3   ...155   -0.148000   ...164   -0.390000
    .B4GW3   ...166   1.503100   ...176   -0.146000
    .B4GW3   ...177   -1.022000   ...178   -6.584600
    .B4GW3   ...187   -12.293200   ...188   -7.976000
    .B4GW3   ...200   -0.021000   ...202   -0.008000
    .B4GW3   ...260   -0.005040   ...000   2.905800
    .KNGW2   ...299   1.000000   ...012   -1.000000
    .KNGW2   ...019   1.000000   ...142   -0.280000
    .KNGW2   ...154   -0.212000   ...164   -0.255000
    .KNGW2   ...166   0.227400   ...176   -0.142900
    .KNGW2   ...177   -1.000300   ...178   -4.215600
    .KNGW2   ...179   -0.080000   ...187   -9.702900
    .KNGW2   ...188   -7.638000   ...200   -0.016100
    .KNGW2   ...202   -0.005000   ...260   -0.005040
    .KNGW2   ...000   2.702000
    .K5GW3   ...012   -1.000000   ...020   0.114000
    .K5GW3   ...299   1.000000   ...046   -0.100000
    .K5GW3   ...142   -0.070000   ...155   -0.120000
    .K5GW3   ...164   -0.452000   ...166   0.786000
    .K5GW3   ...176   -0.237700   ...177   -1.663900
    .K5GW3   ...178   -4.563800   ...187   -8.985100
    .K5GW3   ...188   -12.298600   ...200   -0.006300
    .K5GW3   ...202   -0.005000   ...260   -0.005040
    .K5GW3   ...000   2.699700
    .K5GW4   ...012   -1.000000   ...020   0.139000
    .K5GW4   ...299   1.000000   ...046   -0.100000
    .K5GW4   ...142   -0.070000   ...155   -0.242000
    .K5GW4   ...164   -0.330000   ...166   2.897000
    .K5GW4   ...176   -0.237700   ...177   -1.663900
    .K5GW4   ...178   -4.563800   ...187   -8.985100
    .K5GW4   ...188   -12.298600   ...200   -0.006300
    .K5GW4   ...202   -0.005000   ...260   -0.005040
    .K5GW4   ...000   2.699700
    .K1GW3   ...012   -1.000000   ...020   0.116000
    .K1GW3   ...034   -0.110000   ...142   -0.129000
    .K1GW3   ...155   -0.142000   ...164   -0.400000
    .K1GW3   ...166   1.249000   ...176   -0.192800
    .K1GW3   ...177   -1.349600   ...178   -3.894600
    .K1GW3   ...187   -9.147400   ...188   -10.071900
    .K1GW3   ...200   -0.012200   ...202   -0.005000
    .K1GW3   ...260   -0.005040   ...000   2.699500
    .K1GW3   ...299   1.000000
    .K1GW4   ...012   -1.000000   ...020   0.139000
    .K1GW4   ...299   1.000000   ...034   -0.110000
    .K1GW4   ...142   -0.129000   ...155   -0.212000
    .K1GW4   ...164   -0.330000   ...166   2.897000
    .K1GW4   ...176   -0.192800   ...177   -1.349600
    .K1GW4   ...178   -3.894600   ...187   -9.100200
    .K1GW4   ...188   -10.071900   ...200   -0.012200
    .K1GW4   ...202   -0.005000   ...260   -0.005040
    .K1GW4   ...000   2.699500
    .KNGW3   ...012   -1.000000   ...020   0.118000
    .KNGW3   ...299   1.000000   ...142   -0.250000
    .KNGW3   ...155   -0.060000   ...164   -0.437000
    .KNGW3   ...166   0.955000   ...176   -0.142900
    .KNGW3   ...177   -1.000300   ...178   -4.215600
    .KNGW3   ...179   -0.080000   ...187   -9.702900
    .KNGW3   ...188   -7.638000   ...200   -0.016100
    .KNGW3   ...202   -0.005000   ...260   -0.005040
    .KNGW3   ...000   2.699200
    .KNGW4   ...012   -1.000000   ...020   0.139000
    .KNGW4   ...299   1.000000   ...142   -0.250000
    .KNGW4   ...155   -0.167000   ...164   -0.330000
    .KNGW4   ...166   2.897000   ...176   -0.142900
    .KNGW4   ...177   -1.000300   ...178   -4.215600
    .KNGW4   ...179   -0.080000   ...187   -9.702900
    .KNGW4   ...188   -7.638000   ...200   -0.016100
    .KNGW4   ...202   -0.005000   ...260   -0.005040
    .KNGW4   ...000   2.699200
    .K4GW1   ...299   1.000000   ...012   -1.000000
    .K4GW1   ...018   1.000000   ...039   -0.364800
    .K4GW1   ...040   0.243200   ...041   -0.152000
    .K4GW1   ...142   -0.143000   ...149   -0.046000
    .K4GW1   ...150   -0.105000   ...151   -0.065000
    .K4GW1   ...152   -0.065000   ...164   -0.255000
    .K4GW1   ...166   2.274000   ...176   -0.138800
    .K4GW1   ...177   -0.971600   ...178   -4.233400
    .K4GW1   ...187   -9.688200   ...188   -7.430000
    .K4GW1   ...200   -0.016200   ...202   -0.005000
    .K4GW1   ...260   -0.005040   ...000   2.698800
    .K4GW2   ...299   1.000000   ...012   -1.000000
    .K4GW2   ...019   1.000000   ...039   -0.364800
    .K4GW2   ...040   0.243200   ...041   -0.152000
    .K4GW2   ...142   -0.143000   ...153   -0.096000
    .K4GW2   ...154   -0.185000   ...164   -0.255000
    .K4GW2   ...166   2.274000   ...176   -0.138800
    .K4GW2   ...177   -0.971600   ...178   -4.233400
    .K4GW2   ...187   -9.688200   ...188   -7.430000
    .K4GW2   ...200   -0.016200   ...202   -0.005000
    .K4GW2   ...260   -0.005040   ...000   2.701900
    .K4GW3   ...012   -1.000000   ...020   0.114000
    .K4GW3   ...299   1.000000   ...039   -0.364800
    .K4GW3   ...040   0.243200   ...041   -0.152000
    .K4GW3   ...142   -0.143000   ...155   -0.120000
    .K4GW3   ...164   -0.416000   ...166   1.192000
    .K4GW3   ...176   -0.138800   ...177   -0.971600
    .K4GW3   ...178   -4.233400   ...187   -9.688200
    .K4GW3   ...188   -7.430000   ...200   -0.016200
    .K4GW3   ...202   -0.005000   ...260   -0.005040
    .K4GW3   ...000   2.699100
    .KKGN3   ...012   -1.000000   ...020   0.118000
    .KKGN3   ...299   1.000000   ...026   -0.077700
    .KKGN3   ...027   -0.136000   ...142   -0.117000
    .KKGN3   ...155   -0.110000   ...164   -0.410000
    .KKGN3   ...166   1.216000   ...176   -0.201500
    .KKGN3   ...177   -1.410500   ...178   -3.909100
    .KKGN3   ...187   -9.148100   ...188   -10.498200
    .KKGN3   ...202   -0.005000   ...200   -0.011500
    .KKGN3   ...260   -0.005040   ...000   2.699500
    .K4GW4   ...012   -1.000000   ...020   0.139000
    .K4GW4   ...299   1.000000   ...039   -0.364800
    .K4GW4   ...040   0.243200   ...041   -0.152000
    .K4GW4   ...142   -0.143000   ...155   -0.206000
    .K4GW4   ...164   -0.330000   ...166   2.897000
    .K4GW4   ...176   -0.138800   ...177   -0.971600
    .K4GW4   ...178   -4.233400   ...187   -9.688200
    .K4GW4   ...188   -7.430000   ...200   -0.016200
    .K4GW4   ...202   -0.005000   ...260   -0.005040
    .K4GW4   ...000   2.699100
    .KKGN4   ...012   -1.000000   ...020   0.139000
    .KKGN4   ...299   1.000000   ...026   -0.077700
    .KKGN4   ...027   -0.136000   ...142   -0.117000
    .KKGN4   ...155   -0.190000   ...164   -0.330000
    .KKGN4   ...166   2.897000   ...176   -0.201500
    .KKGN4   ...177   -1.410500   ...178   -3.909100
    .KKGN4   ...187   -9.148100   ...188   -10.498200
    .KKGN4   ...200   -0.011500   ...202   -0.005000
    .KKGN4   ...260   -0.005040   ...000   2.699500
    .VN3HF   ...176   1.000000   ...295   -1.000000
    .VN3HF   ...177   1.100000   ...178   -30.000000
    .VN3HF   ...187   -7.400000   ...188   48.080000
    .VN3HF   ...192   0.534000   ...195   0.534000
    .VNFHF   ...000   0.123000   ...134   -1.250000
    .VNFHF   ...164   -0.030000   ...166   -0.409200
    .VNFHF   ...260   -0.246000   ...295   1.000000
    .VNFHF   ...296   1.000000   ...297   1.000000
    .VNFHF   ...298   -0.620000
    SLACK411 ...010   1.000000
    SLACK412 ...012   1.000000
    SLACK413 ...017   1.000000
    SLACK414 ...018   1.000000
    SLACK415 ...019   1.000000
    SLACK416 ...020   1.000000
    SLACK417 ...021   1.000000
    SLACK418 ...022   1.000000
    SLACK419 ...023   1.000000
    SLACK420 ...024   1.000000
    SLACK421 ...025   1.000000
    SLACK422 ...027   1.000000
    SLACK423 ...029   1.000000
    SLACK424 ...030   1.000000
    SLACK425 ...031   1.000000
    SLACK426 ...033   1.000000
    SLACK427 ...034   1.000000
    SLACK428 ...035   1.000000
    SLACK429 ...036   1.000000
    SLACK430 ...037   1.000000
    SLACK431 ...038   1.000000
    SLACK432 ...039   1.000000
    SLACK433 ...040   1.000000
    SLACK434 ...041   1.000000
    SLACK435 ...042   1.000000
    SLACK436 ...043   1.000000
    SLACK437 ...044   1.000000
    SLACK438 ...045   1.000000
    SLACK439 ...047   1.000000
    SLACK440 ...048   1.000000
    SLACK441 ...049   1.000000
    SLACK442 ...050   1.000000
    SLACK443 ...051   1.000000
    SLACK444 ...052   1.000000
    SLACK445 ...053   1.000000
    SLACK446 ...054   1.000000
    SLACK447 ...055   1.000000
    SLACK448 ...056   1.000000
    SLACK449 ...057   1.000000
    SLACK450 ...058   1.000000
    SLACK451 ...059   1.000000
    SLACK452 ...060   1.000000
    SLACK453 ...120   1.000000
    SLACK454 ...133   1.000000
    SLACK455 ...134   1.000000
    SLACK456 ...135   1.000000
    SLACK457 ...136   1.000000
    SLACK458 ...137   1.000000
    SLACK459 ...138   1.000000
    SLACK460 ...139   1.000000
    SLACK461 ...140   1.000000
    SLACK462 ...141   1.000000
    SLACK463 ...142   1.000000
    SLACK464 ...143   1.000000
    SLACK465 ...144   1.000000
    SLACK466 ...145   1.000000
    SLACK467 ...146   1.000000
    SLACK468 ...148   1.000000
    SLACK469 ...149   1.000000
    SLACK470 ...150   1.000000
    SLACK471 ...151   1.000000
    SLACK472 ...152   1.000000
    SLACK473 ...153   1.000000
    SLACK474 ...154   1.000000
    SLACK475 ...155   1.000000
    SLACK476 ...158   1.000000
    SLACK477 ...159   1.000000
    SLACK478 ...160   1.000000
    SLACK479 ...161   1.000000
    SLACK480 ...162   1.000000
    SLACK481 ...163   1.000000
    SLACK482 ...167   1.000000
    SLACK483 ...168   1.000000
    SLACK484 ...169   1.000000
    SLACK485 ...170   1.000000
    SLACK486 ...171   1.000000
    SLACK487 ...172   1.000000
    SLACK488 ...173   1.000000
    SLACK489 ...174   1.000000
    SLACK490 ...175   1.000000
    SLACK491 ...179   1.000000
    SLACK492 ...180   1.000000
    SLACK493 ...182   1.000000
    SLACK494 ...183   1.000000
    SLACK495 ...185   1.000000
    SLACK496 ...186   1.000000
    SLACK497 ...189   1.000000
    SLACK498 ...190   1.000000
    SLACK499 ...191   -1.000000
    SLACK500 ...192   1.000000
    SLACK501 ...193   1.000000
    SLACK502 ...194   1.000000
    SLACK503 ...195   1.000000
    SLACK504 ...196   1.000000
    SLACK505 ...197   1.000000
    SLACK506 ...198   1.000000
    SLACK507 ...199   1.000000
    SLACK508 ...200   1.000000
    SLACK509 ...201   -1.000000
    SLACK510 ...202   1.000000
    SLACK511 ...203   -1.000000
    SLACK512 ...204   1.000000
    SLACK513 ...205   1.000000
    SLACK514 ...206   1.000000
    SLACK515 ...207   1.000000
    SLACK516 ...208   1.000000
    SLACK517 ...209   1.000000
    SLACK518 ...210   1.000000
    SLACK519 ...211   1.000000
    SLACK520 ...212   1.000000
    SLACK521 ...213   1.000000
    SLACK522 ...214   1.000000
    SLACK523 ...215   1.000000
    SLACK524 ...216   1.000000
    SLACK525 ...217   1.000000
    SLACK526 ...218   1.000000
    SLACK527 ...219   1.000000
    SLACK528 ...220   1.000000
    SLACK529 ...221   1.000000
    SLACK530 ...222   1.000000
    SLACK531 ...223   1.000000
    SLACK532 ...224   1.000000
    SLACK533 ...225   1.000000
    SLACK534 ...226   1.000000
    SLACK535 ...227   1.000000
    SLACK536 ...228   1.000000
    SLACK537 ...229   1.000000
    SLACK538 ...230   1.000000
    SLACK539 ...231   1.000000
    SLACK540 ...232   1.000000
    SLACK541 ...233   1.000000
    SLACK542 ...234   1.000000
    SLACK543 ...235   1.000000
    SLACK544 ...236   1.000000
    SLACK545 ...237   1.000000
    SLACK546 ...238   1.000000
    SLACK547 ...239   1.000000
    SLACK548 ...240   1.000000
    SLACK549 ...241   1.000000
    SLACK550 ...242   1.000000
    SLACK551 ...243   1.000000
    SLACK552 ...244   1.000000
    SLACK553 ...245   1.000000
    SLACK554 ...246   1.000000
    SLACK555 ...247   1.000000
    SLACK556 ...248   1.000000
    SLACK557 ...249   1.000000
    SLACK558 ...250   1.000000
    SLACK559 ...252   1.000000
    SLACK560 ...253   1.000000
    SLACK561 ...254   1.000000
    SLACK562 ...255   1.000000
    SLACK563 ...256   1.000000
    SLACK564 ...257   1.000000
    SLACK565 ...258   1.000000
    SLACK566 ...259   1.000000
    SLACK567 ...260   1.000000
    SLACK568 ...261   1.000000
    SLACK569 ...263   1.000000
    SLACK570 ...265   1.000000
    SLACK571 ...267   1.000000
    SLACK572 ...266   1.000000
    SLACK573 ...268   1.000000
    SLACK574 ...270   1.000000
    SLACK575 ...271   1.000000
    SLACK576 ...272   1.000000
    SLACK577 ...273   1.000000
    SLACK578 ...274   1.000000
    SLACK579 ...275   1.000000
    SLACK580 ...280   1.000000
    SLACK581 ...281   1.000000
    SLACK582 ...282   1.000000
    SLACK583 ...283   1.000000
    SLACK584 ...284   1.000000
    SLACK585 ...285   1.000000
    SLACK586 ...286   1.000000
    SLACK587 ...287   1.000000
    SLACK588 ...288   1.000000
    SLACK589 ...290   1.000000
    SLACK590 ...291   1.000000
    SLACK591 ...292   -1.000000
    SLACK592 ...293   1.000000
    SLACK593 ...295   1.000000
    SLACK594 ...296   1.000000
    SLACK595 ...297   -1.000000
    SLACK596 ...298   1.000000
    SLACK597 ...300   1.000000
    SLACK598 ...301   1.000000
    SLACK599 ...302   1.000000
    SLACK600 ...303   1.000000
RHS
    ZZZZZZ01 ...000   -7.113000
    ZZZZZZ01 ...010   2.284000
    ZZZZZZ01 ...011   1.590000
    ZZZZZZ01 ...013   3.990000
    ZZZZZZ01 ...014   0.109000
    ZZZZZZ01 ...015   0.690000
    ZZZZZZ01 ...017   1.000000
    ZZZZZZ01 ...018   5.216000
    ZZZZZZ01 ...019   7.233000
    ZZZZZZ01 ...020   1.000000
    ZZZZZZ01 ...021   0.650000
    ZZZZZZ01 ...023   0.139500
    ZZZZZZ01 ...024   0.180500
    ZZZZZZ01 ...030   1.345300
    ZZZZZZ01 ...035   0.420700
    ZZZZZZ01 ...038   0.666500
    ZZZZZZ01 ...043   0.500000
    ZZZZZZ01 ...048   0.101900
    ZZZZZZ01 ...050   0.935000
    ZZZZZZ01 ...055   0.960000
    ZZZZZZ01 ...057   -0.009800
    ZZZZZZ01 ...059   -0.266200
    ZZZZZZ01 ...060   -0.010400
    ZZZZZZ01 ...120   0.099000
    ZZZZZZ01 ...133   1.634200
    ZZZZZZ01 ...134   1.800000
    ZZZZZZ01 ...135   16.500000
    ZZZZZZ01 ...136   1.500000
    ZZZZZZ01 ...138   0.193800
    ZZZZZZ01 ...142   -0.063700
    ZZZZZZ01 ...143   0.634400
    ZZZZZZ01 ...144   0.604500
    ZZZZZZ01 ...147   0.578900
    ZZZZZZ01 ...148   0.347000
    ZZZZZZ01 ...150   -0.045900
    ZZZZZZ01 ...151   -0.142200
    ZZZZZZ01 ...152   -0.244800
    ZZZZZZ01 ...156   -12.193800
    ZZZZZZ01 ...157   -0.623100
    ZZZZZZ01 ...158   -0.285700
    ZZZZZZ01 ...159   -0.033000
    ZZZZZZ01 ...160   0.231400
    ZZZZZZ01 ...161   0.067500
    ZZZZZZ01 ...163   4.384500
    ZZZZZZ01 ...164   -0.365800
    ZZZZZZ01 ...165   3.825400
    ZZZZZZ01 ...166   3.385100
    ZZZZZZ01 ...167   0.032700
    ZZZZZZ01 ...168   0.048700
    ZZZZZZ01 ...169   0.077500
    ZZZZZZ01 ...172   0.050000
    ZZZZZZ01 ...174   0.205000
    ZZZZZZ01 ...175   0.137500
    ZZZZZZ01 ...176   0.169200
    ZZZZZZ01 ...177   1.844600
    ZZZZZZ01 ...178   9.138500
    ZZZZZZ01 ...179   0.049500
    ZZZZZZ01 ...182   0.631000
    ZZZZZZ01 ...185   0.500000
    ZZZZZZ01 ...186   1.050000
    ZZZZZZ01 ...187   10.830800
    ZZZZZZ01 ...188   9.553100
    ZZZZZZ01 ...189   0.169200
    ZZZZZZ01 ...190   2.952000
    ZZZZZZ01 ...191   1.302000
    ZZZZZZ01 ...192   1.000000
    ZZZZZZ01 ...193   1.000000
    ZZZZZZ01 ...194   1.000000
    ZZZZZZ01 ...195   1.000000
    ZZZZZZ01 ...196   0.118100
    ZZZZZZ01 ...197   0.118100
    ZZZZZZ01 ...199   1.000000
    ZZZZZZ01 ...202   -0.009500
    ZZZZZZ01 ...204   0.110700
    ZZZZZZ01 ...205   0.395300
    ZZZZZZ01 ...212   0.398700
    ZZZZZZ01 ...223   2.908000
    ZZZZZZ01 ...234   1.964200
    ZZZZZZ01 ...250   1.700000
    ZZZZZZ01 ...261   2.799000
    ZZZZZZ01 ...263   56.920000
    ZZZZZZ01 ...264   -1.195800
    ZZZZZZ01 ...265   0.440000
    ZZZZZZ01 ...266   0.500000
    ZZZZZZ01 ...268   0.042500
    ZZZZZZ01 ...270   0.198400
    ZZZZZZ01 ...276   1.523100
    ZZZZZZ01 ...277   3.947500
    ZZZZZZ01 ...278   1.288400
    ZZZZZZ01 ...279   0.518600
    ZZZZZZ01 ...280   -0.190100
    ZZZZZZ01 ...281   0.127500
    ZZZZZZ01 ...284   42.000000
    ZZZZZZ01 ...285   3.800000
    ZZZZZZ01 ...291   4.680000
    ZZZZZZ01 ...292   2.400000
    ZZZZZZ01 ...293   0.111400
    ZZZZZZ01 ...294   2.264000
    ZZZZZZ01 ...299   10.570000
    ZZZZZZ01 ...300   0.213700
BOUNDS
ENDATA
