NAME          ETAMACRO
ROWS
 N  OPTIMALG
 E  COSTEN00
 E  COSTEN05
 E  COSTEN10
 E  COSTEN15
 E  COSTEN20
 E  COSTEN25
 E  COSTEN30
 E  COSTEN35
 E  COSTEN40
 E  COSTEN45
 E  COSTEN50
 E  COSTEN55
 E  COSTEN60
 E  COSTEN65
 E  COSTEN70
 E  COSTEN75
 E  CAPCUM05
 E  CAPCUM10
 E  CAPCUM15
 E  CAPCUM20
 E  CAPCUM25
 E  CAPCUM30
 E  CAPCUM35
 E  CAPCUM40
 E  CAPCUM45
 E  CAPCUM50
 E  CAPCUM55
 E  CAPCUM60
 E  CAPCUM65
 E  CAPCUM70
 E  CAPCUM75
 E  TERMINVR
 E  CPHYDR00
 E  CPHYDR05
 E  CPHYDR10
 E  CPHYDR15
 E  CPHYDR20
 E  CPHYDR25
 E  CPHYDR30
 E  CPHYDR35
 E  CPHYDR40
 E  CPHYDR45
 E  CPHYDR50
 E  CPHYDR55
 E  CPHYDR60
 E  CPHYDR65
 E  CPHYDR70
 E  CPHYDR75
 E  CPCOLL00
 E  CPCOLL05
 E  CPCOLL10
 E  CPCOLL15
 E  CPCOLL20
 E  CPCOLL25
 E  CPCOLL30
 E  CPCOLL35
 E  CPCOLL40
 E  CPCOLL45
 E  CPCOLL50
 E  CPCOLL55
 E  CPCOLL60
 E  CPCOLL65
 E  CPCOLL70
 E  CPCOLL75
 E  CPCOLH00
 E  CPCOLH05
 E  CPCOLH10
 E  CPCOLH15
 E  CPCOLH20
 E  CPCOLH25
 E  CPCOLH30
 E  CPCOLH35
 E  CPCOLH40
 E  CPCOLH45
 E  CPCOLH50
 E  CPCOLH55
 E  CPCOLH60
 E  CPCOLH65
 E  CPCOLH70
 E  CPCOLH75
 E  CPLWRA00
 E  CPLWRA05
 E  CPLWRA10
 E  CPLWRA15
 E  CPLWRA20
 E  CPLWRA25
 E  CPLWRA30
 E  CPLWRA35
 E  CPLWRA40
 E  CPLWRA45
 E  CPLWRA50
 E  CPLWRA55
 E  CPLWRA60
 E  CPLWRA65
 E  CPLWRA70
 E  CPLWRA75
 E  CPLWRB00
 E  CPLWRB05
 E  CPLWRB10
 E  CPLWRB15
 E  CPLWRB20
 E  CPLWRB25
 E  CPLWRB30
 E  CPLWRB35
 E  CPLWRB40
 E  CPLWRB45
 E  CPLWRB50
 E  CPLWRB55
 E  CPLWRB60
 E  CPLWRB65
 E  CPLWRB70
 E  CPLWRB75
 E  CPLWRC00
 E  CPLWRC05
 E  CPLWRC10
 E  CPLWRC15
 E  CPLWRC20
 E  CPLWRC25
 E  CPLWRC30
 E  CPLWRC35
 E  CPLWRC40
 E  CPLWRC45
 E  CPLWRC50
 E  CPLWRC55
 E  CPLWRC60
 E  CPLWRC65
 E  CPLWRC70
 E  CPLWRC75
 E  CPFBRX00
 E  CPFBRX05
 E  CPFBRX10
 E  CPFBRX15
 E  CPFBRX20
 E  CPFBRX25
 E  CPFBRX30
 E  CPFBRX35
 E  CPFBRX40
 E  CPFBRX45
 E  CPFBRX50
 E  CPFBRX55
 E  CPFBRX60
 E  CPFBRX65
 E  CPFBRX70
 E  CPFBRX75
 E  CPSOLE00
 E  CPSOLE05
 E  CPSOLE10
 E  CPSOLE15
 E  CPSOLE20
 E  CPSOLE25
 E  CPSOLE30
 E  CPSOLE35
 E  CPSOLE40
 E  CPSOLE45
 E  CPSOLE50
 E  CPSOLE55
 E  CPSOLE60
 E  CPSOLE65
 E  CPSOLE70
 E  CPSOLE75
 E  CPPETG00
 E  CPPETG05
 E  CPPETG10
 E  CPPETG15
 E  CPPETG20
 E  CPPETG25
 E  CPPETG30
 E  CPPETG35
 E  CPPETG40
 E  CPPETG45
 E  CPPETG50
 E  CPPETG55
 E  CPPETG60
 E  CPPETG65
 E  CPPETG70
 E  CPPETG75
 E  CPSYNF00
 E  CPSYNF05
 E  CPSYNF10
 E  CPSYNF15
 E  CPSYNF20
 E  CPSYNF25
 E  CPSYNF30
 E  CPSYNF35
 E  CPSYNF40
 E  CPSYNF45
 E  CPSYNF50
 E  CPSYNF55
 E  CPSYNF60
 E  CPSYNF65
 E  CPSYNF70
 E  CPSYNF75
 E  CPSHAL00
 E  CPSHAL05
 E  CPSHAL10
 E  CPSHAL15
 E  CPSHAL20
 E  CPSHAL25
 E  CPSHAL30
 E  CPSHAL35
 E  CPSHAL40
 E  CPSHAL45
 E  CPSHAL50
 E  CPSHAL55
 E  CPSHAL60
 E  CPSHAL65
 E  CPSHAL70
 E  CPSHAL75
 E  CPNAES00
 E  CPNAES05
 E  CPNAES10
 E  CPNAES15
 E  CPNAES20
 E  CPNAES25
 E  CPNAES30
 E  CPNAES35
 E  CPNAES40
 E  CPNAES45
 E  CPNAES50
 E  CPNAES55
 E  CPNAES60
 E  CPNAES65
 E  CPNAES70
 E  CPNAES75
 E  CPCLDU00
 E  CPCLDU05
 E  CPCLDU10
 E  CPCLDU15
 E  CPCLDU20
 E  CPCLDU25
 E  CPCLDU30
 E  CPCLDU35
 E  CPCLDU40
 E  CPCLDU45
 E  CPCLDU50
 E  CPCLDU55
 E  CPCLDU60
 E  CPCLDU65
 E  CPCLDU70
 E  CPCLDU75
 E  CPPGAI00
 E  CPPGAI05
 E  CPPGAI10
 E  CPPGAI15
 E  CPPGAI20
 E  CPPGAI25
 E  CPPGAI30
 E  CPPGAI35
 E  CPPGAI40
 E  CPPGAI45
 E  CPPGAI50
 E  CPPGAI55
 E  CPPGAI60
 E  CPPGAI65
 E  CPPGAI70
 E  CPPGAI75
 E  RQELEC00
 E  RQELEC05
 E  RQELEC10
 E  RQELEC15
 E  RQELEC20
 E  RQELEC25
 E  RQELEC30
 E  RQELEC35
 E  RQELEC40
 E  RQELEC45
 E  RQELEC50
 E  RQELEC55
 E  RQELEC60
 E  RQELEC65
 E  RQELEC70
 E  RQELEC75
 E  RQNELE00
 E  RQNELE05
 E  RQNELE10
 E  RQNELE15
 E  RQNELE20
 E  RQNELE25
 E  RQNELE30
 E  RQNELE35
 E  RQNELE40
 E  RQNELE45
 E  RQNELE50
 E  RQNELE55
 E  RQNELE60
 E  RQNELE65
 E  RQNELE70
 E  RQNELE75
 E  RQPETG00
 E  RQPETG05
 E  RQPETG10
 E  RQPETG15
 E  RQPETG20
 E  RQPETG25
 E  RQPETG30
 E  RQPETG35
 E  RQPETG40
 E  RQPETG45
 E  RQPETG50
 E  RQPETG55
 E  RQPETG60
 E  RQPETG65
 E  RQPETG70
 E  RQPETG75
 E  RQCOAL00
 E  RQCOAL05
 E  RQCOAL10
 E  RQCOAL15
 E  RQCOAL20
 E  RQCOAL25
 E  RQCOAL30
 E  RQCOAL35
 E  RQCOAL40
 E  RQCOAL45
 E  RQCOAL50
 E  RQCOAL55
 E  RQCOAL60
 E  RQCOAL65
 E  RQCOAL70
 E  RQCOAL75
 E  RQNATU00
 E  RQNATU05
 E  RQNATU10
 E  RQNATU15
 E  RQNATU20
 E  RQNATU25
 E  RQNATU30
 E  RQNATU35
 E  RQNATU40
 E  RQNATU45
 E  RQNATU50
 E  RQNATU55
 E  RQNATU60
 E  RQNATU65
 E  RQNATU70
 E  RQNATU75
 E  AVPETG01
 E  AVPETG02
 E  AVPETG03
 E  AVPETG04
 E  AVCOAL01
 E  AVNATU01
 E  AVNATU02
 E  AVNATU03
 E  SMPLUT00
 E  SMPLUT05
 E  SMPLUT10
 E  SMPLUT15
 E  SMPLUT20
 E  SMPLUT25
 E  SMPLUT30
 E  SMPLUT35
 E  SMPLUT40
 E  SMPLUT45
 E  SMPLUT50
 E  SMPLUT55
 E  SMPLUT60
 E  SMPLUT65
 E  SMPLUT70
 E  SMPLUT75
 E  CLTOTL00
 E  CLTOTL05
 E  CLTOTL10
 E  CLTOTL15
 E  CLTOTL20
 E  CLTOTL25
 E  CLTOTL30
 E  CLTOTL35
 E  CLTOTL40
 E  CLTOTL45
 E  CLTOTL50
 E  CLTOTL55
 E  CLTOTL60
 E  CLTOTL65
 E  CLTOTL70
 E  CLTOTL75
 E  CLDLOC00
 E  CLDLOC05
 E  CLDLOC10
 E  CLDLOC15
 E  CLDLOC20
 E  CLDLOC25
 E  CLDLOC30
 E  CLDLOC35
 E  CLDLOC40
 E  CLDLOC45
 E  CLDLOC50
 E  CLDLOC55
 E  CLDLOC60
 E  CLDLOC65
 E  CLDLOC70
 E  CLDLOC75
 E  CLDMIN05
 E  CLDMIN10
 E  CLDMIN15
 E  CLDMIN20
 E  CLDMIN25
 E  CLDMIN30
 E  CLDMIN35
 E  CLDMIN40
 E  LOBROW4462
 E  LOBROW4463
 E  LOBROW4464
 E  LOBROW4465
 E  LOBROW4466
 E  LOBROW4467
 E  LOBROW4468
 E  LOBROW4469
 E  LOBROW4470
 E  LOBROW4471
 E  LOBROW4472
 E  LOBROW4473
 E  LOBROW4474
 E  LOBROW4475
 E  LOBROW4476
 E  LOBROW4477
 E  LOBROW4478
 E  LOBROW4479
 E  LOBROW4480
 E  LOBROW4481
 E  LOBROW4482
 E  LOBROW4483
 E  LOBROW4484
 E  LOBROW4485
 E  LOBROW4486
 E  LOBROW4487
 E  LOBROW4488
 E  LOBROW4489
 E  LOBROW4490
 E  LOBROW4491
 E  UPBROW4492
 E  UPBROW4493
 E  UPBROW4494
 E  UPBROW4495
 E  UPBROW4496
 E  UPBROW4497
 E  UPBROW4498
 E  UPBROW4499
 E  UPBROW4500
 E  UPBROW4501
 E  UPBROW4502
 E  UPBROW4503
 E  UPBROW4504
 E  UPBROW4505
 E  UPBROW4506
 E  UPBROW4507
 E  UPBROW4508
 E  UPBROW4509
 E  UPBROW4510
 E  UPBROW4511
 E  UPBROW4512
 E  UPBROW4513
 E  UPBROW4514
 E  UPBROW4515
 E  UPBROW4516
 E  UPBROW4517
 E  UPBROW4518
 E  UPBROW4519
 E  UPBROW4520
 E  UPBROW4521
 E  UPBROW4522
 E  UPBROW4523
 E  UPBROW4524
 E  UPBROW4525
 E  UPBROW4526
 E  UPBROW4527
 E  UPBROW4528
 E  UPBROW4529
 E  UPBROW4530
 E  UPBROW4531
 E  UPBROW4532
 E  UPBROW4533
 E  UPBROW4534
 E  UPBROW4535
 E  UPBROW4536
 E  UPBROW4537
 E  UPBROW4538
 E  UPBROW4539
 E  UPBROW4540
 E  UPBROW4541
 E  UPBROW4542
 E  UPBROW4543
 E  UPBROW4544
 E  UPBROW4545
 E  UPBROW4546
 E  UPBROW4547
 E  UPBROW4548
 E  UPBROW4549
 E  UPBROW4550
 E  UPBROW4551
 E  UPBROW4552
 E  UPBROW4553
 E  UPBROW4554
 E  UPBROW4555
 E  UPBROW4556
 E  UPBROW4557
 E  UPBROW4558
 E  UPBROW4559
 E  UPBROW4560
 E  UPBROW4561
 E  UPBROW4562
 E  UPBROW4563
 E  UPBROW4564
 E  UPBROW4565
 E  UPBROW4566
 E  UPBROW4567
 E  UPBROW4568
 E  UPBROW4569
 E  UPBROW4570
 E  UPBROW4571
 E  UPBROW4572
 E  UPBROW4573
 E  UPBROW4574
 E  UPBROW4575
 E  UPBROW4576
 E  UPBROW4577
 E  UPBROW4578
 E  UPBROW4579
 E  UPBROW4580
 E  UPBROW4581
 E  UPBROW4582
 E  UPBROW4583
 E  UPBROW4584
 E  UPBROW4585
 E  UPBROW4586
 E  UPBROW4587
 E  UPBROW4588
 E  UPBROW4589
 E  UPBROW4590
 E  UPBROW4591
 E  UPBROW4592
 E  UPBROW4593
 E  UPBROW4594
 E  UPBROW4595
 E  LOBROW4596
 E  LOBROW4597
 E  LOBROW4598
 E  LOBROW4599
 E  LOBROW4600
 E  LOBROW4601
 E  LOBROW4602
 E  LOBROW4603
 E  LOBROW4604
 E  LOBROW4605
 E  LOBROW4606
 E  LOBROW4607
 E  LOBROW4608
 E  LOBROW4609
 E  LOBROW4610
 E  UPBROW4611
 E  UPBROW4612
 E  UPBROW4613
 E  UPBROW4614
 E  UPBROW4615
 E  UPBROW4616
 E  UPBROW4617
 E  UPBROW4618
 E  UPBROW4619
 E  UPBROW4620
 E  UPBROW4621
 E  UPBROW4622
 E  UPBROW4623
 E  UPBROW4624
 E  UPBROW4625
 E  UPBROW4626
 E  UPBROW4627
 E  UPBROW4628
 E  UPBROW4629
 E  UPBROW4630
 E  UPBROW4631
 E  UPBROW4632
 E  UPBROW4633
 E  UPBROW4634
 E  UPBROW4635
 E  UPBROW4636
 E  UPBROW4637
 E  UPBROW4638
 E  UPBROW4639
 E  UPBROW4640
 E  UPBROW4641
COLUMNS
    QPETG475 COSTEN75 5.000000   RQPETG75 1.000000
    QPETG475 AVPETG04 5.000000
    KAPSTK05 CAPCUM05 1.000000   CAPCUM10 -0.815370
    KAPSTK05 OPTIMALG -60.560450   LOBROW4596 1.000000
    KAPSTK10 CAPCUM10 1.000000   CAPCUM15 -0.815370
    KAPSTK10 OPTIMALG -29.827910   LOBROW4597 1.000000
    KAPSTK15 CAPCUM15 1.000000   CAPCUM20 -0.815370
    KAPSTK15 OPTIMALG -15.596590   LOBROW4598 1.000000
    KAPSTK20 CAPCUM20 1.000000   CAPCUM25 -0.815370
    KAPSTK20 OPTIMALG -8.176666   LOBROW4599 1.000000
    KAPSTK25 CAPCUM25 1.000000   CAPCUM30 -0.815370
    KAPSTK25 OPTIMALG -4.472406   LOBROW4600 1.000000
    KAPSTK30 CAPCUM30 1.000000   CAPCUM35 -0.815370
    KAPSTK30 OPTIMALG -2.317474   LOBROW4601 1.000000
    KAPSTK35 CAPCUM35 1.000000   CAPCUM40 -0.815370
    KAPSTK35 OPTIMALG -1.338065   LOBROW4602 1.000000
    KAPSTK40 CAPCUM40 1.000000   CAPCUM45 -0.815370
    KAPSTK40 OPTIMALG -0.749183   LOBROW4603 1.000000
    KAPSTK45 CAPCUM45 1.000000   CAPCUM50 -0.815370
    KAPSTK45 OPTIMALG -0.439348   LOBROW4604 1.000000
    KAPSTK50 CAPCUM50 1.000000   CAPCUM55 -0.815370
    KAPSTK50 OPTIMALG -0.254652   LOBROW4605 1.000000
    KAPSTK55 CAPCUM55 1.000000   CAPCUM60 -0.815370
    KAPSTK55 OPTIMALG -0.139481   LOBROW4606 1.000000
    KAPSTK60 CAPCUM60 1.000000   CAPCUM65 -0.815370
    KAPSTK60 OPTIMALG -0.078037   LOBROW4607 1.000000
    KAPSTK65 CAPCUM65 1.000000   CAPCUM70 -0.815370
    KAPSTK65 OPTIMALG -0.043775   LOBROW4608 1.000000
    KAPSTK70 CAPCUM70 1.000000   CAPCUM75 -0.815370
    KAPSTK70 OPTIMALG -0.025009   LOBROW4609 1.000000
    KAPSTK75 CAPCUM75 1.000000   TERMINVR -0.060000
    KAPSTK75 OPTIMALG -0.037639   LOBROW4610 1.000000
    CSPLUT75 SMPLUT75 0.200000
    DMELEC05 RQELEC05 -1.000000   OPTIMALG -9.069968
    DMELEC05 LOBROW4462 1.000000
    DMELEC10 RQELEC10 -1.000000   OPTIMALG -4.733381
    DMELEC10 LOBROW4463 1.000000
    DMELEC15 RQELEC15 -1.000000   OPTIMALG -2.577940
    DMELEC15 LOBROW4464 1.000000
    DMELEC20 RQELEC20 -1.000000   OPTIMALG -1.579128
    DMELEC20 LOBROW4465 1.000000
    DMELEC25 RQELEC25 -1.000000   OPTIMALG -0.824359
    DMELEC25 LOBROW4466 1.000000
    DMELEC30 RQELEC30 -1.000000   OPTIMALG -0.631751
    DMELEC30 LOBROW4467 1.000000
    DMELEC35 RQELEC35 -1.000000   OPTIMALG -0.372516
    DMELEC35 LOBROW4468 1.000000
    DMELEC40 RQELEC40 -1.000000   OPTIMALG -0.263508
    DMELEC40 LOBROW4469 1.000000
    DMELEC45 RQELEC45 -1.000000   OPTIMALG -0.154041
    DMELEC45 LOBROW4470 1.000000
    DMELEC50 RQELEC50 -1.000000   OPTIMALG -0.077711
    DMELEC50 LOBROW4471 1.000000
    DMELEC55 RQELEC55 -1.000000   OPTIMALG -0.046500
    DMELEC55 LOBROW4472 1.000000
    DMELEC60 RQELEC60 -1.000000   OPTIMALG -0.027854
    DMELEC60 LOBROW4473 1.000000
    DMELEC65 RQELEC65 -1.000000   OPTIMALG -0.016913
    DMELEC65 LOBROW4474 1.000000
    DMELEC70 RQELEC70 -1.000000   OPTIMALG -0.008336
    DMELEC70 LOBROW4475 1.000000
    DMELEC75 RQELEC75 -1.000000   OPTIMALG -0.011748
    DMELEC75 LOBROW4476 1.000000
    CSPLUT70 SMPLUT70 0.200000   SMPLUT75 -0.190000
    DMNELE05 RQNELE05 -100.000000   OPTIMALG -96.141050
    DMNELE05 LOBROW4477 1.000000
    DMNELE10 RQNELE10 -100.000000   OPTIMALG -55.567620
    DMNELE10 LOBROW4478 1.000000
    DMNELE15 RQNELE15 -100.000000   OPTIMALG -35.506680
    DMNELE15 LOBROW4479 1.000000
    DMNELE20 RQNELE20 -100.000000   OPTIMALG -22.727390
    DMNELE20 LOBROW4480 1.000000
    DMNELE25 RQNELE25 -100.000000   OPTIMALG -14.826360
    DMNELE25 LOBROW4481 1.000000
    DMNELE30 RQNELE30 -100.000000   OPTIMALG -14.669470
    DMNELE30 LOBROW4482 1.000000
    DMNELE35 RQNELE35 -100.000000   OPTIMALG -9.545957
    DMNELE35 LOBROW4483 1.000000
    DMNELE40 RQNELE40 -100.000000   OPTIMALG -5.839098
    DMNELE40 LOBROW4484 1.000000
    DMNELE45 RQNELE45 -100.000000   OPTIMALG -2.843908
    DMNELE45 LOBROW4485 1.000000
    DMNELE50 RQNELE50 -100.000000   OPTIMALG -1.164393
    DMNELE50 LOBROW4486 1.000000
    DMNELE55 RQNELE55 -100.000000   OPTIMALG -0.635267
    DMNELE55 LOBROW4487 1.000000
    DMNELE60 RQNELE60 -100.000000   OPTIMALG -0.356350
    DMNELE60 LOBROW4488 1.000000
    DMNELE65 RQNELE65 -100.000000   OPTIMALG -0.200343
    DMNELE65 LOBROW4489 1.000000
    DMNELE70 RQNELE70 -100.000000   OPTIMALG -0.112263
    DMNELE70 LOBROW4490 1.000000
    DMNELE75 RQNELE75 -100.000000   OPTIMALG -0.169679
    DMNELE75 LOBROW4491 1.000000
    QPETG470 COSTEN70 5.000000   RQPETG70 1.000000
    QPETG470 AVPETG04 5.000000
    INVEST05 CAPCUM05 -3.000000   CAPCUM10 -2.000000
    INVEST05 OPTIMALG 414.337500   UPBROW4611 1.000000
    INVEST10 CAPCUM10 -3.000000   CAPCUM15 -2.000000
    INVEST10 OPTIMALG 212.174000   UPBROW4612 1.000000
    INVEST15 CAPCUM15 -3.000000   CAPCUM20 -2.000000
    INVEST15 OPTIMALG 112.215400   UPBROW4613 1.000000
    INVEST20 CAPCUM20 -3.000000   CAPCUM25 -2.000000
    INVEST20 OPTIMALG 60.184090   UPBROW4614 1.000000
    INVEST25 CAPCUM25 -3.000000   CAPCUM30 -2.000000
    INVEST25 OPTIMALG 32.757250   UPBROW4615 1.000000
    INVEST30 CAPCUM30 -3.000000   CAPCUM35 -2.000000
    INVEST30 OPTIMALG 18.034860   UPBROW4616 1.000000
    INVEST35 CAPCUM35 -3.000000   CAPCUM40 -2.000000
    INVEST35 OPTIMALG 10.309810   UPBROW4617 1.000000
    INVEST40 CAPCUM40 -3.000000   CAPCUM45 -2.000000
    INVEST40 OPTIMALG 5.883518   UPBROW4618 1.000000
    INVEST45 CAPCUM45 -3.000000   CAPCUM50 -2.000000
    INVEST45 OPTIMALG 3.381620   UPBROW4619 1.000000
    INVEST50 CAPCUM50 -3.000000   CAPCUM55 -2.000000
    INVEST50 OPTIMALG 1.906215   UPBROW4620 1.000000
    INVEST55 CAPCUM55 -3.000000   CAPCUM60 -2.000000
    INVEST55 OPTIMALG 1.058779   UPBROW4621 1.000000
    INVEST60 CAPCUM60 -3.000000   CAPCUM65 -2.000000
    INVEST60 OPTIMALG 0.593917   UPBROW4622 1.000000
    INVEST65 CAPCUM65 -3.000000   CAPCUM70 -2.000000
    INVEST65 OPTIMALG 0.333904   UPBROW4623 1.000000
    INVEST70 CAPCUM70 -3.000000   CAPCUM75 -2.000000
    INVEST70 OPTIMALG 0.187106   UPBROW4624 1.000000
    INVEST75 CAPCUM75 -3.000000   TERMINVR 1.000000
    INVEST75 OPTIMALG 0.282798   UPBROW4625 1.000000
    ENCOST00 COSTEN00 -1000.000000   OPTIMALG 779.589600
    ENCOST00 UPBROW4626 1.000000
    ENCOST05 COSTEN05 -1000.000000   OPTIMALG 414.337500
    ENCOST05 UPBROW4627 1.000000
    ENCOST10 COSTEN10 -1000.000000   OPTIMALG 212.174000
    ENCOST10 UPBROW4628 1.000000
    ENCOST15 COSTEN15 -1000.000000   OPTIMALG 112.215400
    ENCOST15 UPBROW4629 1.000000
    ENCOST20 COSTEN20 -1000.000000   OPTIMALG 60.184090
    ENCOST20 UPBROW4630 1.000000
    ENCOST25 COSTEN25 -1000.000000   OPTIMALG 32.757250
    ENCOST25 UPBROW4631 1.000000
    ENCOST30 COSTEN30 -1000.000000   OPTIMALG 18.034860
    ENCOST30 UPBROW4632 1.000000
    ENCOST35 COSTEN35 -1000.000000   OPTIMALG 10.309810
    ENCOST35 UPBROW4633 1.000000
    ENCOST40 COSTEN40 -1000.000000   OPTIMALG 5.883518
    ENCOST40 UPBROW4634 1.000000
    ENCOST45 COSTEN45 -1000.000000   OPTIMALG 3.381620
    ENCOST45 UPBROW4635 1.000000
    ENCOST50 COSTEN50 -1000.000000   OPTIMALG 1.906215
    ENCOST50 UPBROW4636 1.000000
    ENCOST55 COSTEN55 -1000.000000   OPTIMALG 1.058779
    ENCOST55 UPBROW4637 1.000000
    ENCOST60 COSTEN60 -1000.000000   OPTIMALG 0.593917
    ENCOST60 UPBROW4638 1.000000
    ENCOST65 COSTEN65 -1000.000000   OPTIMALG 0.333904
    ENCOST65 UPBROW4639 1.000000
    ENCOST70 COSTEN70 -1000.000000   OPTIMALG 0.187106
    ENCOST70 UPBROW4640 1.000000
    ENCOST75 COSTEN75 -1000.000000   OPTIMALG 0.282798
    ENCOST75 UPBROW4641 1.000000
    CSPLUT65 SMPLUT65 0.200000   SMPLUT70 -0.190000
    CSPLUT60 SMPLUT60 0.200000   SMPLUT65 -0.190000
    CSPLUT55 SMPLUT55 0.200000   SMPLUT60 -0.190000
    CSPLUT50 SMPLUT50 0.200000   SMPLUT55 -0.190000
    CSPLUT45 SMPLUT45 0.200000   SMPLUT50 -0.190000
    CSPLUT40 SMPLUT40 0.200000   SMPLUT45 -0.190000
    CSPLUT35 SMPLUT35 0.200000   SMPLUT40 -0.190000
    CSPLUT30 SMPLUT30 0.200000   SMPLUT35 -0.190000
    CSPLUT25 SMPLUT25 0.200000   SMPLUT30 -0.190000
    CSPLUT20 SMPLUT20 0.200000   SMPLUT25 -0.190000
    CSPLUT15 SMPLUT15 0.200000   SMPLUT20 -0.190000
    CSPLUT10 SMPLUT10 0.200000   SMPLUT15 -0.190000
    CSPLUT05 SMPLUT05 0.200000   SMPLUT10 -0.190000
    CSPLUT00 SMPLUT00 0.200000   SMPLUT05 -0.190000
    QNATU375 COSTEN75 2000.000000   RQNATU75 1.000000
    QNATU375 AVNATU03 5.000000
    QNATU370 COSTEN70 2000.000000   RQNATU70 1.000000
    QNATU370 AVNATU03 5.000000
    QNATU365 COSTEN65 2000.000000   RQNATU65 1.000000
    QNATU365 AVNATU03 5.000000
    QNATU360 COSTEN60 2000.000000   RQNATU60 1.000000
    QNATU360 AVNATU03 5.000000
    QNATU355 COSTEN55 2000.000000   RQNATU55 1.000000
    QNATU355 AVNATU03 5.000000
    QNATU350 COSTEN50 2000.000000   RQNATU50 1.000000
    QNATU350 AVNATU03 5.000000
    QNATU345 COSTEN45 2000.000000   RQNATU45 1.000000
    QNATU345 AVNATU03 5.000000
    QNATU340 COSTEN40 2000.000000   RQNATU40 1.000000
    QNATU340 AVNATU03 5.000000
    QNATU335 COSTEN35 2000.000000   RQNATU35 1.000000
    QNATU335 AVNATU03 5.000000
    QNATU330 COSTEN30 2000.000000   RQNATU30 1.000000
    QNATU330 AVNATU03 5.000000
    QNATU325 COSTEN25 2000.000000   RQNATU25 1.000000
    QNATU325 AVNATU03 5.000000
    QNATU320 COSTEN20 2000.000000   RQNATU20 1.000000
    QNATU320 AVNATU03 5.000000
    QNATU315 COSTEN15 2000.000000   RQNATU15 1.000000
    QNATU315 AVNATU03 5.000000
    QNATU310 COSTEN10 2000.000000   RQNATU10 1.000000
    QNATU310 AVNATU03 5.000000
    QNATU305 COSTEN05 2000.000000   RQNATU05 1.000000
    QNATU305 AVNATU03 5.000000
    QNATU300 COSTEN00 2000.000000   RQNATU00 1.000000
    QNATU300 AVNATU03 5.000000
    QNATU275 COSTEN75 300.000000   RQNATU75 1.000000
    QNATU275 AVNATU02 5.000000
    QNATU270 COSTEN70 300.000000   RQNATU70 1.000000
    QNATU270 AVNATU02 5.000000
    PCCOLL00 COSTEN00 13.600000   CPCOLL00 1.000000
    PCCOLL00 CPCOLL05 -1.000000   RQELEC00 1.000000
    PCCOLL00 RQCOAL00 -10.000000   CLTOTL00 10.000000
    PCCOLL05 COSTEN05 13.600000   CPCOLL05 1.000000
    PCCOLL05 CPCOLL10 -1.000000   RQELEC05 1.000000
    PCCOLL05 RQCOAL05 -10.000000   CLTOTL05 10.000000
    PCCOLL10 COSTEN10 13.600000   CPCOLL10 1.000000
    PCCOLL10 CPCOLL15 -1.000000   RQELEC10 1.000000
    PCCOLL10 RQCOAL10 -10.000000   CLTOTL10 10.000000
    PCCOLL15 COSTEN15 13.600000   CPCOLL15 1.000000
    PCCOLL15 CPCOLL20 -1.000000   RQELEC15 1.000000
    PCCOLL15 RQCOAL15 -10.000000   CLTOTL15 10.000000
    PCCOLL20 COSTEN20 13.600000   CPCOLL20 1.000000
    PCCOLL20 CPCOLL25 -1.000000   RQELEC20 1.000000
    PCCOLL20 RQCOAL20 -10.000000   CLTOTL20 10.000000
    PCCOLL25 COSTEN25 13.600000   CPCOLL25 1.000000
    PCCOLL25 CPCOLL30 -1.000000   RQELEC25 1.000000
    PCCOLL25 RQCOAL25 -10.000000   CLTOTL25 10.000000
    PCCOLL30 COSTEN30 13.600000   CPCOLL30 1.000000
    PCCOLL30 CPCOLL35 -1.000000   RQELEC30 1.000000
    PCCOLL30 RQCOAL30 -10.000000   CLTOTL30 10.000000
    PCCOLL35 COSTEN35 13.600000   CPCOLL35 1.000000
    PCCOLL35 CPCOLL40 -1.000000   RQELEC35 1.000000
    PCCOLL35 RQCOAL35 -10.000000   CLTOTL35 10.000000
    PCCOLL40 COSTEN40 13.600000   CPCOLL40 1.000000
    PCCOLL40 CPCOLL45 -1.000000   RQELEC40 1.000000
    PCCOLL40 RQCOAL40 -10.000000   CLTOTL40 10.000000
    PCCOLL45 COSTEN45 13.600000   CPCOLL45 1.000000
    PCCOLL45 CPCOLL50 -1.000000   RQELEC45 1.000000
    PCCOLL45 RQCOAL45 -10.000000   CLTOTL45 10.000000
    PCCOLL50 COSTEN50 13.600000   CPCOLL50 1.000000
    PCCOLL50 CPCOLL55 -1.000000   RQELEC50 1.000000
    PCCOLL50 RQCOAL50 -10.000000   CLTOTL50 10.000000
    PCCOLL55 COSTEN55 13.600000   CPCOLL55 1.000000
    PCCOLL55 CPCOLL60 -1.000000   RQELEC55 1.000000
    PCCOLL55 RQCOAL55 -10.000000   CLTOTL55 10.000000
    PCCOLL60 COSTEN60 13.600000   CPCOLL60 1.000000
    PCCOLL60 CPCOLL65 -1.000000   RQELEC60 1.000000
    PCCOLL60 RQCOAL60 -10.000000   CLTOTL60 10.000000
    PCCOLL65 COSTEN65 13.600000   CPCOLL65 1.000000
    PCCOLL65 CPCOLL70 -1.000000   RQELEC65 1.000000
    PCCOLL65 RQCOAL65 -10.000000   CLTOTL65 10.000000
    PCCOLL70 COSTEN70 13.600000   CPCOLL70 1.000000
    PCCOLL70 CPCOLL75 -1.000000   RQELEC70 1.000000
    PCCOLL70 RQCOAL70 -10.000000   CLTOTL70 10.000000
    PCCOLL75 COSTEN75 13.600000   CPCOLL75 1.000000
    PCCOLL75 RQELEC75 1.000000   RQCOAL75 -10.000000
    PCCOLL75 CLTOTL75 10.000000
    PCCOLH00 COSTEN00 17.600010   CPCOLH00 1.000000
    PCCOLH00 CPCOLH05 -1.000000   RQELEC00 1.000000
    PCCOLH00 RQCOAL00 -10.000000   CLTOTL00 10.000000
    PCCOLH05 COSTEN05 17.600010   CPCOLH05 1.000000
    PCCOLH05 CPCOLH10 -1.000000   RQELEC05 1.000000
    PCCOLH05 RQCOAL05 -10.000000   CLTOTL05 10.000000
    PCCOLH10 COSTEN10 17.600010   CPCOLH10 1.000000
    PCCOLH10 CPCOLH15 -1.000000   RQELEC10 1.000000
    PCCOLH10 RQCOAL10 -10.000000   CLTOTL10 10.000000
    PCCOLH15 COSTEN15 17.600010   CPCOLH15 1.000000
    PCCOLH15 CPCOLH20 -1.000000   RQELEC15 1.000000
    PCCOLH15 RQCOAL15 -10.000000   CLTOTL15 10.000000
    PCCOLH20 COSTEN20 17.600010   CPCOLH20 1.000000
    PCCOLH20 CPCOLH25 -1.000000   RQELEC20 1.000000
    PCCOLH20 RQCOAL20 -10.000000   CLTOTL20 10.000000
    PCCOLH25 COSTEN25 17.600010   CPCOLH25 1.000000
    PCCOLH25 CPCOLH30 -1.000000   RQELEC25 1.000000
    PCCOLH25 RQCOAL25 -10.000000   CLTOTL25 10.000000
    PCCOLH30 COSTEN30 17.600010   CPCOLH30 1.000000
    PCCOLH30 CPCOLH35 -1.000000   RQELEC30 1.000000
    PCCOLH30 RQCOAL30 -10.000000   CLTOTL30 10.000000
    PCCOLH35 COSTEN35 17.600010   CPCOLH35 1.000000
    PCCOLH35 CPCOLH40 -1.000000   RQELEC35 1.000000
    PCCOLH35 RQCOAL35 -10.000000   CLTOTL35 10.000000
    PCCOLH40 COSTEN40 17.600010   CPCOLH40 1.000000
    PCCOLH40 CPCOLH45 -1.000000   RQELEC40 1.000000
    PCCOLH40 RQCOAL40 -10.000000   CLTOTL40 10.000000
    PCCOLH45 COSTEN45 17.600010   CPCOLH45 1.000000
    PCCOLH45 CPCOLH50 -1.000000   RQELEC45 1.000000
    PCCOLH45 RQCOAL45 -10.000000   CLTOTL45 10.000000
    PCCOLH50 COSTEN50 17.600010   CPCOLH50 1.000000
    PCCOLH50 CPCOLH55 -1.000000   RQELEC50 1.000000
    PCCOLH50 RQCOAL50 -10.000000   CLTOTL50 10.000000
    PCCOLH55 COSTEN55 17.600010   CPCOLH55 1.000000
    PCCOLH55 CPCOLH60 -1.000000   RQELEC55 1.000000
    PCCOLH55 RQCOAL55 -10.000000   CLTOTL55 10.000000
    PCCOLH60 COSTEN60 17.600010   CPCOLH60 1.000000
    PCCOLH60 CPCOLH65 -1.000000   RQELEC60 1.000000
    PCCOLH60 RQCOAL60 -10.000000   CLTOTL60 10.000000
    PCCOLH65 COSTEN65 17.600010   CPCOLH65 1.000000
    PCCOLH65 CPCOLH70 -1.000000   RQELEC65 1.000000
    PCCOLH65 RQCOAL65 -10.000000   CLTOTL65 10.000000
    PCCOLH70 COSTEN70 17.600010   CPCOLH70 1.000000
    PCCOLH70 CPCOLH75 -1.000000   RQELEC70 1.000000
    PCCOLH70 RQCOAL70 -10.000000   CLTOTL70 10.000000
    PCCOLH75 COSTEN75 17.600010   CPCOLH75 1.000000
    PCCOLH75 RQELEC75 1.000000   RQCOAL75 -10.000000
    PCCOLH75 CLTOTL75 10.000000
    QNATU265 COSTEN65 300.000000   RQNATU65 1.000000
    QNATU265 AVNATU02 5.000000
    PCLWRA05 COSTEN05 19.800000   CPLWRA05 1.000000
    PCLWRA05 CPLWRA10 -1.000000   RQELEC05 1.000000
    PCLWRA05 RQNATU05 -0.029000
    PCLWRA10 COSTEN10 19.800000   CPLWRA10 1.000000
    PCLWRA10 CPLWRA15 -1.000000   RQELEC10 1.000000
    PCLWRA10 RQNATU10 -0.029000
    PCLWRA15 COSTEN15 19.800000   CPLWRA15 1.000000
    PCLWRA15 CPLWRA20 -1.000000   RQELEC15 1.000000
    PCLWRA15 RQNATU15 -0.029000
    PCLWRA20 COSTEN20 19.800000   CPLWRA20 1.000000
    PCLWRA20 CPLWRA25 -1.000000   RQELEC20 1.000000
    PCLWRA20 RQNATU20 -0.029000
    PCLWRA25 COSTEN25 19.800000   CPLWRA25 1.000000
    PCLWRA25 CPLWRA30 -1.000000   RQELEC25 1.000000
    PCLWRA25 RQNATU25 -0.029000
    PCLWRA30 COSTEN30 19.800000   CPLWRA30 1.000000
    PCLWRA30 CPLWRA35 -1.000000   RQELEC30 1.000000
    PCLWRA30 RQNATU30 -0.029000
    PCLWRA35 COSTEN35 19.800000   CPLWRA35 1.000000
    PCLWRA35 CPLWRA40 -1.000000   RQELEC35 1.000000
    PCLWRA35 RQNATU35 -0.029000
    PCLWRA40 COSTEN40 19.800000   CPLWRA40 1.000000
    PCLWRA40 CPLWRA45 -1.000000   RQELEC40 1.000000
    PCLWRA40 RQNATU40 -0.029000
    PCLWRA45 COSTEN45 19.800000   CPLWRA45 1.000000
    PCLWRA45 CPLWRA50 -1.000000   RQELEC45 1.000000
    PCLWRA45 RQNATU45 -0.029000
    PCLWRA50 COSTEN50 19.800000   CPLWRA50 1.000000
    PCLWRA50 CPLWRA55 -1.000000   RQELEC50 1.000000
    PCLWRA50 RQNATU50 -0.029000
    PCLWRA55 COSTEN55 19.800000   CPLWRA55 1.000000
    PCLWRA55 CPLWRA60 -1.000000   RQELEC55 1.000000
    PCLWRA55 RQNATU55 -0.029000
    PCLWRA60 COSTEN60 19.800000   CPLWRA60 1.000000
    PCLWRA60 CPLWRA65 -1.000000   RQELEC60 1.000000
    PCLWRA60 RQNATU60 -0.029000
    PCLWRA65 COSTEN65 19.800000   CPLWRA65 1.000000
    PCLWRA65 CPLWRA70 -1.000000   RQELEC65 1.000000
    PCLWRA65 RQNATU65 -0.029000
    PCLWRA70 COSTEN70 19.800000   CPLWRA70 1.000000
    PCLWRA70 CPLWRA75 -1.000000   RQELEC70 1.000000
    PCLWRA70 RQNATU70 -0.029000
    PCLWRA75 COSTEN75 19.800000   CPLWRA75 1.000000
    PCLWRA75 RQELEC75 1.000000   RQNATU75 -0.029000
    QNATU260 COSTEN60 300.000000   RQNATU60 1.000000
    QNATU260 AVNATU02 5.000000
    QNATU255 COSTEN55 300.000000   RQNATU55 1.000000
    QNATU255 AVNATU02 5.000000
    QNATU250 COSTEN50 300.000000   RQNATU50 1.000000
    QNATU250 AVNATU02 5.000000
    PCLWRB15 COSTEN15 20.100010   CPLWRB15 1.000000
    PCLWRB15 CPLWRB20 -1.000000   RQELEC15 1.000000
    PCLWRB15 RQNATU15 -0.022700   SMPLUT20 -0.027000
    PCLWRB15 UPBROW4492 1.000000
    PCLWRB20 COSTEN20 20.100010   CPLWRB20 1.000000
    PCLWRB20 CPLWRB25 -1.000000   RQELEC20 1.000000
    PCLWRB20 RQNATU20 -0.022700   SMPLUT25 -0.027000
    PCLWRB20 UPBROW4493 1.000000
    PCLWRB25 COSTEN25 20.100010   CPLWRB25 1.000000
    PCLWRB25 CPLWRB30 -1.000000   RQELEC25 1.000000
    PCLWRB25 RQNATU25 -0.022700   SMPLUT30 -0.027000
    PCLWRB30 COSTEN30 20.100010   CPLWRB30 1.000000
    PCLWRB30 CPLWRB35 -1.000000   RQELEC30 1.000000
    PCLWRB30 RQNATU30 -0.022700   SMPLUT35 -0.027000
    PCLWRB35 COSTEN35 20.100010   CPLWRB35 1.000000
    PCLWRB35 CPLWRB40 -1.000000   RQELEC35 1.000000
    PCLWRB35 RQNATU35 -0.022700   SMPLUT40 -0.027000
    PCLWRB40 COSTEN40 20.100010   CPLWRB40 1.000000
    PCLWRB40 CPLWRB45 -1.000000   RQELEC40 1.000000
    PCLWRB40 RQNATU40 -0.022700   SMPLUT45 -0.027000
    PCLWRB45 COSTEN45 20.100010   CPLWRB45 1.000000
    PCLWRB45 CPLWRB50 -1.000000   RQELEC45 1.000000
    PCLWRB45 RQNATU45 -0.022700   SMPLUT50 -0.027000
    PCLWRB50 COSTEN50 20.100010   CPLWRB50 1.000000
    PCLWRB50 CPLWRB55 -1.000000   RQELEC50 1.000000
    PCLWRB50 RQNATU50 -0.022700   SMPLUT55 -0.027000
    PCLWRB55 COSTEN55 20.100010   CPLWRB55 1.000000
    PCLWRB55 CPLWRB60 -1.000000   RQELEC55 1.000000
    PCLWRB55 RQNATU55 -0.022700   SMPLUT60 -0.027000
    PCLWRB60 COSTEN60 20.100010   CPLWRB60 1.000000
    PCLWRB60 CPLWRB65 -1.000000   RQELEC60 1.000000
    PCLWRB60 RQNATU60 -0.022700   SMPLUT65 -0.027000
    PCLWRB65 COSTEN65 20.100010   CPLWRB65 1.000000
    PCLWRB65 CPLWRB70 -1.000000   RQELEC65 1.000000
    PCLWRB65 RQNATU65 -0.022700   SMPLUT70 -0.027000
    PCLWRB70 COSTEN70 20.100010   CPLWRB70 1.000000
    PCLWRB70 CPLWRB75 -1.000000   RQELEC70 1.000000
    PCLWRB70 RQNATU70 -0.022700   SMPLUT75 -0.027000
    PCLWRB75 COSTEN75 20.100010   CPLWRB75 1.000000
    PCLWRB75 RQELEC75 1.000000   RQNATU75 -0.022700
    QNATU245 COSTEN45 300.000000   RQNATU45 1.000000
    QNATU245 AVNATU02 5.000000
    QNATU240 COSTEN40 300.000000   RQNATU40 1.000000
    QNATU240 AVNATU02 5.000000
    QNATU235 COSTEN35 300.000000   RQNATU35 1.000000
    QNATU235 AVNATU02 5.000000
    PCLWRC15 COSTEN15 20.300000   CPLWRC15 1.000000
    PCLWRC15 CPLWRC20 -1.000000   RQELEC15 1.000000
    PCLWRC15 RQNATU15 -0.019000   UPBROW4494 1.000000
    PCLWRC20 COSTEN20 20.300000   CPLWRC20 1.000000
    PCLWRC20 CPLWRC25 -1.000000   RQELEC20 1.000000
    PCLWRC20 RQNATU20 -0.019000   UPBROW4495 1.000000
    PCLWRC25 COSTEN25 20.300000   CPLWRC25 1.000000
    PCLWRC25 CPLWRC30 -1.000000   RQELEC25 1.000000
    PCLWRC25 RQNATU25 -0.019000
    PCLWRC30 COSTEN30 20.300000   CPLWRC30 1.000000
    PCLWRC30 CPLWRC35 -1.000000   RQELEC30 1.000000
    PCLWRC30 RQNATU30 -0.019000
    PCLWRC35 COSTEN35 20.300000   CPLWRC35 1.000000
    PCLWRC35 CPLWRC40 -1.000000   RQELEC35 1.000000
    PCLWRC35 RQNATU35 -0.019000
    PCLWRC40 COSTEN40 20.300000   CPLWRC40 1.000000
    PCLWRC40 CPLWRC45 -1.000000   RQELEC40 1.000000
    PCLWRC40 RQNATU40 -0.019000
    PCLWRC45 COSTEN45 20.300000   CPLWRC45 1.000000
    PCLWRC45 CPLWRC50 -1.000000   RQELEC45 1.000000
    PCLWRC45 RQNATU45 -0.019000
    PCLWRC50 COSTEN50 20.300000   CPLWRC50 1.000000
    PCLWRC50 CPLWRC55 -1.000000   RQELEC50 1.000000
    PCLWRC50 RQNATU50 -0.019000
    PCLWRC55 COSTEN55 20.300000   CPLWRC55 1.000000
    PCLWRC55 CPLWRC60 -1.000000   RQELEC55 1.000000
    PCLWRC55 RQNATU55 -0.019000
    PCLWRC60 COSTEN60 20.300000   CPLWRC60 1.000000
    PCLWRC60 CPLWRC65 -1.000000   RQELEC60 1.000000
    PCLWRC60 RQNATU60 -0.019000
    PCLWRC65 COSTEN65 20.300000   CPLWRC65 1.000000
    PCLWRC65 CPLWRC70 -1.000000   RQELEC65 1.000000
    PCLWRC65 RQNATU65 -0.019000
    PCLWRC70 COSTEN70 20.300000   CPLWRC70 1.000000
    PCLWRC70 CPLWRC75 -1.000000   RQELEC70 1.000000
    PCLWRC70 RQNATU70 -0.019000
    PCLWRC75 COSTEN75 20.300000   CPLWRC75 1.000000
    PCLWRC75 RQELEC75 1.000000   RQNATU75 -0.019000
    QNATU230 COSTEN30 300.000000   RQNATU30 1.000000
    QNATU230 AVNATU02 5.000000
    QNATU225 COSTEN25 300.000000   RQNATU25 1.000000
    QNATU225 AVNATU02 5.000000
    QNATU220 COSTEN20 300.000000   RQNATU20 1.000000
    QNATU220 AVNATU02 5.000000
    QNATU215 COSTEN15 300.000000   RQNATU15 1.000000
    QNATU215 AVNATU02 5.000000
    QNATU210 COSTEN10 300.000000   RQNATU10 1.000000
    QNATU210 AVNATU02 5.000000
    PCFBRX25 COSTEN25 25.100010   CPFBRX25 1.000000
    PCFBRX25 CPFBRX30 -1.000000   RQELEC25 1.000000
    PCFBRX25 SMPLUT30 -0.053000   UPBROW4496 1.000000
    PCFBRX30 COSTEN30 25.100010   CPFBRX30 1.000000
    PCFBRX30 CPFBRX35 -1.000000   RQELEC30 1.000000
    PCFBRX30 SMPLUT35 -0.053000   UPBROW4497 1.000000
    PCFBRX35 COSTEN35 25.100010   CPFBRX35 1.000000
    PCFBRX35 CPFBRX40 -1.000000   RQELEC35 1.000000
    PCFBRX35 SMPLUT40 -0.053000   UPBROW4498 1.000000
    PCFBRX40 COSTEN40 25.100010   CPFBRX40 1.000000
    PCFBRX40 CPFBRX45 -1.000000   RQELEC40 1.000000
    PCFBRX40 SMPLUT45 -0.053000   UPBROW4499 1.000000
    PCFBRX45 COSTEN45 25.100010   CPFBRX45 1.000000
    PCFBRX45 CPFBRX50 -1.000000   RQELEC45 1.000000
    PCFBRX45 SMPLUT50 -0.053000   UPBROW4500 1.000000
    PCFBRX50 COSTEN50 25.100010   CPFBRX50 1.000000
    PCFBRX50 CPFBRX55 -1.000000   RQELEC50 1.000000
    PCFBRX50 SMPLUT55 -0.053000   UPBROW4501 1.000000
    PCFBRX55 COSTEN55 25.100010   CPFBRX55 1.000000
    PCFBRX55 CPFBRX60 -1.000000   RQELEC55 1.000000
    PCFBRX55 SMPLUT60 -0.053000   UPBROW4502 1.000000
    PCFBRX60 COSTEN60 25.100010   CPFBRX60 1.000000
    PCFBRX60 CPFBRX65 -1.000000   RQELEC60 1.000000
    PCFBRX60 SMPLUT65 -0.053000   UPBROW4503 1.000000
    PCFBRX65 COSTEN65 25.100010   CPFBRX65 1.000000
    PCFBRX65 CPFBRX70 -1.000000   RQELEC65 1.000000
    PCFBRX65 SMPLUT70 -0.053000   UPBROW4504 1.000000
    PCFBRX70 COSTEN70 25.100010   CPFBRX70 1.000000
    PCFBRX70 CPFBRX75 -1.000000   RQELEC70 1.000000
    PCFBRX70 SMPLUT75 -0.053000   UPBROW4505 1.000000
    PCFBRX75 COSTEN75 25.100010   CPFBRX75 1.000000
    PCFBRX75 RQELEC75 1.000000   UPBROW4506 1.000000
    QNATU205 COSTEN05 300.000000   RQNATU05 1.000000
    QNATU205 AVNATU02 5.000000
    QNATU200 COSTEN00 300.000000   RQNATU00 1.000000
    QNATU200 AVNATU02 5.000000
    QNATU175 COSTEN75 60.000000   RQNATU75 1.000000
    QNATU175 AVNATU01 5.000000
    QNATU170 COSTEN70 60.000000   RQNATU70 1.000000
    QNATU170 AVNATU01 5.000000
    QNATU165 COSTEN65 60.000000   RQNATU65 1.000000
    QNATU165 AVNATU01 5.000000
    PCSOLE25 COSTEN25 54.800000   CPSOLE25 1.000000
    PCSOLE25 CPSOLE30 -1.000000   RQELEC25 1.000000
    PCSOLE25 UPBROW4507 1.000000
    PCSOLE30 COSTEN30 54.800000   CPSOLE30 1.000000
    PCSOLE30 CPSOLE35 -1.000000   RQELEC30 1.000000
    PCSOLE30 UPBROW4508 1.000000
    PCSOLE35 COSTEN35 54.800000   CPSOLE35 1.000000
    PCSOLE35 CPSOLE40 -1.000000   RQELEC35 1.000000
    PCSOLE35 UPBROW4509 1.000000
    PCSOLE40 COSTEN40 54.800000   CPSOLE40 1.000000
    PCSOLE40 CPSOLE45 -1.000000   RQELEC40 1.000000
    PCSOLE40 UPBROW4510 1.000000
    PCSOLE45 COSTEN45 54.800000   CPSOLE45 1.000000
    PCSOLE45 CPSOLE50 -1.000000   RQELEC45 1.000000
    PCSOLE45 UPBROW4511 1.000000
    PCSOLE50 COSTEN50 54.800000   CPSOLE50 1.000000
    PCSOLE50 CPSOLE55 -1.000000   RQELEC50 1.000000
    PCSOLE50 UPBROW4512 1.000000
    PCSOLE55 COSTEN55 54.800000   CPSOLE55 1.000000
    PCSOLE55 CPSOLE60 -1.000000   RQELEC55 1.000000
    PCSOLE55 UPBROW4513 1.000000
    PCSOLE60 COSTEN60 54.800000   CPSOLE60 1.000000
    PCSOLE60 CPSOLE65 -1.000000   RQELEC60 1.000000
    PCSOLE60 UPBROW4514 1.000000
    PCSOLE65 COSTEN65 54.800000   CPSOLE65 1.000000
    PCSOLE65 CPSOLE70 -1.000000   RQELEC65 1.000000
    PCSOLE65 UPBROW4515 1.000000
    PCSOLE70 COSTEN70 54.800000   CPSOLE70 1.000000
    PCSOLE70 CPSOLE75 -1.000000   RQELEC70 1.000000
    PCSOLE70 UPBROW4516 1.000000
    PCSOLE75 COSTEN75 54.800000   CPSOLE75 1.000000
    PCSOLE75 RQELEC75 1.000000   UPBROW4517 1.000000
    PCPETG00 CPPETG00 0.200000   RQNELE00 1.000000
    PCPETG00 RQPETG00 -1.000000
    PCPETG05 CPPETG05 0.200000   RQNELE05 1.000000
    PCPETG05 RQPETG05 -1.000000
    PCPETG10 CPPETG10 0.200000   RQNELE10 1.000000
    PCPETG10 RQPETG10 -1.000000
    PCPETG15 CPPETG15 0.200000   RQNELE15 1.000000
    PCPETG15 RQPETG15 -1.000000
    PCPETG20 CPPETG20 0.200000   RQNELE20 1.000000
    PCPETG20 RQPETG20 -1.000000
    PCPETG25 CPPETG25 0.200000   RQNELE25 1.000000
    PCPETG25 RQPETG25 -1.000000
    PCPETG30 CPPETG30 0.200000   RQNELE30 1.000000
    PCPETG30 RQPETG30 -1.000000
    PCPETG35 CPPETG35 0.200000   RQNELE35 1.000000
    PCPETG35 RQPETG35 -1.000000
    PCPETG40 CPPETG40 0.200000   RQNELE40 1.000000
    PCPETG40 RQPETG40 -1.000000
    PCPETG45 CPPETG45 0.200000   RQNELE45 1.000000
    PCPETG45 RQPETG45 -1.000000
    PCPETG50 CPPETG50 0.200000   RQNELE50 1.000000
    PCPETG50 RQPETG50 -1.000000
    PCPETG55 CPPETG55 0.200000   RQNELE55 1.000000
    PCPETG55 RQPETG55 -1.000000
    PCPETG60 CPPETG60 0.200000   RQNELE60 1.000000
    PCPETG60 RQPETG60 -1.000000
    PCPETG65 CPPETG65 0.200000   RQNELE65 1.000000
    PCPETG65 RQPETG65 -1.000000
    PCPETG70 CPPETG70 0.200000   RQNELE70 1.000000
    PCPETG70 RQPETG70 -1.000000
    PCPETG75 CPPETG75 0.200000   RQNELE75 1.000000
    PCPETG75 RQPETG75 -1.000000
    QNATU160 COSTEN60 60.000000   RQNATU60 1.000000
    QNATU160 AVNATU01 5.000000
    QNATU155 COSTEN55 60.000000   RQNATU55 1.000000
    QNATU155 AVNATU01 5.000000
    QNATU150 COSTEN50 60.000000   RQNATU50 1.000000
    QNATU150 AVNATU01 5.000000
    PCSYNF15 COSTEN15 2.800000   CPSYNF15 1.000000
    PCSYNF15 CPSYNF20 -1.000000   RQNELE15 1.000000
    PCSYNF15 RQCOAL15 -1.500000   CLTOTL15 1.500000
    PCSYNF15 UPBROW4518 1.000000
    PCSYNF20 COSTEN20 2.800000   CPSYNF20 1.000000
    PCSYNF20 CPSYNF25 -1.000000   RQNELE20 1.000000
    PCSYNF20 RQCOAL20 -1.500000   CLTOTL20 1.500000
    PCSYNF20 UPBROW4519 1.000000
    PCSYNF25 COSTEN25 2.800000   CPSYNF25 1.000000
    PCSYNF25 CPSYNF30 -1.000000   RQNELE25 1.000000
    PCSYNF25 RQCOAL25 -1.500000   CLTOTL25 1.500000
    PCSYNF25 UPBROW4520 1.000000
    PCSYNF30 COSTEN30 2.800000   CPSYNF30 1.000000
    PCSYNF30 CPSYNF35 -1.000000   RQNELE30 1.000000
    PCSYNF30 RQCOAL30 -1.500000   CLTOTL30 1.500000
    PCSYNF30 UPBROW4521 1.000000
    PCSYNF35 COSTEN35 2.800000   CPSYNF35 1.000000
    PCSYNF35 CPSYNF40 -1.000000   RQNELE35 1.000000
    PCSYNF35 RQCOAL35 -1.500000   CLTOTL35 1.500000
    PCSYNF35 UPBROW4522 1.000000
    PCSYNF40 COSTEN40 2.800000   CPSYNF40 1.000000
    PCSYNF40 CPSYNF45 -1.000000   RQNELE40 1.000000
    PCSYNF40 RQCOAL40 -1.500000   CLTOTL40 1.500000
    PCSYNF40 UPBROW4523 1.000000
    PCSYNF45 COSTEN45 2.800000   CPSYNF45 1.000000
    PCSYNF45 CPSYNF50 -1.000000   RQNELE45 1.000000
    PCSYNF45 RQCOAL45 -1.500000   CLTOTL45 1.500000
    PCSYNF45 UPBROW4524 1.000000
    PCSYNF50 COSTEN50 2.800000   CPSYNF50 1.000000
    PCSYNF50 CPSYNF55 -1.000000   RQNELE50 1.000000
    PCSYNF50 RQCOAL50 -1.500000   CLTOTL50 1.500000
    PCSYNF55 COSTEN55 2.800000   CPSYNF55 1.000000
    PCSYNF55 CPSYNF60 -1.000000   RQNELE55 1.000000
    PCSYNF55 RQCOAL55 -1.500000   CLTOTL55 1.500000
    PCSYNF60 COSTEN60 2.800000   CPSYNF60 1.000000
    PCSYNF60 CPSYNF65 -1.000000   RQNELE60 1.000000
    PCSYNF60 RQCOAL60 -1.500000   CLTOTL60 1.500000
    PCSYNF65 COSTEN65 2.800000   CPSYNF65 1.000000
    PCSYNF65 CPSYNF70 -1.000000   RQNELE65 1.000000
    PCSYNF65 RQCOAL65 -1.500000   CLTOTL65 1.500000
    PCSYNF70 COSTEN70 2.800000   CPSYNF70 1.000000
    PCSYNF70 CPSYNF75 -1.000000   RQNELE70 1.000000
    PCSYNF70 RQCOAL70 -1.500000   CLTOTL70 1.500000
    PCSYNF75 COSTEN75 2.800000   CPSYNF75 1.000000
    PCSYNF75 RQNELE75 1.000000   RQCOAL75 -1.500000
    PCSYNF75 CLTOTL75 1.500000
    QNATU145 COSTEN45 60.000000   RQNATU45 1.000000
    QNATU145 AVNATU01 5.000000
    QNATU140 COSTEN40 60.000000   RQNATU40 1.000000
    QNATU140 AVNATU01 5.000000
    QNATU135 COSTEN35 60.000000   RQNATU35 1.000000
    QNATU135 AVNATU01 5.000000
    QNATU130 COSTEN30 60.000000   RQNATU30 1.000000
    QNATU130 AVNATU01 5.000000
    PCSHAL20 COSTEN20 4.000000   CPSHAL20 1.000000
    PCSHAL20 CPSHAL25 -1.000000   RQNELE20 1.000000
    PCSHAL20 UPBROW4525 1.000000
    PCSHAL25 COSTEN25 4.000000   CPSHAL25 1.000000
    PCSHAL25 CPSHAL30 -1.000000   RQNELE25 1.000000
    PCSHAL25 UPBROW4526 1.000000
    PCSHAL30 COSTEN30 4.000000   CPSHAL30 1.000000
    PCSHAL30 CPSHAL35 -1.000000   RQNELE30 1.000000
    PCSHAL30 UPBROW4527 1.000000
    PCSHAL35 COSTEN35 4.000000   CPSHAL35 1.000000
    PCSHAL35 CPSHAL40 -1.000000   RQNELE35 1.000000
    PCSHAL35 UPBROW4528 1.000000
    PCSHAL40 COSTEN40 4.000000   CPSHAL40 1.000000
    PCSHAL40 CPSHAL45 -1.000000   RQNELE40 1.000000
    PCSHAL40 UPBROW4529 1.000000
    PCSHAL45 COSTEN45 4.000000   CPSHAL45 1.000000
    PCSHAL45 CPSHAL50 -1.000000   RQNELE45 1.000000
    PCSHAL45 UPBROW4530 1.000000
    PCSHAL50 COSTEN50 4.000000   CPSHAL50 1.000000
    PCSHAL50 CPSHAL55 -1.000000   RQNELE50 1.000000
    PCSHAL50 UPBROW4531 1.000000
    PCSHAL55 COSTEN55 4.000000   CPSHAL55 1.000000
    PCSHAL55 CPSHAL60 -1.000000   RQNELE55 1.000000
    PCSHAL55 UPBROW4532 1.000000
    PCSHAL60 COSTEN60 4.000000   CPSHAL60 1.000000
    PCSHAL60 CPSHAL65 -1.000000   RQNELE60 1.000000
    PCSHAL60 UPBROW4533 1.000000
    PCSHAL65 COSTEN65 4.000000   CPSHAL65 1.000000
    PCSHAL65 CPSHAL70 -1.000000   RQNELE65 1.000000
    PCSHAL65 UPBROW4534 1.000000
    PCSHAL70 COSTEN70 4.000000   CPSHAL70 1.000000
    PCSHAL70 CPSHAL75 -1.000000   RQNELE70 1.000000
    PCSHAL70 UPBROW4535 1.000000
    PCSHAL75 COSTEN75 4.000000   CPSHAL75 1.000000
    PCSHAL75 RQNELE75 1.000000   UPBROW4536 1.000000
    QNATU125 COSTEN25 60.000000   RQNATU25 1.000000
    QNATU125 AVNATU01 5.000000
    QNATU120 COSTEN20 60.000000   RQNATU20 1.000000
    QNATU120 AVNATU01 5.000000
    QNATU115 COSTEN15 60.000000   RQNATU15 1.000000
    QNATU115 AVNATU01 5.000000
    QNATU110 COSTEN10 60.000000   RQNATU10 1.000000
    QNATU110 AVNATU01 5.000000
    QNATU105 COSTEN05 60.000000   RQNATU05 1.000000
    QNATU105 AVNATU01 5.000000
    PCNAES25 COSTEN25 6.000000   CPNAES25 1.000000
    PCNAES25 CPNAES30 -1.000000   RQNELE25 1.000000
    PCNAES25 UPBROW4537 1.000000
    PCNAES30 COSTEN30 6.000000   CPNAES30 1.000000
    PCNAES30 CPNAES35 -1.000000   RQNELE30 1.000000
    PCNAES30 UPBROW4538 1.000000
    PCNAES35 COSTEN35 6.000000   CPNAES35 1.000000
    PCNAES35 CPNAES40 -1.000000   RQNELE35 1.000000
    PCNAES35 UPBROW4539 1.000000
    PCNAES40 COSTEN40 6.000000   CPNAES40 1.000000
    PCNAES40 CPNAES45 -1.000000   RQNELE40 1.000000
    PCNAES40 UPBROW4540 1.000000
    PCNAES45 COSTEN45 6.000000   CPNAES45 1.000000
    PCNAES45 CPNAES50 -1.000000   RQNELE45 1.000000
    PCNAES45 UPBROW4541 1.000000
    PCNAES50 COSTEN50 6.000000   CPNAES50 1.000000
    PCNAES50 CPNAES55 -1.000000   RQNELE50 1.000000
    PCNAES50 UPBROW4542 1.000000
    PCNAES55 COSTEN55 6.000000   CPNAES55 1.000000
    PCNAES55 CPNAES60 -1.000000   RQNELE55 1.000000
    PCNAES55 UPBROW4543 1.000000
    PCNAES60 COSTEN60 6.000000   CPNAES60 1.000000
    PCNAES60 CPNAES65 -1.000000   RQNELE60 1.000000
    PCNAES65 COSTEN65 6.000000   CPNAES65 1.000000
    PCNAES65 CPNAES70 -1.000000   RQNELE65 1.000000
    PCNAES70 COSTEN70 6.000000   CPNAES70 1.000000
    PCNAES70 CPNAES75 -1.000000   RQNELE70 1.000000
    PCNAES75 COSTEN75 6.000000   CPNAES75 1.000000
    PCNAES75 RQNELE75 1.000000
    PCCLDU00 COSTEN00 1.000000   CPCLDU00 1.000000
    PCCLDU00 CPCLDU05 -1.000000   RQNELE00 1.000000
    PCCLDU00 RQCOAL00 -1.000000   CLTOTL00 1.000000
    PCCLDU00 UPBROW4544 1.000000
    PCCLDU05 COSTEN05 1.000000   CPCLDU05 1.000000
    PCCLDU05 CPCLDU10 -1.000000   RQNELE05 1.000000
    PCCLDU05 RQCOAL05 -1.000000   CLTOTL05 1.000000
    PCCLDU05 UPBROW4545 1.000000
    PCCLDU10 COSTEN10 1.000000   CPCLDU10 1.000000
    PCCLDU10 CPCLDU15 -1.000000   RQNELE10 1.000000
    PCCLDU10 RQCOAL10 -1.000000   CLTOTL10 1.000000
    PCCLDU10 UPBROW4546 1.000000
    PCCLDU15 COSTEN15 1.000000   CPCLDU15 1.000000
    PCCLDU15 CPCLDU20 -1.000000   RQNELE15 1.000000
    PCCLDU15 RQCOAL15 -1.000000   CLTOTL15 1.000000
    PCCLDU15 UPBROW4547 1.000000
    PCCLDU20 COSTEN20 1.000000   CPCLDU20 1.000000
    PCCLDU20 CPCLDU25 -1.000000   RQNELE20 1.000000
    PCCLDU20 RQCOAL20 -1.000000   CLTOTL20 1.000000
    PCCLDU20 UPBROW4548 1.000000
    PCCLDU25 COSTEN25 1.000000   CPCLDU25 1.000000
    PCCLDU25 CPCLDU30 -1.000000   RQNELE25 1.000000
    PCCLDU25 RQCOAL25 -1.000000   CLTOTL25 1.000000
    PCCLDU25 UPBROW4549 1.000000
    PCCLDU30 COSTEN30 1.000000   CPCLDU30 1.000000
    PCCLDU30 CPCLDU35 -1.000000   RQNELE30 1.000000
    PCCLDU30 RQCOAL30 -1.000000   CLTOTL30 1.000000
    PCCLDU30 UPBROW4550 1.000000
    PCCLDU35 COSTEN35 1.000000   CPCLDU35 1.000000
    PCCLDU35 CPCLDU40 -1.000000   RQNELE35 1.000000
    PCCLDU35 RQCOAL35 -1.000000   CLTOTL35 1.000000
    PCCLDU35 UPBROW4551 1.000000
    PCCLDU40 COSTEN40 1.000000   CPCLDU40 1.000000
    PCCLDU40 CPCLDU45 -1.000000   RQNELE40 1.000000
    PCCLDU40 RQCOAL40 -1.000000   CLTOTL40 1.000000
    PCCLDU40 UPBROW4552 1.000000
    PCCLDU45 COSTEN45 1.000000   CPCLDU45 1.000000
    PCCLDU45 CPCLDU50 -1.000000   RQNELE45 1.000000
    PCCLDU45 RQCOAL45 -1.000000   CLTOTL45 1.000000
    PCCLDU45 UPBROW4553 1.000000
    PCCLDU50 COSTEN50 1.000000   CPCLDU50 1.000000
    PCCLDU50 CPCLDU55 -1.000000   RQNELE50 1.000000
    PCCLDU50 RQCOAL50 -1.000000   CLTOTL50 1.000000
    PCCLDU50 UPBROW4554 1.000000
    PCCLDU55 COSTEN55 1.000000   CPCLDU55 1.000000
    PCCLDU55 CPCLDU60 -1.000000   RQNELE55 1.000000
    PCCLDU55 RQCOAL55 -1.000000   CLTOTL55 1.000000
    PCCLDU55 UPBROW4555 1.000000
    PCCLDU60 COSTEN60 1.000000   CPCLDU60 1.000000
    PCCLDU60 CPCLDU65 -1.000000   RQNELE60 1.000000
    PCCLDU60 RQCOAL60 -1.000000   CLTOTL60 1.000000
    PCCLDU60 UPBROW4556 1.000000
    PCCLDU65 COSTEN65 1.000000   CPCLDU65 1.000000
    PCCLDU65 CPCLDU70 -1.000000   RQNELE65 1.000000
    PCCLDU65 RQCOAL65 -1.000000   CLTOTL65 1.000000
    PCCLDU65 UPBROW4557 1.000000
    PCCLDU70 COSTEN70 1.000000   CPCLDU70 1.000000
    PCCLDU70 CPCLDU75 -1.000000   RQNELE70 1.000000
    PCCLDU70 RQCOAL70 -1.000000   CLTOTL70 1.000000
    PCCLDU70 UPBROW4558 1.000000
    PCCLDU75 COSTEN75 1.000000   CPCLDU75 1.000000
    PCCLDU75 RQNELE75 1.000000   RQCOAL75 -1.000000
    PCCLDU75 CLTOTL75 1.000000   UPBROW4559 1.000000
    QNATU100 COSTEN00 60.000000   RQNATU00 1.000000
    QNATU100 AVNATU01 5.000000
    QCOAL175 COSTEN75 0.800000   RQCOAL75 1.000000
    QCOAL175 AVCOAL01 5.000000
    QCOAL170 COSTEN70 0.800000   RQCOAL70 1.000000
    QCOAL170 AVCOAL01 5.000000
    QCOAL165 COSTEN65 0.800000   RQCOAL65 1.000000
    QCOAL165 AVCOAL01 5.000000
    QCOAL160 COSTEN60 0.800000   RQCOAL60 1.000000
    QCOAL160 AVCOAL01 5.000000
    QCOAL155 COSTEN55 0.800000   RQCOAL55 1.000000
    QCOAL155 AVCOAL01 5.000000
    QCOAL150 COSTEN50 0.800000   RQCOAL50 1.000000
    QCOAL150 AVCOAL01 5.000000
    QCOAL145 COSTEN45 0.800000   RQCOAL45 1.000000
    QCOAL145 AVCOAL01 5.000000
    QCOAL140 COSTEN40 0.800000   RQCOAL40 1.000000
    QCOAL140 AVCOAL01 5.000000
    QCOAL135 COSTEN35 0.800000   RQCOAL35 1.000000
    QCOAL135 AVCOAL01 5.000000
    QCOAL130 COSTEN30 0.800000   RQCOAL30 1.000000
    QCOAL130 AVCOAL01 5.000000
    QCOAL125 COSTEN25 0.800000   RQCOAL25 1.000000
    QCOAL125 AVCOAL01 5.000000
    QCOAL120 COSTEN20 0.800000   RQCOAL20 1.000000
    QCOAL120 AVCOAL01 5.000000
    QCOAL115 COSTEN15 0.800000   RQCOAL15 1.000000
    QCOAL115 AVCOAL01 5.000000
    QCOAL110 COSTEN10 0.800000   RQCOAL10 1.000000
    QCOAL110 AVCOAL01 5.000000
    QCOAL105 COSTEN05 0.800000   RQCOAL05 1.000000
    QCOAL105 AVCOAL01 5.000000
    DPHYDR00 CPHYDR00 -5.000000   CPHYDR30 5.000000
    DPHYDR00 CLDLOC00 -1.000000
    DPHYDR05 CPHYDR05 -5.000000   CPHYDR35 5.000000
    DPHYDR05 CLDLOC05 -1.000000   CLDMIN05 0.400000
    DPHYDR10 CPHYDR10 -5.000000   CPHYDR40 5.000000
    DPHYDR10 CLDLOC10 -1.000000   CLDMIN10 0.400000
    DPHYDR15 CPHYDR15 -5.000000   CPHYDR45 5.000000
    DPHYDR15 CLDLOC15 -1.000000   CLDMIN15 0.400000
    DPHYDR20 CPHYDR20 -5.000000   CPHYDR50 5.000000
    DPHYDR20 CLDLOC20 -1.000000   CLDMIN20 0.400000
    DPHYDR25 CPHYDR25 -5.000000   CPHYDR55 5.000000
    DPHYDR25 CLDLOC25 -1.000000   CLDMIN25 0.400000
    DPHYDR30 CPHYDR30 -5.000000   CPHYDR60 5.000000
    DPHYDR30 CLDLOC30 -1.000000   CLDMIN30 0.300000
    DPHYDR35 CPHYDR35 -5.000000   CPHYDR65 5.000000
    DPHYDR35 CLDLOC35 -1.000000   CLDMIN35 0.200000
    DPHYDR40 CPHYDR40 -5.000000   CPHYDR70 5.000000
    DPHYDR40 CLDLOC40 -1.000000   CLDMIN40 0.100000
    DPHYDR45 CPHYDR45 -5.000000   CPHYDR75 5.000000
    DPHYDR45 CLDLOC45 -1.000000
    DPHYDR50 CPHYDR50 -5.000000   CLDLOC50 -1.000000
    DPHYDR55 CPHYDR55 -5.000000   CLDLOC55 -1.000000
    DPHYDR60 CPHYDR60 -5.000000   CLDLOC60 -1.000000
    DPHYDR65 CPHYDR65 -5.000000   CLDLOC65 -1.000000
    DPHYDR70 CPHYDR70 -5.000000   CLDLOC70 -1.000000
    DPHYDR75 CPHYDR75 -5.000000   CLDLOC75 -1.000000
    DPCOLL00 CPCOLL00 -5.000000   CPCOLL30 5.000000
    DPCOLL00 CLDLOC00 1.000000
    DPCOLL05 CPCOLL05 -5.000000   CPCOLL35 5.000000
    DPCOLL05 CLDLOC05 1.000000   CLDMIN05 -0.600000
    DPCOLL10 CPCOLL10 -5.000000   CPCOLL40 5.000000
    DPCOLL10 CLDLOC10 1.000000   CLDMIN10 -0.600000
    DPCOLL15 CPCOLL15 -5.000000   CPCOLL45 5.000000
    DPCOLL15 CLDLOC15 1.000000   CLDMIN15 -0.600000
    DPCOLL20 CPCOLL20 -5.000000   CPCOLL50 5.000000
    DPCOLL20 CLDLOC20 1.000000   CLDMIN20 -0.600000
    DPCOLL25 CPCOLL25 -5.000000   CPCOLL55 5.000000
    DPCOLL25 CLDLOC25 1.000000   CLDMIN25 -0.600000
    DPCOLL30 CPCOLL30 -5.000000   CPCOLL60 5.000000
    DPCOLL30 CLDLOC30 1.000000   CLDMIN30 -0.700000
    DPCOLL35 CPCOLL35 -5.000000   CPCOLL65 5.000000
    DPCOLL35 CLDLOC35 1.000000   CLDMIN35 -0.800000
    DPCOLL40 CPCOLL40 -5.000000   CPCOLL70 5.000000
    DPCOLL40 CLDLOC40 1.000000   CLDMIN40 -0.900000
    DPCOLL45 CPCOLL45 -5.000000   CPCOLL75 5.000000
    DPCOLL45 CLDLOC45 1.000000
    DPCOLL50 CPCOLL50 -5.000000   CLDLOC50 1.000000
    DPCOLL55 CPCOLL55 -5.000000   CLDLOC55 1.000000
    DPCOLL60 CPCOLL60 -5.000000   CLDLOC60 1.000000
    DPCOLL65 CPCOLL65 -5.000000   CLDLOC65 1.000000
    DPCOLL70 CPCOLL70 -5.000000   CLDLOC70 1.000000
    DPCOLL75 CPCOLL75 -5.000000   CLDLOC75 1.000000
    DPCOLH00 CPCOLH00 -5.000000   CPCOLH30 5.000000
    DPCOLH00 CLDLOC00 -1.000000
    DPCOLH05 CPCOLH05 -5.000000   CPCOLH35 5.000000
    DPCOLH05 CLDLOC05 -1.000000   CLDMIN05 -0.600000
    DPCOLH10 CPCOLH10 -5.000000   CPCOLH40 5.000000
    DPCOLH10 CLDLOC10 -1.000000   CLDMIN10 -0.600000
    DPCOLH15 CPCOLH15 -5.000000   CPCOLH45 5.000000
    DPCOLH15 CLDLOC15 -1.000000   CLDMIN15 -0.600000
    DPCOLH20 CPCOLH20 -5.000000   CPCOLH50 5.000000
    DPCOLH20 CLDLOC20 -1.000000   CLDMIN20 -0.600000
    DPCOLH25 CPCOLH25 -5.000000   CPCOLH55 5.000000
    DPCOLH25 CLDLOC25 -1.000000   CLDMIN25 -0.600000
    DPCOLH30 CPCOLH30 -5.000000   CPCOLH60 5.000000
    DPCOLH30 CLDLOC30 -1.000000   CLDMIN30 -0.700000
    DPCOLH35 CPCOLH35 -5.000000   CPCOLH65 5.000000
    DPCOLH35 CLDLOC35 -1.000000   CLDMIN35 -0.800000
    DPCOLH40 CPCOLH40 -5.000000   CPCOLH70 5.000000
    DPCOLH40 CLDLOC40 -1.000000   CLDMIN40 -0.900000
    DPCOLH45 CPCOLH45 -5.000000   CPCOLH75 5.000000
    DPCOLH45 CLDLOC45 -1.000000
    DPCOLH50 CPCOLH50 -5.000000   CLDLOC50 -1.000000
    DPCOLH55 CPCOLH55 -5.000000   CLDLOC55 -1.000000
    DPCOLH60 CPCOLH60 -5.000000   CLDLOC60 -1.000000
    DPCOLH65 CPCOLH65 -5.000000   CLDLOC65 -1.000000
    DPCOLH70 CPCOLH70 -5.000000   CLDLOC70 -1.000000
    DPCOLH75 CPCOLH75 -5.000000   CLDLOC75 -1.000000
    DPLWRA00 CPLWRA00 -5.000000   CPLWRA30 5.000000
    DPLWRA00 RQNATU30 0.080600   CLDLOC00 -1.000000
    DPLWRA05 CPLWRA05 -5.000000   CPLWRA35 5.000000
    DPLWRA05 RQNATU00 -0.080600   RQNATU35 0.080600
    DPLWRA05 CLDLOC05 -1.000000   CLDMIN05 0.400000
    DPLWRA10 CPLWRA10 -5.000000   CPLWRA40 5.000000
    DPLWRA10 RQNATU05 -0.080600   RQNATU40 0.080600
    DPLWRA10 CLDLOC10 -1.000000   CLDMIN10 0.400000
    DPLWRA15 CPLWRA15 -5.000000   CPLWRA45 5.000000
    DPLWRA15 RQNATU10 -0.080600   RQNATU45 0.080600
    DPLWRA15 CLDLOC15 -1.000000   CLDMIN15 0.400000
    DPLWRA20 CPLWRA20 -5.000000   CPLWRA50 5.000000
    DPLWRA20 RQNATU15 -0.080600   RQNATU50 0.080600
    DPLWRA20 CLDLOC20 -1.000000   CLDMIN20 0.400000
    DPLWRA25 CPLWRA25 -5.000000   CPLWRA55 5.000000
    DPLWRA25 RQNATU20 -0.080600   RQNATU55 0.080600
    DPLWRA25 CLDLOC25 -1.000000   CLDMIN25 0.400000
    DPLWRA30 CPLWRA30 -5.000000   CPLWRA60 5.000000
    DPLWRA30 RQNATU25 -0.080600   RQNATU60 0.080600
    DPLWRA30 CLDLOC30 -1.000000   CLDMIN30 0.300000
    DPLWRA35 CPLWRA35 -5.000000   CPLWRA65 5.000000
    DPLWRA35 RQNATU30 -0.080600   RQNATU65 0.080600
    DPLWRA35 CLDLOC35 -1.000000   CLDMIN35 0.200000
    DPLWRA40 CPLWRA40 -5.000000   CPLWRA70 5.000000
    DPLWRA40 RQNATU35 -0.080600   RQNATU70 0.080600
    DPLWRA40 CLDLOC40 -1.000000   CLDMIN40 0.100000
    DPLWRA45 CPLWRA45 -5.000000   CPLWRA75 5.000000
    DPLWRA45 RQNATU40 -0.080600   RQNATU75 0.080600
    DPLWRA45 CLDLOC45 -1.000000
    DPLWRA50 CPLWRA50 -5.000000   RQNATU45 -0.080600
    DPLWRA50 CLDLOC50 -1.000000
    DPLWRA55 CPLWRA55 -5.000000   RQNATU50 -0.080600
    DPLWRA55 CLDLOC55 -1.000000
    DPLWRA60 CPLWRA60 -5.000000   RQNATU55 -0.080600
    DPLWRA60 CLDLOC60 -1.000000
    DPLWRA65 CPLWRA65 -5.000000   RQNATU60 -0.080600
    DPLWRA65 CLDLOC65 -1.000000
    DPLWRA70 CPLWRA70 -5.000000   RQNATU65 -0.080600
    DPLWRA70 CLDLOC70 -1.000000
    DPLWRA75 CPLWRA75 -5.000000   RQNATU70 -0.080600
    DPLWRA75 CLDLOC75 -1.000000
    DPLWRB00 CPLWRB00 -5.000000   CPLWRB30 5.000000
    DPLWRB00 RQNATU30 0.080600   CLDLOC00 -1.000000
    DPLWRB05 CPLWRB05 -5.000000   CPLWRB35 5.000000
    DPLWRB05 RQNATU00 -0.080600   RQNATU35 0.080600
    DPLWRB05 CLDLOC05 -1.000000   CLDMIN05 0.400000
    DPLWRB10 CPLWRB10 -5.000000   CPLWRB40 5.000000
    DPLWRB10 RQNATU05 -0.080600   RQNATU40 0.080600
    DPLWRB10 CLDLOC10 -1.000000   CLDMIN10 0.400000
    DPLWRB15 CPLWRB15 -5.000000   CPLWRB45 5.000000
    DPLWRB15 RQNATU10 -0.080600   RQNATU45 0.080600
    DPLWRB15 CLDLOC15 -1.000000   CLDMIN15 0.400000
    DPLWRB20 CPLWRB20 -5.000000   CPLWRB50 5.000000
    DPLWRB20 RQNATU15 -0.080600   RQNATU50 0.080600
    DPLWRB20 CLDLOC20 -1.000000   CLDMIN20 0.400000
    DPLWRB20 UPBROW4560 1.000000
    DPLWRB25 CPLWRB25 -5.000000   CPLWRB55 5.000000
    DPLWRB25 RQNATU20 -0.080600   RQNATU55 0.080600
    DPLWRB25 CLDLOC25 -1.000000   CLDMIN25 0.400000
    DPLWRB30 CPLWRB30 -5.000000   CPLWRB60 5.000000
    DPLWRB30 RQNATU25 -0.080600   RQNATU60 0.080600
    DPLWRB30 CLDLOC30 -1.000000   CLDMIN30 0.300000
    DPLWRB35 CPLWRB35 -5.000000   CPLWRB65 5.000000
    DPLWRB35 RQNATU30 -0.080600   RQNATU65 0.080600
    DPLWRB35 CLDLOC35 -1.000000   CLDMIN35 0.200000
    DPLWRB40 CPLWRB40 -5.000000   CPLWRB70 5.000000
    DPLWRB40 RQNATU35 -0.080600   RQNATU70 0.080600
    DPLWRB40 CLDLOC40 -1.000000   CLDMIN40 0.100000
    DPLWRB45 CPLWRB45 -5.000000   CPLWRB75 5.000000
    DPLWRB45 RQNATU40 -0.080600   RQNATU75 0.080600
    DPLWRB45 CLDLOC45 -1.000000
    DPLWRB50 CPLWRB50 -5.000000   RQNATU45 -0.080600
    DPLWRB50 CLDLOC50 -1.000000
    DPLWRB55 CPLWRB55 -5.000000   RQNATU50 -0.080600
    DPLWRB55 CLDLOC55 -1.000000
    DPLWRB60 CPLWRB60 -5.000000   RQNATU55 -0.080600
    DPLWRB60 CLDLOC60 -1.000000
    DPLWRB65 CPLWRB65 -5.000000   RQNATU60 -0.080600
    DPLWRB65 CLDLOC65 -1.000000
    DPLWRB70 CPLWRB70 -5.000000   RQNATU65 -0.080600
    DPLWRB70 CLDLOC70 -1.000000
    DPLWRB75 CPLWRB75 -5.000000   RQNATU70 -0.080600
    DPLWRB75 CLDLOC75 -1.000000
    DPLWRC00 CPLWRC00 -5.000000   CPLWRC30 5.000000
    DPLWRC00 RQNATU30 0.080600   CLDLOC00 -1.000000
    DPLWRC05 CPLWRC05 -5.000000   CPLWRC35 5.000000
    DPLWRC05 RQNATU00 -0.080600   RQNATU35 0.080600
    DPLWRC05 CLDLOC05 -1.000000   CLDMIN05 0.400000
    DPLWRC10 CPLWRC10 -5.000000   CPLWRC40 5.000000
    DPLWRC10 RQNATU05 -0.080600   RQNATU40 0.080600
    DPLWRC10 CLDLOC10 -1.000000   CLDMIN10 0.400000
    DPLWRC15 CPLWRC15 -5.000000   CPLWRC45 5.000000
    DPLWRC15 RQNATU10 -0.080600   RQNATU45 0.080600
    DPLWRC15 CLDLOC15 -1.000000   CLDMIN15 0.400000
    DPLWRC20 CPLWRC20 -5.000000   CPLWRC50 5.000000
    DPLWRC20 RQNATU15 -0.080600   RQNATU50 0.080600
    DPLWRC20 CLDLOC20 -1.000000   CLDMIN20 0.400000
    DPLWRC20 UPBROW4561 1.000000
    DPLWRC25 CPLWRC25 -5.000000   CPLWRC55 5.000000
    DPLWRC25 RQNATU20 -0.080600   RQNATU55 0.080600
    DPLWRC25 CLDLOC25 -1.000000   CLDMIN25 0.400000
    DPLWRC30 CPLWRC30 -5.000000   CPLWRC60 5.000000
    DPLWRC30 RQNATU25 -0.080600   RQNATU60 0.080600
    DPLWRC30 CLDLOC30 -1.000000   CLDMIN30 0.300000
    DPLWRC35 CPLWRC35 -5.000000   CPLWRC65 5.000000
    DPLWRC35 RQNATU30 -0.080600   RQNATU65 0.080600
    DPLWRC35 CLDLOC35 -1.000000   CLDMIN35 0.200000
    DPLWRC40 CPLWRC40 -5.000000   CPLWRC70 5.000000
    DPLWRC40 RQNATU35 -0.080600   RQNATU70 0.080600
    DPLWRC40 CLDLOC40 -1.000000   CLDMIN40 0.100000
    DPLWRC45 CPLWRC45 -5.000000   CPLWRC75 5.000000
    DPLWRC45 RQNATU40 -0.080600   RQNATU75 0.080600
    DPLWRC45 CLDLOC45 -1.000000
    DPLWRC50 CPLWRC50 -5.000000   RQNATU45 -0.080600
    DPLWRC50 CLDLOC50 -1.000000
    DPLWRC55 CPLWRC55 -5.000000   RQNATU50 -0.080600
    DPLWRC55 CLDLOC55 -1.000000
    DPLWRC60 CPLWRC60 -5.000000   RQNATU55 -0.080600
    DPLWRC60 CLDLOC60 -1.000000
    DPLWRC65 CPLWRC65 -5.000000   RQNATU60 -0.080600
    DPLWRC65 CLDLOC65 -1.000000
    DPLWRC70 CPLWRC70 -5.000000   RQNATU65 -0.080600
    DPLWRC70 CLDLOC70 -1.000000
    DPLWRC75 CPLWRC75 -5.000000   RQNATU70 -0.080600
    DPLWRC75 CLDLOC75 -1.000000
    DPFBRX00 CPFBRX00 -5.000000   CPFBRX30 5.000000
    DPFBRX00 SMPLUT00 1.054000   SMPLUT30 -1.054000
    DPFBRX00 CLDLOC00 -1.000000
    DPFBRX05 CPFBRX05 -5.000000   CPFBRX35 5.000000
    DPFBRX05 SMPLUT05 1.054000   SMPLUT35 -1.054000
    DPFBRX05 CLDLOC05 -1.000000   CLDMIN05 0.400000
    DPFBRX10 CPFBRX10 -5.000000   CPFBRX40 5.000000
    DPFBRX10 SMPLUT10 1.054000   SMPLUT40 -1.054000
    DPFBRX10 CLDLOC10 -1.000000   CLDMIN10 0.400000
    DPFBRX15 CPFBRX15 -5.000000   CPFBRX45 5.000000
    DPFBRX15 SMPLUT15 1.054000   SMPLUT45 -1.054000
    DPFBRX15 CLDLOC15 -1.000000   CLDMIN15 0.400000
    DPFBRX20 CPFBRX20 -5.000000   CPFBRX50 5.000000
    DPFBRX20 SMPLUT20 1.054000   SMPLUT50 -1.054000
    DPFBRX20 CLDLOC20 -1.000000   CLDMIN20 0.400000
    DPFBRX25 CPFBRX25 -5.000000   CPFBRX55 5.000000
    DPFBRX25 SMPLUT25 1.054000   SMPLUT55 -1.054000
    DPFBRX25 CLDLOC25 -1.000000   CLDMIN25 0.400000
    DPFBRX30 CPFBRX30 -5.000000   CPFBRX60 5.000000
    DPFBRX30 SMPLUT30 1.054000   SMPLUT60 -1.054000
    DPFBRX30 CLDLOC30 -1.000000   CLDMIN30 0.300000
    DPFBRX30 UPBROW4562 1.000000
    DPFBRX35 CPFBRX35 -5.000000   CPFBRX65 5.000000
    DPFBRX35 SMPLUT35 1.054000   SMPLUT65 -1.054000
    DPFBRX35 CLDLOC35 -1.000000   CLDMIN35 0.200000
    DPFBRX35 UPBROW4563 1.000000
    DPFBRX40 CPFBRX40 -5.000000   CPFBRX70 5.000000
    DPFBRX40 SMPLUT40 1.054000   SMPLUT70 -1.054000
    DPFBRX40 CLDLOC40 -1.000000   CLDMIN40 0.100000
    DPFBRX40 UPBROW4564 1.000000
    DPFBRX45 CPFBRX45 -5.000000   CPFBRX75 5.000000
    DPFBRX45 SMPLUT45 1.054000   SMPLUT75 -1.054000
    DPFBRX45 CLDLOC45 -1.000000   UPBROW4565 1.000000
    DPFBRX50 CPFBRX50 -5.000000   SMPLUT50 1.054000
    DPFBRX50 CLDLOC50 -1.000000   UPBROW4566 1.000000
    DPFBRX55 CPFBRX55 -5.000000   SMPLUT55 1.054000
    DPFBRX55 CLDLOC55 -1.000000
    DPFBRX60 CPFBRX60 -5.000000   SMPLUT60 1.054000
    DPFBRX60 CLDLOC60 -1.000000
    DPFBRX65 CPFBRX65 -5.000000   SMPLUT65 1.054000
    DPFBRX65 CLDLOC65 -1.000000
    DPFBRX70 CPFBRX70 -5.000000   SMPLUT70 1.054000
    DPFBRX70 CLDLOC70 -1.000000
    DPFBRX75 CPFBRX75 -5.000000   SMPLUT75 1.054000
    DPFBRX75 CLDLOC75 -1.000000
    DPSOLE00 CPSOLE00 -5.000000   CPSOLE30 5.000000
    DPSOLE00 CLDLOC00 -1.000000
    DPSOLE05 CPSOLE05 -5.000000   CPSOLE35 5.000000
    DPSOLE05 CLDLOC05 -1.000000   CLDMIN05 0.400000
    DPSOLE10 CPSOLE10 -5.000000   CPSOLE40 5.000000
    DPSOLE10 CLDLOC10 -1.000000   CLDMIN10 0.400000
    DPSOLE15 CPSOLE15 -5.000000   CPSOLE45 5.000000
    DPSOLE15 CLDLOC15 -1.000000   CLDMIN15 0.400000
    DPSOLE20 CPSOLE20 -5.000000   CPSOLE50 5.000000
    DPSOLE20 CLDLOC20 -1.000000   CLDMIN20 0.400000
    DPSOLE25 CPSOLE25 -5.000000   CPSOLE55 5.000000
    DPSOLE25 CLDLOC25 -1.000000   CLDMIN25 0.400000
    DPSOLE30 CPSOLE30 -5.000000   CPSOLE60 5.000000
    DPSOLE30 CLDLOC30 -1.000000   CLDMIN30 0.300000
    DPSOLE30 UPBROW4567 1.000000
    DPSOLE35 CPSOLE35 -5.000000   CPSOLE65 5.000000
    DPSOLE35 CLDLOC35 -1.000000   CLDMIN35 0.200000
    DPSOLE35 UPBROW4568 1.000000
    DPSOLE40 CPSOLE40 -5.000000   CPSOLE70 5.000000
    DPSOLE40 CLDLOC40 -1.000000   CLDMIN40 0.100000
    DPSOLE40 UPBROW4569 1.000000
    DPSOLE45 CPSOLE45 -5.000000   CPSOLE75 5.000000
    DPSOLE45 CLDLOC45 -1.000000   UPBROW4570 1.000000
    DPSOLE50 CPSOLE50 -5.000000   CLDLOC50 -1.000000
    DPSOLE50 UPBROW4571 1.000000
    DPSOLE55 CPSOLE55 -5.000000   CLDLOC55 -1.000000
    DPSOLE60 CPSOLE60 -5.000000   CLDLOC60 -1.000000
    DPSOLE65 CPSOLE65 -5.000000   CLDLOC65 -1.000000
    DPSOLE70 CPSOLE70 -5.000000   CLDLOC70 -1.000000
    DPSOLE75 CPSOLE75 -5.000000   CLDLOC75 -1.000000
    DPPETG00 CPPETG00 -1.000000   CPPETG05 -1.000000
    DPPETG00 CPPETG10 -0.773780   CPPETG15 -0.598740
    DPPETG00 CPPETG20 -0.463290   CPPETG25 -0.358490
    DPPETG00 CPPETG30 -0.277390   CPPETG35 -0.214640
    DPPETG05 CPPETG05 -1.000000   CPPETG10 -1.000000
    DPPETG05 CPPETG15 -0.773780   CPPETG20 -0.598740
    DPPETG05 CPPETG25 -0.463290   CPPETG30 -0.358490
    DPPETG05 CPPETG35 -0.277390   CPPETG40 -0.214640
    DPPETG10 CPPETG10 -1.000000   CPPETG15 -1.000000
    DPPETG10 CPPETG20 -0.773780   CPPETG25 -0.598740
    DPPETG10 CPPETG30 -0.463290   CPPETG35 -0.358490
    DPPETG10 CPPETG40 -0.277390   CPPETG45 -0.214640
    DPPETG15 CPPETG15 -1.000000   CPPETG20 -1.000000
    DPPETG15 CPPETG25 -0.773780   CPPETG30 -0.598740
    DPPETG15 CPPETG35 -0.463290   CPPETG40 -0.358490
    DPPETG15 CPPETG45 -0.277390   CPPETG50 -0.214640
    DPPETG20 CPPETG20 -1.000000   CPPETG25 -1.000000
    DPPETG20 CPPETG30 -0.773780   CPPETG35 -0.598740
    DPPETG20 CPPETG40 -0.463290   CPPETG45 -0.358490
    DPPETG20 CPPETG50 -0.277390   CPPETG55 -0.214640
    DPPETG25 CPPETG25 -1.000000   CPPETG30 -1.000000
    DPPETG25 CPPETG35 -0.773780   CPPETG40 -0.598740
    DPPETG25 CPPETG45 -0.463290   CPPETG50 -0.358490
    DPPETG25 CPPETG55 -0.277390   CPPETG60 -0.214640
    DPPETG30 CPPETG30 -1.000000   CPPETG35 -1.000000
    DPPETG30 CPPETG40 -0.773780   CPPETG45 -0.598740
    DPPETG30 CPPETG50 -0.463290   CPPETG55 -0.358490
    DPPETG30 CPPETG60 -0.277390   CPPETG65 -0.214640
    DPPETG35 CPPETG35 -1.000000   CPPETG40 -1.000000
    DPPETG35 CPPETG45 -0.773780   CPPETG50 -0.598740
    DPPETG35 CPPETG55 -0.463290   CPPETG60 -0.358490
    DPPETG35 CPPETG65 -0.277390   CPPETG70 -0.214640
    DPPETG40 CPPETG40 -1.000000   CPPETG45 -1.000000
    DPPETG40 CPPETG50 -0.773780   CPPETG55 -0.598740
    DPPETG40 CPPETG60 -0.463290   CPPETG65 -0.358490
    DPPETG40 CPPETG70 -0.277390   CPPETG75 -0.214640
    DPPETG45 CPPETG45 -1.000000   CPPETG50 -1.000000
    DPPETG45 CPPETG55 -0.773780   CPPETG60 -0.598740
    DPPETG45 CPPETG65 -0.463290   CPPETG70 -0.358490
    DPPETG45 CPPETG75 -0.277390
    DPPETG50 CPPETG50 -1.000000   CPPETG55 -1.000000
    DPPETG50 CPPETG60 -0.773780   CPPETG65 -0.598740
    DPPETG50 CPPETG70 -0.463290   CPPETG75 -0.358490
    DPPETG55 CPPETG55 -1.000000   CPPETG60 -1.000000
    DPPETG55 CPPETG65 -0.773780   CPPETG70 -0.598740
    DPPETG55 CPPETG75 -0.463290
    DPPETG60 CPPETG60 -1.000000   CPPETG65 -1.000000
    DPPETG60 CPPETG70 -0.773780   CPPETG75 -0.598740
    DPPETG65 CPPETG65 -1.000000   CPPETG70 -1.000000
    DPPETG65 CPPETG75 -0.773780
    DPPETG70 CPPETG70 -1.000000   CPPETG75 -1.000000
    DPPETG75 CPPETG75 -1.000000
    DPSYNF00 CPSYNF00 -5.000000   CPSYNF30 5.000000
    DPSYNF05 CPSYNF05 -5.000000   CPSYNF35 5.000000
    DPSYNF10 CPSYNF10 -5.000000   CPSYNF40 5.000000
    DPSYNF15 CPSYNF15 -5.000000   CPSYNF45 5.000000
    DPSYNF20 CPSYNF20 -5.000000   CPSYNF50 5.000000
    DPSYNF20 UPBROW4572 1.000000
    DPSYNF25 CPSYNF25 -5.000000   CPSYNF55 5.000000
    DPSYNF25 UPBROW4573 1.000000
    DPSYNF30 CPSYNF30 -5.000000   CPSYNF60 5.000000
    DPSYNF30 UPBROW4574 1.000000
    DPSYNF35 CPSYNF35 -5.000000   CPSYNF65 5.000000
    DPSYNF35 UPBROW4575 1.000000
    DPSYNF40 CPSYNF40 -5.000000   CPSYNF70 5.000000
    DPSYNF40 UPBROW4576 1.000000
    DPSYNF45 CPSYNF45 -5.000000   CPSYNF75 5.000000
    DPSYNF50 CPSYNF50 -5.000000
    DPSYNF55 CPSYNF55 -5.000000
    DPSYNF60 CPSYNF60 -5.000000
    DPSYNF65 CPSYNF65 -5.000000
    DPSYNF70 CPSYNF70 -5.000000
    DPSYNF75 CPSYNF75 -5.000000
    DPSHAL00 CPSHAL00 -5.000000   CPSHAL30 5.000000
    DPSHAL05 CPSHAL05 -5.000000   CPSHAL35 5.000000
    DPSHAL10 CPSHAL10 -5.000000   CPSHAL40 5.000000
    DPSHAL15 CPSHAL15 -5.000000   CPSHAL45 5.000000
    DPSHAL20 CPSHAL20 -5.000000   CPSHAL50 5.000000
    DPSHAL25 CPSHAL25 -5.000000   CPSHAL55 5.000000
    DPSHAL25 UPBROW4577 1.000000
    DPSHAL30 CPSHAL30 -5.000000   CPSHAL60 5.000000
    DPSHAL30 UPBROW4578 1.000000
    DPSHAL35 CPSHAL35 -5.000000   CPSHAL65 5.000000
    DPSHAL35 UPBROW4579 1.000000
    DPSHAL40 CPSHAL40 -5.000000   CPSHAL70 5.000000
    DPSHAL40 UPBROW4580 1.000000
    DPSHAL45 CPSHAL45 -5.000000   CPSHAL75 5.000000
    DPSHAL45 UPBROW4581 1.000000
    DPSHAL50 CPSHAL50 -5.000000
    DPSHAL55 CPSHAL55 -5.000000
    DPSHAL60 CPSHAL60 -5.000000
    DPSHAL65 CPSHAL65 -5.000000
    DPSHAL70 CPSHAL70 -5.000000
    DPSHAL75 CPSHAL75 -5.000000
    DPNAES00 CPNAES00 -5.000000   CPNAES30 5.000000
    DPNAES05 CPNAES05 -5.000000   CPNAES35 5.000000
    DPNAES10 CPNAES10 -5.000000   CPNAES40 5.000000
    DPNAES15 CPNAES15 -5.000000   CPNAES45 5.000000
    DPNAES20 CPNAES20 -5.000000   CPNAES50 5.000000
    DPNAES25 CPNAES25 -5.000000   CPNAES55 5.000000
    DPNAES30 CPNAES30 -5.000000   CPNAES60 5.000000
    DPNAES30 UPBROW4582 1.000000
    DPNAES35 CPNAES35 -5.000000   CPNAES65 5.000000
    DPNAES35 UPBROW4583 1.000000
    DPNAES40 CPNAES40 -5.000000   CPNAES70 5.000000
    DPNAES40 UPBROW4584 1.000000
    DPNAES45 CPNAES45 -5.000000   CPNAES75 5.000000
    DPNAES45 UPBROW4585 1.000000
    DPNAES50 CPNAES50 -5.000000   UPBROW4586 1.000000
    DPNAES55 CPNAES55 -5.000000
    DPNAES60 CPNAES60 -5.000000
    DPNAES65 CPNAES65 -5.000000
    DPNAES70 CPNAES70 -5.000000
    DPNAES75 CPNAES75 -5.000000
    DPCLDU00 CPCLDU00 -5.000000   CPCLDU30 5.000000
    DPCLDU05 CPCLDU05 -5.000000   CPCLDU35 5.000000
    DPCLDU05 UPBROW4587 1.000000
    DPCLDU10 CPCLDU10 -5.000000   CPCLDU40 5.000000
    DPCLDU10 UPBROW4588 1.000000
    DPCLDU15 CPCLDU15 -5.000000   CPCLDU45 5.000000
    DPCLDU15 UPBROW4589 1.000000
    DPCLDU20 CPCLDU20 -5.000000   CPCLDU50 5.000000
    DPCLDU20 UPBROW4590 1.000000
    DPCLDU25 CPCLDU25 -5.000000   CPCLDU55 5.000000
    DPCLDU25 UPBROW4591 1.000000
    DPCLDU30 CPCLDU30 -5.000000   CPCLDU60 5.000000
    DPCLDU35 CPCLDU35 -5.000000   CPCLDU65 5.000000
    DPCLDU40 CPCLDU40 -5.000000   CPCLDU70 5.000000
    DPCLDU45 CPCLDU45 -5.000000   CPCLDU75 5.000000
    DPCLDU50 CPCLDU50 -5.000000
    DPCLDU55 CPCLDU55 -5.000000
    DPCLDU60 CPCLDU60 -5.000000
    DPCLDU65 CPCLDU65 -5.000000
    DPCLDU70 CPCLDU70 -5.000000
    DPCLDU75 CPCLDU75 -5.000000
    DPPGAI00 CPPGAI00 -5.000000   CPPGAI30 5.000000
    DPPGAI05 CPPGAI05 -5.000000   CPPGAI35 5.000000
    DPPGAI10 CPPGAI10 -5.000000   CPPGAI40 5.000000
    DPPGAI10 UPBROW4592 1.000000
    DPPGAI15 CPPGAI15 -5.000000   CPPGAI45 5.000000
    DPPGAI15 UPBROW4593 1.000000
    DPPGAI20 CPPGAI20 -5.000000   CPPGAI50 5.000000
    DPPGAI20 UPBROW4594 1.000000
    DPPGAI25 CPPGAI25 -5.000000   CPPGAI55 5.000000
    DPPGAI25 UPBROW4595 1.000000
    QCOAL100 COSTEN00 0.800000   RQCOAL00 1.000000
    QCOAL100 AVCOAL01 5.000000
    DPPGAI35 CPPGAI35 -5.000000   CPPGAI65 5.000000
    DPPGAI40 CPPGAI40 -5.000000   CPPGAI70 5.000000
    DPPGAI45 CPPGAI45 -5.000000   CPPGAI75 5.000000
    DPPGAI50 CPPGAI50 -5.000000
    DPPGAI55 CPPGAI55 -5.000000
    DPPGAI60 CPPGAI60 -5.000000
    DPPGAI65 CPPGAI65 -5.000000
    DPPGAI70 CPPGAI70 -5.000000
    DPPGAI75 CPPGAI75 -5.000000
    QPETG100 COSTEN00 2.000000   RQPETG00 1.000000
    QPETG100 AVPETG01 5.000000
    QPETG105 COSTEN05 2.000000   RQPETG05 1.000000
    QPETG105 AVPETG01 5.000000
    QPETG110 COSTEN10 2.000000   RQPETG10 1.000000
    QPETG110 AVPETG01 5.000000
    QPETG115 COSTEN15 2.000000   RQPETG15 1.000000
    QPETG115 AVPETG01 5.000000
    QPETG120 COSTEN20 2.000000   RQPETG20 1.000000
    QPETG120 AVPETG01 5.000000
    QPETG125 COSTEN25 2.000000   RQPETG25 1.000000
    QPETG125 AVPETG01 5.000000
    QPETG130 COSTEN30 2.000000   RQPETG30 1.000000
    QPETG130 AVPETG01 5.000000
    QPETG135 COSTEN35 2.000000   RQPETG35 1.000000
    QPETG135 AVPETG01 5.000000
    QPETG140 COSTEN40 2.000000   RQPETG40 1.000000
    QPETG140 AVPETG01 5.000000
    QPETG145 COSTEN45 2.000000   RQPETG45 1.000000
    QPETG145 AVPETG01 5.000000
    QPETG150 COSTEN50 2.000000   RQPETG50 1.000000
    QPETG150 AVPETG01 5.000000
    QPETG155 COSTEN55 2.000000   RQPETG55 1.000000
    QPETG155 AVPETG01 5.000000
    QPETG160 COSTEN60 2.000000   RQPETG60 1.000000
    QPETG160 AVPETG01 5.000000
    QPETG165 COSTEN65 2.000000   RQPETG65 1.000000
    QPETG165 AVPETG01 5.000000
    QPETG170 COSTEN70 2.000000   RQPETG70 1.000000
    QPETG170 AVPETG01 5.000000
    QPETG175 COSTEN75 2.000000   RQPETG75 1.000000
    QPETG175 AVPETG01 5.000000
    QPETG200 COSTEN00 2.500000   RQPETG00 1.000000
    QPETG200 AVPETG02 5.000000
    QPETG205 COSTEN05 2.500000   RQPETG05 1.000000
    QPETG205 AVPETG02 5.000000
    QPETG210 COSTEN10 2.500000   RQPETG10 1.000000
    QPETG210 AVPETG02 5.000000
    QPETG215 COSTEN15 2.500000   RQPETG15 1.000000
    QPETG215 AVPETG02 5.000000
    QPETG220 COSTEN20 2.500000   RQPETG20 1.000000
    QPETG220 AVPETG02 5.000000
    QPETG225 COSTEN25 2.500000   RQPETG25 1.000000
    QPETG225 AVPETG02 5.000000
    QPETG230 COSTEN30 2.500000   RQPETG30 1.000000
    QPETG230 AVPETG02 5.000000
    QPETG235 COSTEN35 2.500000   RQPETG35 1.000000
    QPETG235 AVPETG02 5.000000
    QPETG240 COSTEN40 2.500000   RQPETG40 1.000000
    QPETG240 AVPETG02 5.000000
    QPETG245 COSTEN45 2.500000   RQPETG45 1.000000
    QPETG245 AVPETG02 5.000000
    QPETG250 COSTEN50 2.500000   RQPETG50 1.000000
    QPETG250 AVPETG02 5.000000
    QPETG255 COSTEN55 2.500000   RQPETG55 1.000000
    QPETG255 AVPETG02 5.000000
    QPETG260 COSTEN60 2.500000   RQPETG60 1.000000
    QPETG260 AVPETG02 5.000000
    QPETG265 COSTEN65 2.500000   RQPETG65 1.000000
    QPETG265 AVPETG02 5.000000
    QPETG270 COSTEN70 2.500000   RQPETG70 1.000000
    QPETG270 AVPETG02 5.000000
    QPETG275 COSTEN75 2.500000   RQPETG75 1.000000
    QPETG275 AVPETG02 5.000000
    QPETG300 COSTEN00 3.500000   RQPETG00 1.000000
    QPETG300 AVPETG03 5.000000
    QPETG305 COSTEN05 3.500000   RQPETG05 1.000000
    QPETG305 AVPETG03 5.000000
    QPETG310 COSTEN10 3.500000   RQPETG10 1.000000
    QPETG310 AVPETG03 5.000000
    QPETG315 COSTEN15 3.500000   RQPETG15 1.000000
    QPETG315 AVPETG03 5.000000
    QPETG320 COSTEN20 3.500000   RQPETG20 1.000000
    QPETG320 AVPETG03 5.000000
    QPETG325 COSTEN25 3.500000   RQPETG25 1.000000
    QPETG325 AVPETG03 5.000000
    QPETG330 COSTEN30 3.500000   RQPETG30 1.000000
    QPETG330 AVPETG03 5.000000
    QPETG335 COSTEN35 3.500000   RQPETG35 1.000000
    QPETG335 AVPETG03 5.000000
    QPETG340 COSTEN40 3.500000   RQPETG40 1.000000
    QPETG340 AVPETG03 5.000000
    QPETG345 COSTEN45 3.500000   RQPETG45 1.000000
    QPETG345 AVPETG03 5.000000
    QPETG350 COSTEN50 3.500000   RQPETG50 1.000000
    QPETG350 AVPETG03 5.000000
    QPETG355 COSTEN55 3.500000   RQPETG55 1.000000
    QPETG355 AVPETG03 5.000000
    QPETG360 COSTEN60 3.500000   RQPETG60 1.000000
    QPETG360 AVPETG03 5.000000
    QPETG365 COSTEN65 3.500000   RQPETG65 1.000000
    QPETG365 AVPETG03 5.000000
    QPETG370 COSTEN70 3.500000   RQPETG70 1.000000
    QPETG370 AVPETG03 5.000000
    QPETG375 COSTEN75 3.500000   RQPETG75 1.000000
    QPETG375 AVPETG03 5.000000
    QPETG400 COSTEN00 5.000000   RQPETG00 1.000000
    QPETG400 AVPETG04 5.000000
    QPETG405 COSTEN05 5.000000   RQPETG05 1.000000
    QPETG405 AVPETG04 5.000000
    QPETG410 COSTEN10 5.000000   RQPETG10 1.000000
    QPETG410 AVPETG04 5.000000
    QPETG415 COSTEN15 5.000000   RQPETG15 1.000000
    QPETG415 AVPETG04 5.000000
    QPETG420 COSTEN20 5.000000   RQPETG20 1.000000
    QPETG420 AVPETG04 5.000000
    QPETG425 COSTEN25 5.000000   RQPETG25 1.000000
    QPETG425 AVPETG04 5.000000
    QPETG430 COSTEN30 5.000000   RQPETG30 1.000000
    QPETG430 AVPETG04 5.000000
    QPETG435 COSTEN35 5.000000   RQPETG35 1.000000
    QPETG435 AVPETG04 5.000000
    QPETG440 COSTEN40 5.000000   RQPETG40 1.000000
    QPETG440 AVPETG04 5.000000
    QPETG445 COSTEN45 5.000000   RQPETG45 1.000000
    QPETG445 AVPETG04 5.000000
    QPETG450 COSTEN50 5.000000   RQPETG50 1.000000
    QPETG450 AVPETG04 5.000000
    QPETG455 COSTEN55 5.000000   RQPETG55 1.000000
    QPETG455 AVPETG04 5.000000
    QPETG460 COSTEN60 5.000000   RQPETG60 1.000000
    QPETG460 AVPETG04 5.000000
    QPETG465 COSTEN65 5.000000   RQPETG65 1.000000
    QPETG465 AVPETG04 5.000000
    SLACK6924 RQELEC00 -1.000000
    SLACK6925 RQELEC05 -1.000000
    SLACK6926 RQELEC10 -1.000000
    SLACK6927 RQELEC15 -1.000000
    SLACK6928 RQELEC20 -1.000000
    SLACK6929 RQELEC25 -1.000000
    SLACK6930 RQELEC30 -1.000000
    SLACK6931 RQELEC35 -1.000000
    SLACK6932 RQELEC40 -1.000000
    SLACK6933 RQELEC45 -1.000000
    SLACK6934 RQELEC50 -1.000000
    SLACK6935 RQELEC55 -1.000000
    SLACK6936 RQELEC60 -1.000000
    SLACK6937 RQELEC65 -1.000000
    SLACK6938 RQELEC70 -1.000000
    SLACK6939 RQELEC75 -1.000000
    SLACK6940 RQNELE00 -1.000000
    SLACK6941 RQNELE05 -1.000000
    SLACK6942 RQNELE10 -1.000000
    SLACK6943 RQNELE15 -1.000000
    SLACK6944 RQNELE20 -1.000000
    SLACK6945 RQNELE25 -1.000000
    SLACK6946 RQNELE30 -1.000000
    SLACK6947 RQNELE35 -1.000000
    SLACK6948 RQNELE40 -1.000000
    SLACK6949 RQNELE45 -1.000000
    SLACK6950 RQNELE50 -1.000000
    SLACK6951 RQNELE55 -1.000000
    SLACK6952 RQNELE60 -1.000000
    SLACK6953 RQNELE65 -1.000000
    SLACK6954 RQNELE70 -1.000000
    SLACK6955 RQNELE75 -1.000000
    SLACK6956 RQPETG00 -1.000000
    SLACK6957 RQPETG05 -1.000000
    SLACK6958 RQPETG10 -1.000000
    SLACK6959 RQPETG15 -1.000000
    SLACK6960 RQPETG20 -1.000000
    SLACK6961 RQPETG25 -1.000000
    SLACK6962 RQPETG30 -1.000000
    SLACK6963 RQPETG35 -1.000000
    SLACK6964 RQPETG40 -1.000000
    SLACK6965 RQPETG45 -1.000000
    SLACK6966 RQPETG50 -1.000000
    SLACK6967 RQPETG55 -1.000000
    SLACK6968 RQPETG60 -1.000000
    SLACK6969 RQPETG65 -1.000000
    SLACK6970 RQPETG70 -1.000000
    SLACK6971 RQPETG75 -1.000000
    SLACK6972 RQCOAL00 -1.000000
    SLACK6973 RQCOAL05 -1.000000
    SLACK6974 RQCOAL10 -1.000000
    SLACK6975 RQCOAL15 -1.000000
    SLACK6976 RQCOAL20 -1.000000
    SLACK6977 RQCOAL25 -1.000000
    SLACK6978 RQCOAL30 -1.000000
    SLACK6979 RQCOAL35 -1.000000
    SLACK6980 RQCOAL40 -1.000000
    SLACK6981 RQCOAL45 -1.000000
    SLACK6982 RQCOAL50 -1.000000
    SLACK6983 RQCOAL55 -1.000000
    SLACK6984 RQCOAL60 -1.000000
    SLACK6985 RQCOAL65 -1.000000
    SLACK6986 RQCOAL70 -1.000000
    SLACK6987 RQCOAL75 -1.000000
    SLACK6988 RQNATU00 -1.000000
    SLACK6989 RQNATU05 -1.000000
    SLACK6990 RQNATU10 -1.000000
    SLACK6991 RQNATU15 -1.000000
    SLACK6992 RQNATU20 -1.000000
    SLACK6993 RQNATU25 -1.000000
    SLACK6994 RQNATU30 -1.000000
    SLACK6995 RQNATU35 -1.000000
    SLACK6996 RQNATU40 -1.000000
    SLACK6997 RQNATU45 -1.000000
    SLACK6998 RQNATU50 -1.000000
    SLACK6999 RQNATU55 -1.000000
    SLACK7000 RQNATU60 -1.000000
    SLACK7001 RQNATU65 -1.000000
    SLACK7002 RQNATU70 -1.000000
    SLACK7003 RQNATU75 -1.000000
    SLACK7004 AVPETG01 1.000000
    SLACK7005 AVPETG02 1.000000
    SLACK7006 AVPETG03 1.000000
    SLACK7007 AVPETG04 1.000000
    SLACK7008 AVCOAL01 1.000000
    SLACK7009 AVNATU01 1.000000
    SLACK7010 AVNATU02 1.000000
    SLACK7011 AVNATU03 1.000000
    SLACK7012 CLTOTL00 1.000000
    SLACK7013 CLTOTL05 1.000000
    SLACK7014 CLTOTL10 1.000000
    SLACK7015 CLTOTL15 1.000000
    SLACK7016 CLTOTL20 1.000000
    SLACK7017 CLTOTL25 1.000000
    SLACK7018 CLTOTL30 1.000000
    SLACK7019 CLTOTL35 1.000000
    SLACK7020 CLTOTL40 1.000000
    SLACK7021 CLTOTL45 1.000000
    SLACK7022 CLTOTL50 1.000000
    SLACK7023 CLTOTL55 1.000000
    SLACK7024 CLTOTL60 1.000000
    SLACK7025 CLTOTL65 1.000000
    SLACK7026 CLTOTL70 1.000000
    SLACK7027 CLTOTL75 1.000000
    SLACK7028 CLDLOC00 1.000000
    SLACK7029 CLDLOC05 1.000000
    SLACK7030 CLDLOC10 1.000000
    SLACK7031 CLDLOC15 1.000000
    SLACK7032 CLDLOC20 1.000000
    SLACK7033 CLDLOC25 1.000000
    SLACK7034 CLDLOC30 1.000000
    SLACK7035 CLDLOC35 1.000000
    SLACK7036 CLDLOC40 1.000000
    SLACK7037 CLDLOC45 1.000000
    SLACK7038 CLDLOC50 1.000000
    SLACK7039 CLDLOC55 1.000000
    SLACK7040 CLDLOC60 1.000000
    SLACK7041 CLDLOC65 1.000000
    SLACK7042 CLDLOC70 1.000000
    SLACK7043 CLDLOC75 1.000000
    SLACK7044 CLDMIN05 1.000000
    SLACK7045 CLDMIN10 1.000000
    SLACK7046 CLDMIN15 1.000000
    SLACK7047 CLDMIN20 1.000000
    SLACK7048 CLDMIN25 1.000000
    SLACK7049 CLDMIN30 1.000000
    SLACK7050 CLDMIN35 1.000000
    SLACK7051 CLDMIN40 1.000000
    SLACK7052 LOBROW4462 -1.000000
    SLACK7053 LOBROW4463 -1.000000
    SLACK7054 LOBROW4464 -1.000000
    SLACK7055 LOBROW4465 -1.000000
    SLACK7056 LOBROW4466 -1.000000
    SLACK7057 LOBROW4467 -1.000000
    SLACK7058 LOBROW4468 -1.000000
    SLACK7059 LOBROW4469 -1.000000
    SLACK7060 LOBROW4470 -1.000000
    SLACK7061 LOBROW4471 -1.000000
    SLACK7062 LOBROW4472 -1.000000
    SLACK7063 LOBROW4473 -1.000000
    SLACK7064 LOBROW4474 -1.000000
    SLACK7065 LOBROW4475 -1.000000
    SLACK7066 LOBROW4476 -1.000000
    SLACK7067 LOBROW4477 -1.000000
    SLACK7068 LOBROW4478 -1.000000
    SLACK7069 LOBROW4479 -1.000000
    SLACK7070 LOBROW4480 -1.000000
    SLACK7071 LOBROW4481 -1.000000
    SLACK7072 LOBROW4482 -1.000000
    SLACK7073 LOBROW4483 -1.000000
    SLACK7074 LOBROW4484 -1.000000
    SLACK7075 LOBROW4485 -1.000000
    SLACK7076 LOBROW4486 -1.000000
    SLACK7077 LOBROW4487 -1.000000
    SLACK7078 LOBROW4488 -1.000000
    SLACK7079 LOBROW4489 -1.000000
    SLACK7080 LOBROW4490 -1.000000
    SLACK7081 LOBROW4491 -1.000000
    SLACK7082 UPBROW4492 1.000000
    SLACK7083 UPBROW4493 1.000000
    SLACK7084 UPBROW4494 1.000000
    SLACK7085 UPBROW4495 1.000000
    SLACK7086 UPBROW4496 1.000000
    SLACK7087 UPBROW4497 1.000000
    SLACK7088 UPBROW4498 1.000000
    SLACK7089 UPBROW4499 1.000000
    SLACK7090 UPBROW4500 1.000000
    SLACK7091 UPBROW4501 1.000000
    SLACK7092 UPBROW4502 1.000000
    SLACK7093 UPBROW4503 1.000000
    SLACK7094 UPBROW4504 1.000000
    SLACK7095 UPBROW4505 1.000000
    SLACK7096 UPBROW4506 1.000000
    SLACK7097 UPBROW4507 1.000000
    SLACK7098 UPBROW4508 1.000000
    SLACK7099 UPBROW4509 1.000000
    SLACK7100 UPBROW4510 1.000000
    SLACK7101 UPBROW4511 1.000000
    SLACK7102 UPBROW4512 1.000000
    SLACK7103 UPBROW4513 1.000000
    SLACK7104 UPBROW4514 1.000000
    SLACK7105 UPBROW4515 1.000000
    SLACK7106 UPBROW4516 1.000000
    SLACK7107 UPBROW4517 1.000000
    SLACK7108 UPBROW4518 1.000000
    SLACK7109 UPBROW4519 1.000000
    SLACK7110 UPBROW4520 1.000000
    SLACK7111 UPBROW4521 1.000000
    SLACK7112 UPBROW4522 1.000000
    SLACK7113 UPBROW4523 1.000000
    SLACK7114 UPBROW4524 1.000000
    SLACK7115 UPBROW4525 1.000000
    SLACK7116 UPBROW4526 1.000000
    SLACK7117 UPBROW4527 1.000000
    SLACK7118 UPBROW4528 1.000000
    SLACK7119 UPBROW4529 1.000000
    SLACK7120 UPBROW4530 1.000000
    SLACK7121 UPBROW4531 1.000000
    SLACK7122 UPBROW4532 1.000000
    SLACK7123 UPBROW4533 1.000000
    SLACK7124 UPBROW4534 1.000000
    SLACK7125 UPBROW4535 1.000000
    SLACK7126 UPBROW4536 1.000000
    SLACK7127 UPBROW4537 1.000000
    SLACK7128 UPBROW4538 1.000000
    SLACK7129 UPBROW4539 1.000000
    SLACK7130 UPBROW4540 1.000000
    SLACK7131 UPBROW4541 1.000000
    SLACK7132 UPBROW4542 1.000000
    SLACK7133 UPBROW4543 1.000000
    SLACK7134 UPBROW4544 1.000000
    SLACK7135 UPBROW4545 1.000000
    SLACK7136 UPBROW4546 1.000000
    SLACK7137 UPBROW4547 1.000000
    SLACK7138 UPBROW4548 1.000000
    SLACK7139 UPBROW4549 1.000000
    SLACK7140 UPBROW4550 1.000000
    SLACK7141 UPBROW4551 1.000000
    SLACK7142 UPBROW4552 1.000000
    SLACK7143 UPBROW4553 1.000000
    SLACK7144 UPBROW4554 1.000000
    SLACK7145 UPBROW4555 1.000000
    SLACK7146 UPBROW4556 1.000000
    SLACK7147 UPBROW4557 1.000000
    SLACK7148 UPBROW4558 1.000000
    SLACK7149 UPBROW4559 1.000000
    SLACK7150 UPBROW4560 1.000000
    SLACK7151 UPBROW4561 1.000000
    SLACK7152 UPBROW4562 1.000000
    SLACK7153 UPBROW4563 1.000000
    SLACK7154 UPBROW4564 1.000000
    SLACK7155 UPBROW4565 1.000000
    SLACK7156 UPBROW4566 1.000000
    SLACK7157 UPBROW4567 1.000000
    SLACK7158 UPBROW4568 1.000000
    SLACK7159 UPBROW4569 1.000000
    SLACK7160 UPBROW4570 1.000000
    SLACK7161 UPBROW4571 1.000000
    SLACK7162 UPBROW4572 1.000000
    SLACK7163 UPBROW4573 1.000000
    SLACK7164 UPBROW4574 1.000000
    SLACK7165 UPBROW4575 1.000000
    SLACK7166 UPBROW4576 1.000000
    SLACK7167 UPBROW4577 1.000000
    SLACK7168 UPBROW4578 1.000000
    SLACK7169 UPBROW4579 1.000000
    SLACK7170 UPBROW4580 1.000000
    SLACK7171 UPBROW4581 1.000000
    SLACK7172 UPBROW4582 1.000000
    SLACK7173 UPBROW4583 1.000000
    SLACK7174 UPBROW4584 1.000000
    SLACK7175 UPBROW4585 1.000000
    SLACK7176 UPBROW4586 1.000000
    SLACK7177 UPBROW4587 1.000000
    SLACK7178 UPBROW4588 1.000000
    SLACK7179 UPBROW4589 1.000000
    SLACK7180 UPBROW4590 1.000000
    SLACK7181 UPBROW4591 1.000000
    SLACK7182 UPBROW4592 1.000000
    SLACK7183 UPBROW4593 1.000000
    SLACK7184 UPBROW4594 1.000000
    SLACK7185 UPBROW4595 1.000000
    SLACK7186 LOBROW4596 -1.000000
    SLACK7187 LOBROW4597 -1.000000
    SLACK7188 LOBROW4598 -1.000000
    SLACK7189 LOBROW4599 -1.000000
    SLACK7190 LOBROW4600 -1.000000
    SLACK7191 LOBROW4601 -1.000000
    SLACK7192 LOBROW4602 -1.000000
    SLACK7193 LOBROW4603 -1.000000
    SLACK7194 LOBROW4604 -1.000000
    SLACK7195 LOBROW4605 -1.000000
    SLACK7196 LOBROW4606 -1.000000
    SLACK7197 LOBROW4607 -1.000000
    SLACK7198 LOBROW4608 -1.000000
    SLACK7199 LOBROW4609 -1.000000
    SLACK7200 LOBROW4610 -1.000000
    SLACK7201 UPBROW4611 1.000000
    SLACK7202 UPBROW4612 1.000000
    SLACK7203 UPBROW4613 1.000000
    SLACK7204 UPBROW4614 1.000000
    SLACK7205 UPBROW4615 1.000000
    SLACK7206 UPBROW4616 1.000000
    SLACK7207 UPBROW4617 1.000000
    SLACK7208 UPBROW4618 1.000000
    SLACK7209 UPBROW4619 1.000000
    SLACK7210 UPBROW4620 1.000000
    SLACK7211 UPBROW4621 1.000000
    SLACK7212 UPBROW4622 1.000000
    SLACK7213 UPBROW4623 1.000000
    SLACK7214 UPBROW4624 1.000000
    SLACK7215 UPBROW4625 1.000000
    SLACK7216 UPBROW4626 1.000000
    SLACK7217 UPBROW4627 1.000000
    SLACK7218 UPBROW4628 1.000000
    SLACK7219 UPBROW4629 1.000000
    SLACK7220 UPBROW4630 1.000000
    SLACK7221 UPBROW4631 1.000000
    SLACK7222 UPBROW4632 1.000000
    SLACK7223 UPBROW4633 1.000000
    SLACK7224 UPBROW4634 1.000000
    SLACK7225 UPBROW4635 1.000000
    SLACK7226 UPBROW4636 1.000000
    SLACK7227 UPBROW4637 1.000000
    SLACK7228 UPBROW4638 1.000000
    SLACK7229 UPBROW4639 1.000000
    SLACK7230 UPBROW4640 1.000000
    SLACK7231 UPBROW4641 1.000000
RHS
    RHS00001 AVPETG01 1000.000000
    RHS00001 AVPETG02 500.000000
    RHS00001 AVPETG03 500.000000
    RHS00001 AVPETG04 400.000000
    RHS00001 AVCOAL01 10000.000000
    RHS00001 AVNATU01 2.600000
    RHS00001 AVNATU02 1.100000
    RHS00001 AVNATU03 96.299990
    RHS00001 CLTOTL00 8.356990
    RHS00001 CLTOTL05 14.651810
    RHS00001 CLTOTL10 21.186600
    RHS00001 CLTOTL15 27.545600
    RHS00001 CLTOTL20 33.390400
    RHS00001 CLTOTL25 38.515200
    RHS00001 CLTOTL30 42.860000
    RHS00001 CLTOTL35 45.000000
    RHS00001 CLTOTL40 46.550000
    RHS00001 CLTOTL45 47.649990
    RHS00001 CLTOTL50 48.410000
    RHS00001 CLTOTL55 48.929990
    RHS00001 CLTOTL60 49.280000
    RHS00001 CLTOTL65 49.520000
    RHS00001 CLTOTL70 49.679990
    RHS00001 CLTOTL75 49.780000
    FXIMPLICITRHS RQELEC00 -0.015000
    FXIMPLICITRHS OPTIMALG 445.600849
    BOUNDRHS LOBROW4462 1.980000
    BOUNDRHS LOBROW4463 1.980000
    BOUNDRHS LOBROW4464 1.980000
    BOUNDRHS LOBROW4465 1.980000
    BOUNDRHS LOBROW4466 1.980000
    BOUNDRHS LOBROW4467 1.980000
    BOUNDRHS LOBROW4468 1.980000
    BOUNDRHS LOBROW4469 1.980000
    BOUNDRHS LOBROW4470 1.980000
    BOUNDRHS LOBROW4471 1.980000
    BOUNDRHS LOBROW4472 1.980000
    BOUNDRHS LOBROW4473 1.980000
    BOUNDRHS LOBROW4474 1.980000
    BOUNDRHS LOBROW4475 1.980000
    BOUNDRHS LOBROW4476 1.980000
    FXIMPLICITRHS RQNELE00 50.800000
    BOUNDRHS LOBROW4477 0.508000
    BOUNDRHS LOBROW4478 0.508000
    BOUNDRHS LOBROW4479 0.508000
    BOUNDRHS LOBROW4480 0.508000
    BOUNDRHS LOBROW4481 0.508000
    BOUNDRHS LOBROW4482 0.508000
    BOUNDRHS LOBROW4483 0.508000
    BOUNDRHS LOBROW4484 0.508000
    BOUNDRHS LOBROW4485 0.508000
    BOUNDRHS LOBROW4486 0.508000
    BOUNDRHS LOBROW4487 0.508000
    BOUNDRHS LOBROW4488 0.508000
    BOUNDRHS LOBROW4489 0.508000
    BOUNDRHS LOBROW4490 0.508000
    BOUNDRHS LOBROW4491 0.508000
    FXIMPLICITRHS COSTEN00 -12.849000
    FXIMPLICITRHS CPHYDR00 -0.305000
    FXIMPLICITRHS CPHYDR05 -0.040000
    FXIMPLICITRHS COSTEN05 -10.148000
    FXIMPLICITRHS CPHYDR10 -0.045000
    FXIMPLICITRHS RQELEC05 -1.624000
    FXIMPLICITRHS COSTEN10 -10.626000
    FXIMPLICITRHS CPHYDR15 -0.052000
    FXIMPLICITRHS RQELEC10 -1.413000
    FXIMPLICITRHS COSTEN15 -11.260000
    FXIMPLICITRHS CPHYDR20 -0.058000
    FXIMPLICITRHS RQELEC15 -1.210000
    FXIMPLICITRHS COSTEN20 -12.024000
    FXIMPLICITRHS CPHYDR25 -0.065000
    FXIMPLICITRHS RQELEC20 -1.012000
    FXIMPLICITRHS COSTEN25 -12.942000
    FXIMPLICITRHS CPHYDR30 -0.075000
    FXIMPLICITRHS RQELEC25 -0.821000
    FXIMPLICITRHS COSTEN30 -14.080000
    FXIMPLICITRHS CPHYDR35 -0.084000
    FXIMPLICITRHS RQELEC30 -0.640000
    FXIMPLICITRHS COSTEN35 -15.928000
    FXIMPLICITRHS CPHYDR40 -0.095000
    FXIMPLICITRHS RQELEC35 -0.724000
    FXIMPLICITRHS COSTEN40 -18.018000
    FXIMPLICITRHS CPHYDR45 -0.108000
    FXIMPLICITRHS RQELEC40 -0.819000
    FXIMPLICITRHS COSTEN45 -20.394000
    FXIMPLICITRHS CPHYDR50 -0.121000
    FXIMPLICITRHS RQELEC45 -0.927000
    FXIMPLICITRHS COSTEN50 -23.056000
    FXIMPLICITRHS CPHYDR55 -0.138000
    FXIMPLICITRHS RQELEC50 -1.048000
    FXIMPLICITRHS COSTEN55 -26.092000
    FXIMPLICITRHS CPHYDR60 -0.156000
    FXIMPLICITRHS RQELEC55 -1.186000
    FXIMPLICITRHS COSTEN60 -29.524000
    FXIMPLICITRHS CPHYDR65 -0.176000
    FXIMPLICITRHS RQELEC60 -1.342000
    FXIMPLICITRHS COSTEN65 -33.396000
    FXIMPLICITRHS CPHYDR70 -0.200000
    FXIMPLICITRHS RQELEC65 -1.518000
    FXIMPLICITRHS COSTEN70 -37.796000
    FXIMPLICITRHS CPHYDR75 -0.226000
    FXIMPLICITRHS RQELEC70 -1.718000
    FXIMPLICITRHS COSTEN75 -42.768000
    FXIMPLICITRHS RQELEC75 -1.944000
    FXIMPLICITRHS RQPETG00 6.447000
    FXIMPLICITRHS RQCOAL00 8.903000
    FXIMPLICITRHS RQPETG05 5.371800
    FXIMPLICITRHS RQCOAL05 7.418200
    FXIMPLICITRHS RQPETG10 4.296600
    FXIMPLICITRHS RQCOAL10 5.933400
    FXIMPLICITRHS RQPETG15 3.225600
    FXIMPLICITRHS RQCOAL15 4.454400
    FXIMPLICITRHS RQPETG20 2.150400
    FXIMPLICITRHS RQCOAL20 2.969600
    FXIMPLICITRHS RQPETG25 1.075200
    FXIMPLICITRHS RQCOAL25 1.484800
    FXIMPLICITRHS RQPETG30 0.000000
    FXIMPLICITRHS RQCOAL30 0.000000
    FXIMPLICITRHS RQPETG35 0.000000
    FXIMPLICITRHS RQCOAL35 0.000000
    FXIMPLICITRHS RQPETG40 0.000000
    FXIMPLICITRHS RQCOAL40 0.000000
    FXIMPLICITRHS RQPETG45 0.000000
    FXIMPLICITRHS RQCOAL45 0.000000
    FXIMPLICITRHS RQPETG50 0.000000
    FXIMPLICITRHS RQCOAL50 0.000000
    FXIMPLICITRHS RQPETG55 0.000000
    FXIMPLICITRHS RQCOAL55 0.000000
    FXIMPLICITRHS RQPETG60 0.000000
    FXIMPLICITRHS RQCOAL60 0.000000
    FXIMPLICITRHS RQPETG65 0.000000
    FXIMPLICITRHS RQCOAL65 0.000000
    FXIMPLICITRHS RQPETG70 0.000000
    FXIMPLICITRHS RQCOAL70 0.000000
    FXIMPLICITRHS RQPETG75 0.000000
    FXIMPLICITRHS RQCOAL75 0.000000
    FXIMPLICITRHS CPLWRA00 -0.155000
    FXIMPLICITRHS CPLWRA05 0.155000
    FXIMPLICITRHS RQNATU00 0.004495
    FXIMPLICITRHS CPLWRB00 -0.000000
    FXIMPLICITRHS CPLWRB05 0.000000
    FXIMPLICITRHS SMPLUT05 0.000000
    FXIMPLICITRHS CPLWRB10 0.000000
    FXIMPLICITRHS RQNATU05 0.000000
    FXIMPLICITRHS SMPLUT10 0.000000
    FXIMPLICITRHS CPLWRB15 0.000000
    FXIMPLICITRHS RQNATU10 0.000000
    FXIMPLICITRHS SMPLUT15 0.000000
    BOUNDRHS UPBROW4492 0.285000
    BOUNDRHS UPBROW4493 0.570000
    FXIMPLICITRHS CPLWRC00 -0.000000
    FXIMPLICITRHS CPLWRC05 0.000000
    FXIMPLICITRHS CPLWRC10 0.000000
    FXIMPLICITRHS CPLWRC15 0.000000
    BOUNDRHS UPBROW4494 0.285000
    BOUNDRHS UPBROW4495 0.570000
    FXIMPLICITRHS CPFBRX00 -0.000000
    FXIMPLICITRHS CPFBRX05 0.000000
    FXIMPLICITRHS CPFBRX10 0.000000
    FXIMPLICITRHS CPFBRX15 0.000000
    FXIMPLICITRHS CPFBRX20 0.000000
    FXIMPLICITRHS SMPLUT20 0.000000
    FXIMPLICITRHS CPFBRX25 0.000000
    FXIMPLICITRHS SMPLUT25 0.000000
    BOUNDRHS UPBROW4496 0.034000
    BOUNDRHS UPBROW4497 0.184000
    BOUNDRHS UPBROW4498 0.682000
    BOUNDRHS UPBROW4499 1.698000
    BOUNDRHS UPBROW4500 2.734000
    BOUNDRHS UPBROW4501 4.403000
    BOUNDRHS UPBROW4502 7.091000
    BOUNDRHS UPBROW4503 11.420000
    BOUNDRHS UPBROW4504 18.393010
    BOUNDRHS UPBROW4505 29.621990
    BOUNDRHS UPBROW4506 47.705990
    FXIMPLICITRHS CPSOLE00 -0.000000
    FXIMPLICITRHS CPSOLE05 0.000000
    FXIMPLICITRHS CPSOLE10 0.000000
    FXIMPLICITRHS CPSOLE15 0.000000
    FXIMPLICITRHS CPSOLE20 0.000000
    FXIMPLICITRHS CPSOLE25 0.000000
    BOUNDRHS UPBROW4507 0.034000
    BOUNDRHS UPBROW4508 0.184000
    BOUNDRHS UPBROW4509 0.682000
    BOUNDRHS UPBROW4510 1.698000
    BOUNDRHS UPBROW4511 2.734000
    BOUNDRHS UPBROW4512 4.403000
    BOUNDRHS UPBROW4513 7.091000
    BOUNDRHS UPBROW4514 11.420000
    BOUNDRHS UPBROW4515 18.393010
    BOUNDRHS UPBROW4516 29.621990
    BOUNDRHS UPBROW4517 47.705990
    FXIMPLICITRHS CPSYNF00 -0.000000
    FXIMPLICITRHS CPSYNF05 0.000000
    FXIMPLICITRHS CPSYNF10 0.000000
    FXIMPLICITRHS RQNELE05 -0.000000
    FXIMPLICITRHS CPSYNF15 0.000000
    FXIMPLICITRHS RQNELE10 -0.000000
    BOUNDRHS UPBROW4518 0.500000
    BOUNDRHS UPBROW4519 2.690000
    BOUNDRHS UPBROW4520 9.980000
    BOUNDRHS UPBROW4521 24.840000
    BOUNDRHS UPBROW4522 40.009990
    BOUNDRHS UPBROW4523 64.440000
    BOUNDRHS UPBROW4524 103.780000
    FXIMPLICITRHS CPSHAL00 -0.000000
    FXIMPLICITRHS CPSHAL05 0.000000
    FXIMPLICITRHS CPSHAL10 0.000000
    FXIMPLICITRHS CPSHAL15 0.000000
    FXIMPLICITRHS CPSHAL20 0.000000
    FXIMPLICITRHS RQNELE15 -0.000000
    BOUNDRHS UPBROW4525 0.500000
    BOUNDRHS UPBROW4526 2.000000
    BOUNDRHS UPBROW4527 3.710000
    BOUNDRHS UPBROW4528 6.000000
    BOUNDRHS UPBROW4529 8.290000
    BOUNDRHS UPBROW4530 10.000000
    BOUNDRHS UPBROW4531 11.010000
    BOUNDRHS UPBROW4532 11.540000
    BOUNDRHS UPBROW4533 11.790000
    BOUNDRHS UPBROW4534 11.900000
    BOUNDRHS UPBROW4535 11.960000
    BOUNDRHS UPBROW4536 11.990000
    FXIMPLICITRHS CPNAES00 -0.000000
    FXIMPLICITRHS CPNAES05 0.000000
    FXIMPLICITRHS CPNAES10 0.000000
    FXIMPLICITRHS CPNAES15 0.000000
    FXIMPLICITRHS CPNAES20 0.000000
    FXIMPLICITRHS CPNAES25 0.000000
    FXIMPLICITRHS RQNELE20 -0.000000
    BOUNDRHS UPBROW4537 0.500000
    BOUNDRHS UPBROW4538 2.690000
    BOUNDRHS UPBROW4539 9.980000
    BOUNDRHS UPBROW4540 24.840000
    BOUNDRHS UPBROW4541 40.009990
    BOUNDRHS UPBROW4542 64.440000
    BOUNDRHS UPBROW4543 103.780000
    BOUNDRHS UPBROW4544 4.500000
    BOUNDRHS UPBROW4545 4.970000
    BOUNDRHS UPBROW4546 5.490000
    BOUNDRHS UPBROW4547 6.060000
    BOUNDRHS UPBROW4548 6.690000
    BOUNDRHS UPBROW4549 7.380000
    BOUNDRHS UPBROW4550 8.150000
    BOUNDRHS UPBROW4551 9.000000
    BOUNDRHS UPBROW4552 9.940000
    BOUNDRHS UPBROW4553 10.970000
    BOUNDRHS UPBROW4554 12.110000
    BOUNDRHS UPBROW4555 13.370000
    BOUNDRHS UPBROW4556 14.760000
    BOUNDRHS UPBROW4557 16.300000
    BOUNDRHS UPBROW4558 18.000000
    BOUNDRHS UPBROW4559 19.870000
    FXIMPLICITRHS CPPGAI00 -0.000000
    FXIMPLICITRHS CPPGAI05 0.000000
    FXIMPLICITRHS CPPGAI10 0.000000
    FXIMPLICITRHS CPPGAI15 0.000000
    FXIMPLICITRHS CPPGAI20 0.000000
    FXIMPLICITRHS CPPGAI25 0.000000
    FXIMPLICITRHS CPPGAI30 0.000000
    FXIMPLICITRHS RQNELE25 -0.000000
    FXIMPLICITRHS CPPGAI35 0.000000
    FXIMPLICITRHS RQNELE30 -0.000000
    FXIMPLICITRHS CPPGAI40 0.000000
    FXIMPLICITRHS RQNELE35 -0.000000
    FXIMPLICITRHS CPPGAI45 0.000000
    FXIMPLICITRHS RQNELE40 -0.000000
    FXIMPLICITRHS CPPGAI50 0.000000
    FXIMPLICITRHS RQNELE45 -0.000000
    FXIMPLICITRHS CPPGAI55 0.000000
    FXIMPLICITRHS RQNELE50 -0.000000
    FXIMPLICITRHS CPPGAI60 0.000000
    FXIMPLICITRHS RQNELE55 -0.000000
    FXIMPLICITRHS CPPGAI65 0.000000
    FXIMPLICITRHS RQNELE60 -0.000000
    FXIMPLICITRHS CPPGAI70 0.000000
    FXIMPLICITRHS RQNELE65 -0.000000
    FXIMPLICITRHS CPPGAI75 0.000000
    FXIMPLICITRHS RQNELE70 -0.000000
    FXIMPLICITRHS RQNELE75 -0.000000
    BOUNDRHS UPBROW4560 0.057570
    BOUNDRHS UPBROW4561 0.057570
    BOUNDRHS UPBROW4562 0.030300
    BOUNDRHS UPBROW4563 0.100600
    BOUNDRHS UPBROW4564 0.205230
    BOUNDRHS UPBROW4565 0.209270
    BOUNDRHS UPBROW4566 0.337140
    BOUNDRHS UPBROW4567 0.030300
    BOUNDRHS UPBROW4568 0.100600
    BOUNDRHS UPBROW4569 0.205230
    BOUNDRHS UPBROW4570 0.209270
    BOUNDRHS UPBROW4571 0.337140
    BOUNDRHS UPBROW4572 0.442380
    BOUNDRHS UPBROW4573 1.472580
    BOUNDRHS UPBROW4574 3.001720
    BOUNDRHS UPBROW4575 3.064340
    BOUNDRHS UPBROW4576 4.934860
    BOUNDRHS UPBROW4577 0.303000
    BOUNDRHS UPBROW4578 0.345420
    BOUNDRHS UPBROW4579 0.462580
    BOUNDRHS UPBROW4580 0.462580
    BOUNDRHS UPBROW4581 0.345420
    BOUNDRHS UPBROW4582 0.442380
    BOUNDRHS UPBROW4583 1.472580
    BOUNDRHS UPBROW4584 3.001720
    BOUNDRHS UPBROW4585 3.064340
    BOUNDRHS UPBROW4586 4.934860
    BOUNDRHS UPBROW4587 0.094940
    BOUNDRHS UPBROW4588 0.105040
    BOUNDRHS UPBROW4589 0.115140
    BOUNDRHS UPBROW4590 0.127260
    BOUNDRHS UPBROW4591 0.139380
    BOUNDRHS UPBROW4592 1.010000
    BOUNDRHS UPBROW4593 1.010000
    BOUNDRHS UPBROW4594 1.010000
    BOUNDRHS UPBROW4595 1.010000
    FXIMPLICITRHS CAPCUM05 3.457638
    BOUNDRHS LOBROW4596 4.144580
    BOUNDRHS LOBROW4597 4.575950
    BOUNDRHS LOBROW4598 5.052220
    BOUNDRHS LOBROW4599 5.578060
    BOUNDRHS LOBROW4600 6.158640
    BOUNDRHS LOBROW4601 6.799630
    BOUNDRHS LOBROW4602 7.507350
    BOUNDRHS LOBROW4603 8.288720
    BOUNDRHS LOBROW4604 9.151420
    BOUNDRHS LOBROW4605 10.103910
    BOUNDRHS LOBROW4606 11.155530
    BOUNDRHS LOBROW4607 12.316610
    BOUNDRHS LOBROW4608 13.598540
    BOUNDRHS LOBROW4609 15.013890
    BOUNDRHS LOBROW4610 16.576550
    BOUNDRHS UPBROW4611 0.746970
    BOUNDRHS UPBROW4612 0.830920
    BOUNDRHS UPBROW4613 0.912400
    BOUNDRHS UPBROW4614 0.982460
    BOUNDRHS UPBROW4615 1.045420
    BOUNDRHS UPBROW4616 1.096230
    BOUNDRHS UPBROW4617 1.139460
    BOUNDRHS UPBROW4618 1.173090
    BOUNDRHS UPBROW4619 1.201020
    BOUNDRHS UPBROW4620 1.223840
    BOUNDRHS UPBROW4621 1.242270
    BOUNDRHS UPBROW4622 1.256990
    BOUNDRHS UPBROW4623 1.268690
    BOUNDRHS UPBROW4624 1.277960
    BOUNDRHS UPBROW4625 1.285300
    BOUNDRHS UPBROW4626 0.647010
    BOUNDRHS UPBROW4627 0.746970
    BOUNDRHS UPBROW4628 0.830920
    BOUNDRHS UPBROW4629 0.912400
    BOUNDRHS UPBROW4630 0.982460
    BOUNDRHS UPBROW4631 1.045420
    BOUNDRHS UPBROW4632 1.096230
    BOUNDRHS UPBROW4633 1.139460
    BOUNDRHS UPBROW4634 1.173090
    BOUNDRHS UPBROW4635 1.201020
    BOUNDRHS UPBROW4636 1.223840
    BOUNDRHS UPBROW4637 1.242270
    BOUNDRHS UPBROW4638 1.256990
    BOUNDRHS UPBROW4639 1.268690
    BOUNDRHS UPBROW4640 1.277960
    BOUNDRHS UPBROW4641 1.285300
BOUNDS
ENDATA
