NAME          GROW22
ROWS
 N  REVENUE 
 E  PRI0101 
 E  PRI0201 
 E  PRI0301 
 E  PRI0401 
 E  PRI0501 
 E  PRI0601 
 E  PRI0701 
 E  PRI0801 
 E  PRI0901 
 E  PRI1001 
 E  PRI1101 
 E  PRI1201 
 E  PRI1301 
 E  PRI1401 
 E  PRI1501 
 E  PRI1601 
 E  PRI1701 
 E  PRI1801 
 E  PRI1901 
 E  PRI2001 
 E  PRI0102 
 E  PRI0202 
 E  PRI0302 
 E  PRI0402 
 E  PRI0502 
 E  PRI0602 
 E  PRI0702 
 E  PRI0802 
 E  PRI0902 
 E  PRI1002 
 E  PRI1102 
 E  PRI1202 
 E  PRI1302 
 E  PRI1402 
 E  PRI1502 
 E  PRI1602 
 E  PRI1702 
 E  PRI1802 
 E  PRI1902 
 E  PRI2002 
 E  PRI0103 
 E  PRI0203 
 E  PRI0303 
 E  PRI0403 
 E  PRI0503 
 E  PRI0603 
 E  PRI0703 
 E  PRI0803 
 E  PRI0903 
 E  PRI1003 
 E  PRI1103 
 E  PRI1203 
 E  PRI1303 
 E  PRI1403 
 E  PRI1503 
 E  PRI1603 
 E  PRI1703 
 E  PRI1803 
 E  PRI1903 
 E  PRI2003 
 E  PRI0104 
 E  PRI0204 
 E  PRI0304 
 E  PRI0404 
 E  PRI0504 
 E  PRI0604 
 E  PRI0704 
 E  PRI0804 
 E  PRI0904 
 E  PRI1004 
 E  PRI1104 
 E  PRI1204 
 E  PRI1304 
 E  PRI1404 
 E  PRI1504 
 E  PRI1604 
 E  PRI1704 
 E  PRI1804 
 E  PRI1904 
 E  PRI2004 
 E  PRI0105 
 E  PRI0205 
 E  PRI0305 
 E  PRI0405 
 E  PRI0505 
 E  PRI0605 
 E  PRI0705 
 E  PRI0805 
 E  PRI0905 
 E  PRI1005 
 E  PRI1105 
 E  PRI1205 
 E  PRI1305 
 E  PRI1405 
 E  PRI1505 
 E  PRI1605 
 E  PRI1705 
 E  PRI1805 
 E  PRI1905 
 E  PRI2005 
 E  PRI0106 
 E  PRI0206 
 E  PRI0306 
 E  PRI0406 
 E  PRI0506 
 E  PRI0606 
 E  PRI0706 
 E  PRI0806 
 E  PRI0906 
 E  PRI1006 
 E  PRI1106 
 E  PRI1206 
 E  PRI1306 
 E  PRI1406 
 E  PRI1506 
 E  PRI1606 
 E  PRI1706 
 E  PRI1806 
 E  PRI1906 
 E  PRI2006 
 E  PRI0107 
 E  PRI0207 
 E  PRI0307 
 E  PRI0407 
 E  PRI0507 
 E  PRI0607 
 E  PRI0707 
 E  PRI0807 
 E  PRI0907 
 E  PRI1007 
 E  PRI1107 
 E  PRI1207 
 E  PRI1307 
 E  PRI1407 
 E  PRI1507 
 E  PRI1607 
 E  PRI1707 
 E  PRI1807 
 E  PRI1907 
 E  PRI2007 
 E  PRI0108 
 E  PRI0208 
 E  PRI0308 
 E  PRI0408 
 E  PRI0508 
 E  PRI0608 
 E  PRI0708 
 E  PRI0808 
 E  PRI0908 
 E  PRI1008 
 E  PRI1108 
 E  PRI1208 
 E  PRI1308 
 E  PRI1408 
 E  PRI1508 
 E  PRI1608 
 E  PRI1708 
 E  PRI1808 
 E  PRI1908 
 E  PRI2008 
 E  PRI0109 
 E  PRI0209 
 E  PRI0309 
 E  PRI0409 
 E  PRI0509 
 E  PRI0609 
 E  PRI0709 
 E  PRI0809 
 E  PRI0909 
 E  PRI1009 
 E  PRI1109 
 E  PRI1209 
 E  PRI1309 
 E  PRI1409 
 E  PRI1509 
 E  PRI1609 
 E  PRI1709 
 E  PRI1809 
 E  PRI1909 
 E  PRI2009 
 E  PRI0110 
 E  PRI0210 
 E  PRI0310 
 E  PRI0410 
 E  PRI0510 
 E  PRI0610 
 E  PRI0710 
 E  PRI0810 
 E  PRI0910 
 E  PRI1010 
 E  PRI1110 
 E  PRI1210 
 E  PRI1310 
 E  PRI1410 
 E  PRI1510 
 E  PRI1610 
 E  PRI1710 
 E  PRI1810 
 E  PRI1910 
 E  PRI2010 
 E  PRI0111 
 E  PRI0211 
 E  PRI0311 
 E  PRI0411 
 E  PRI0511 
 E  PRI0611 
 E  PRI0711 
 E  PRI0811 
 E  PRI0911 
 E  PRI1011 
 E  PRI1111 
 E  PRI1211 
 E  PRI1311 
 E  PRI1411 
 E  PRI1511 
 E  PRI1611 
 E  PRI1711 
 E  PRI1811 
 E  PRI1911 
 E  PRI2011 
 E  PRI0112 
 E  PRI0212 
 E  PRI0312 
 E  PRI0412 
 E  PRI0512 
 E  PRI0612 
 E  PRI0712 
 E  PRI0812 
 E  PRI0912 
 E  PRI1012 
 E  PRI1112 
 E  PRI1212 
 E  PRI1312 
 E  PRI1412 
 E  PRI1512 
 E  PRI1612 
 E  PRI1712 
 E  PRI1812 
 E  PRI1912 
 E  PRI2012 
 E  PRI0113 
 E  PRI0213 
 E  PRI0313 
 E  PRI0413 
 E  PRI0513 
 E  PRI0613 
 E  PRI0713 
 E  PRI0813 
 E  PRI0913 
 E  PRI1013 
 E  PRI1113 
 E  PRI1213 
 E  PRI1313 
 E  PRI1413 
 E  PRI1513 
 E  PRI1613 
 E  PRI1713 
 E  PRI1813 
 E  PRI1913 
 E  PRI2013 
 E  PRI0114 
 E  PRI0214 
 E  PRI0314 
 E  PRI0414 
 E  PRI0514 
 E  PRI0614 
 E  PRI0714 
 E  PRI0814 
 E  PRI0914 
 E  PRI1014 
 E  PRI1114 
 E  PRI1214 
 E  PRI1314 
 E  PRI1414 
 E  PRI1514 
 E  PRI1614 
 E  PRI1714 
 E  PRI1814 
 E  PRI1914 
 E  PRI2014 
 E  PRI0115 
 E  PRI0215 
 E  PRI0315 
 E  PRI0415 
 E  PRI0515 
 E  PRI0615 
 E  PRI0715 
 E  PRI0815 
 E  PRI0915 
 E  PRI1015 
 E  PRI1115 
 E  PRI1215 
 E  PRI1315 
 E  PRI1415 
 E  PRI1515 
 E  PRI1615 
 E  PRI1715 
 E  PRI1815 
 E  PRI1915 
 E  PRI2015 
 E  PRI0116 
 E  PRI0216 
 E  PRI0316 
 E  PRI0416 
 E  PRI0516 
 E  PRI0616 
 E  PRI0716 
 E  PRI0816 
 E  PRI0916 
 E  PRI1016 
 E  PRI1116 
 E  PRI1216 
 E  PRI1316 
 E  PRI1416 
 E  PRI1516 
 E  PRI1616 
 E  PRI1716 
 E  PRI1816 
 E  PRI1916 
 E  PRI2016 
 E  PRI0117 
 E  PRI0217 
 E  PRI0317 
 E  PRI0417 
 E  PRI0517 
 E  PRI0617 
 E  PRI0717 
 E  PRI0817 
 E  PRI0917 
 E  PRI1017 
 E  PRI1117 
 E  PRI1217 
 E  PRI1317 
 E  PRI1417 
 E  PRI1517 
 E  PRI1617 
 E  PRI1717 
 E  PRI1817 
 E  PRI1917 
 E  PRI2017 
 E  PRI0118 
 E  PRI0218 
 E  PRI0318 
 E  PRI0418 
 E  PRI0518 
 E  PRI0618 
 E  PRI0718 
 E  PRI0818 
 E  PRI0918 
 E  PRI1018 
 E  PRI1118 
 E  PRI1218 
 E  PRI1318 
 E  PRI1418 
 E  PRI1518 
 E  PRI1618 
 E  PRI1718 
 E  PRI1818 
 E  PRI1918 
 E  PRI2018 
 E  PRI0119 
 E  PRI0219 
 E  PRI0319 
 E  PRI0419 
 E  PRI0519 
 E  PRI0619 
 E  PRI0719 
 E  PRI0819 
 E  PRI0919 
 E  PRI1019 
 E  PRI1119 
 E  PRI1219 
 E  PRI1319 
 E  PRI1419 
 E  PRI1519 
 E  PRI1619 
 E  PRI1719 
 E  PRI1819 
 E  PRI1919 
 E  PRI2019 
 E  PRI0120 
 E  PRI0220 
 E  PRI0320 
 E  PRI0420 
 E  PRI0520 
 E  PRI0620 
 E  PRI0720 
 E  PRI0820 
 E  PRI0920 
 E  PRI1020 
 E  PRI1120 
 E  PRI1220 
 E  PRI1320 
 E  PRI1420 
 E  PRI1520 
 E  PRI1620 
 E  PRI1720 
 E  PRI1820 
 E  PRI1920 
 E  PRI2020 
 E  PRI0121 
 E  PRI0221 
 E  PRI0321 
 E  PRI0421 
 E  PRI0521 
 E  PRI0621 
 E  PRI0721 
 E  PRI0821 
 E  PRI0921 
 E  PRI1021 
 E  PRI1121 
 E  PRI1221 
 E  PRI1321 
 E  PRI1421 
 E  PRI1521 
 E  PRI1621 
 E  PRI1721 
 E  PRI1821 
 E  PRI1921 
 E  PRI2021 
 E  PRI0122 
 E  PRI0222 
 E  PRI0322 
 E  PRI0422 
 E  PRI0522 
 E  PRI0622 
 E  PRI0722 
 E  PRI0822 
 E  PRI0922 
 E  PRI1022 
 E  PRI1122 
 E  PRI1222 
 E  PRI1322 
 E  PRI1422 
 E  PRI1522 
 E  PRI1622 
 E  PRI1722 
 E  PRI1822 
 E  PRI1922 
 E  PRI2022 
 E  UPBROW30608
 E  UPBROW30609
 E  UPBROW30610
 E  UPBROW30611
 E  UPBROW30612
 E  UPBROW30613
 E  UPBROW30614
 E  UPBROW30615
 E  UPBROW30616
 E  UPBROW30617
 E  UPBROW30618
 E  UPBROW30619
 E  UPBROW30620
 E  UPBROW30621
 E  UPBROW30622
 E  UPBROW30623
 E  UPBROW30624
 E  UPBROW30625
 E  UPBROW30626
 E  UPBROW30627
 E  UPBROW30628
 E  UPBROW30629
 E  UPBROW30630
 E  UPBROW30631
 E  UPBROW30632
 E  UPBROW30633
 E  UPBROW30634
 E  UPBROW30635
 E  UPBROW30636
 E  UPBROW30637
 E  UPBROW30638
 E  UPBROW30639
 E  UPBROW30640
 E  UPBROW30641
 E  UPBROW30642
 E  UPBROW30643
 E  UPBROW30644
 E  UPBROW30645
 E  UPBROW30646
 E  UPBROW30647
 E  UPBROW30648
 E  UPBROW30649
 E  UPBROW30650
 E  UPBROW30651
 E  UPBROW30652
 E  UPBROW30653
 E  UPBROW30654
 E  UPBROW30655
 E  UPBROW30656
 E  UPBROW30657
 E  UPBROW30658
 E  UPBROW30659
 E  UPBROW30660
 E  UPBROW30661
 E  UPBROW30662
 E  UPBROW30663
 E  UPBROW30664
 E  UPBROW30665
 E  UPBROW30666
 E  UPBROW30667
 E  UPBROW30668
 E  UPBROW30669
 E  UPBROW30670
 E  UPBROW30671
 E  UPBROW30672
 E  UPBROW30673
 E  UPBROW30674
 E  UPBROW30675
 E  UPBROW30676
 E  UPBROW30677
 E  UPBROW30678
 E  UPBROW30679
 E  UPBROW30680
 E  UPBROW30681
 E  UPBROW30682
 E  UPBROW30683
 E  UPBROW30684
 E  UPBROW30685
 E  UPBROW30686
 E  UPBROW30687
 E  UPBROW30688
 E  UPBROW30689
 E  UPBROW30690
 E  UPBROW30691
 E  UPBROW30692
 E  UPBROW30693
 E  UPBROW30694
 E  UPBROW30695
 E  UPBROW30696
 E  UPBROW30697
 E  UPBROW30698
 E  UPBROW30699
 E  UPBROW30700
 E  UPBROW30701
 E  UPBROW30702
 E  UPBROW30703
 E  UPBROW30704
 E  UPBROW30705
 E  UPBROW30706
 E  UPBROW30707
 E  UPBROW30708
 E  UPBROW30709
 E  UPBROW30710
 E  UPBROW30711
 E  UPBROW30712
 E  UPBROW30713
 E  UPBROW30714
 E  UPBROW30715
 E  UPBROW30716
 E  UPBROW30717
 E  UPBROW30718
 E  UPBROW30719
 E  UPBROW30720
 E  UPBROW30721
 E  UPBROW30722
 E  UPBROW30723
 E  UPBROW30724
 E  UPBROW30725
 E  UPBROW30726
 E  UPBROW30727
 E  UPBROW30728
 E  UPBROW30729
 E  UPBROW30730
 E  UPBROW30731
 E  UPBROW30732
 E  UPBROW30733
 E  UPBROW30734
 E  UPBROW30735
 E  UPBROW30736
 E  UPBROW30737
 E  UPBROW30738
 E  UPBROW30739
 E  UPBROW30740
 E  UPBROW30741
 E  UPBROW30742
 E  UPBROW30743
 E  UPBROW30744
 E  UPBROW30745
 E  UPBROW30746
 E  UPBROW30747
 E  UPBROW30748
 E  UPBROW30749
 E  UPBROW30750
 E  UPBROW30751
 E  UPBROW30752
 E  UPBROW30753
 E  UPBROW30754
 E  UPBROW30755
 E  UPBROW30756
 E  UPBROW30757
 E  UPBROW30758
 E  UPBROW30759
 E  UPBROW30760
 E  UPBROW30761
 E  UPBROW30762
 E  UPBROW30763
 E  UPBROW30764
 E  UPBROW30765
 E  UPBROW30766
 E  UPBROW30767
 E  UPBROW30768
 E  UPBROW30769
 E  UPBROW30770
 E  UPBROW30771
 E  UPBROW30772
 E  UPBROW30773
 E  UPBROW30774
 E  UPBROW30775
 E  UPBROW30776
 E  UPBROW30777
 E  UPBROW30778
 E  UPBROW30779
 E  UPBROW30780
 E  UPBROW30781
 E  UPBROW30782
 E  UPBROW30783
 E  UPBROW30784
 E  UPBROW30785
 E  UPBROW30786
 E  UPBROW30787
 E  UPBROW30788
 E  UPBROW30789
 E  UPBROW30790
 E  UPBROW30791
 E  UPBROW30792
 E  UPBROW30793
 E  UPBROW30794
 E  UPBROW30795
 E  UPBROW30796
 E  UPBROW30797
 E  UPBROW30798
 E  UPBROW30799
 E  UPBROW30800
 E  UPBROW30801
 E  UPBROW30802
 E  UPBROW30803
 E  UPBROW30804
 E  UPBROW30805
 E  UPBROW30806
 E  UPBROW30807
 E  UPBROW30808
 E  UPBROW30809
 E  UPBROW30810
 E  UPBROW30811
 E  UPBROW30812
 E  UPBROW30813
 E  UPBROW30814
 E  UPBROW30815
 E  UPBROW30816
 E  UPBROW30817
 E  UPBROW30818
 E  UPBROW30819
 E  UPBROW30820
 E  UPBROW30821
 E  UPBROW30822
 E  UPBROW30823
 E  UPBROW30824
 E  UPBROW30825
 E  UPBROW30826
 E  UPBROW30827
 E  UPBROW30828
 E  UPBROW30829
 E  UPBROW30830
 E  UPBROW30831
 E  UPBROW30832
 E  UPBROW30833
 E  UPBROW30834
 E  UPBROW30835
 E  UPBROW30836
 E  UPBROW30837
 E  UPBROW30838
 E  UPBROW30839
 E  UPBROW30840
 E  UPBROW30841
 E  UPBROW30842
 E  UPBROW30843
 E  UPBROW30844
 E  UPBROW30845
 E  UPBROW30846
 E  UPBROW30847
 E  UPBROW30848
 E  UPBROW30849
 E  UPBROW30850
 E  UPBROW30851
 E  UPBROW30852
 E  UPBROW30853
 E  UPBROW30854
 E  UPBROW30855
 E  UPBROW30856
 E  UPBROW30857
 E  UPBROW30858
 E  UPBROW30859
 E  UPBROW30860
 E  UPBROW30861
 E  UPBROW30862
 E  UPBROW30863
 E  UPBROW30864
 E  UPBROW30865
 E  UPBROW30866
 E  UPBROW30867
 E  UPBROW30868
 E  UPBROW30869
 E  UPBROW30870
 E  UPBROW30871
 E  UPBROW30872
 E  UPBROW30873
 E  UPBROW30874
 E  UPBROW30875
 E  UPBROW30876
 E  UPBROW30877
 E  UPBROW30878
 E  UPBROW30879
 E  UPBROW30880
 E  UPBROW30881
 E  UPBROW30882
 E  UPBROW30883
 E  UPBROW30884
 E  UPBROW30885
 E  UPBROW30886
 E  UPBROW30887
 E  UPBROW30888
 E  UPBROW30889
 E  UPBROW30890
 E  UPBROW30891
 E  UPBROW30892
 E  UPBROW30893
 E  UPBROW30894
 E  UPBROW30895
 E  UPBROW30896
 E  UPBROW30897
 E  UPBROW30898
 E  UPBROW30899
 E  UPBROW30900
 E  UPBROW30901
 E  UPBROW30902
 E  UPBROW30903
 E  UPBROW30904
 E  UPBROW30905
 E  UPBROW30906
 E  UPBROW30907
 E  UPBROW30908
 E  UPBROW30909
 E  UPBROW30910
 E  UPBROW30911
 E  UPBROW30912
 E  UPBROW30913
 E  UPBROW30914
 E  UPBROW30915
 E  UPBROW30916
 E  UPBROW30917
 E  UPBROW30918
 E  UPBROW30919
 E  UPBROW30920
 E  UPBROW30921
 E  UPBROW30922
 E  UPBROW30923
 E  UPBROW30924
 E  UPBROW30925
 E  UPBROW30926
 E  UPBROW30927
 E  UPBROW30928
 E  UPBROW30929
 E  UPBROW30930
 E  UPBROW30931
 E  UPBROW30932
 E  UPBROW30933
 E  UPBROW30934
 E  UPBROW30935
 E  UPBROW30936
 E  UPBROW30937
 E  UPBROW30938
 E  UPBROW30939
 E  UPBROW30940
 E  UPBROW30941
 E  UPBROW30942
 E  UPBROW30943
 E  UPBROW30944
 E  UPBROW30945
 E  UPBROW30946
 E  UPBROW30947
 E  UPBROW30948
 E  UPBROW30949
 E  UPBROW30950
 E  UPBROW30951
 E  UPBROW30952
 E  UPBROW30953
 E  UPBROW30954
 E  UPBROW30955
 E  UPBROW30956
 E  UPBROW30957
 E  UPBROW30958
 E  UPBROW30959
 E  UPBROW30960
 E  UPBROW30961
 E  UPBROW30962
 E  UPBROW30963
 E  UPBROW30964
 E  UPBROW30965
 E  UPBROW30966
 E  UPBROW30967
 E  UPBROW30968
 E  UPBROW30969
 E  UPBROW30970
 E  UPBROW30971
 E  UPBROW30972
 E  UPBROW30973
 E  UPBROW30974
 E  UPBROW30975
 E  UPBROW30976
 E  UPBROW30977
 E  UPBROW30978
 E  UPBROW30979
 E  UPBROW30980
 E  UPBROW30981
 E  UPBROW30982
 E  UPBROW30983
 E  UPBROW30984
 E  UPBROW30985
 E  UPBROW30986
 E  UPBROW30987
 E  UPBROW30988
 E  UPBROW30989
 E  UPBROW30990
 E  UPBROW30991
 E  UPBROW30992
 E  UPBROW30993
 E  UPBROW30994
 E  UPBROW30995
 E  UPBROW30996
 E  UPBROW30997
 E  UPBROW30998
 E  UPBROW30999
 E  UPBROW31000
 E  UPBROW31001
 E  UPBROW31002
 E  UPBROW31003
 E  UPBROW31004
 E  UPBROW31005
 E  UPBROW31006
 E  UPBROW31007
 E  UPBROW31008
 E  UPBROW31009
 E  UPBROW31010
 E  UPBROW31011
 E  UPBROW31012
 E  UPBROW31013
 E  UPBROW31014
 E  UPBROW31015
 E  UPBROW31016
 E  UPBROW31017
 E  UPBROW31018
 E  UPBROW31019
 E  UPBROW31020
 E  UPBROW31021
 E  UPBROW31022
 E  UPBROW31023
 E  UPBROW31024
 E  UPBROW31025
 E  UPBROW31026
 E  UPBROW31027
 E  UPBROW31028
 E  UPBROW31029
 E  UPBROW31030
 E  UPBROW31031
 E  UPBROW31032
 E  UPBROW31033
 E  UPBROW31034
 E  UPBROW31035
 E  UPBROW31036
 E  UPBROW31037
 E  UPBROW31038
 E  UPBROW31039
 E  UPBROW31040
 E  UPBROW31041
 E  UPBROW31042
 E  UPBROW31043
 E  UPBROW31044
 E  UPBROW31045
 E  UPBROW31046
 E  UPBROW31047
 E  UPBROW31048
 E  UPBROW31049
 E  UPBROW31050
 E  UPBROW31051
 E  UPBROW31052
 E  UPBROW31053
 E  UPBROW31054
 E  UPBROW31055
 E  UPBROW31056
 E  UPBROW31057
 E  UPBROW31058
 E  UPBROW31059
 E  UPBROW31060
 E  UPBROW31061
 E  UPBROW31062
 E  UPBROW31063
 E  UPBROW31064
 E  UPBROW31065
 E  UPBROW31066
 E  UPBROW31067
 E  UPBROW31068
 E  UPBROW31069
 E  UPBROW31070
 E  UPBROW31071
 E  UPBROW31072
 E  UPBROW31073
 E  UPBROW31074
 E  UPBROW31075
 E  UPBROW31076
 E  UPBROW31077
 E  UPBROW31078
 E  UPBROW31079
 E  UPBROW31080
 E  UPBROW31081
 E  UPBROW31082
 E  UPBROW31083
 E  UPBROW31084
 E  UPBROW31085
 E  UPBROW31086
 E  UPBROW31087
 E  UPBROW31088
 E  UPBROW31089
 E  UPBROW31090
 E  UPBROW31091
 E  UPBROW31092
 E  UPBROW31093
 E  UPBROW31094
 E  UPBROW31095
 E  UPBROW31096
 E  UPBROW31097
 E  UPBROW31098
 E  UPBROW31099
 E  UPBROW31100
 E  UPBROW31101
 E  UPBROW31102
 E  UPBROW31103
 E  UPBROW31104
 E  UPBROW31105
 E  UPBROW31106
 E  UPBROW31107
 E  UPBROW31108
 E  UPBROW31109
 E  UPBROW31110
 E  UPBROW31111
 E  UPBROW31112
 E  UPBROW31113
 E  UPBROW31114
 E  UPBROW31115
 E  UPBROW31116
 E  UPBROW31117
 E  UPBROW31118
 E  UPBROW31119
 E  UPBROW31120
 E  UPBROW31121
 E  UPBROW31122
 E  UPBROW31123
 E  UPBROW31124
 E  UPBROW31125
 E  UPBROW31126
 E  UPBROW31127
 E  UPBROW31128
 E  UPBROW31129
 E  UPBROW31130
 E  UPBROW31131
 E  UPBROW31132
 E  UPBROW31133
 E  UPBROW31134
 E  UPBROW31135
 E  UPBROW31136
 E  UPBROW31137
 E  UPBROW31138
 E  UPBROW31139
 E  UPBROW31140
 E  UPBROW31141
 E  UPBROW31142
 E  UPBROW31143
 E  UPBROW31144
 E  UPBROW31145
 E  UPBROW31146
 E  UPBROW31147
 E  UPBROW31148
 E  UPBROW31149
 E  UPBROW31150
 E  UPBROW31151
 E  UPBROW31152
 E  UPBROW31153
 E  UPBROW31154
 E  UPBROW31155
 E  UPBROW31156
 E  UPBROW31157
 E  UPBROW31158
 E  UPBROW31159
 E  UPBROW31160
 E  UPBROW31161
 E  UPBROW31162
 E  UPBROW31163
 E  UPBROW31164
 E  UPBROW31165
 E  UPBROW31166
 E  UPBROW31167
 E  UPBROW31168
 E  UPBROW31169
 E  UPBROW31170
 E  UPBROW31171
 E  UPBROW31172
 E  UPBROW31173
 E  UPBROW31174
 E  UPBROW31175
 E  UPBROW31176
 E  UPBROW31177
 E  UPBROW31178
 E  UPBROW31179
 E  UPBROW31180
 E  UPBROW31181
 E  UPBROW31182
 E  UPBROW31183
 E  UPBROW31184
 E  UPBROW31185
 E  UPBROW31186
 E  UPBROW31187
 E  UPBROW31188
 E  UPBROW31189
 E  UPBROW31190
 E  UPBROW31191
 E  UPBROW31192
 E  UPBROW31193
 E  UPBROW31194
 E  UPBROW31195
 E  UPBROW31196
 E  UPBROW31197
 E  UPBROW31198
 E  UPBROW31199
 E  UPBROW31200
 E  UPBROW31201
 E  UPBROW31202
 E  UPBROW31203
 E  UPBROW31204
 E  UPBROW31205
 E  UPBROW31206
 E  UPBROW31207
 E  UPBROW31208
 E  UPBROW31209
 E  UPBROW31210
 E  UPBROW31211
 E  UPBROW31212
 E  UPBROW31213
 E  UPBROW31214
 E  UPBROW31215
 E  UPBROW31216
 E  UPBROW31217
 E  UPBROW31218
 E  UPBROW31219
 E  UPBROW31220
 E  UPBROW31221
 E  UPBROW31222
 E  UPBROW31223
 E  UPBROW31224
 E  UPBROW31225
 E  UPBROW31226
 E  UPBROW31227
 E  UPBROW31228
 E  UPBROW31229
 E  UPBROW31230
 E  UPBROW31231
 E  UPBROW31232
 E  UPBROW31233
 E  UPBROW31234
 E  UPBROW31235
 E  UPBROW31236
 E  UPBROW31237
 E  UPBROW31238
 E  UPBROW31239
 E  UPBROW31240
 E  UPBROW31241
 E  UPBROW31242
 E  UPBROW31243
 E  UPBROW31244
 E  UPBROW31245
 E  UPBROW31246
 E  UPBROW31247
 E  UPBROW31248
 E  UPBROW31249
 E  UPBROW31250
 E  UPBROW31251
 E  UPBROW31252
 E  UPBROW31253
 E  UPBROW31254
 E  UPBROW31255
 E  UPBROW31256
 E  UPBROW31257
 E  UPBROW31258
 E  UPBROW31259
 E  UPBROW31260
 E  UPBROW31261
 E  UPBROW31262
 E  UPBROW31263
 E  UPBROW31264
 E  UPBROW31265
 E  UPBROW31266
 E  UPBROW31267
 E  UPBROW31268
 E  UPBROW31269
 E  UPBROW31270
 E  UPBROW31271
 E  UPBROW31272
 E  UPBROW31273
 E  UPBROW31274
 E  UPBROW31275
 E  UPBROW31276
 E  UPBROW31277
 E  UPBROW31278
 E  UPBROW31279
 E  UPBROW31280
 E  UPBROW31281
 E  UPBROW31282
 E  UPBROW31283
 E  UPBROW31284
 E  UPBROW31285
 E  UPBROW31286
 E  UPBROW31287
 E  UPBROW31288
 E  UPBROW31289
 E  UPBROW31290
 E  UPBROW31291
 E  UPBROW31292
 E  UPBROW31293
 E  UPBROW31294
 E  UPBROW31295
 E  UPBROW31296
 E  UPBROW31297
 E  UPBROW31298
 E  UPBROW31299
 E  UPBROW31300
 E  UPBROW31301
 E  UPBROW31302
 E  UPBROW31303
 E  UPBROW31304
 E  UPBROW31305
 E  UPBROW31306
 E  UPBROW31307
 E  UPBROW31308
 E  UPBROW31309
 E  UPBROW31310
 E  UPBROW31311
 E  UPBROW31312
 E  UPBROW31313
 E  UPBROW31314
 E  UPBROW31315
 E  UPBROW31316
 E  UPBROW31317
 E  UPBROW31318
 E  UPBROW31319
 E  UPBROW31320
 E  UPBROW31321
 E  UPBROW31322
 E  UPBROW31323
 E  UPBROW31324
 E  UPBROW31325
 E  UPBROW31326
 E  UPBROW31327
 E  UPBROW31328
 E  UPBROW31329
 E  UPBROW31330
 E  UPBROW31331
 E  UPBROW31332
 E  UPBROW31333
 E  UPBROW31334
 E  UPBROW31335
 E  UPBROW31336
 E  UPBROW31337
 E  UPBROW31338
 E  UPBROW31339
 E  UPBROW31340
 E  UPBROW31341
 E  UPBROW31342
 E  UPBROW31343
 E  UPBROW31344
 E  UPBROW31345
 E  UPBROW31346
 E  UPBROW31347
 E  UPBROW31348
 E  UPBROW31349
 E  UPBROW31350
 E  UPBROW31351
 E  UPBROW31352
 E  UPBROW31353
 E  UPBROW31354
 E  UPBROW31355
 E  UPBROW31356
 E  UPBROW31357
 E  UPBROW31358
 E  UPBROW31359
 E  UPBROW31360
 E  UPBROW31361
 E  UPBROW31362
 E  UPBROW31363
 E  UPBROW31364
 E  UPBROW31365
 E  UPBROW31366
 E  UPBROW31367
 E  UPBROW31368
 E  UPBROW31369
 E  UPBROW31370
 E  UPBROW31371
 E  UPBROW31372
 E  UPBROW31373
 E  UPBROW31374
 E  UPBROW31375
 E  UPBROW31376
 E  UPBROW31377
 E  UPBROW31378
 E  UPBROW31379
 E  UPBROW31380
 E  UPBROW31381
 E  UPBROW31382
 E  UPBROW31383
 E  UPBROW31384
 E  UPBROW31385
 E  UPBROW31386
 E  UPBROW31387
 E  UPBROW31388
 E  UPBROW31389
 E  UPBROW31390
 E  UPBROW31391
 E  UPBROW31392
 E  UPBROW31393
 E  UPBROW31394
 E  UPBROW31395
 E  UPBROW31396
 E  UPBROW31397
 E  UPBROW31398
 E  UPBROW31399
 E  UPBROW31400
 E  UPBROW31401
 E  UPBROW31402
 E  UPBROW31403
 E  UPBROW31404
 E  UPBROW31405
 E  UPBROW31406
 E  UPBROW31407
 E  UPBROW31408
 E  UPBROW31409
 E  UPBROW31410
 E  UPBROW31411
 E  UPBROW31412
 E  UPBROW31413
 E  UPBROW31414
 E  UPBROW31415
 E  UPBROW31416
 E  UPBROW31417
 E  UPBROW31418
 E  UPBROW31419
 E  UPBROW31420
 E  UPBROW31421
 E  UPBROW31422
 E  UPBROW31423
 E  UPBROW31424
 E  UPBROW31425
 E  UPBROW31426
 E  UPBROW31427
 E  UPBROW31428
 E  UPBROW31429
 E  UPBROW31430
 E  UPBROW31431
 E  UPBROW31432
 E  UPBROW31433
 E  UPBROW31434
 E  UPBROW31435
 E  UPBROW31436
 E  UPBROW31437
 E  UPBROW31438
 E  UPBROW31439
 E  UPBROW31440
 E  UPBROW31441
 E  UPBROW31442
 E  UPBROW31443
 E  UPBROW31444
 E  UPBROW31445
 E  UPBROW31446
 E  UPBROW31447
 E  UPBROW31448
 E  UPBROW31449
 E  UPBROW31450
 E  UPBROW31451
 E  UPBROW31452
 E  UPBROW31453
 E  UPBROW31454
 E  UPBROW31455
 E  UPBROW31456
 E  UPBROW31457
 E  UPBROW31458
 E  UPBROW31459
 E  UPBROW31460
 E  UPBROW31461
 E  UPBROW31462
 E  UPBROW31463
 E  UPBROW31464
 E  UPBROW31465
 E  UPBROW31466
 E  UPBROW31467
 E  UPBROW31468
 E  UPBROW31469
 E  UPBROW31470
 E  UPBROW31471
 E  UPBROW31472
 E  UPBROW31473
 E  UPBROW31474
 E  UPBROW31475
 E  UPBROW31476
 E  UPBROW31477
 E  UPBROW31478
 E  UPBROW31479
 E  UPBROW31480
 E  UPBROW31481
 E  UPBROW31482
 E  UPBROW31483
 E  UPBROW31484
 E  UPBROW31485
 E  UPBROW31486
 E  UPBROW31487
COLUMNS
    XI0101   PRI0201  -0.000066   PRI0401  -0.001575
    XI0101   PRI0501  -0.006836   PRI0601  -0.068339
    XI0101   PRI0701  -0.003500   PRI0801  -0.000372
    XI0101   PRI0901  -0.034585   PRI1001  -0.014700
    XI0101   PRI1201  -0.000033   PRI1301  -0.001006
    XI0101   PRI1401  -0.014208   PRI1601  -0.000087
    XI0101   PRI1701  -0.014689   PRI1801  -0.002100
    XI0101   PRI1901  -0.000219   PRI2001  -0.115197
    XI0101   PRI0101  0.690602
    XI0201   PRI0301  -0.000539   PRI0401  -0.001077
    XI0201   PRI0501  -0.007542   PRI0701  -0.006285
    XI0201   PRI0801  -0.000180   PRI0901  -0.029808
    XI0201   PRI1001  -0.012390   PRI1101  -0.013647
    XI0201   PRI1201  -0.003053   PRI1301  -0.000180
    XI0201   PRI1401  -0.070569   PRI1601  -0.000180
    XI0201   PRI1701  -0.008978   PRI1801  -0.027114
    XI0201   PRI1901  -0.000180   PRI2001  -0.142754
    XI0201   PRI0201  0.840546
    XI0301   PRI0501  -0.026987   PRI0701  -0.000345
    XI0301   PRI0801  -0.000058   PRI0901  -0.012889
    XI0301   PRI1001  -0.002071   PRI1101  -0.006790
    XI0301   PRI1401  -0.037459   PRI1601  -0.000230
    XI0301   PRI1701  -0.002877   PRI1801  -0.008401
    XI0301   PRI1901  -0.003050   PRI2001  -0.173370
    XI0301   PRI0301  0.972380
    XI0401   PRI0201  -0.001637   PRI0501  -0.013370
    XI0401   PRI0701  -0.003820   PRI0801  -0.005866
    XI0401   PRI0901  -0.050205   PRI1001  -0.018417
    XI0401   PRI1101  -0.030559   PRI1201  -0.002319
    XI0401   PRI1301  -0.002183   PRI1401  -0.084584
    XI0401   PRI1701  -0.010914   PRI1801  -0.037108
    XI0401   PRI1901  -0.009277   PRI2001  -0.159209
    XI0401   PRI0401  0.869577   UPBROW30608 1.000000
    XI0501   PRI0101  -0.002640   PRI0401  -0.008734
    XI0501   PRI0701  -0.003525   PRI0801  -0.003571
    XI0501   PRI0901  -0.011118   PRI1001  -0.019406
    XI0501   PRI1101  -0.016864   PRI1201  -0.027170
    XI0501   PRI1301  -0.000059   PRI1401  -0.298211
    XI0501   PRI1601  -0.000524   PRI1701  -0.029686
    XI0501   PRI1801  -0.000563   PRI1901  -0.000124
    XI0501   PRI2001  -0.207253   PRI0501  0.999712
    XI0501   UPBROW30609 1.000000
    XI0601   PRI0101  -0.338610   PRI0201  -0.000364
    XI0601   PRI0401  -0.000095   PRI0501  -0.001957
    XI0601   PRI0701  -0.001351   PRI0801  -0.023418
    XI0601   PRI0901  -0.010964   PRI1001  -0.001827
    XI0601   PRI1101  -0.000104   PRI1201  -0.000043
    XI0601   PRI1301  -0.000035   PRI1401  -0.045191
    XI0601   PRI1601  -0.000156   PRI1701  -0.022673
    XI0601   PRI1801  -0.003482   PRI1901  -0.002165
    XI0601   PRI2001  -0.103173   PRI0601  0.805874
    XI0601   UPBROW30610 1.000000
    XI0701   PRI0101  -0.048259   PRI0201  -0.000457
    XI0701   PRI0401  -0.000016   PRI0501  -0.001778
    XI0701   PRI0601  -0.001599   PRI0801  -0.009560
    XI0701   PRI0901  -0.076794   PRI1001  -0.001109
    XI0701   PRI1201  -0.000049   PRI1301  -0.000131
    XI0701   PRI1401  -0.019790   PRI1601  -0.000294
    XI0701   PRI1701  -0.011926   PRI1801  -0.006249
    XI0701   PRI1901  -0.001468   PRI2001  -0.084706
    XI0701   PRI0701  0.576973   UPBROW30611 1.000000
    XI0801   PRI0201  -0.003618   PRI0401  -0.003519
    XI0801   PRI0501  -0.005942   PRI0601  -0.009694
    XI0801   PRI0701  -0.011055   PRI0901  -0.062610
    XI0801   PRI1001  -0.005876   PRI1101  -0.001261
    XI0801   PRI1201  -0.001029   PRI1401  -0.094579
    XI0801   PRI1601  -0.000166   PRI1701  -0.032334
    XI0801   PRI1801  -0.011055   PRI1901  -0.006805
    XI0801   PRI2001  -0.103575   PRI0801  0.725027
    XI0801   UPBROW30612 1.000000
    XI0901   PRI0101  -0.001411   PRI0201  -0.002540
    XI0901   PRI0301  -0.001129   PRI0401  -0.014856
    XI0901   PRI0501  -0.005063   PRI0601  -0.007818
    XI0901   PRI0701  -0.024948   PRI0801  -0.024632
    XI0901   PRI1001  -0.037944   PRI1101  -0.004365
    XI0901   PRI1201  -0.007752   PRI1301  -0.002523
    XI0901   PRI1401  -0.047572   PRI1601  -0.000398
    XI0901   PRI1701  -0.019537   PRI1801  -0.013843
    XI0901   PRI1901  -0.008449   PRI2001  -0.115642
    XI0901   PRI0901  0.733625   UPBROW30613 1.000000
    XI1001   PRI0201  -0.000367   PRI0301  -0.460145
    XI1001   PRI0401  -0.002047   PRI0501  -0.011090
    XI1001   PRI0601  -0.001619   PRI0701  -0.000092
    XI1001   PRI0801  -0.006019   PRI0901  -0.023770
    XI1001   PRI1101  -0.000244   PRI1201  -0.001466
    XI1001   PRI1301  -0.000092   PRI1401  -0.013015
    XI1001   PRI1601  -0.000031   PRI1701  -0.035563
    XI1001   PRI1801  -0.005622   PRI1901  -0.010815
    XI1001   PRI2001  -0.076136   PRI1001  0.937888
    XI1001   UPBROW30614 1.000000
    XI1101   PRI0201  -0.026280   PRI0401  -0.047844
    XI1101   PRI0501  -0.009677   PRI0601  -0.000027
    XI1101   PRI0701  -0.000782   PRI0801  -0.001078
    XI1101   PRI0901  -0.016038   PRI1001  -0.004232
    XI1101   PRI1201  -0.033531   PRI1301  -0.005202
    XI1101   PRI1401  -0.070863   PRI1601  -0.000243
    XI1101   PRI1701  -0.042965   PRI1801  -0.018113
    XI1101   PRI1901  -0.015040   PRI2001  -0.122480
    XI1101   PRI1101  0.800189   UPBROW30615 1.000000
    XI1201   PRI0201  -0.000753   PRI0401  -0.067166
    XI1201   PRI0501  -0.003464   PRI0601  -0.000678
    XI1201   PRI0701  -0.001129   PRI0801  -0.002000
    XI1201   PRI0901  -0.022401   PRI1001  -0.002635
    XI1201   PRI1101  -0.016904   PRI1301  -0.002598
    XI1201   PRI1401  -0.053311   PRI1601  -0.000301
    XI1201   PRI1701  -0.022326   PRI1801  -0.017206
    XI1201   PRI1901  -0.008772   PRI2001  -0.134483
    XI1201   PRI1201  0.606604   UPBROW30616 1.000000
    XI1301   PRI0201  -0.000355   PRI0501  -0.002449
    XI1301   PRI0701  -0.016934   PRI0801  -0.002466
    XI1301   PRI0901  -0.023804   PRI1001  -0.002215
    XI1301   PRI1101  -0.064066   PRI1201  -0.023891
    XI1301   PRI1401  -0.173612   PRI1601  -0.001402
    XI1301   PRI1701  -0.014122   PRI1801  -0.003989
    XI1301   PRI1901  -0.001194   PRI2001  -0.092301
    XI1301   PRI1301  0.724759   UPBROW30617 1.000000
    XI1401   PRI0101  -0.015773   PRI0201  -0.000483
    XI1401   PRI0401  -0.003674   PRI0501  -0.003179
    XI1401   PRI0601  -0.003954   PRI0701  -0.006703
    XI1401   PRI0801  -0.028331   PRI0901  -0.038343
    XI1401   PRI1001  -0.003297   PRI1101  -0.059222
    XI1401   PRI1201  -0.031024   PRI1301  -0.013418
    XI1401   PRI1501  -0.000006   PRI1601  0.000047
    XI1401   PRI1701  -0.013645   PRI1801  -0.005793
    XI1401   PRI1901  -0.003029   PRI2001  -0.122929
    XI1401   PRI1401  0.780186   UPBROW30618 1.000000
    XI1501   PRI0501  -0.001300   PRI0701  -0.001300
    XI1501   PRI0801  -0.000557   PRI0901  -0.008174
    XI1501   PRI1001  -0.018020   PRI1101  -0.000743
    XI1501   PRI1301  -0.002601   PRI1401  -0.012447
    XI1501   PRI1701  -0.011704   PRI1801  -0.003901
    XI1501   PRI1901  -0.000557   PRI2001  -0.309493
    XI1501   PRI1501  0.997771   UPBROW30619 1.000000
    XI1601   PRI0101  -0.000838   PRI0201  -0.000076
    XI1601   PRI0501  -0.001523   PRI0601  -0.022011
    XI1601   PRI0701  -0.001142   PRI0801  -0.001523
    XI1601   PRI0901  -0.002818   PRI1001  -0.052171
    XI1601   PRI1101  -0.000076   PRI1301  -0.035187
    XI1601   PRI1401  -0.007007   PRI1701  -0.032216
    XI1601   PRI1801  -0.001219   PRI1901  -0.000533
    XI1601   PRI2001  -0.171516   PRI1601  0.949886
    XI1601   UPBROW30620 1.000000
    XI1701   PRI0101  -0.001548   PRI0201  -0.000178
    XI1701   PRI0301  -0.000783   PRI0401  -0.000036
    XI1701   PRI0501  -0.017634   PRI0601  -0.000160
    XI1701   PRI0701  -0.003221   PRI0801  -0.001940
    XI1701   PRI0901  -0.007918   PRI1001  -0.030196
    XI1701   PRI1101  -0.003577   PRI1201  -0.001424
    XI1701   PRI1301  -0.013577   PRI1401  -0.011869
    XI1701   PRI1501  -0.000819   PRI1601  -0.001032
    XI1701   PRI1801  -0.003915   PRI1901  -0.000890
    XI1701   PRI2001  -0.166071   PRI1701  0.878788
    XI1701   UPBROW30621 1.000000
    XI1801   PRI0201  -0.059245   PRI0401  -0.000062
    XI1801   PRI0501  -0.041988   PRI0601  -0.000123
    XI1801   PRI0701  -0.000584   PRI0801  -0.001784
    XI1801   PRI0901  -0.003722   PRI1001  -0.014704
    XI1801   PRI1101  -0.001015   PRI1201  -0.000615
    XI1801   PRI1301  -0.000277   PRI1401  -0.007536
    XI1801   PRI1601  -0.000031   PRI1701  -0.028884
    XI1801   PRI1901  -0.041189   PRI2001  -0.054785
    XI1801   PRI1801  0.878803   UPBROW30622 1.000000
    XI1901   PRI0201  -0.000234   PRI0301  -0.183070
    XI1901   PRI0501  -0.014421   PRI0701  -0.000281
    XI1901   PRI0801  -0.000468   PRI0901  -0.000047
    XI1901   PRI1001  -0.000702   PRI1101  -0.001077
    XI1901   PRI1401  -0.000094   PRI1701  -0.000187
    XI1901   PRI1801  -0.002201   PRI2001  -0.049724
    XI1901   PRI1901  0.660127   UPBROW30623 1.000000
    XI2001   PRI0101  -0.005020   PRI0201  -0.000102
    XI2001   PRI0301  -0.000184   PRI0401  -0.000054
    XI2001   PRI0501  -0.012360   PRI0601  -0.008987
    XI2001   PRI0701  -0.001156   PRI0801  -0.004593
    XI2001   PRI0901  -0.005133   PRI1001  -0.004367
    XI2001   PRI1101  -0.000564   PRI1201  -0.000503
    XI2001   PRI1301  -0.004285   PRI1401  -0.043513
    XI2001   PRI1501  -0.000877   PRI1601  -0.006966
    XI2001   PRI1701  -0.006210   PRI1801  -0.008192
    XI2001   PRI1901  -0.002209   PRI2001  0.817877
    XI2001   UPBROW30624 1.000000
    YI0101   PRI0101  -1.000000   REVENUE  -1.000000
    YI0101   UPBROW30982 1.000000
    YI0201   PRI0201  -1.000000   REVENUE  -1.000000
    YI0201   UPBROW30983 1.000000
    YI0301   PRI0301  -1.000000   REVENUE  -1.000000
    YI0301   UPBROW30984 1.000000
    SI0101   PRI0102  1.000000   PRI0101  -1.000000
    SI0101   UPBROW31422 1.000000
    SI0201   PRI0202  1.000000   PRI0201  -1.000000
    SI0201   UPBROW31423 1.000000
    SI0301   PRI0302  1.000000   PRI0301  -1.000000
    SI0301   UPBROW31424 1.000000
    SI0401   PRI0402  1.000000   PRI0401  -1.000000
    SI0401   UPBROW31048 1.000000
    SI0501   PRI0502  1.000000   PRI0501  -1.000000
    SI0501   UPBROW31049 1.000000
    SI0601   PRI0602  1.000000   PRI0601  -1.000000
    SI0601   UPBROW31050 1.000000
    SI0701   PRI0702  1.000000   PRI0701  -1.000000
    SI0701   UPBROW31051 1.000000
    SI0801   PRI0802  1.000000   PRI0801  -1.000000
    SI0801   UPBROW31052 1.000000
    SI0901   PRI0902  1.000000   PRI0901  -1.000000
    SI0901   UPBROW31053 1.000000
    SI1001   PRI1002  1.000000   PRI1001  -1.000000
    SI1001   UPBROW31054 1.000000
    SI1101   PRI1102  1.000000   PRI1101  -1.000000
    SI1101   UPBROW31055 1.000000
    SI1201   PRI1202  1.000000   PRI1201  -1.000000
    SI1201   UPBROW31056 1.000000
    SI1301   PRI1302  1.000000   PRI1301  -1.000000
    SI1301   UPBROW31057 1.000000
    SI1401   PRI1402  1.000000   PRI1401  -1.000000
    SI1401   UPBROW31058 1.000000
    SI1501   PRI1502  1.000000   PRI1501  -1.000000
    SI1501   UPBROW31059 1.000000
    SI1601   PRI1602  1.000000   PRI1601  -1.000000
    SI1601   UPBROW31060 1.000000
    SI1701   PRI1702  1.000000   PRI1701  -1.000000
    SI1701   UPBROW31061 1.000000
    SI1801   PRI1802  1.000000   PRI1801  -1.000000
    SI1801   UPBROW31062 1.000000
    SI1901   PRI1902  1.000000   PRI1901  -1.000000
    SI1901   UPBROW31063 1.000000
    SI2001   PRI2002  1.000000   PRI2001  -1.000000
    SI2001   UPBROW31064 1.000000
    XI0102   PRI0202  -0.000066   PRI0402  -0.001575
    XI0102   PRI0502  -0.006836   PRI0602  -0.068339
    XI0102   PRI0702  -0.003500   PRI0802  -0.000372
    XI0102   PRI0902  -0.034585   PRI1002  -0.014700
    XI0102   PRI1202  -0.000033   PRI1302  -0.001006
    XI0102   PRI1402  -0.014208   PRI1602  -0.000087
    XI0102   PRI1702  -0.014689   PRI1802  -0.002100
    XI0102   PRI1902  -0.000219   PRI2002  -0.115197
    XI0102   PRI0102  0.690602
    XI0202   PRI0302  -0.000539   PRI0402  -0.001077
    XI0202   PRI0502  -0.007542   PRI0702  -0.006285
    XI0202   PRI0802  -0.000180   PRI0902  -0.029808
    XI0202   PRI1002  -0.012390   PRI1102  -0.013647
    XI0202   PRI1202  -0.003053   PRI1302  -0.000180
    XI0202   PRI1402  -0.070569   PRI1602  -0.000180
    XI0202   PRI1702  -0.008978   PRI1802  -0.027114
    XI0202   PRI1902  -0.000180   PRI2002  -0.142754
    XI0202   PRI0202  0.840546
    XI0302   PRI0502  -0.026987   PRI0702  -0.000345
    XI0302   PRI0802  -0.000058   PRI0902  -0.012889
    XI0302   PRI1002  -0.002071   PRI1102  -0.006790
    XI0302   PRI1402  -0.037459   PRI1602  -0.000230
    XI0302   PRI1702  -0.002877   PRI1802  -0.008401
    XI0302   PRI1902  -0.003050   PRI2002  -0.173370
    XI0302   PRI0302  0.972380
    XI0402   PRI0202  -0.001637   PRI0502  -0.013370
    XI0402   PRI0702  -0.003820   PRI0802  -0.005866
    XI0402   PRI0902  -0.050205   PRI1002  -0.018417
    XI0402   PRI1102  -0.030559   PRI1202  -0.002319
    XI0402   PRI1302  -0.002183   PRI1402  -0.084584
    XI0402   PRI1702  -0.010914   PRI1802  -0.037108
    XI0402   PRI1902  -0.009277   PRI2002  -0.159209
    XI0402   PRI0402  0.869577   UPBROW30625 1.000000
    XI0502   PRI0102  -0.002640   PRI0402  -0.008734
    XI0502   PRI0702  -0.003525   PRI0802  -0.003571
    XI0502   PRI0902  -0.011118   PRI1002  -0.019406
    XI0502   PRI1102  -0.016864   PRI1202  -0.027170
    XI0502   PRI1302  -0.000059   PRI1402  -0.298211
    XI0502   PRI1602  -0.000524   PRI1702  -0.029686
    XI0502   PRI1802  -0.000563   PRI1902  -0.000124
    XI0502   PRI2002  -0.207253   PRI0502  0.999712
    XI0502   UPBROW30626 1.000000
    XI0602   PRI0102  -0.338610   PRI0202  -0.000364
    XI0602   PRI0402  -0.000095   PRI0502  -0.001957
    XI0602   PRI0702  -0.001351   PRI0802  -0.023418
    XI0602   PRI0902  -0.010964   PRI1002  -0.001827
    XI0602   PRI1102  -0.000104   PRI1202  -0.000043
    XI0602   PRI1302  -0.000035   PRI1402  -0.045191
    XI0602   PRI1602  -0.000156   PRI1702  -0.022673
    XI0602   PRI1802  -0.003482   PRI1902  -0.002165
    XI0602   PRI2002  -0.103173   PRI0602  0.805874
    XI0602   UPBROW30627 1.000000
    XI0702   PRI0102  -0.048259   PRI0202  -0.000457
    XI0702   PRI0402  -0.000016   PRI0502  -0.001778
    XI0702   PRI0602  -0.001599   PRI0802  -0.009560
    XI0702   PRI0902  -0.076794   PRI1002  -0.001109
    XI0702   PRI1202  -0.000049   PRI1302  -0.000131
    XI0702   PRI1402  -0.019790   PRI1602  -0.000294
    XI0702   PRI1702  -0.011926   PRI1802  -0.006249
    XI0702   PRI1902  -0.001468   PRI2002  -0.084706
    XI0702   PRI0702  0.576973   UPBROW30628 1.000000
    XI0802   PRI0202  -0.003618   PRI0402  -0.003519
    XI0802   PRI0502  -0.005942   PRI0602  -0.009694
    XI0802   PRI0702  -0.011055   PRI0902  -0.062610
    XI0802   PRI1002  -0.005876   PRI1102  -0.001261
    XI0802   PRI1202  -0.001029   PRI1402  -0.094579
    XI0802   PRI1602  -0.000166   PRI1702  -0.032334
    XI0802   PRI1802  -0.011055   PRI1902  -0.006805
    XI0802   PRI2002  -0.103575   PRI0802  0.725027
    XI0802   UPBROW30629 1.000000
    XI0902   PRI0102  -0.001411   PRI0202  -0.002540
    XI0902   PRI0302  -0.001129   PRI0402  -0.014856
    XI0902   PRI0502  -0.005063   PRI0602  -0.007818
    XI0902   PRI0702  -0.024948   PRI0802  -0.024632
    XI0902   PRI1002  -0.037944   PRI1102  -0.004365
    XI0902   PRI1202  -0.007752   PRI1302  -0.002523
    XI0902   PRI1402  -0.047572   PRI1602  -0.000398
    XI0902   PRI1702  -0.019537   PRI1802  -0.013843
    XI0902   PRI1902  -0.008449   PRI2002  -0.115642
    XI0902   PRI0902  0.733625   UPBROW30630 1.000000
    XI1002   PRI0202  -0.000367   PRI0302  -0.460145
    XI1002   PRI0402  -0.002047   PRI0502  -0.011090
    XI1002   PRI0602  -0.001619   PRI0702  -0.000092
    XI1002   PRI0802  -0.006019   PRI0902  -0.023770
    XI1002   PRI1102  -0.000244   PRI1202  -0.001466
    XI1002   PRI1302  -0.000092   PRI1402  -0.013015
    XI1002   PRI1602  -0.000031   PRI1702  -0.035563
    XI1002   PRI1802  -0.005622   PRI1902  -0.010815
    XI1002   PRI2002  -0.076136   PRI1002  0.937888
    XI1002   UPBROW30631 1.000000
    XI1102   PRI0202  -0.026280   PRI0402  -0.047844
    XI1102   PRI0502  -0.009677   PRI0602  -0.000027
    XI1102   PRI0702  -0.000782   PRI0802  -0.001078
    XI1102   PRI0902  -0.016038   PRI1002  -0.004232
    XI1102   PRI1202  -0.033531   PRI1302  -0.005202
    XI1102   PRI1402  -0.070863   PRI1602  -0.000243
    XI1102   PRI1702  -0.042965   PRI1802  -0.018113
    XI1102   PRI1902  -0.015040   PRI2002  -0.122480
    XI1102   PRI1102  0.800189   UPBROW30632 1.000000
    XI1202   PRI0202  -0.000753   PRI0402  -0.067166
    XI1202   PRI0502  -0.003464   PRI0602  -0.000678
    XI1202   PRI0702  -0.001129   PRI0802  -0.002000
    XI1202   PRI0902  -0.022401   PRI1002  -0.002635
    XI1202   PRI1102  -0.016904   PRI1302  -0.002598
    XI1202   PRI1402  -0.053311   PRI1602  -0.000301
    XI1202   PRI1702  -0.022326   PRI1802  -0.017206
    XI1202   PRI1902  -0.008772   PRI2002  -0.134483
    XI1202   PRI1202  0.606604   UPBROW30633 1.000000
    XI1302   PRI0202  -0.000355   PRI0502  -0.002449
    XI1302   PRI0702  -0.016934   PRI0802  -0.002466
    XI1302   PRI0902  -0.023804   PRI1002  -0.002215
    XI1302   PRI1102  -0.064066   PRI1202  -0.023891
    XI1302   PRI1402  -0.173612   PRI1602  -0.001402
    XI1302   PRI1702  -0.014122   PRI1802  -0.003989
    XI1302   PRI1902  -0.001194   PRI2002  -0.092301
    XI1302   PRI1302  0.724759   UPBROW30634 1.000000
    XI1402   PRI0102  -0.015773   PRI0202  -0.000483
    XI1402   PRI0402  -0.003674   PRI0502  -0.003179
    XI1402   PRI0602  -0.003954   PRI0702  -0.006703
    XI1402   PRI0802  -0.028331   PRI0902  -0.038343
    XI1402   PRI1002  -0.003297   PRI1102  -0.059222
    XI1402   PRI1202  -0.031024   PRI1302  -0.013418
    XI1402   PRI1502  -0.000006   PRI1602  0.000047
    XI1402   PRI1702  -0.013645   PRI1802  -0.005793
    XI1402   PRI1902  -0.003029   PRI2002  -0.122929
    XI1402   PRI1402  0.780186   UPBROW30635 1.000000
    XI1502   PRI0502  -0.001300   PRI0702  -0.001300
    XI1502   PRI0802  -0.000557   PRI0902  -0.008174
    XI1502   PRI1002  -0.018020   PRI1102  -0.000743
    XI1502   PRI1302  -0.002601   PRI1402  -0.012447
    XI1502   PRI1702  -0.011704   PRI1802  -0.003901
    XI1502   PRI1902  -0.000557   PRI2002  -0.309493
    XI1502   PRI1502  0.997771   UPBROW30636 1.000000
    XI1602   PRI0102  -0.000838   PRI0202  -0.000076
    XI1602   PRI0502  -0.001523   PRI0602  -0.022011
    XI1602   PRI0702  -0.001142   PRI0802  -0.001523
    XI1602   PRI0902  -0.002818   PRI1002  -0.052171
    XI1602   PRI1102  -0.000076   PRI1302  -0.035187
    XI1602   PRI1402  -0.007007   PRI1702  -0.032216
    XI1602   PRI1802  -0.001219   PRI1902  -0.000533
    XI1602   PRI2002  -0.171516   PRI1602  0.949886
    XI1602   UPBROW30637 1.000000
    XI1702   PRI0102  -0.001548   PRI0202  -0.000178
    XI1702   PRI0302  -0.000783   PRI0402  -0.000036
    XI1702   PRI0502  -0.017634   PRI0602  -0.000160
    XI1702   PRI0702  -0.003221   PRI0802  -0.001940
    XI1702   PRI0902  -0.007918   PRI1002  -0.030196
    XI1702   PRI1102  -0.003577   PRI1202  -0.001424
    XI1702   PRI1302  -0.013577   PRI1402  -0.011869
    XI1702   PRI1502  -0.000819   PRI1602  -0.001032
    XI1702   PRI1802  -0.003915   PRI1902  -0.000890
    XI1702   PRI2002  -0.166071   PRI1702  0.878788
    XI1702   UPBROW30638 1.000000
    XI1802   PRI0202  -0.059245   PRI0402  -0.000062
    XI1802   PRI0502  -0.041988   PRI0602  -0.000123
    XI1802   PRI0702  -0.000584   PRI0802  -0.001784
    XI1802   PRI0902  -0.003722   PRI1002  -0.014704
    XI1802   PRI1102  -0.001015   PRI1202  -0.000615
    XI1802   PRI1302  -0.000277   PRI1402  -0.007536
    XI1802   PRI1602  -0.000031   PRI1702  -0.028884
    XI1802   PRI1902  -0.041189   PRI2002  -0.054785
    XI1802   PRI1802  0.878803   UPBROW30639 1.000000
    XI1902   PRI0202  -0.000234   PRI0302  -0.183070
    XI1902   PRI0502  -0.014421   PRI0702  -0.000281
    XI1902   PRI0802  -0.000468   PRI0902  -0.000047
    XI1902   PRI1002  -0.000702   PRI1102  -0.001077
    XI1902   PRI1402  -0.000094   PRI1702  -0.000187
    XI1902   PRI1802  -0.002201   PRI2002  -0.049724
    XI1902   PRI1902  0.660127   UPBROW30640 1.000000
    XI2002   PRI0102  -0.005020   PRI0202  -0.000102
    XI2002   PRI0302  -0.000184   PRI0402  -0.000054
    XI2002   PRI0502  -0.012360   PRI0602  -0.008987
    XI2002   PRI0702  -0.001156   PRI0802  -0.004593
    XI2002   PRI0902  -0.005133   PRI1002  -0.004367
    XI2002   PRI1102  -0.000564   PRI1202  -0.000503
    XI2002   PRI1302  -0.004285   PRI1402  -0.043513
    XI2002   PRI1502  -0.000877   PRI1602  -0.006966
    XI2002   PRI1702  -0.006210   PRI1802  -0.008192
    XI2002   PRI1902  -0.002209   PRI2002  0.817877
    XI2002   UPBROW30641 1.000000
    YI0102   PRI0102  -1.000000   REVENUE  -7.000000
    YI0102   UPBROW30985 1.000000
    YI0202   PRI0202  -1.000000   REVENUE  -4.000000
    YI0202   UPBROW30986 1.000000
    YI0302   PRI0302  -1.000000   REVENUE  -3.000000
    YI0302   UPBROW30987 1.000000
    SI0102   PRI0103  1.000000   PRI0102  -1.000000
    SI0102   UPBROW31425 1.000000
    SI0202   PRI0203  1.000000   PRI0202  -1.000000
    SI0202   UPBROW31426 1.000000
    SI0302   PRI0303  1.000000   PRI0302  -1.000000
    SI0302   UPBROW31427 1.000000
    SI0402   PRI0403  1.000000   PRI0402  -1.000000
    SI0402   UPBROW31065 1.000000
    SI0502   PRI0503  1.000000   PRI0502  -1.000000
    SI0502   UPBROW31066 1.000000
    SI0602   PRI0603  1.000000   PRI0602  -1.000000
    SI0602   UPBROW31067 1.000000
    SI0702   PRI0703  1.000000   PRI0702  -1.000000
    SI0702   UPBROW31068 1.000000
    SI0802   PRI0803  1.000000   PRI0802  -1.000000
    SI0802   UPBROW31069 1.000000
    SI0902   PRI0903  1.000000   PRI0902  -1.000000
    SI0902   UPBROW31070 1.000000
    SI1002   PRI1003  1.000000   PRI1002  -1.000000
    SI1002   UPBROW31071 1.000000
    SI1102   PRI1103  1.000000   PRI1102  -1.000000
    SI1102   UPBROW31072 1.000000
    SI1202   PRI1203  1.000000   PRI1202  -1.000000
    SI1202   UPBROW31073 1.000000
    SI1302   PRI1303  1.000000   PRI1302  -1.000000
    SI1302   UPBROW31074 1.000000
    SI1402   PRI1403  1.000000   PRI1402  -1.000000
    SI1402   UPBROW31075 1.000000
    SI1502   PRI1503  1.000000   PRI1502  -1.000000
    SI1502   UPBROW31076 1.000000
    SI1602   PRI1603  1.000000   PRI1602  -1.000000
    SI1602   UPBROW31077 1.000000
    SI1702   PRI1703  1.000000   PRI1702  -1.000000
    SI1702   UPBROW31078 1.000000
    SI1802   PRI1803  1.000000   PRI1802  -1.000000
    SI1802   UPBROW31079 1.000000
    SI1902   PRI1903  1.000000   PRI1902  -1.000000
    SI1902   UPBROW31080 1.000000
    SI2002   PRI2003  1.000000   PRI2002  -1.000000
    SI2002   UPBROW31081 1.000000
    XI0103   PRI0203  -0.000066   PRI0403  -0.001575
    XI0103   PRI0503  -0.006836   PRI0603  -0.068339
    XI0103   PRI0703  -0.003500   PRI0803  -0.000372
    XI0103   PRI0903  -0.034585   PRI1003  -0.014700
    XI0103   PRI1203  -0.000033   PRI1303  -0.001006
    XI0103   PRI1403  -0.014208   PRI1603  -0.000087
    XI0103   PRI1703  -0.014689   PRI1803  -0.002100
    XI0103   PRI1903  -0.000219   PRI2003  -0.115197
    XI0103   PRI0103  0.690602
    XI0203   PRI0303  -0.000539   PRI0403  -0.001077
    XI0203   PRI0503  -0.007542   PRI0703  -0.006285
    XI0203   PRI0803  -0.000180   PRI0903  -0.029808
    XI0203   PRI1003  -0.012390   PRI1103  -0.013647
    XI0203   PRI1203  -0.003053   PRI1303  -0.000180
    XI0203   PRI1403  -0.070569   PRI1603  -0.000180
    XI0203   PRI1703  -0.008978   PRI1803  -0.027114
    XI0203   PRI1903  -0.000180   PRI2003  -0.142754
    XI0203   PRI0203  0.840546
    XI0303   PRI0503  -0.026987   PRI0703  -0.000345
    XI0303   PRI0803  -0.000058   PRI0903  -0.012889
    XI0303   PRI1003  -0.002071   PRI1103  -0.006790
    XI0303   PRI1403  -0.037459   PRI1603  -0.000230
    XI0303   PRI1703  -0.002877   PRI1803  -0.008401
    XI0303   PRI1903  -0.003050   PRI2003  -0.173370
    XI0303   PRI0303  0.972380
    XI0403   PRI0203  -0.001637   PRI0503  -0.013370
    XI0403   PRI0703  -0.003820   PRI0803  -0.005866
    XI0403   PRI0903  -0.050205   PRI1003  -0.018417
    XI0403   PRI1103  -0.030559   PRI1203  -0.002319
    XI0403   PRI1303  -0.002183   PRI1403  -0.084584
    XI0403   PRI1703  -0.010914   PRI1803  -0.037108
    XI0403   PRI1903  -0.009277   PRI2003  -0.159209
    XI0403   PRI0403  0.869577   UPBROW30642 1.000000
    XI0503   PRI0103  -0.002640   PRI0403  -0.008734
    XI0503   PRI0703  -0.003525   PRI0803  -0.003571
    XI0503   PRI0903  -0.011118   PRI1003  -0.019406
    XI0503   PRI1103  -0.016864   PRI1203  -0.027170
    XI0503   PRI1303  -0.000059   PRI1403  -0.298211
    XI0503   PRI1603  -0.000524   PRI1703  -0.029686
    XI0503   PRI1803  -0.000563   PRI1903  -0.000124
    XI0503   PRI2003  -0.207253   PRI0503  0.999712
    XI0503   UPBROW30643 1.000000
    XI0603   PRI0103  -0.338610   PRI0203  -0.000364
    XI0603   PRI0403  -0.000095   PRI0503  -0.001957
    XI0603   PRI0703  -0.001351   PRI0803  -0.023418
    XI0603   PRI0903  -0.010964   PRI1003  -0.001827
    XI0603   PRI1103  -0.000104   PRI1203  -0.000043
    XI0603   PRI1303  -0.000035   PRI1403  -0.045191
    XI0603   PRI1603  -0.000156   PRI1703  -0.022673
    XI0603   PRI1803  -0.003482   PRI1903  -0.002165
    XI0603   PRI2003  -0.103173   PRI0603  0.805874
    XI0603   UPBROW30644 1.000000
    XI0703   PRI0103  -0.048259   PRI0203  -0.000457
    XI0703   PRI0403  -0.000016   PRI0503  -0.001778
    XI0703   PRI0603  -0.001599   PRI0803  -0.009560
    XI0703   PRI0903  -0.076794   PRI1003  -0.001109
    XI0703   PRI1203  -0.000049   PRI1303  -0.000131
    XI0703   PRI1403  -0.019790   PRI1603  -0.000294
    XI0703   PRI1703  -0.011926   PRI1803  -0.006249
    XI0703   PRI1903  -0.001468   PRI2003  -0.084706
    XI0703   PRI0703  0.576973   UPBROW30645 1.000000
    XI0803   PRI0203  -0.003618   PRI0403  -0.003519
    XI0803   PRI0503  -0.005942   PRI0603  -0.009694
    XI0803   PRI0703  -0.011055   PRI0903  -0.062610
    XI0803   PRI1003  -0.005876   PRI1103  -0.001261
    XI0803   PRI1203  -0.001029   PRI1403  -0.094579
    XI0803   PRI1603  -0.000166   PRI1703  -0.032334
    XI0803   PRI1803  -0.011055   PRI1903  -0.006805
    XI0803   PRI2003  -0.103575   PRI0803  0.725027
    XI0803   UPBROW30646 1.000000
    XI0903   PRI0103  -0.001411   PRI0203  -0.002540
    XI0903   PRI0303  -0.001129   PRI0403  -0.014856
    XI0903   PRI0503  -0.005063   PRI0603  -0.007818
    XI0903   PRI0703  -0.024948   PRI0803  -0.024632
    XI0903   PRI1003  -0.037944   PRI1103  -0.004365
    XI0903   PRI1203  -0.007752   PRI1303  -0.002523
    XI0903   PRI1403  -0.047572   PRI1603  -0.000398
    XI0903   PRI1703  -0.019537   PRI1803  -0.013843
    XI0903   PRI1903  -0.008449   PRI2003  -0.115642
    XI0903   PRI0903  0.733625   UPBROW30647 1.000000
    XI1003   PRI0203  -0.000367   PRI0303  -0.460145
    XI1003   PRI0403  -0.002047   PRI0503  -0.011090
    XI1003   PRI0603  -0.001619   PRI0703  -0.000092
    XI1003   PRI0803  -0.006019   PRI0903  -0.023770
    XI1003   PRI1103  -0.000244   PRI1203  -0.001466
    XI1003   PRI1303  -0.000092   PRI1403  -0.013015
    XI1003   PRI1603  -0.000031   PRI1703  -0.035563
    XI1003   PRI1803  -0.005622   PRI1903  -0.010815
    XI1003   PRI2003  -0.076136   PRI1003  0.937888
    XI1003   UPBROW30648 1.000000
    XI1103   PRI0203  -0.026280   PRI0403  -0.047844
    XI1103   PRI0503  -0.009677   PRI0603  -0.000027
    XI1103   PRI0703  -0.000782   PRI0803  -0.001078
    XI1103   PRI0903  -0.016038   PRI1003  -0.004232
    XI1103   PRI1203  -0.033531   PRI1303  -0.005202
    XI1103   PRI1403  -0.070863   PRI1603  -0.000243
    XI1103   PRI1703  -0.042965   PRI1803  -0.018113
    XI1103   PRI1903  -0.015040   PRI2003  -0.122480
    XI1103   PRI1103  0.800189   UPBROW30649 1.000000
    XI1203   PRI0203  -0.000753   PRI0403  -0.067166
    XI1203   PRI0503  -0.003464   PRI0603  -0.000678
    XI1203   PRI0703  -0.001129   PRI0803  -0.002000
    XI1203   PRI0903  -0.022401   PRI1003  -0.002635
    XI1203   PRI1103  -0.016904   PRI1303  -0.002598
    XI1203   PRI1403  -0.053311   PRI1603  -0.000301
    XI1203   PRI1703  -0.022326   PRI1803  -0.017206
    XI1203   PRI1903  -0.008772   PRI2003  -0.134483
    XI1203   PRI1203  0.606604   UPBROW30650 1.000000
    XI1303   PRI0203  -0.000355   PRI0503  -0.002449
    XI1303   PRI0703  -0.016934   PRI0803  -0.002466
    XI1303   PRI0903  -0.023804   PRI1003  -0.002215
    XI1303   PRI1103  -0.064066   PRI1203  -0.023891
    XI1303   PRI1403  -0.173612   PRI1603  -0.001402
    XI1303   PRI1703  -0.014122   PRI1803  -0.003989
    XI1303   PRI1903  -0.001194   PRI2003  -0.092301
    XI1303   PRI1303  0.724759   UPBROW30651 1.000000
    XI1403   PRI0103  -0.015773   PRI0203  -0.000483
    XI1403   PRI0403  -0.003674   PRI0503  -0.003179
    XI1403   PRI0603  -0.003954   PRI0703  -0.006703
    XI1403   PRI0803  -0.028331   PRI0903  -0.038343
    XI1403   PRI1003  -0.003297   PRI1103  -0.059222
    XI1403   PRI1203  -0.031024   PRI1303  -0.013418
    XI1403   PRI1503  -0.000006   PRI1603  0.000047
    XI1403   PRI1703  -0.013645   PRI1803  -0.005793
    XI1403   PRI1903  -0.003029   PRI2003  -0.122929
    XI1403   PRI1403  0.780186   UPBROW30652 1.000000
    XI1503   PRI0503  -0.001300   PRI0703  -0.001300
    XI1503   PRI0803  -0.000557   PRI0903  -0.008174
    XI1503   PRI1003  -0.018020   PRI1103  -0.000743
    XI1503   PRI1303  -0.002601   PRI1403  -0.012447
    XI1503   PRI1703  -0.011704   PRI1803  -0.003901
    XI1503   PRI1903  -0.000557   PRI2003  -0.309493
    XI1503   PRI1503  0.997771   UPBROW30653 1.000000
    XI1603   PRI0103  -0.000838   PRI0203  -0.000076
    XI1603   PRI0503  -0.001523   PRI0603  -0.022011
    XI1603   PRI0703  -0.001142   PRI0803  -0.001523
    XI1603   PRI0903  -0.002818   PRI1003  -0.052171
    XI1603   PRI1103  -0.000076   PRI1303  -0.035187
    XI1603   PRI1403  -0.007007   PRI1703  -0.032216
    XI1603   PRI1803  -0.001219   PRI1903  -0.000533
    XI1603   PRI2003  -0.171516   PRI1603  0.949886
    XI1603   UPBROW30654 1.000000
    XI1703   PRI0103  -0.001548   PRI0203  -0.000178
    XI1703   PRI0303  -0.000783   PRI0403  -0.000036
    XI1703   PRI0503  -0.017634   PRI0603  -0.000160
    XI1703   PRI0703  -0.003221   PRI0803  -0.001940
    XI1703   PRI0903  -0.007918   PRI1003  -0.030196
    XI1703   PRI1103  -0.003577   PRI1203  -0.001424
    XI1703   PRI1303  -0.013577   PRI1403  -0.011869
    XI1703   PRI1503  -0.000819   PRI1603  -0.001032
    XI1703   PRI1803  -0.003915   PRI1903  -0.000890
    XI1703   PRI2003  -0.166071   PRI1703  0.878788
    XI1703   UPBROW30655 1.000000
    XI1803   PRI0203  -0.059245   PRI0403  -0.000062
    XI1803   PRI0503  -0.041988   PRI0603  -0.000123
    XI1803   PRI0703  -0.000584   PRI0803  -0.001784
    XI1803   PRI0903  -0.003722   PRI1003  -0.014704
    XI1803   PRI1103  -0.001015   PRI1203  -0.000615
    XI1803   PRI1303  -0.000277   PRI1403  -0.007536
    XI1803   PRI1603  -0.000031   PRI1703  -0.028884
    XI1803   PRI1903  -0.041189   PRI2003  -0.054785
    XI1803   PRI1803  0.878803   UPBROW30656 1.000000
    XI1903   PRI0203  -0.000234   PRI0303  -0.183070
    XI1903   PRI0503  -0.014421   PRI0703  -0.000281
    XI1903   PRI0803  -0.000468   PRI0903  -0.000047
    XI1903   PRI1003  -0.000702   PRI1103  -0.001077
    XI1903   PRI1403  -0.000094   PRI1703  -0.000187
    XI1903   PRI1803  -0.002201   PRI2003  -0.049724
    XI1903   PRI1903  0.660127   UPBROW30657 1.000000
    XI2003   PRI0103  -0.005020   PRI0203  -0.000102
    XI2003   PRI0303  -0.000184   PRI0403  -0.000054
    XI2003   PRI0503  -0.012360   PRI0603  -0.008987
    XI2003   PRI0703  -0.001156   PRI0803  -0.004593
    XI2003   PRI0903  -0.005133   PRI1003  -0.004367
    XI2003   PRI1103  -0.000564   PRI1203  -0.000503
    XI2003   PRI1303  -0.004285   PRI1403  -0.043513
    XI2003   PRI1503  -0.000877   PRI1603  -0.006966
    XI2003   PRI1703  -0.006210   PRI1803  -0.008192
    XI2003   PRI1903  -0.002209   PRI2003  0.817877
    XI2003   UPBROW30658 1.000000
    YI0103   PRI0103  -1.000000   REVENUE  -1.000000
    YI0103   UPBROW30988 1.000000
    YI0203   PRI0203  -1.000000   REVENUE  -7.000000
    YI0203   UPBROW30989 1.000000
    YI0303   PRI0303  -1.000000   REVENUE  -5.000000
    YI0303   UPBROW30990 1.000000
    SI0103   PRI0104  1.000000   PRI0103  -1.000000
    SI0103   UPBROW31428 1.000000
    SI0203   PRI0204  1.000000   PRI0203  -1.000000
    SI0203   UPBROW31429 1.000000
    SI0303   PRI0304  1.000000   PRI0303  -1.000000
    SI0303   UPBROW31430 1.000000
    SI0403   PRI0404  1.000000   PRI0403  -1.000000
    SI0403   UPBROW31082 1.000000
    SI0503   PRI0504  1.000000   PRI0503  -1.000000
    SI0503   UPBROW31083 1.000000
    SI0603   PRI0604  1.000000   PRI0603  -1.000000
    SI0603   UPBROW31084 1.000000
    SI0703   PRI0704  1.000000   PRI0703  -1.000000
    SI0703   UPBROW31085 1.000000
    SI0803   PRI0804  1.000000   PRI0803  -1.000000
    SI0803   UPBROW31086 1.000000
    SI0903   PRI0904  1.000000   PRI0903  -1.000000
    SI0903   UPBROW31087 1.000000
    SI1003   PRI1004  1.000000   PRI1003  -1.000000
    SI1003   UPBROW31088 1.000000
    SI1103   PRI1104  1.000000   PRI1103  -1.000000
    SI1103   UPBROW31089 1.000000
    SI1203   PRI1204  1.000000   PRI1203  -1.000000
    SI1203   UPBROW31090 1.000000
    SI1303   PRI1304  1.000000   PRI1303  -1.000000
    SI1303   UPBROW31091 1.000000
    SI1403   PRI1404  1.000000   PRI1403  -1.000000
    SI1403   UPBROW31092 1.000000
    SI1503   PRI1504  1.000000   PRI1503  -1.000000
    SI1503   UPBROW31093 1.000000
    SI1603   PRI1604  1.000000   PRI1603  -1.000000
    SI1603   UPBROW31094 1.000000
    SI1703   PRI1704  1.000000   PRI1703  -1.000000
    SI1703   UPBROW31095 1.000000
    SI1803   PRI1804  1.000000   PRI1803  -1.000000
    SI1803   UPBROW31096 1.000000
    SI1903   PRI1904  1.000000   PRI1903  -1.000000
    SI1903   UPBROW31097 1.000000
    SI2003   PRI2004  1.000000   PRI2003  -1.000000
    SI2003   UPBROW31098 1.000000
    XI0104   PRI0204  -0.000066   PRI0404  -0.001575
    XI0104   PRI0504  -0.006836   PRI0604  -0.068339
    XI0104   PRI0704  -0.003500   PRI0804  -0.000372
    XI0104   PRI0904  -0.034585   PRI1004  -0.014700
    XI0104   PRI1204  -0.000033   PRI1304  -0.001006
    XI0104   PRI1404  -0.014208   PRI1604  -0.000087
    XI0104   PRI1704  -0.014689   PRI1804  -0.002100
    XI0104   PRI1904  -0.000219   PRI2004  -0.115197
    XI0104   PRI0104  0.690602
    XI0204   PRI0304  -0.000539   PRI0404  -0.001077
    XI0204   PRI0504  -0.007542   PRI0704  -0.006285
    XI0204   PRI0804  -0.000180   PRI0904  -0.029808
    XI0204   PRI1004  -0.012390   PRI1104  -0.013647
    XI0204   PRI1204  -0.003053   PRI1304  -0.000180
    XI0204   PRI1404  -0.070569   PRI1604  -0.000180
    XI0204   PRI1704  -0.008978   PRI1804  -0.027114
    XI0204   PRI1904  -0.000180   PRI2004  -0.142754
    XI0204   PRI0204  0.840546
    XI0304   PRI0504  -0.026987   PRI0704  -0.000345
    XI0304   PRI0804  -0.000058   PRI0904  -0.012889
    XI0304   PRI1004  -0.002071   PRI1104  -0.006790
    XI0304   PRI1404  -0.037459   PRI1604  -0.000230
    XI0304   PRI1704  -0.002877   PRI1804  -0.008401
    XI0304   PRI1904  -0.003050   PRI2004  -0.173370
    XI0304   PRI0304  0.972380
    XI0404   PRI0204  -0.001637   PRI0504  -0.013370
    XI0404   PRI0704  -0.003820   PRI0804  -0.005866
    XI0404   PRI0904  -0.050205   PRI1004  -0.018417
    XI0404   PRI1104  -0.030559   PRI1204  -0.002319
    XI0404   PRI1304  -0.002183   PRI1404  -0.084584
    XI0404   PRI1704  -0.010914   PRI1804  -0.037108
    XI0404   PRI1904  -0.009277   PRI2004  -0.159209
    XI0404   PRI0404  0.869577   UPBROW30659 1.000000
    XI0504   PRI0104  -0.002640   PRI0404  -0.008734
    XI0504   PRI0704  -0.003525   PRI0804  -0.003571
    XI0504   PRI0904  -0.011118   PRI1004  -0.019406
    XI0504   PRI1104  -0.016864   PRI1204  -0.027170
    XI0504   PRI1304  -0.000059   PRI1404  -0.298211
    XI0504   PRI1604  -0.000524   PRI1704  -0.029686
    XI0504   PRI1804  -0.000563   PRI1904  -0.000124
    XI0504   PRI2004  -0.207253   PRI0504  0.999712
    XI0504   UPBROW30660 1.000000
    XI0604   PRI0104  -0.338610   PRI0204  -0.000364
    XI0604   PRI0404  -0.000095   PRI0504  -0.001957
    XI0604   PRI0704  -0.001351   PRI0804  -0.023418
    XI0604   PRI0904  -0.010964   PRI1004  -0.001827
    XI0604   PRI1104  -0.000104   PRI1204  -0.000043
    XI0604   PRI1304  -0.000035   PRI1404  -0.045191
    XI0604   PRI1604  -0.000156   PRI1704  -0.022673
    XI0604   PRI1804  -0.003482   PRI1904  -0.002165
    XI0604   PRI2004  -0.103173   PRI0604  0.805874
    XI0604   UPBROW30661 1.000000
    XI0704   PRI0104  -0.048259   PRI0204  -0.000457
    XI0704   PRI0404  -0.000016   PRI0504  -0.001778
    XI0704   PRI0604  -0.001599   PRI0804  -0.009560
    XI0704   PRI0904  -0.076794   PRI1004  -0.001109
    XI0704   PRI1204  -0.000049   PRI1304  -0.000131
    XI0704   PRI1404  -0.019790   PRI1604  -0.000294
    XI0704   PRI1704  -0.011926   PRI1804  -0.006249
    XI0704   PRI1904  -0.001468   PRI2004  -0.084706
    XI0704   PRI0704  0.576973   UPBROW30662 1.000000
    XI0804   PRI0204  -0.003618   PRI0404  -0.003519
    XI0804   PRI0504  -0.005942   PRI0604  -0.009694
    XI0804   PRI0704  -0.011055   PRI0904  -0.062610
    XI0804   PRI1004  -0.005876   PRI1104  -0.001261
    XI0804   PRI1204  -0.001029   PRI1404  -0.094579
    XI0804   PRI1604  -0.000166   PRI1704  -0.032334
    XI0804   PRI1804  -0.011055   PRI1904  -0.006805
    XI0804   PRI2004  -0.103575   PRI0804  0.725027
    XI0804   UPBROW30663 1.000000
    XI0904   PRI0104  -0.001411   PRI0204  -0.002540
    XI0904   PRI0304  -0.001129   PRI0404  -0.014856
    XI0904   PRI0504  -0.005063   PRI0604  -0.007818
    XI0904   PRI0704  -0.024948   PRI0804  -0.024632
    XI0904   PRI1004  -0.037944   PRI1104  -0.004365
    XI0904   PRI1204  -0.007752   PRI1304  -0.002523
    XI0904   PRI1404  -0.047572   PRI1604  -0.000398
    XI0904   PRI1704  -0.019537   PRI1804  -0.013843
    XI0904   PRI1904  -0.008449   PRI2004  -0.115642
    XI0904   PRI0904  0.733625   UPBROW30664 1.000000
    XI1004   PRI0204  -0.000367   PRI0304  -0.460145
    XI1004   PRI0404  -0.002047   PRI0504  -0.011090
    XI1004   PRI0604  -0.001619   PRI0704  -0.000092
    XI1004   PRI0804  -0.006019   PRI0904  -0.023770
    XI1004   PRI1104  -0.000244   PRI1204  -0.001466
    XI1004   PRI1304  -0.000092   PRI1404  -0.013015
    XI1004   PRI1604  -0.000031   PRI1704  -0.035563
    XI1004   PRI1804  -0.005622   PRI1904  -0.010815
    XI1004   PRI2004  -0.076136   PRI1004  0.937888
    XI1004   UPBROW30665 1.000000
    XI1104   PRI0204  -0.026280   PRI0404  -0.047844
    XI1104   PRI0504  -0.009677   PRI0604  -0.000027
    XI1104   PRI0704  -0.000782   PRI0804  -0.001078
    XI1104   PRI0904  -0.016038   PRI1004  -0.004232
    XI1104   PRI1204  -0.033531   PRI1304  -0.005202
    XI1104   PRI1404  -0.070863   PRI1604  -0.000243
    XI1104   PRI1704  -0.042965   PRI1804  -0.018113
    XI1104   PRI1904  -0.015040   PRI2004  -0.122480
    XI1104   PRI1104  0.800189   UPBROW30666 1.000000
    XI1204   PRI0204  -0.000753   PRI0404  -0.067166
    XI1204   PRI0504  -0.003464   PRI0604  -0.000678
    XI1204   PRI0704  -0.001129   PRI0804  -0.002000
    XI1204   PRI0904  -0.022401   PRI1004  -0.002635
    XI1204   PRI1104  -0.016904   PRI1304  -0.002598
    XI1204   PRI1404  -0.053311   PRI1604  -0.000301
    XI1204   PRI1704  -0.022326   PRI1804  -0.017206
    XI1204   PRI1904  -0.008772   PRI2004  -0.134483
    XI1204   PRI1204  0.606604   UPBROW30667 1.000000
    XI1304   PRI0204  -0.000355   PRI0504  -0.002449
    XI1304   PRI0704  -0.016934   PRI0804  -0.002466
    XI1304   PRI0904  -0.023804   PRI1004  -0.002215
    XI1304   PRI1104  -0.064066   PRI1204  -0.023891
    XI1304   PRI1404  -0.173612   PRI1604  -0.001402
    XI1304   PRI1704  -0.014122   PRI1804  -0.003989
    XI1304   PRI1904  -0.001194   PRI2004  -0.092301
    XI1304   PRI1304  0.724759   UPBROW30668 1.000000
    XI1404   PRI0104  -0.015773   PRI0204  -0.000483
    XI1404   PRI0404  -0.003674   PRI0504  -0.003179
    XI1404   PRI0604  -0.003954   PRI0704  -0.006703
    XI1404   PRI0804  -0.028331   PRI0904  -0.038343
    XI1404   PRI1004  -0.003297   PRI1104  -0.059222
    XI1404   PRI1204  -0.031024   PRI1304  -0.013418
    XI1404   PRI1504  -0.000006   PRI1604  0.000047
    XI1404   PRI1704  -0.013645   PRI1804  -0.005793
    XI1404   PRI1904  -0.003029   PRI2004  -0.122929
    XI1404   PRI1404  0.780186   UPBROW30669 1.000000
    XI1504   PRI0504  -0.001300   PRI0704  -0.001300
    XI1504   PRI0804  -0.000557   PRI0904  -0.008174
    XI1504   PRI1004  -0.018020   PRI1104  -0.000743
    XI1504   PRI1304  -0.002601   PRI1404  -0.012447
    XI1504   PRI1704  -0.011704   PRI1804  -0.003901
    XI1504   PRI1904  -0.000557   PRI2004  -0.309493
    XI1504   PRI1504  0.997771   UPBROW30670 1.000000
    XI1604   PRI0104  -0.000838   PRI0204  -0.000076
    XI1604   PRI0504  -0.001523   PRI0604  -0.022011
    XI1604   PRI0704  -0.001142   PRI0804  -0.001523
    XI1604   PRI0904  -0.002818   PRI1004  -0.052171
    XI1604   PRI1104  -0.000076   PRI1304  -0.035187
    XI1604   PRI1404  -0.007007   PRI1704  -0.032216
    XI1604   PRI1804  -0.001219   PRI1904  -0.000533
    XI1604   PRI2004  -0.171516   PRI1604  0.949886
    XI1604   UPBROW30671 1.000000
    XI1704   PRI0104  -0.001548   PRI0204  -0.000178
    XI1704   PRI0304  -0.000783   PRI0404  -0.000036
    XI1704   PRI0504  -0.017634   PRI0604  -0.000160
    XI1704   PRI0704  -0.003221   PRI0804  -0.001940
    XI1704   PRI0904  -0.007918   PRI1004  -0.030196
    XI1704   PRI1104  -0.003577   PRI1204  -0.001424
    XI1704   PRI1304  -0.013577   PRI1404  -0.011869
    XI1704   PRI1504  -0.000819   PRI1604  -0.001032
    XI1704   PRI1804  -0.003915   PRI1904  -0.000890
    XI1704   PRI2004  -0.166071   PRI1704  0.878788
    XI1704   UPBROW30672 1.000000
    XI1804   PRI0204  -0.059245   PRI0404  -0.000062
    XI1804   PRI0504  -0.041988   PRI0604  -0.000123
    XI1804   PRI0704  -0.000584   PRI0804  -0.001784
    XI1804   PRI0904  -0.003722   PRI1004  -0.014704
    XI1804   PRI1104  -0.001015   PRI1204  -0.000615
    XI1804   PRI1304  -0.000277   PRI1404  -0.007536
    XI1804   PRI1604  -0.000031   PRI1704  -0.028884
    XI1804   PRI1904  -0.041189   PRI2004  -0.054785
    XI1804   PRI1804  0.878803   UPBROW30673 1.000000
    XI1904   PRI0204  -0.000234   PRI0304  -0.183070
    XI1904   PRI0504  -0.014421   PRI0704  -0.000281
    XI1904   PRI0804  -0.000468   PRI0904  -0.000047
    XI1904   PRI1004  -0.000702   PRI1104  -0.001077
    XI1904   PRI1404  -0.000094   PRI1704  -0.000187
    XI1904   PRI1804  -0.002201   PRI2004  -0.049724
    XI1904   PRI1904  0.660127   UPBROW30674 1.000000
    XI2004   PRI0104  -0.005020   PRI0204  -0.000102
    XI2004   PRI0304  -0.000184   PRI0404  -0.000054
    XI2004   PRI0504  -0.012360   PRI0604  -0.008987
    XI2004   PRI0704  -0.001156   PRI0804  -0.004593
    XI2004   PRI0904  -0.005133   PRI1004  -0.004367
    XI2004   PRI1104  -0.000564   PRI1204  -0.000503
    XI2004   PRI1304  -0.004285   PRI1404  -0.043513
    XI2004   PRI1504  -0.000877   PRI1604  -0.006966
    XI2004   PRI1704  -0.006210   PRI1804  -0.008192
    XI2004   PRI1904  -0.002209   PRI2004  0.817877
    XI2004   UPBROW30675 1.000000
    YI0104   PRI0104  -1.000000   REVENUE  -7.000000
    YI0104   UPBROW30991 1.000000
    YI0204   PRI0204  -1.000000   REVENUE  -4.000000
    YI0204   UPBROW30992 1.000000
    YI0304   PRI0304  -1.000000   REVENUE  -7.000000
    YI0304   UPBROW30993 1.000000
    SI0104   PRI0105  1.000000   PRI0104  -1.000000
    SI0104   UPBROW31431 1.000000
    SI0204   PRI0205  1.000000   PRI0204  -1.000000
    SI0204   UPBROW31432 1.000000
    SI0304   PRI0305  1.000000   PRI0304  -1.000000
    SI0304   UPBROW31433 1.000000
    SI0404   PRI0405  1.000000   PRI0404  -1.000000
    SI0404   UPBROW31099 1.000000
    SI0504   PRI0505  1.000000   PRI0504  -1.000000
    SI0504   UPBROW31100 1.000000
    SI0604   PRI0605  1.000000   PRI0604  -1.000000
    SI0604   UPBROW31101 1.000000
    SI0704   PRI0705  1.000000   PRI0704  -1.000000
    SI0704   UPBROW31102 1.000000
    SI0804   PRI0805  1.000000   PRI0804  -1.000000
    SI0804   UPBROW31103 1.000000
    SI0904   PRI0905  1.000000   PRI0904  -1.000000
    SI0904   UPBROW31104 1.000000
    SI1004   PRI1005  1.000000   PRI1004  -1.000000
    SI1004   UPBROW31105 1.000000
    SI1104   PRI1105  1.000000   PRI1104  -1.000000
    SI1104   UPBROW31106 1.000000
    SI1204   PRI1205  1.000000   PRI1204  -1.000000
    SI1204   UPBROW31107 1.000000
    SI1304   PRI1305  1.000000   PRI1304  -1.000000
    SI1304   UPBROW31108 1.000000
    SI1404   PRI1405  1.000000   PRI1404  -1.000000
    SI1404   UPBROW31109 1.000000
    SI1504   PRI1505  1.000000   PRI1504  -1.000000
    SI1504   UPBROW31110 1.000000
    SI1604   PRI1605  1.000000   PRI1604  -1.000000
    SI1604   UPBROW31111 1.000000
    SI1704   PRI1705  1.000000   PRI1704  -1.000000
    SI1704   UPBROW31112 1.000000
    SI1804   PRI1805  1.000000   PRI1804  -1.000000
    SI1804   UPBROW31113 1.000000
    SI1904   PRI1905  1.000000   PRI1904  -1.000000
    SI1904   UPBROW31114 1.000000
    SI2004   PRI2005  1.000000   PRI2004  -1.000000
    SI2004   UPBROW31115 1.000000
    XI0105   PRI0205  -0.000066   PRI0405  -0.001575
    XI0105   PRI0505  -0.006836   PRI0605  -0.068339
    XI0105   PRI0705  -0.003500   PRI0805  -0.000372
    XI0105   PRI0905  -0.034585   PRI1005  -0.014700
    XI0105   PRI1205  -0.000033   PRI1305  -0.001006
    XI0105   PRI1405  -0.014208   PRI1605  -0.000087
    XI0105   PRI1705  -0.014689   PRI1805  -0.002100
    XI0105   PRI1905  -0.000219   PRI2005  -0.115197
    XI0105   PRI0105  0.690602
    XI0205   PRI0305  -0.000539   PRI0405  -0.001077
    XI0205   PRI0505  -0.007542   PRI0705  -0.006285
    XI0205   PRI0805  -0.000180   PRI0905  -0.029808
    XI0205   PRI1005  -0.012390   PRI1105  -0.013647
    XI0205   PRI1205  -0.003053   PRI1305  -0.000180
    XI0205   PRI1405  -0.070569   PRI1605  -0.000180
    XI0205   PRI1705  -0.008978   PRI1805  -0.027114
    XI0205   PRI1905  -0.000180   PRI2005  -0.142754
    XI0205   PRI0205  0.840546
    XI0305   PRI0505  -0.026987   PRI0705  -0.000345
    XI0305   PRI0805  -0.000058   PRI0905  -0.012889
    XI0305   PRI1005  -0.002071   PRI1105  -0.006790
    XI0305   PRI1405  -0.037459   PRI1605  -0.000230
    XI0305   PRI1705  -0.002877   PRI1805  -0.008401
    XI0305   PRI1905  -0.003050   PRI2005  -0.173370
    XI0305   PRI0305  0.972380
    XI0405   PRI0205  -0.001637   PRI0505  -0.013370
    XI0405   PRI0705  -0.003820   PRI0805  -0.005866
    XI0405   PRI0905  -0.050205   PRI1005  -0.018417
    XI0405   PRI1105  -0.030559   PRI1205  -0.002319
    XI0405   PRI1305  -0.002183   PRI1405  -0.084584
    XI0405   PRI1705  -0.010914   PRI1805  -0.037108
    XI0405   PRI1905  -0.009277   PRI2005  -0.159209
    XI0405   PRI0405  0.869577   UPBROW30676 1.000000
    XI0505   PRI0105  -0.002640   PRI0405  -0.008734
    XI0505   PRI0705  -0.003525   PRI0805  -0.003571
    XI0505   PRI0905  -0.011118   PRI1005  -0.019406
    XI0505   PRI1105  -0.016864   PRI1205  -0.027170
    XI0505   PRI1305  -0.000059   PRI1405  -0.298211
    XI0505   PRI1605  -0.000524   PRI1705  -0.029686
    XI0505   PRI1805  -0.000563   PRI1905  -0.000124
    XI0505   PRI2005  -0.207253   PRI0505  0.999712
    XI0505   UPBROW30677 1.000000
    XI0605   PRI0105  -0.338610   PRI0205  -0.000364
    XI0605   PRI0405  -0.000095   PRI0505  -0.001957
    XI0605   PRI0705  -0.001351   PRI0805  -0.023418
    XI0605   PRI0905  -0.010964   PRI1005  -0.001827
    XI0605   PRI1105  -0.000104   PRI1205  -0.000043
    XI0605   PRI1305  -0.000035   PRI1405  -0.045191
    XI0605   PRI1605  -0.000156   PRI1705  -0.022673
    XI0605   PRI1805  -0.003482   PRI1905  -0.002165
    XI0605   PRI2005  -0.103173   PRI0605  0.805874
    XI0605   UPBROW30678 1.000000
    XI0705   PRI0105  -0.048259   PRI0205  -0.000457
    XI0705   PRI0405  -0.000016   PRI0505  -0.001778
    XI0705   PRI0605  -0.001599   PRI0805  -0.009560
    XI0705   PRI0905  -0.076794   PRI1005  -0.001109
    XI0705   PRI1205  -0.000049   PRI1305  -0.000131
    XI0705   PRI1405  -0.019790   PRI1605  -0.000294
    XI0705   PRI1705  -0.011926   PRI1805  -0.006249
    XI0705   PRI1905  -0.001468   PRI2005  -0.084706
    XI0705   PRI0705  0.576973   UPBROW30679 1.000000
    XI0805   PRI0205  -0.003618   PRI0405  -0.003519
    XI0805   PRI0505  -0.005942   PRI0605  -0.009694
    XI0805   PRI0705  -0.011055   PRI0905  -0.062610
    XI0805   PRI1005  -0.005876   PRI1105  -0.001261
    XI0805   PRI1205  -0.001029   PRI1405  -0.094579
    XI0805   PRI1605  -0.000166   PRI1705  -0.032334
    XI0805   PRI1805  -0.011055   PRI1905  -0.006805
    XI0805   PRI2005  -0.103575   PRI0805  0.725027
    XI0805   UPBROW30680 1.000000
    XI0905   PRI0105  -0.001411   PRI0205  -0.002540
    XI0905   PRI0305  -0.001129   PRI0405  -0.014856
    XI0905   PRI0505  -0.005063   PRI0605  -0.007818
    XI0905   PRI0705  -0.024948   PRI0805  -0.024632
    XI0905   PRI1005  -0.037944   PRI1105  -0.004365
    XI0905   PRI1205  -0.007752   PRI1305  -0.002523
    XI0905   PRI1405  -0.047572   PRI1605  -0.000398
    XI0905   PRI1705  -0.019537   PRI1805  -0.013843
    XI0905   PRI1905  -0.008449   PRI2005  -0.115642
    XI0905   PRI0905  0.733625   UPBROW30681 1.000000
    XI1005   PRI0205  -0.000367   PRI0305  -0.460145
    XI1005   PRI0405  -0.002047   PRI0505  -0.011090
    XI1005   PRI0605  -0.001619   PRI0705  -0.000092
    XI1005   PRI0805  -0.006019   PRI0905  -0.023770
    XI1005   PRI1105  -0.000244   PRI1205  -0.001466
    XI1005   PRI1305  -0.000092   PRI1405  -0.013015
    XI1005   PRI1605  -0.000031   PRI1705  -0.035563
    XI1005   PRI1805  -0.005622   PRI1905  -0.010815
    XI1005   PRI2005  -0.076136   PRI1005  0.937888
    XI1005   UPBROW30682 1.000000
    XI1105   PRI0205  -0.026280   PRI0405  -0.047844
    XI1105   PRI0505  -0.009677   PRI0605  -0.000027
    XI1105   PRI0705  -0.000782   PRI0805  -0.001078
    XI1105   PRI0905  -0.016038   PRI1005  -0.004232
    XI1105   PRI1205  -0.033531   PRI1305  -0.005202
    XI1105   PRI1405  -0.070863   PRI1605  -0.000243
    XI1105   PRI1705  -0.042965   PRI1805  -0.018113
    XI1105   PRI1905  -0.015040   PRI2005  -0.122480
    XI1105   PRI1105  0.800189   UPBROW30683 1.000000
    XI1205   PRI0205  -0.000753   PRI0405  -0.067166
    XI1205   PRI0505  -0.003464   PRI0605  -0.000678
    XI1205   PRI0705  -0.001129   PRI0805  -0.002000
    XI1205   PRI0905  -0.022401   PRI1005  -0.002635
    XI1205   PRI1105  -0.016904   PRI1305  -0.002598
    XI1205   PRI1405  -0.053311   PRI1605  -0.000301
    XI1205   PRI1705  -0.022326   PRI1805  -0.017206
    XI1205   PRI1905  -0.008772   PRI2005  -0.134483
    XI1205   PRI1205  0.606604   UPBROW30684 1.000000
    XI1305   PRI0205  -0.000355   PRI0505  -0.002449
    XI1305   PRI0705  -0.016934   PRI0805  -0.002466
    XI1305   PRI0905  -0.023804   PRI1005  -0.002215
    XI1305   PRI1105  -0.064066   PRI1205  -0.023891
    XI1305   PRI1405  -0.173612   PRI1605  -0.001402
    XI1305   PRI1705  -0.014122   PRI1805  -0.003989
    XI1305   PRI1905  -0.001194   PRI2005  -0.092301
    XI1305   PRI1305  0.724759   UPBROW30685 1.000000
    XI1405   PRI0105  -0.015773   PRI0205  -0.000483
    XI1405   PRI0405  -0.003674   PRI0505  -0.003179
    XI1405   PRI0605  -0.003954   PRI0705  -0.006703
    XI1405   PRI0805  -0.028331   PRI0905  -0.038343
    XI1405   PRI1005  -0.003297   PRI1105  -0.059222
    XI1405   PRI1205  -0.031024   PRI1305  -0.013418
    XI1405   PRI1505  -0.000006   PRI1605  0.000047
    XI1405   PRI1705  -0.013645   PRI1805  -0.005793
    XI1405   PRI1905  -0.003029   PRI2005  -0.122929
    XI1405   PRI1405  0.780186   UPBROW30686 1.000000
    XI1505   PRI0505  -0.001300   PRI0705  -0.001300
    XI1505   PRI0805  -0.000557   PRI0905  -0.008174
    XI1505   PRI1005  -0.018020   PRI1105  -0.000743
    XI1505   PRI1305  -0.002601   PRI1405  -0.012447
    XI1505   PRI1705  -0.011704   PRI1805  -0.003901
    XI1505   PRI1905  -0.000557   PRI2005  -0.309493
    XI1505   PRI1505  0.997771   UPBROW30687 1.000000
    XI1605   PRI0105  -0.000838   PRI0205  -0.000076
    XI1605   PRI0505  -0.001523   PRI0605  -0.022011
    XI1605   PRI0705  -0.001142   PRI0805  -0.001523
    XI1605   PRI0905  -0.002818   PRI1005  -0.052171
    XI1605   PRI1105  -0.000076   PRI1305  -0.035187
    XI1605   PRI1405  -0.007007   PRI1705  -0.032216
    XI1605   PRI1805  -0.001219   PRI1905  -0.000533
    XI1605   PRI2005  -0.171516   PRI1605  0.949886
    XI1605   UPBROW30688 1.000000
    XI1705   PRI0105  -0.001548   PRI0205  -0.000178
    XI1705   PRI0305  -0.000783   PRI0405  -0.000036
    XI1705   PRI0505  -0.017634   PRI0605  -0.000160
    XI1705   PRI0705  -0.003221   PRI0805  -0.001940
    XI1705   PRI0905  -0.007918   PRI1005  -0.030196
    XI1705   PRI1105  -0.003577   PRI1205  -0.001424
    XI1705   PRI1305  -0.013577   PRI1405  -0.011869
    XI1705   PRI1505  -0.000819   PRI1605  -0.001032
    XI1705   PRI1805  -0.003915   PRI1905  -0.000890
    XI1705   PRI2005  -0.166071   PRI1705  0.878788
    XI1705   UPBROW30689 1.000000
    XI1805   PRI0205  -0.059245   PRI0405  -0.000062
    XI1805   PRI0505  -0.041988   PRI0605  -0.000123
    XI1805   PRI0705  -0.000584   PRI0805  -0.001784
    XI1805   PRI0905  -0.003722   PRI1005  -0.014704
    XI1805   PRI1105  -0.001015   PRI1205  -0.000615
    XI1805   PRI1305  -0.000277   PRI1405  -0.007536
    XI1805   PRI1605  -0.000031   PRI1705  -0.028884
    XI1805   PRI1905  -0.041189   PRI2005  -0.054785
    XI1805   PRI1805  0.878803   UPBROW30690 1.000000
    XI1905   PRI0205  -0.000234   PRI0305  -0.183070
    XI1905   PRI0505  -0.014421   PRI0705  -0.000281
    XI1905   PRI0805  -0.000468   PRI0905  -0.000047
    XI1905   PRI1005  -0.000702   PRI1105  -0.001077
    XI1905   PRI1405  -0.000094   PRI1705  -0.000187
    XI1905   PRI1805  -0.002201   PRI2005  -0.049724
    XI1905   PRI1905  0.660127   UPBROW30691 1.000000
    XI2005   PRI0105  -0.005020   PRI0205  -0.000102
    XI2005   PRI0305  -0.000184   PRI0405  -0.000054
    XI2005   PRI0505  -0.012360   PRI0605  -0.008987
    XI2005   PRI0705  -0.001156   PRI0805  -0.004593
    XI2005   PRI0905  -0.005133   PRI1005  -0.004367
    XI2005   PRI1105  -0.000564   PRI1205  -0.000503
    XI2005   PRI1305  -0.004285   PRI1405  -0.043513
    XI2005   PRI1505  -0.000877   PRI1605  -0.006966
    XI2005   PRI1705  -0.006210   PRI1805  -0.008192
    XI2005   PRI1905  -0.002209   PRI2005  0.817877
    XI2005   UPBROW30692 1.000000
    YI0105   PRI0105  -1.000000   REVENUE  -1.000000
    YI0105   UPBROW30994 1.000000
    YI0205   PRI0205  -1.000000   REVENUE  -1.000000
    YI0205   UPBROW30995 1.000000
    YI0305   PRI0305  -1.000000   REVENUE  -5.000000
    YI0305   UPBROW30996 1.000000
    SI0105   PRI0106  1.000000   PRI0105  -1.000000
    SI0105   UPBROW31434 1.000000
    SI0205   PRI0206  1.000000   PRI0205  -1.000000
    SI0205   UPBROW31435 1.000000
    SI0305   PRI0306  1.000000   PRI0305  -1.000000
    SI0305   UPBROW31436 1.000000
    SI0405   PRI0406  1.000000   PRI0405  -1.000000
    SI0405   UPBROW31116 1.000000
    SI0505   PRI0506  1.000000   PRI0505  -1.000000
    SI0505   UPBROW31117 1.000000
    SI0605   PRI0606  1.000000   PRI0605  -1.000000
    SI0605   UPBROW31118 1.000000
    SI0705   PRI0706  1.000000   PRI0705  -1.000000
    SI0705   UPBROW31119 1.000000
    SI0805   PRI0806  1.000000   PRI0805  -1.000000
    SI0805   UPBROW31120 1.000000
    SI0905   PRI0906  1.000000   PRI0905  -1.000000
    SI0905   UPBROW31121 1.000000
    SI1005   PRI1006  1.000000   PRI1005  -1.000000
    SI1005   UPBROW31122 1.000000
    SI1105   PRI1106  1.000000   PRI1105  -1.000000
    SI1105   UPBROW31123 1.000000
    SI1205   PRI1206  1.000000   PRI1205  -1.000000
    SI1205   UPBROW31124 1.000000
    SI1305   PRI1306  1.000000   PRI1305  -1.000000
    SI1305   UPBROW31125 1.000000
    SI1405   PRI1406  1.000000   PRI1405  -1.000000
    SI1405   UPBROW31126 1.000000
    SI1505   PRI1506  1.000000   PRI1505  -1.000000
    SI1505   UPBROW31127 1.000000
    SI1605   PRI1606  1.000000   PRI1605  -1.000000
    SI1605   UPBROW31128 1.000000
    SI1705   PRI1706  1.000000   PRI1705  -1.000000
    SI1705   UPBROW31129 1.000000
    SI1805   PRI1806  1.000000   PRI1805  -1.000000
    SI1805   UPBROW31130 1.000000
    SI1905   PRI1906  1.000000   PRI1905  -1.000000
    SI1905   UPBROW31131 1.000000
    SI2005   PRI2006  1.000000   PRI2005  -1.000000
    SI2005   UPBROW31132 1.000000
    XI0106   PRI0206  -0.000066   PRI0406  -0.001575
    XI0106   PRI0506  -0.006836   PRI0606  -0.068339
    XI0106   PRI0706  -0.003500   PRI0806  -0.000372
    XI0106   PRI0906  -0.034585   PRI1006  -0.014700
    XI0106   PRI1206  -0.000033   PRI1306  -0.001006
    XI0106   PRI1406  -0.014208   PRI1606  -0.000087
    XI0106   PRI1706  -0.014689   PRI1806  -0.002100
    XI0106   PRI1906  -0.000219   PRI2006  -0.115197
    XI0106   PRI0106  0.690602
    XI0206   PRI0306  -0.000539   PRI0406  -0.001077
    XI0206   PRI0506  -0.007542   PRI0706  -0.006285
    XI0206   PRI0806  -0.000180   PRI0906  -0.029808
    XI0206   PRI1006  -0.012390   PRI1106  -0.013647
    XI0206   PRI1206  -0.003053   PRI1306  -0.000180
    XI0206   PRI1406  -0.070569   PRI1606  -0.000180
    XI0206   PRI1706  -0.008978   PRI1806  -0.027114
    XI0206   PRI1906  -0.000180   PRI2006  -0.142754
    XI0206   PRI0206  0.840546
    XI0306   PRI0506  -0.026987   PRI0706  -0.000345
    XI0306   PRI0806  -0.000058   PRI0906  -0.012889
    XI0306   PRI1006  -0.002071   PRI1106  -0.006790
    XI0306   PRI1406  -0.037459   PRI1606  -0.000230
    XI0306   PRI1706  -0.002877   PRI1806  -0.008401
    XI0306   PRI1906  -0.003050   PRI2006  -0.173370
    XI0306   PRI0306  0.972380
    XI0406   PRI0206  -0.001637   PRI0506  -0.013370
    XI0406   PRI0706  -0.003820   PRI0806  -0.005866
    XI0406   PRI0906  -0.050205   PRI1006  -0.018417
    XI0406   PRI1106  -0.030559   PRI1206  -0.002319
    XI0406   PRI1306  -0.002183   PRI1406  -0.084584
    XI0406   PRI1706  -0.010914   PRI1806  -0.037108
    XI0406   PRI1906  -0.009277   PRI2006  -0.159209
    XI0406   PRI0406  0.869577   UPBROW30693 1.000000
    XI0506   PRI0106  -0.002640   PRI0406  -0.008734
    XI0506   PRI0706  -0.003525   PRI0806  -0.003571
    XI0506   PRI0906  -0.011118   PRI1006  -0.019406
    XI0506   PRI1106  -0.016864   PRI1206  -0.027170
    XI0506   PRI1306  -0.000059   PRI1406  -0.298211
    XI0506   PRI1606  -0.000524   PRI1706  -0.029686
    XI0506   PRI1806  -0.000563   PRI1906  -0.000124
    XI0506   PRI2006  -0.207253   PRI0506  0.999712
    XI0506   UPBROW30694 1.000000
    XI0606   PRI0106  -0.338610   PRI0206  -0.000364
    XI0606   PRI0406  -0.000095   PRI0506  -0.001957
    XI0606   PRI0706  -0.001351   PRI0806  -0.023418
    XI0606   PRI0906  -0.010964   PRI1006  -0.001827
    XI0606   PRI1106  -0.000104   PRI1206  -0.000043
    XI0606   PRI1306  -0.000035   PRI1406  -0.045191
    XI0606   PRI1606  -0.000156   PRI1706  -0.022673
    XI0606   PRI1806  -0.003482   PRI1906  -0.002165
    XI0606   PRI2006  -0.103173   PRI0606  0.805874
    XI0606   UPBROW30695 1.000000
    XI0706   PRI0106  -0.048259   PRI0206  -0.000457
    XI0706   PRI0406  -0.000016   PRI0506  -0.001778
    XI0706   PRI0606  -0.001599   PRI0806  -0.009560
    XI0706   PRI0906  -0.076794   PRI1006  -0.001109
    XI0706   PRI1206  -0.000049   PRI1306  -0.000131
    XI0706   PRI1406  -0.019790   PRI1606  -0.000294
    XI0706   PRI1706  -0.011926   PRI1806  -0.006249
    XI0706   PRI1906  -0.001468   PRI2006  -0.084706
    XI0706   PRI0706  0.576973   UPBROW30696 1.000000
    XI0806   PRI0206  -0.003618   PRI0406  -0.003519
    XI0806   PRI0506  -0.005942   PRI0606  -0.009694
    XI0806   PRI0706  -0.011055   PRI0906  -0.062610
    XI0806   PRI1006  -0.005876   PRI1106  -0.001261
    XI0806   PRI1206  -0.001029   PRI1406  -0.094579
    XI0806   PRI1606  -0.000166   PRI1706  -0.032334
    XI0806   PRI1806  -0.011055   PRI1906  -0.006805
    XI0806   PRI2006  -0.103575   PRI0806  0.725027
    XI0806   UPBROW30697 1.000000
    XI0906   PRI0106  -0.001411   PRI0206  -0.002540
    XI0906   PRI0306  -0.001129   PRI0406  -0.014856
    XI0906   PRI0506  -0.005063   PRI0606  -0.007818
    XI0906   PRI0706  -0.024948   PRI0806  -0.024632
    XI0906   PRI1006  -0.037944   PRI1106  -0.004365
    XI0906   PRI1206  -0.007752   PRI1306  -0.002523
    XI0906   PRI1406  -0.047572   PRI1606  -0.000398
    XI0906   PRI1706  -0.019537   PRI1806  -0.013843
    XI0906   PRI1906  -0.008449   PRI2006  -0.115642
    XI0906   PRI0906  0.733625   UPBROW30698 1.000000
    XI1006   PRI0206  -0.000367   PRI0306  -0.460145
    XI1006   PRI0406  -0.002047   PRI0506  -0.011090
    XI1006   PRI0606  -0.001619   PRI0706  -0.000092
    XI1006   PRI0806  -0.006019   PRI0906  -0.023770
    XI1006   PRI1106  -0.000244   PRI1206  -0.001466
    XI1006   PRI1306  -0.000092   PRI1406  -0.013015
    XI1006   PRI1606  -0.000031   PRI1706  -0.035563
    XI1006   PRI1806  -0.005622   PRI1906  -0.010815
    XI1006   PRI2006  -0.076136   PRI1006  0.937888
    XI1006   UPBROW30699 1.000000
    XI1106   PRI0206  -0.026280   PRI0406  -0.047844
    XI1106   PRI0506  -0.009677   PRI0606  -0.000027
    XI1106   PRI0706  -0.000782   PRI0806  -0.001078
    XI1106   PRI0906  -0.016038   PRI1006  -0.004232
    XI1106   PRI1206  -0.033531   PRI1306  -0.005202
    XI1106   PRI1406  -0.070863   PRI1606  -0.000243
    XI1106   PRI1706  -0.042965   PRI1806  -0.018113
    XI1106   PRI1906  -0.015040   PRI2006  -0.122480
    XI1106   PRI1106  0.800189   UPBROW30700 1.000000
    XI1206   PRI0206  -0.000753   PRI0406  -0.067166
    XI1206   PRI0506  -0.003464   PRI0606  -0.000678
    XI1206   PRI0706  -0.001129   PRI0806  -0.002000
    XI1206   PRI0906  -0.022401   PRI1006  -0.002635
    XI1206   PRI1106  -0.016904   PRI1306  -0.002598
    XI1206   PRI1406  -0.053311   PRI1606  -0.000301
    XI1206   PRI1706  -0.022326   PRI1806  -0.017206
    XI1206   PRI1906  -0.008772   PRI2006  -0.134483
    XI1206   PRI1206  0.606604   UPBROW30701 1.000000
    XI1306   PRI0206  -0.000355   PRI0506  -0.002449
    XI1306   PRI0706  -0.016934   PRI0806  -0.002466
    XI1306   PRI0906  -0.023804   PRI1006  -0.002215
    XI1306   PRI1106  -0.064066   PRI1206  -0.023891
    XI1306   PRI1406  -0.173612   PRI1606  -0.001402
    XI1306   PRI1706  -0.014122   PRI1806  -0.003989
    XI1306   PRI1906  -0.001194   PRI2006  -0.092301
    XI1306   PRI1306  0.724759   UPBROW30702 1.000000
    XI1406   PRI0106  -0.015773   PRI0206  -0.000483
    XI1406   PRI0406  -0.003674   PRI0506  -0.003179
    XI1406   PRI0606  -0.003954   PRI0706  -0.006703
    XI1406   PRI0806  -0.028331   PRI0906  -0.038343
    XI1406   PRI1006  -0.003297   PRI1106  -0.059222
    XI1406   PRI1206  -0.031024   PRI1306  -0.013418
    XI1406   PRI1506  -0.000006   PRI1606  0.000047
    XI1406   PRI1706  -0.013645   PRI1806  -0.005793
    XI1406   PRI1906  -0.003029   PRI2006  -0.122929
    XI1406   PRI1406  0.780186   UPBROW30703 1.000000
    XI1506   PRI0506  -0.001300   PRI0706  -0.001300
    XI1506   PRI0806  -0.000557   PRI0906  -0.008174
    XI1506   PRI1006  -0.018020   PRI1106  -0.000743
    XI1506   PRI1306  -0.002601   PRI1406  -0.012447
    XI1506   PRI1706  -0.011704   PRI1806  -0.003901
    XI1506   PRI1906  -0.000557   PRI2006  -0.309493
    XI1506   PRI1506  0.997771   UPBROW30704 1.000000
    XI1606   PRI0106  -0.000838   PRI0206  -0.000076
    XI1606   PRI0506  -0.001523   PRI0606  -0.022011
    XI1606   PRI0706  -0.001142   PRI0806  -0.001523
    XI1606   PRI0906  -0.002818   PRI1006  -0.052171
    XI1606   PRI1106  -0.000076   PRI1306  -0.035187
    XI1606   PRI1406  -0.007007   PRI1706  -0.032216
    XI1606   PRI1806  -0.001219   PRI1906  -0.000533
    XI1606   PRI2006  -0.171516   PRI1606  0.949886
    XI1606   UPBROW30705 1.000000
    XI1706   PRI0106  -0.001548   PRI0206  -0.000178
    XI1706   PRI0306  -0.000783   PRI0406  -0.000036
    XI1706   PRI0506  -0.017634   PRI0606  -0.000160
    XI1706   PRI0706  -0.003221   PRI0806  -0.001940
    XI1706   PRI0906  -0.007918   PRI1006  -0.030196
    XI1706   PRI1106  -0.003577   PRI1206  -0.001424
    XI1706   PRI1306  -0.013577   PRI1406  -0.011869
    XI1706   PRI1506  -0.000819   PRI1606  -0.001032
    XI1706   PRI1806  -0.003915   PRI1906  -0.000890
    XI1706   PRI2006  -0.166071   PRI1706  0.878788
    XI1706   UPBROW30706 1.000000
    XI1806   PRI0206  -0.059245   PRI0406  -0.000062
    XI1806   PRI0506  -0.041988   PRI0606  -0.000123
    XI1806   PRI0706  -0.000584   PRI0806  -0.001784
    XI1806   PRI0906  -0.003722   PRI1006  -0.014704
    XI1806   PRI1106  -0.001015   PRI1206  -0.000615
    XI1806   PRI1306  -0.000277   PRI1406  -0.007536
    XI1806   PRI1606  -0.000031   PRI1706  -0.028884
    XI1806   PRI1906  -0.041189   PRI2006  -0.054785
    XI1806   PRI1806  0.878803   UPBROW30707 1.000000
    XI1906   PRI0206  -0.000234   PRI0306  -0.183070
    XI1906   PRI0506  -0.014421   PRI0706  -0.000281
    XI1906   PRI0806  -0.000468   PRI0906  -0.000047
    XI1906   PRI1006  -0.000702   PRI1106  -0.001077
    XI1906   PRI1406  -0.000094   PRI1706  -0.000187
    XI1906   PRI1806  -0.002201   PRI2006  -0.049724
    XI1906   PRI1906  0.660127   UPBROW30708 1.000000
    XI2006   PRI0106  -0.005020   PRI0206  -0.000102
    XI2006   PRI0306  -0.000184   PRI0406  -0.000054
    XI2006   PRI0506  -0.012360   PRI0606  -0.008987
    XI2006   PRI0706  -0.001156   PRI0806  -0.004593
    XI2006   PRI0906  -0.005133   PRI1006  -0.004367
    XI2006   PRI1106  -0.000564   PRI1206  -0.000503
    XI2006   PRI1306  -0.004285   PRI1406  -0.043513
    XI2006   PRI1506  -0.000877   PRI1606  -0.006966
    XI2006   PRI1706  -0.006210   PRI1806  -0.008192
    XI2006   PRI1906  -0.002209   PRI2006  0.817877
    XI2006   UPBROW30709 1.000000
    YI0106   PRI0106  -1.000000   REVENUE  -7.000000
    YI0106   UPBROW30997 1.000000
    YI0206   PRI0206  -1.000000   REVENUE  -4.000000
    YI0206   UPBROW30998 1.000000
    YI0306   PRI0306  -1.000000   REVENUE  -3.000000
    YI0306   UPBROW30999 1.000000
    SI0106   PRI0107  1.000000   PRI0106  -1.000000
    SI0106   UPBROW31437 1.000000
    SI0206   PRI0207  1.000000   PRI0206  -1.000000
    SI0206   UPBROW31438 1.000000
    SI0306   PRI0307  1.000000   PRI0306  -1.000000
    SI0306   UPBROW31439 1.000000
    SI0406   PRI0407  1.000000   PRI0406  -1.000000
    SI0406   UPBROW31133 1.000000
    SI0506   PRI0507  1.000000   PRI0506  -1.000000
    SI0506   UPBROW31134 1.000000
    SI0606   PRI0607  1.000000   PRI0606  -1.000000
    SI0606   UPBROW31135 1.000000
    SI0706   PRI0707  1.000000   PRI0706  -1.000000
    SI0706   UPBROW31136 1.000000
    SI0806   PRI0807  1.000000   PRI0806  -1.000000
    SI0806   UPBROW31137 1.000000
    SI0906   PRI0907  1.000000   PRI0906  -1.000000
    SI0906   UPBROW31138 1.000000
    SI1006   PRI1007  1.000000   PRI1006  -1.000000
    SI1006   UPBROW31139 1.000000
    SI1106   PRI1107  1.000000   PRI1106  -1.000000
    SI1106   UPBROW31140 1.000000
    SI1206   PRI1207  1.000000   PRI1206  -1.000000
    SI1206   UPBROW31141 1.000000
    SI1306   PRI1307  1.000000   PRI1306  -1.000000
    SI1306   UPBROW31142 1.000000
    SI1406   PRI1407  1.000000   PRI1406  -1.000000
    SI1406   UPBROW31143 1.000000
    SI1506   PRI1507  1.000000   PRI1506  -1.000000
    SI1506   UPBROW31144 1.000000
    SI1606   PRI1607  1.000000   PRI1606  -1.000000
    SI1606   UPBROW31145 1.000000
    SI1706   PRI1707  1.000000   PRI1706  -1.000000
    SI1706   UPBROW31146 1.000000
    SI1806   PRI1807  1.000000   PRI1806  -1.000000
    SI1806   UPBROW31147 1.000000
    SI1906   PRI1907  1.000000   PRI1906  -1.000000
    SI1906   UPBROW31148 1.000000
    SI2006   PRI2007  1.000000   PRI2006  -1.000000
    SI2006   UPBROW31149 1.000000
    XI0107   PRI0207  -0.000066   PRI0407  -0.001575
    XI0107   PRI0507  -0.006836   PRI0607  -0.068339
    XI0107   PRI0707  -0.003500   PRI0807  -0.000372
    XI0107   PRI0907  -0.034585   PRI1007  -0.014700
    XI0107   PRI1207  -0.000033   PRI1307  -0.001006
    XI0107   PRI1407  -0.014208   PRI1607  -0.000087
    XI0107   PRI1707  -0.014689   PRI1807  -0.002100
    XI0107   PRI1907  -0.000219   PRI2007  -0.115197
    XI0107   PRI0107  0.690602
    XI0207   PRI0307  -0.000539   PRI0407  -0.001077
    XI0207   PRI0507  -0.007542   PRI0707  -0.006285
    XI0207   PRI0807  -0.000180   PRI0907  -0.029808
    XI0207   PRI1007  -0.012390   PRI1107  -0.013647
    XI0207   PRI1207  -0.003053   PRI1307  -0.000180
    XI0207   PRI1407  -0.070569   PRI1607  -0.000180
    XI0207   PRI1707  -0.008978   PRI1807  -0.027114
    XI0207   PRI1907  -0.000180   PRI2007  -0.142754
    XI0207   PRI0207  0.840546
    XI0307   PRI0507  -0.026987   PRI0707  -0.000345
    XI0307   PRI0807  -0.000058   PRI0907  -0.012889
    XI0307   PRI1007  -0.002071   PRI1107  -0.006790
    XI0307   PRI1407  -0.037459   PRI1607  -0.000230
    XI0307   PRI1707  -0.002877   PRI1807  -0.008401
    XI0307   PRI1907  -0.003050   PRI2007  -0.173370
    XI0307   PRI0307  0.972380
    XI0407   PRI0207  -0.001637   PRI0507  -0.013370
    XI0407   PRI0707  -0.003820   PRI0807  -0.005866
    XI0407   PRI0907  -0.050205   PRI1007  -0.018417
    XI0407   PRI1107  -0.030559   PRI1207  -0.002319
    XI0407   PRI1307  -0.002183   PRI1407  -0.084584
    XI0407   PRI1707  -0.010914   PRI1807  -0.037108
    XI0407   PRI1907  -0.009277   PRI2007  -0.159209
    XI0407   PRI0407  0.869577   UPBROW30710 1.000000
    XI0507   PRI0107  -0.002640   PRI0407  -0.008734
    XI0507   PRI0707  -0.003525   PRI0807  -0.003571
    XI0507   PRI0907  -0.011118   PRI1007  -0.019406
    XI0507   PRI1107  -0.016864   PRI1207  -0.027170
    XI0507   PRI1307  -0.000059   PRI1407  -0.298211
    XI0507   PRI1607  -0.000524   PRI1707  -0.029686
    XI0507   PRI1807  -0.000563   PRI1907  -0.000124
    XI0507   PRI2007  -0.207253   PRI0507  0.999712
    XI0507   UPBROW30711 1.000000
    XI0607   PRI0107  -0.338610   PRI0207  -0.000364
    XI0607   PRI0407  -0.000095   PRI0507  -0.001957
    XI0607   PRI0707  -0.001351   PRI0807  -0.023418
    XI0607   PRI0907  -0.010964   PRI1007  -0.001827
    XI0607   PRI1107  -0.000104   PRI1207  -0.000043
    XI0607   PRI1307  -0.000035   PRI1407  -0.045191
    XI0607   PRI1607  -0.000156   PRI1707  -0.022673
    XI0607   PRI1807  -0.003482   PRI1907  -0.002165
    XI0607   PRI2007  -0.103173   PRI0607  0.805874
    XI0607   UPBROW30712 1.000000
    XI0707   PRI0107  -0.048259   PRI0207  -0.000457
    XI0707   PRI0407  -0.000016   PRI0507  -0.001778
    XI0707   PRI0607  -0.001599   PRI0807  -0.009560
    XI0707   PRI0907  -0.076794   PRI1007  -0.001109
    XI0707   PRI1207  -0.000049   PRI1307  -0.000131
    XI0707   PRI1407  -0.019790   PRI1607  -0.000294
    XI0707   PRI1707  -0.011926   PRI1807  -0.006249
    XI0707   PRI1907  -0.001468   PRI2007  -0.084706
    XI0707   PRI0707  0.576973   UPBROW30713 1.000000
    XI0807   PRI0207  -0.003618   PRI0407  -0.003519
    XI0807   PRI0507  -0.005942   PRI0607  -0.009694
    XI0807   PRI0707  -0.011055   PRI0907  -0.062610
    XI0807   PRI1007  -0.005876   PRI1107  -0.001261
    XI0807   PRI1207  -0.001029   PRI1407  -0.094579
    XI0807   PRI1607  -0.000166   PRI1707  -0.032334
    XI0807   PRI1807  -0.011055   PRI1907  -0.006805
    XI0807   PRI2007  -0.103575   PRI0807  0.725027
    XI0807   UPBROW30714 1.000000
    XI0907   PRI0107  -0.001411   PRI0207  -0.002540
    XI0907   PRI0307  -0.001129   PRI0407  -0.014856
    XI0907   PRI0507  -0.005063   PRI0607  -0.007818
    XI0907   PRI0707  -0.024948   PRI0807  -0.024632
    XI0907   PRI1007  -0.037944   PRI1107  -0.004365
    XI0907   PRI1207  -0.007752   PRI1307  -0.002523
    XI0907   PRI1407  -0.047572   PRI1607  -0.000398
    XI0907   PRI1707  -0.019537   PRI1807  -0.013843
    XI0907   PRI1907  -0.008449   PRI2007  -0.115642
    XI0907   PRI0907  0.733625   UPBROW30715 1.000000
    XI1007   PRI0207  -0.000367   PRI0307  -0.460145
    XI1007   PRI0407  -0.002047   PRI0507  -0.011090
    XI1007   PRI0607  -0.001619   PRI0707  -0.000092
    XI1007   PRI0807  -0.006019   PRI0907  -0.023770
    XI1007   PRI1107  -0.000244   PRI1207  -0.001466
    XI1007   PRI1307  -0.000092   PRI1407  -0.013015
    XI1007   PRI1607  -0.000031   PRI1707  -0.035563
    XI1007   PRI1807  -0.005622   PRI1907  -0.010815
    XI1007   PRI2007  -0.076136   PRI1007  0.937888
    XI1007   UPBROW30716 1.000000
    XI1107   PRI0207  -0.026280   PRI0407  -0.047844
    XI1107   PRI0507  -0.009677   PRI0607  -0.000027
    XI1107   PRI0707  -0.000782   PRI0807  -0.001078
    XI1107   PRI0907  -0.016038   PRI1007  -0.004232
    XI1107   PRI1207  -0.033531   PRI1307  -0.005202
    XI1107   PRI1407  -0.070863   PRI1607  -0.000243
    XI1107   PRI1707  -0.042965   PRI1807  -0.018113
    XI1107   PRI1907  -0.015040   PRI2007  -0.122480
    XI1107   PRI1107  0.800189   UPBROW30717 1.000000
    XI1207   PRI0207  -0.000753   PRI0407  -0.067166
    XI1207   PRI0507  -0.003464   PRI0607  -0.000678
    XI1207   PRI0707  -0.001129   PRI0807  -0.002000
    XI1207   PRI0907  -0.022401   PRI1007  -0.002635
    XI1207   PRI1107  -0.016904   PRI1307  -0.002598
    XI1207   PRI1407  -0.053311   PRI1607  -0.000301
    XI1207   PRI1707  -0.022326   PRI1807  -0.017206
    XI1207   PRI1907  -0.008772   PRI2007  -0.134483
    XI1207   PRI1207  0.606604   UPBROW30718 1.000000
    XI1307   PRI0207  -0.000355   PRI0507  -0.002449
    XI1307   PRI0707  -0.016934   PRI0807  -0.002466
    XI1307   PRI0907  -0.023804   PRI1007  -0.002215
    XI1307   PRI1107  -0.064066   PRI1207  -0.023891
    XI1307   PRI1407  -0.173612   PRI1607  -0.001402
    XI1307   PRI1707  -0.014122   PRI1807  -0.003989
    XI1307   PRI1907  -0.001194   PRI2007  -0.092301
    XI1307   PRI1307  0.724759   UPBROW30719 1.000000
    XI1407   PRI0107  -0.015773   PRI0207  -0.000483
    XI1407   PRI0407  -0.003674   PRI0507  -0.003179
    XI1407   PRI0607  -0.003954   PRI0707  -0.006703
    XI1407   PRI0807  -0.028331   PRI0907  -0.038343
    XI1407   PRI1007  -0.003297   PRI1107  -0.059222
    XI1407   PRI1207  -0.031024   PRI1307  -0.013418
    XI1407   PRI1507  -0.000006   PRI1607  0.000047
    XI1407   PRI1707  -0.013645   PRI1807  -0.005793
    XI1407   PRI1907  -0.003029   PRI2007  -0.122929
    XI1407   PRI1407  0.780186   UPBROW30720 1.000000
    XI1507   PRI0507  -0.001300   PRI0707  -0.001300
    XI1507   PRI0807  -0.000557   PRI0907  -0.008174
    XI1507   PRI1007  -0.018020   PRI1107  -0.000743
    XI1507   PRI1307  -0.002601   PRI1407  -0.012447
    XI1507   PRI1707  -0.011704   PRI1807  -0.003901
    XI1507   PRI1907  -0.000557   PRI2007  -0.309493
    XI1507   PRI1507  0.997771   UPBROW30721 1.000000
    XI1607   PRI0107  -0.000838   PRI0207  -0.000076
    XI1607   PRI0507  -0.001523   PRI0607  -0.022011
    XI1607   PRI0707  -0.001142   PRI0807  -0.001523
    XI1607   PRI0907  -0.002818   PRI1007  -0.052171
    XI1607   PRI1107  -0.000076   PRI1307  -0.035187
    XI1607   PRI1407  -0.007007   PRI1707  -0.032216
    XI1607   PRI1807  -0.001219   PRI1907  -0.000533
    XI1607   PRI2007  -0.171516   PRI1607  0.949886
    XI1607   UPBROW30722 1.000000
    XI1707   PRI0107  -0.001548   PRI0207  -0.000178
    XI1707   PRI0307  -0.000783   PRI0407  -0.000036
    XI1707   PRI0507  -0.017634   PRI0607  -0.000160
    XI1707   PRI0707  -0.003221   PRI0807  -0.001940
    XI1707   PRI0907  -0.007918   PRI1007  -0.030196
    XI1707   PRI1107  -0.003577   PRI1207  -0.001424
    XI1707   PRI1307  -0.013577   PRI1407  -0.011869
    XI1707   PRI1507  -0.000819   PRI1607  -0.001032
    XI1707   PRI1807  -0.003915   PRI1907  -0.000890
    XI1707   PRI2007  -0.166071   PRI1707  0.878788
    XI1707   UPBROW30723 1.000000
    XI1807   PRI0207  -0.059245   PRI0407  -0.000062
    XI1807   PRI0507  -0.041988   PRI0607  -0.000123
    XI1807   PRI0707  -0.000584   PRI0807  -0.001784
    XI1807   PRI0907  -0.003722   PRI1007  -0.014704
    XI1807   PRI1107  -0.001015   PRI1207  -0.000615
    XI1807   PRI1307  -0.000277   PRI1407  -0.007536
    XI1807   PRI1607  -0.000031   PRI1707  -0.028884
    XI1807   PRI1907  -0.041189   PRI2007  -0.054785
    XI1807   PRI1807  0.878803   UPBROW30724 1.000000
    XI1907   PRI0207  -0.000234   PRI0307  -0.183070
    XI1907   PRI0507  -0.014421   PRI0707  -0.000281
    XI1907   PRI0807  -0.000468   PRI0907  -0.000047
    XI1907   PRI1007  -0.000702   PRI1107  -0.001077
    XI1907   PRI1407  -0.000094   PRI1707  -0.000187
    XI1907   PRI1807  -0.002201   PRI2007  -0.049724
    XI1907   PRI1907  0.660127   UPBROW30725 1.000000
    XI2007   PRI0107  -0.005020   PRI0207  -0.000102
    XI2007   PRI0307  -0.000184   PRI0407  -0.000054
    XI2007   PRI0507  -0.012360   PRI0607  -0.008987
    XI2007   PRI0707  -0.001156   PRI0807  -0.004593
    XI2007   PRI0907  -0.005133   PRI1007  -0.004367
    XI2007   PRI1107  -0.000564   PRI1207  -0.000503
    XI2007   PRI1307  -0.004285   PRI1407  -0.043513
    XI2007   PRI1507  -0.000877   PRI1607  -0.006966
    XI2007   PRI1707  -0.006210   PRI1807  -0.008192
    XI2007   PRI1907  -0.002209   PRI2007  0.817877
    XI2007   UPBROW30726 1.000000
    YI0107   PRI0107  -1.000000   REVENUE  -1.000000
    YI0107   UPBROW31000 1.000000
    YI0207   PRI0207  -1.000000   REVENUE  -7.000000
    YI0207   UPBROW31001 1.000000
    YI0307   PRI0307  -1.000000   REVENUE  -1.000000
    YI0307   UPBROW31002 1.000000
    SI0107   PRI0108  1.000000   PRI0107  -1.000000
    SI0107   UPBROW31440 1.000000
    SI0207   PRI0208  1.000000   PRI0207  -1.000000
    SI0207   UPBROW31441 1.000000
    SI0307   PRI0308  1.000000   PRI0307  -1.000000
    SI0307   UPBROW31442 1.000000
    SI0407   PRI0408  1.000000   PRI0407  -1.000000
    SI0407   UPBROW31150 1.000000
    SI0507   PRI0508  1.000000   PRI0507  -1.000000
    SI0507   UPBROW31151 1.000000
    SI0607   PRI0608  1.000000   PRI0607  -1.000000
    SI0607   UPBROW31152 1.000000
    SI0707   PRI0708  1.000000   PRI0707  -1.000000
    SI0707   UPBROW31153 1.000000
    SI0807   PRI0808  1.000000   PRI0807  -1.000000
    SI0807   UPBROW31154 1.000000
    SI0907   PRI0908  1.000000   PRI0907  -1.000000
    SI0907   UPBROW31155 1.000000
    SI1007   PRI1008  1.000000   PRI1007  -1.000000
    SI1007   UPBROW31156 1.000000
    SI1107   PRI1108  1.000000   PRI1107  -1.000000
    SI1107   UPBROW31157 1.000000
    SI1207   PRI1208  1.000000   PRI1207  -1.000000
    SI1207   UPBROW31158 1.000000
    SI1307   PRI1308  1.000000   PRI1307  -1.000000
    SI1307   UPBROW31159 1.000000
    SI1407   PRI1408  1.000000   PRI1407  -1.000000
    SI1407   UPBROW31160 1.000000
    SI1507   PRI1508  1.000000   PRI1507  -1.000000
    SI1507   UPBROW31161 1.000000
    SI1607   PRI1608  1.000000   PRI1607  -1.000000
    SI1607   UPBROW31162 1.000000
    SI1707   PRI1708  1.000000   PRI1707  -1.000000
    SI1707   UPBROW31163 1.000000
    SI1807   PRI1808  1.000000   PRI1807  -1.000000
    SI1807   UPBROW31164 1.000000
    SI1907   PRI1908  1.000000   PRI1907  -1.000000
    SI1907   UPBROW31165 1.000000
    SI2007   PRI2008  1.000000   PRI2007  -1.000000
    SI2007   UPBROW31166 1.000000
    XI0108   PRI0208  -0.000066   PRI0408  -0.001575
    XI0108   PRI0508  -0.006836   PRI0608  -0.068339
    XI0108   PRI0708  -0.003500   PRI0808  -0.000372
    XI0108   PRI0908  -0.034585   PRI1008  -0.014700
    XI0108   PRI1208  -0.000033   PRI1308  -0.001006
    XI0108   PRI1408  -0.014208   PRI1608  -0.000087
    XI0108   PRI1708  -0.014689   PRI1808  -0.002100
    XI0108   PRI1908  -0.000219   PRI2008  -0.115197
    XI0108   PRI0108  0.690602
    XI0208   PRI0308  -0.000539   PRI0408  -0.001077
    XI0208   PRI0508  -0.007542   PRI0708  -0.006285
    XI0208   PRI0808  -0.000180   PRI0908  -0.029808
    XI0208   PRI1008  -0.012390   PRI1108  -0.013647
    XI0208   PRI1208  -0.003053   PRI1308  -0.000180
    XI0208   PRI1408  -0.070569   PRI1608  -0.000180
    XI0208   PRI1708  -0.008978   PRI1808  -0.027114
    XI0208   PRI1908  -0.000180   PRI2008  -0.142754
    XI0208   PRI0208  0.840546
    XI0308   PRI0508  -0.026987   PRI0708  -0.000345
    XI0308   PRI0808  -0.000058   PRI0908  -0.012889
    XI0308   PRI1008  -0.002071   PRI1108  -0.006790
    XI0308   PRI1408  -0.037459   PRI1608  -0.000230
    XI0308   PRI1708  -0.002877   PRI1808  -0.008401
    XI0308   PRI1908  -0.003050   PRI2008  -0.173370
    XI0308   PRI0308  0.972380
    XI0408   PRI0208  -0.001637   PRI0508  -0.013370
    XI0408   PRI0708  -0.003820   PRI0808  -0.005866
    XI0408   PRI0908  -0.050205   PRI1008  -0.018417
    XI0408   PRI1108  -0.030559   PRI1208  -0.002319
    XI0408   PRI1308  -0.002183   PRI1408  -0.084584
    XI0408   PRI1708  -0.010914   PRI1808  -0.037108
    XI0408   PRI1908  -0.009277   PRI2008  -0.159209
    XI0408   PRI0408  0.869577   UPBROW30727 1.000000
    XI0508   PRI0108  -0.002640   PRI0408  -0.008734
    XI0508   PRI0708  -0.003525   PRI0808  -0.003571
    XI0508   PRI0908  -0.011118   PRI1008  -0.019406
    XI0508   PRI1108  -0.016864   PRI1208  -0.027170
    XI0508   PRI1308  -0.000059   PRI1408  -0.298211
    XI0508   PRI1608  -0.000524   PRI1708  -0.029686
    XI0508   PRI1808  -0.000563   PRI1908  -0.000124
    XI0508   PRI2008  -0.207253   PRI0508  0.999712
    XI0508   UPBROW30728 1.000000
    XI0608   PRI0108  -0.338610   PRI0208  -0.000364
    XI0608   PRI0408  -0.000095   PRI0508  -0.001957
    XI0608   PRI0708  -0.001351   PRI0808  -0.023418
    XI0608   PRI0908  -0.010964   PRI1008  -0.001827
    XI0608   PRI1108  -0.000104   PRI1208  -0.000043
    XI0608   PRI1308  -0.000035   PRI1408  -0.045191
    XI0608   PRI1608  -0.000156   PRI1708  -0.022673
    XI0608   PRI1808  -0.003482   PRI1908  -0.002165
    XI0608   PRI2008  -0.103173   PRI0608  0.805874
    XI0608   UPBROW30729 1.000000
    XI0708   PRI0108  -0.048259   PRI0208  -0.000457
    XI0708   PRI0408  -0.000016   PRI0508  -0.001778
    XI0708   PRI0608  -0.001599   PRI0808  -0.009560
    XI0708   PRI0908  -0.076794   PRI1008  -0.001109
    XI0708   PRI1208  -0.000049   PRI1308  -0.000131
    XI0708   PRI1408  -0.019790   PRI1608  -0.000294
    XI0708   PRI1708  -0.011926   PRI1808  -0.006249
    XI0708   PRI1908  -0.001468   PRI2008  -0.084706
    XI0708   PRI0708  0.576973   UPBROW30730 1.000000
    XI0808   PRI0208  -0.003618   PRI0408  -0.003519
    XI0808   PRI0508  -0.005942   PRI0608  -0.009694
    XI0808   PRI0708  -0.011055   PRI0908  -0.062610
    XI0808   PRI1008  -0.005876   PRI1108  -0.001261
    XI0808   PRI1208  -0.001029   PRI1408  -0.094579
    XI0808   PRI1608  -0.000166   PRI1708  -0.032334
    XI0808   PRI1808  -0.011055   PRI1908  -0.006805
    XI0808   PRI2008  -0.103575   PRI0808  0.725027
    XI0808   UPBROW30731 1.000000
    XI0908   PRI0108  -0.001411   PRI0208  -0.002540
    XI0908   PRI0308  -0.001129   PRI0408  -0.014856
    XI0908   PRI0508  -0.005063   PRI0608  -0.007818
    XI0908   PRI0708  -0.024948   PRI0808  -0.024632
    XI0908   PRI1008  -0.037944   PRI1108  -0.004365
    XI0908   PRI1208  -0.007752   PRI1308  -0.002523
    XI0908   PRI1408  -0.047572   PRI1608  -0.000398
    XI0908   PRI1708  -0.019537   PRI1808  -0.013843
    XI0908   PRI1908  -0.008449   PRI2008  -0.115642
    XI0908   PRI0908  0.733625   UPBROW30732 1.000000
    XI1008   PRI0208  -0.000367   PRI0308  -0.460145
    XI1008   PRI0408  -0.002047   PRI0508  -0.011090
    XI1008   PRI0608  -0.001619   PRI0708  -0.000092
    XI1008   PRI0808  -0.006019   PRI0908  -0.023770
    XI1008   PRI1108  -0.000244   PRI1208  -0.001466
    XI1008   PRI1308  -0.000092   PRI1408  -0.013015
    XI1008   PRI1608  -0.000031   PRI1708  -0.035563
    XI1008   PRI1808  -0.005622   PRI1908  -0.010815
    XI1008   PRI2008  -0.076136   PRI1008  0.937888
    XI1008   UPBROW30733 1.000000
    XI1108   PRI0208  -0.026280   PRI0408  -0.047844
    XI1108   PRI0508  -0.009677   PRI0608  -0.000027
    XI1108   PRI0708  -0.000782   PRI0808  -0.001078
    XI1108   PRI0908  -0.016038   PRI1008  -0.004232
    XI1108   PRI1208  -0.033531   PRI1308  -0.005202
    XI1108   PRI1408  -0.070863   PRI1608  -0.000243
    XI1108   PRI1708  -0.042965   PRI1808  -0.018113
    XI1108   PRI1908  -0.015040   PRI2008  -0.122480
    XI1108   PRI1108  0.800189   UPBROW30734 1.000000
    XI1208   PRI0208  -0.000753   PRI0408  -0.067166
    XI1208   PRI0508  -0.003464   PRI0608  -0.000678
    XI1208   PRI0708  -0.001129   PRI0808  -0.002000
    XI1208   PRI0908  -0.022401   PRI1008  -0.002635
    XI1208   PRI1108  -0.016904   PRI1308  -0.002598
    XI1208   PRI1408  -0.053311   PRI1608  -0.000301
    XI1208   PRI1708  -0.022326   PRI1808  -0.017206
    XI1208   PRI1908  -0.008772   PRI2008  -0.134483
    XI1208   PRI1208  0.606604   UPBROW30735 1.000000
    XI1308   PRI0208  -0.000355   PRI0508  -0.002449
    XI1308   PRI0708  -0.016934   PRI0808  -0.002466
    XI1308   PRI0908  -0.023804   PRI1008  -0.002215
    XI1308   PRI1108  -0.064066   PRI1208  -0.023891
    XI1308   PRI1408  -0.173612   PRI1608  -0.001402
    XI1308   PRI1708  -0.014122   PRI1808  -0.003989
    XI1308   PRI1908  -0.001194   PRI2008  -0.092301
    XI1308   PRI1308  0.724759   UPBROW30736 1.000000
    XI1408   PRI0108  -0.015773   PRI0208  -0.000483
    XI1408   PRI0408  -0.003674   PRI0508  -0.003179
    XI1408   PRI0608  -0.003954   PRI0708  -0.006703
    XI1408   PRI0808  -0.028331   PRI0908  -0.038343
    XI1408   PRI1008  -0.003297   PRI1108  -0.059222
    XI1408   PRI1208  -0.031024   PRI1308  -0.013418
    XI1408   PRI1508  -0.000006   PRI1608  0.000047
    XI1408   PRI1708  -0.013645   PRI1808  -0.005793
    XI1408   PRI1908  -0.003029   PRI2008  -0.122929
    XI1408   PRI1408  0.780186   UPBROW30737 1.000000
    XI1508   PRI0508  -0.001300   PRI0708  -0.001300
    XI1508   PRI0808  -0.000557   PRI0908  -0.008174
    XI1508   PRI1008  -0.018020   PRI1108  -0.000743
    XI1508   PRI1308  -0.002601   PRI1408  -0.012447
    XI1508   PRI1708  -0.011704   PRI1808  -0.003901
    XI1508   PRI1908  -0.000557   PRI2008  -0.309493
    XI1508   PRI1508  0.997771   UPBROW30738 1.000000
    XI1608   PRI0108  -0.000838   PRI0208  -0.000076
    XI1608   PRI0508  -0.001523   PRI0608  -0.022011
    XI1608   PRI0708  -0.001142   PRI0808  -0.001523
    XI1608   PRI0908  -0.002818   PRI1008  -0.052171
    XI1608   PRI1108  -0.000076   PRI1308  -0.035187
    XI1608   PRI1408  -0.007007   PRI1708  -0.032216
    XI1608   PRI1808  -0.001219   PRI1908  -0.000533
    XI1608   PRI2008  -0.171516   PRI1608  0.949886
    XI1608   UPBROW30739 1.000000
    XI1708   PRI0108  -0.001548   PRI0208  -0.000178
    XI1708   PRI0308  -0.000783   PRI0408  -0.000036
    XI1708   PRI0508  -0.017634   PRI0608  -0.000160
    XI1708   PRI0708  -0.003221   PRI0808  -0.001940
    XI1708   PRI0908  -0.007918   PRI1008  -0.030196
    XI1708   PRI1108  -0.003577   PRI1208  -0.001424
    XI1708   PRI1308  -0.013577   PRI1408  -0.011869
    XI1708   PRI1508  -0.000819   PRI1608  -0.001032
    XI1708   PRI1808  -0.003915   PRI1908  -0.000890
    XI1708   PRI2008  -0.166071   PRI1708  0.878788
    XI1708   UPBROW30740 1.000000
    XI1808   PRI0208  -0.059245   PRI0408  -0.000062
    XI1808   PRI0508  -0.041988   PRI0608  -0.000123
    XI1808   PRI0708  -0.000584   PRI0808  -0.001784
    XI1808   PRI0908  -0.003722   PRI1008  -0.014704
    XI1808   PRI1108  -0.001015   PRI1208  -0.000615
    XI1808   PRI1308  -0.000277   PRI1408  -0.007536
    XI1808   PRI1608  -0.000031   PRI1708  -0.028884
    XI1808   PRI1908  -0.041189   PRI2008  -0.054785
    XI1808   PRI1808  0.878803   UPBROW30741 1.000000
    XI1908   PRI0208  -0.000234   PRI0308  -0.183070
    XI1908   PRI0508  -0.014421   PRI0708  -0.000281
    XI1908   PRI0808  -0.000468   PRI0908  -0.000047
    XI1908   PRI1008  -0.000702   PRI1108  -0.001077
    XI1908   PRI1408  -0.000094   PRI1708  -0.000187
    XI1908   PRI1808  -0.002201   PRI2008  -0.049724
    XI1908   PRI1908  0.660127   UPBROW30742 1.000000
    XI2008   PRI0108  -0.005020   PRI0208  -0.000102
    XI2008   PRI0308  -0.000184   PRI0408  -0.000054
    XI2008   PRI0508  -0.012360   PRI0608  -0.008987
    XI2008   PRI0708  -0.001156   PRI0808  -0.004593
    XI2008   PRI0908  -0.005133   PRI1008  -0.004367
    XI2008   PRI1108  -0.000564   PRI1208  -0.000503
    XI2008   PRI1308  -0.004285   PRI1408  -0.043513
    XI2008   PRI1508  -0.000877   PRI1608  -0.006966
    XI2008   PRI1708  -0.006210   PRI1808  -0.008192
    XI2008   PRI1908  -0.002209   PRI2008  0.817877
    XI2008   UPBROW30743 1.000000
    YI0108   PRI0108  -1.000000   REVENUE  -7.000000
    YI0108   UPBROW31003 1.000000
    YI0208   PRI0208  -1.000000   REVENUE  -4.000000
    YI0208   UPBROW31004 1.000000
    YI0308   PRI0308  -1.000000   REVENUE  -3.000000
    YI0308   UPBROW31005 1.000000
    SI0108   PRI0109  1.000000   PRI0108  -1.000000
    SI0108   UPBROW31443 1.000000
    SI0208   PRI0209  1.000000   PRI0208  -1.000000
    SI0208   UPBROW31444 1.000000
    SI0308   PRI0309  1.000000   PRI0308  -1.000000
    SI0308   UPBROW31445 1.000000
    SI0408   PRI0409  1.000000   PRI0408  -1.000000
    SI0408   UPBROW31167 1.000000
    SI0508   PRI0509  1.000000   PRI0508  -1.000000
    SI0508   UPBROW31168 1.000000
    SI0608   PRI0609  1.000000   PRI0608  -1.000000
    SI0608   UPBROW31169 1.000000
    SI0708   PRI0709  1.000000   PRI0708  -1.000000
    SI0708   UPBROW31170 1.000000
    SI0808   PRI0809  1.000000   PRI0808  -1.000000
    SI0808   UPBROW31171 1.000000
    SI0908   PRI0909  1.000000   PRI0908  -1.000000
    SI0908   UPBROW31172 1.000000
    SI1008   PRI1009  1.000000   PRI1008  -1.000000
    SI1008   UPBROW31173 1.000000
    SI1108   PRI1109  1.000000   PRI1108  -1.000000
    SI1108   UPBROW31174 1.000000
    SI1208   PRI1209  1.000000   PRI1208  -1.000000
    SI1208   UPBROW31175 1.000000
    SI1308   PRI1309  1.000000   PRI1308  -1.000000
    SI1308   UPBROW31176 1.000000
    SI1408   PRI1409  1.000000   PRI1408  -1.000000
    SI1408   UPBROW31177 1.000000
    SI1508   PRI1509  1.000000   PRI1508  -1.000000
    SI1508   UPBROW31178 1.000000
    SI1608   PRI1609  1.000000   PRI1608  -1.000000
    SI1608   UPBROW31179 1.000000
    SI1708   PRI1709  1.000000   PRI1708  -1.000000
    SI1708   UPBROW31180 1.000000
    SI1808   PRI1809  1.000000   PRI1808  -1.000000
    SI1808   UPBROW31181 1.000000
    SI1908   PRI1909  1.000000   PRI1908  -1.000000
    SI1908   UPBROW31182 1.000000
    SI2008   PRI2009  1.000000   PRI2008  -1.000000
    SI2008   UPBROW31183 1.000000
    XI0109   PRI0209  -0.000066   PRI0409  -0.001575
    XI0109   PRI0509  -0.006836   PRI0609  -0.068339
    XI0109   PRI0709  -0.003500   PRI0809  -0.000372
    XI0109   PRI0909  -0.034585   PRI1009  -0.014700
    XI0109   PRI1209  -0.000033   PRI1309  -0.001006
    XI0109   PRI1409  -0.014208   PRI1609  -0.000087
    XI0109   PRI1709  -0.014689   PRI1809  -0.002100
    XI0109   PRI1909  -0.000219   PRI2009  -0.115197
    XI0109   PRI0109  0.690602
    XI0209   PRI0309  -0.000539   PRI0409  -0.001077
    XI0209   PRI0509  -0.007542   PRI0709  -0.006285
    XI0209   PRI0809  -0.000180   PRI0909  -0.029808
    XI0209   PRI1009  -0.012390   PRI1109  -0.013647
    XI0209   PRI1209  -0.003053   PRI1309  -0.000180
    XI0209   PRI1409  -0.070569   PRI1609  -0.000180
    XI0209   PRI1709  -0.008978   PRI1809  -0.027114
    XI0209   PRI1909  -0.000180   PRI2009  -0.142754
    XI0209   PRI0209  0.840546
    XI0309   PRI0509  -0.026987   PRI0709  -0.000345
    XI0309   PRI0809  -0.000058   PRI0909  -0.012889
    XI0309   PRI1009  -0.002071   PRI1109  -0.006790
    XI0309   PRI1409  -0.037459   PRI1609  -0.000230
    XI0309   PRI1709  -0.002877   PRI1809  -0.008401
    XI0309   PRI1909  -0.003050   PRI2009  -0.173370
    XI0309   PRI0309  0.972380
    XI0409   PRI0209  -0.001637   PRI0509  -0.013370
    XI0409   PRI0709  -0.003820   PRI0809  -0.005866
    XI0409   PRI0909  -0.050205   PRI1009  -0.018417
    XI0409   PRI1109  -0.030559   PRI1209  -0.002319
    XI0409   PRI1309  -0.002183   PRI1409  -0.084584
    XI0409   PRI1709  -0.010914   PRI1809  -0.037108
    XI0409   PRI1909  -0.009277   PRI2009  -0.159209
    XI0409   PRI0409  0.869577   UPBROW30744 1.000000
    XI0509   PRI0109  -0.002640   PRI0409  -0.008734
    XI0509   PRI0709  -0.003525   PRI0809  -0.003571
    XI0509   PRI0909  -0.011118   PRI1009  -0.019406
    XI0509   PRI1109  -0.016864   PRI1209  -0.027170
    XI0509   PRI1309  -0.000059   PRI1409  -0.298211
    XI0509   PRI1609  -0.000524   PRI1709  -0.029686
    XI0509   PRI1809  -0.000563   PRI1909  -0.000124
    XI0509   PRI2009  -0.207253   PRI0509  0.999712
    XI0509   UPBROW30745 1.000000
    XI0609   PRI0109  -0.338610   PRI0209  -0.000364
    XI0609   PRI0409  -0.000095   PRI0509  -0.001957
    XI0609   PRI0709  -0.001351   PRI0809  -0.023418
    XI0609   PRI0909  -0.010964   PRI1009  -0.001827
    XI0609   PRI1109  -0.000104   PRI1209  -0.000043
    XI0609   PRI1309  -0.000035   PRI1409  -0.045191
    XI0609   PRI1609  -0.000156   PRI1709  -0.022673
    XI0609   PRI1809  -0.003482   PRI1909  -0.002165
    XI0609   PRI2009  -0.103173   PRI0609  0.805874
    XI0609   UPBROW30746 1.000000
    XI0709   PRI0109  -0.048259   PRI0209  -0.000457
    XI0709   PRI0409  -0.000016   PRI0509  -0.001778
    XI0709   PRI0609  -0.001599   PRI0809  -0.009560
    XI0709   PRI0909  -0.076794   PRI1009  -0.001109
    XI0709   PRI1209  -0.000049   PRI1309  -0.000131
    XI0709   PRI1409  -0.019790   PRI1609  -0.000294
    XI0709   PRI1709  -0.011926   PRI1809  -0.006249
    XI0709   PRI1909  -0.001468   PRI2009  -0.084706
    XI0709   PRI0709  0.576973   UPBROW30747 1.000000
    XI0809   PRI0209  -0.003618   PRI0409  -0.003519
    XI0809   PRI0509  -0.005942   PRI0609  -0.009694
    XI0809   PRI0709  -0.011055   PRI0909  -0.062610
    XI0809   PRI1009  -0.005876   PRI1109  -0.001261
    XI0809   PRI1209  -0.001029   PRI1409  -0.094579
    XI0809   PRI1609  -0.000166   PRI1709  -0.032334
    XI0809   PRI1809  -0.011055   PRI1909  -0.006805
    XI0809   PRI2009  -0.103575   PRI0809  0.725027
    XI0809   UPBROW30748 1.000000
    XI0909   PRI0109  -0.001411   PRI0209  -0.002540
    XI0909   PRI0309  -0.001129   PRI0409  -0.014856
    XI0909   PRI0509  -0.005063   PRI0609  -0.007818
    XI0909   PRI0709  -0.024948   PRI0809  -0.024632
    XI0909   PRI1009  -0.037944   PRI1109  -0.004365
    XI0909   PRI1209  -0.007752   PRI1309  -0.002523
    XI0909   PRI1409  -0.047572   PRI1609  -0.000398
    XI0909   PRI1709  -0.019537   PRI1809  -0.013843
    XI0909   PRI1909  -0.008449   PRI2009  -0.115642
    XI0909   PRI0909  0.733625   UPBROW30749 1.000000
    XI1009   PRI0209  -0.000367   PRI0309  -0.460145
    XI1009   PRI0409  -0.002047   PRI0509  -0.011090
    XI1009   PRI0609  -0.001619   PRI0709  -0.000092
    XI1009   PRI0809  -0.006019   PRI0909  -0.023770
    XI1009   PRI1109  -0.000244   PRI1209  -0.001466
    XI1009   PRI1309  -0.000092   PRI1409  -0.013015
    XI1009   PRI1609  -0.000031   PRI1709  -0.035563
    XI1009   PRI1809  -0.005622   PRI1909  -0.010815
    XI1009   PRI2009  -0.076136   PRI1009  0.937888
    XI1009   UPBROW30750 1.000000
    XI1109   PRI0209  -0.026280   PRI0409  -0.047844
    XI1109   PRI0509  -0.009677   PRI0609  -0.000027
    XI1109   PRI0709  -0.000782   PRI0809  -0.001078
    XI1109   PRI0909  -0.016038   PRI1009  -0.004232
    XI1109   PRI1209  -0.033531   PRI1309  -0.005202
    XI1109   PRI1409  -0.070863   PRI1609  -0.000243
    XI1109   PRI1709  -0.042965   PRI1809  -0.018113
    XI1109   PRI1909  -0.015040   PRI2009  -0.122480
    XI1109   PRI1109  0.800189   UPBROW30751 1.000000
    XI1209   PRI0209  -0.000753   PRI0409  -0.067166
    XI1209   PRI0509  -0.003464   PRI0609  -0.000678
    XI1209   PRI0709  -0.001129   PRI0809  -0.002000
    XI1209   PRI0909  -0.022401   PRI1009  -0.002635
    XI1209   PRI1109  -0.016904   PRI1309  -0.002598
    XI1209   PRI1409  -0.053311   PRI1609  -0.000301
    XI1209   PRI1709  -0.022326   PRI1809  -0.017206
    XI1209   PRI1909  -0.008772   PRI2009  -0.134483
    XI1209   PRI1209  0.606604   UPBROW30752 1.000000
    XI1309   PRI0209  -0.000355   PRI0509  -0.002449
    XI1309   PRI0709  -0.016934   PRI0809  -0.002466
    XI1309   PRI0909  -0.023804   PRI1009  -0.002215
    XI1309   PRI1109  -0.064066   PRI1209  -0.023891
    XI1309   PRI1409  -0.173612   PRI1609  -0.001402
    XI1309   PRI1709  -0.014122   PRI1809  -0.003989
    XI1309   PRI1909  -0.001194   PRI2009  -0.092301
    XI1309   PRI1309  0.724759   UPBROW30753 1.000000
    XI1409   PRI0109  -0.015773   PRI0209  -0.000483
    XI1409   PRI0409  -0.003674   PRI0509  -0.003179
    XI1409   PRI0609  -0.003954   PRI0709  -0.006703
    XI1409   PRI0809  -0.028331   PRI0909  -0.038343
    XI1409   PRI1009  -0.003297   PRI1109  -0.059222
    XI1409   PRI1209  -0.031024   PRI1309  -0.013418
    XI1409   PRI1509  -0.000006   PRI1609  0.000047
    XI1409   PRI1709  -0.013645   PRI1809  -0.005793
    XI1409   PRI1909  -0.003029   PRI2009  -0.122929
    XI1409   PRI1409  0.780186   UPBROW30754 1.000000
    XI1509   PRI0509  -0.001300   PRI0709  -0.001300
    XI1509   PRI0809  -0.000557   PRI0909  -0.008174
    XI1509   PRI1009  -0.018020   PRI1109  -0.000743
    XI1509   PRI1309  -0.002601   PRI1409  -0.012447
    XI1509   PRI1709  -0.011704   PRI1809  -0.003901
    XI1509   PRI1909  -0.000557   PRI2009  -0.309493
    XI1509   PRI1509  0.997771   UPBROW30755 1.000000
    XI1609   PRI0109  -0.000838   PRI0209  -0.000076
    XI1609   PRI0509  -0.001523   PRI0609  -0.022011
    XI1609   PRI0709  -0.001142   PRI0809  -0.001523
    XI1609   PRI0909  -0.002818   PRI1009  -0.052171
    XI1609   PRI1109  -0.000076   PRI1309  -0.035187
    XI1609   PRI1409  -0.007007   PRI1709  -0.032216
    XI1609   PRI1809  -0.001219   PRI1909  -0.000533
    XI1609   PRI2009  -0.171516   PRI1609  0.949886
    XI1609   UPBROW30756 1.000000
    XI1709   PRI0109  -0.001548   PRI0209  -0.000178
    XI1709   PRI0309  -0.000783   PRI0409  -0.000036
    XI1709   PRI0509  -0.017634   PRI0609  -0.000160
    XI1709   PRI0709  -0.003221   PRI0809  -0.001940
    XI1709   PRI0909  -0.007918   PRI1009  -0.030196
    XI1709   PRI1109  -0.003577   PRI1209  -0.001424
    XI1709   PRI1309  -0.013577   PRI1409  -0.011869
    XI1709   PRI1509  -0.000819   PRI1609  -0.001032
    XI1709   PRI1809  -0.003915   PRI1909  -0.000890
    XI1709   PRI2009  -0.166071   PRI1709  0.878788
    XI1709   UPBROW30757 1.000000
    XI1809   PRI0209  -0.059245   PRI0409  -0.000062
    XI1809   PRI0509  -0.041988   PRI0609  -0.000123
    XI1809   PRI0709  -0.000584   PRI0809  -0.001784
    XI1809   PRI0909  -0.003722   PRI1009  -0.014704
    XI1809   PRI1109  -0.001015   PRI1209  -0.000615
    XI1809   PRI1309  -0.000277   PRI1409  -0.007536
    XI1809   PRI1609  -0.000031   PRI1709  -0.028884
    XI1809   PRI1909  -0.041189   PRI2009  -0.054785
    XI1809   PRI1809  0.878803   UPBROW30758 1.000000
    XI1909   PRI0209  -0.000234   PRI0309  -0.183070
    XI1909   PRI0509  -0.014421   PRI0709  -0.000281
    XI1909   PRI0809  -0.000468   PRI0909  -0.000047
    XI1909   PRI1009  -0.000702   PRI1109  -0.001077
    XI1909   PRI1409  -0.000094   PRI1709  -0.000187
    XI1909   PRI1809  -0.002201   PRI2009  -0.049724
    XI1909   PRI1909  0.660127   UPBROW30759 1.000000
    XI2009   PRI0109  -0.005020   PRI0209  -0.000102
    XI2009   PRI0309  -0.000184   PRI0409  -0.000054
    XI2009   PRI0509  -0.012360   PRI0609  -0.008987
    XI2009   PRI0709  -0.001156   PRI0809  -0.004593
    XI2009   PRI0909  -0.005133   PRI1009  -0.004367
    XI2009   PRI1109  -0.000564   PRI1209  -0.000503
    XI2009   PRI1309  -0.004285   PRI1409  -0.043513
    XI2009   PRI1509  -0.000877   PRI1609  -0.006966
    XI2009   PRI1709  -0.006210   PRI1809  -0.008192
    XI2009   PRI1909  -0.002209   PRI2009  0.817877
    XI2009   UPBROW30760 1.000000
    YI0109   PRI0109  -1.000000   REVENUE  -1.000000
    YI0109   UPBROW31006 1.000000
    YI0209   PRI0209  -1.000000   REVENUE  -1.000000
    YI0209   UPBROW31007 1.000000
    YI0309   PRI0309  -1.000000   REVENUE  -5.000000
    YI0309   UPBROW31008 1.000000
    SI0109   PRI0110  1.000000   PRI0109  -1.000000
    SI0109   UPBROW31446 1.000000
    SI0209   PRI0210  1.000000   PRI0209  -1.000000
    SI0209   UPBROW31447 1.000000
    SI0309   PRI0310  1.000000   PRI0309  -1.000000
    SI0309   UPBROW31448 1.000000
    SI0409   PRI0410  1.000000   PRI0409  -1.000000
    SI0409   UPBROW31184 1.000000
    SI0509   PRI0510  1.000000   PRI0509  -1.000000
    SI0509   UPBROW31185 1.000000
    SI0609   PRI0610  1.000000   PRI0609  -1.000000
    SI0609   UPBROW31186 1.000000
    SI0709   PRI0710  1.000000   PRI0709  -1.000000
    SI0709   UPBROW31187 1.000000
    SI0809   PRI0810  1.000000   PRI0809  -1.000000
    SI0809   UPBROW31188 1.000000
    SI0909   PRI0910  1.000000   PRI0909  -1.000000
    SI0909   UPBROW31189 1.000000
    SI1009   PRI1010  1.000000   PRI1009  -1.000000
    SI1009   UPBROW31190 1.000000
    SI1109   PRI1110  1.000000   PRI1109  -1.000000
    SI1109   UPBROW31191 1.000000
    SI1209   PRI1210  1.000000   PRI1209  -1.000000
    SI1209   UPBROW31192 1.000000
    SI1309   PRI1310  1.000000   PRI1309  -1.000000
    SI1309   UPBROW31193 1.000000
    SI1409   PRI1410  1.000000   PRI1409  -1.000000
    SI1409   UPBROW31194 1.000000
    SI1509   PRI1510  1.000000   PRI1509  -1.000000
    SI1509   UPBROW31195 1.000000
    SI1609   PRI1610  1.000000   PRI1609  -1.000000
    SI1609   UPBROW31196 1.000000
    SI1709   PRI1710  1.000000   PRI1709  -1.000000
    SI1709   UPBROW31197 1.000000
    SI1809   PRI1810  1.000000   PRI1809  -1.000000
    SI1809   UPBROW31198 1.000000
    SI1909   PRI1910  1.000000   PRI1909  -1.000000
    SI1909   UPBROW31199 1.000000
    SI2009   PRI2010  1.000000   PRI2009  -1.000000
    SI2009   UPBROW31200 1.000000
    XI0110   PRI0210  -0.000066   PRI0410  -0.001575
    XI0110   PRI0510  -0.006836   PRI0610  -0.068339
    XI0110   PRI0710  -0.003500   PRI0810  -0.000372
    XI0110   PRI0910  -0.034585   PRI1010  -0.014700
    XI0110   PRI1210  -0.000033   PRI1310  -0.001006
    XI0110   PRI1410  -0.014208   PRI1610  -0.000087
    XI0110   PRI1710  -0.014689   PRI1810  -0.002100
    XI0110   PRI1910  -0.000219   PRI2010  -0.115197
    XI0110   PRI0110  0.690602
    XI0210   PRI0310  -0.000539   PRI0410  -0.001077
    XI0210   PRI0510  -0.007542   PRI0710  -0.006285
    XI0210   PRI0810  -0.000180   PRI0910  -0.029808
    XI0210   PRI1010  -0.012390   PRI1110  -0.013647
    XI0210   PRI1210  -0.003053   PRI1310  -0.000180
    XI0210   PRI1410  -0.070569   PRI1610  -0.000180
    XI0210   PRI1710  -0.008978   PRI1810  -0.027114
    XI0210   PRI1910  -0.000180   PRI2010  -0.142754
    XI0210   PRI0210  0.840546
    XI0310   PRI0510  -0.026987   PRI0710  -0.000345
    XI0310   PRI0810  -0.000058   PRI0910  -0.012889
    XI0310   PRI1010  -0.002071   PRI1110  -0.006790
    XI0310   PRI1410  -0.037459   PRI1610  -0.000230
    XI0310   PRI1710  -0.002877   PRI1810  -0.008401
    XI0310   PRI1910  -0.003050   PRI2010  -0.173370
    XI0310   PRI0310  0.972380
    XI0410   PRI0210  -0.001637   PRI0510  -0.013370
    XI0410   PRI0710  -0.003820   PRI0810  -0.005866
    XI0410   PRI0910  -0.050205   PRI1010  -0.018417
    XI0410   PRI1110  -0.030559   PRI1210  -0.002319
    XI0410   PRI1310  -0.002183   PRI1410  -0.084584
    XI0410   PRI1710  -0.010914   PRI1810  -0.037108
    XI0410   PRI1910  -0.009277   PRI2010  -0.159209
    XI0410   PRI0410  0.869577   UPBROW30761 1.000000
    XI0510   PRI0110  -0.002640   PRI0410  -0.008734
    XI0510   PRI0710  -0.003525   PRI0810  -0.003571
    XI0510   PRI0910  -0.011118   PRI1010  -0.019406
    XI0510   PRI1110  -0.016864   PRI1210  -0.027170
    XI0510   PRI1310  -0.000059   PRI1410  -0.298211
    XI0510   PRI1610  -0.000524   PRI1710  -0.029686
    XI0510   PRI1810  -0.000563   PRI1910  -0.000124
    XI0510   PRI2010  -0.207253   PRI0510  0.999712
    XI0510   UPBROW30762 1.000000
    XI0610   PRI0110  -0.338610   PRI0210  -0.000364
    XI0610   PRI0410  -0.000095   PRI0510  -0.001957
    XI0610   PRI0710  -0.001351   PRI0810  -0.023418
    XI0610   PRI0910  -0.010964   PRI1010  -0.001827
    XI0610   PRI1110  -0.000104   PRI1210  -0.000043
    XI0610   PRI1310  -0.000035   PRI1410  -0.045191
    XI0610   PRI1610  -0.000156   PRI1710  -0.022673
    XI0610   PRI1810  -0.003482   PRI1910  -0.002165
    XI0610   PRI2010  -0.103173   PRI0610  0.805874
    XI0610   UPBROW30763 1.000000
    XI0710   PRI0110  -0.048259   PRI0210  -0.000457
    XI0710   PRI0410  -0.000016   PRI0510  -0.001778
    XI0710   PRI0610  -0.001599   PRI0810  -0.009560
    XI0710   PRI0910  -0.076794   PRI1010  -0.001109
    XI0710   PRI1210  -0.000049   PRI1310  -0.000131
    XI0710   PRI1410  -0.019790   PRI1610  -0.000294
    XI0710   PRI1710  -0.011926   PRI1810  -0.006249
    XI0710   PRI1910  -0.001468   PRI2010  -0.084706
    XI0710   PRI0710  0.576973   UPBROW30764 1.000000
    XI0810   PRI0210  -0.003618   PRI0410  -0.003519
    XI0810   PRI0510  -0.005942   PRI0610  -0.009694
    XI0810   PRI0710  -0.011055   PRI0910  -0.062610
    XI0810   PRI1010  -0.005876   PRI1110  -0.001261
    XI0810   PRI1210  -0.001029   PRI1410  -0.094579
    XI0810   PRI1610  -0.000166   PRI1710  -0.032334
    XI0810   PRI1810  -0.011055   PRI1910  -0.006805
    XI0810   PRI2010  -0.103575   PRI0810  0.725027
    XI0810   UPBROW30765 1.000000
    XI0910   PRI0110  -0.001411   PRI0210  -0.002540
    XI0910   PRI0310  -0.001129   PRI0410  -0.014856
    XI0910   PRI0510  -0.005063   PRI0610  -0.007818
    XI0910   PRI0710  -0.024948   PRI0810  -0.024632
    XI0910   PRI1010  -0.037944   PRI1110  -0.004365
    XI0910   PRI1210  -0.007752   PRI1310  -0.002523
    XI0910   PRI1410  -0.047572   PRI1610  -0.000398
    XI0910   PRI1710  -0.019537   PRI1810  -0.013843
    XI0910   PRI1910  -0.008449   PRI2010  -0.115642
    XI0910   PRI0910  0.733625   UPBROW30766 1.000000
    XI1010   PRI0210  -0.000367   PRI0310  -0.460145
    XI1010   PRI0410  -0.002047   PRI0510  -0.011090
    XI1010   PRI0610  -0.001619   PRI0710  -0.000092
    XI1010   PRI0810  -0.006019   PRI0910  -0.023770
    XI1010   PRI1110  -0.000244   PRI1210  -0.001466
    XI1010   PRI1310  -0.000092   PRI1410  -0.013015
    XI1010   PRI1610  -0.000031   PRI1710  -0.035563
    XI1010   PRI1810  -0.005622   PRI1910  -0.010815
    XI1010   PRI2010  -0.076136   PRI1010  0.937888
    XI1010   UPBROW30767 1.000000
    XI1110   PRI0210  -0.026280   PRI0410  -0.047844
    XI1110   PRI0510  -0.009677   PRI0610  -0.000027
    XI1110   PRI0710  -0.000782   PRI0810  -0.001078
    XI1110   PRI0910  -0.016038   PRI1010  -0.004232
    XI1110   PRI1210  -0.033531   PRI1310  -0.005202
    XI1110   PRI1410  -0.070863   PRI1610  -0.000243
    XI1110   PRI1710  -0.042965   PRI1810  -0.018113
    XI1110   PRI1910  -0.015040   PRI2010  -0.122480
    XI1110   PRI1110  0.800189   UPBROW30768 1.000000
    XI1210   PRI0210  -0.000753   PRI0410  -0.067166
    XI1210   PRI0510  -0.003464   PRI0610  -0.000678
    XI1210   PRI0710  -0.001129   PRI0810  -0.002000
    XI1210   PRI0910  -0.022401   PRI1010  -0.002635
    XI1210   PRI1110  -0.016904   PRI1310  -0.002598
    XI1210   PRI1410  -0.053311   PRI1610  -0.000301
    XI1210   PRI1710  -0.022326   PRI1810  -0.017206
    XI1210   PRI1910  -0.008772   PRI2010  -0.134483
    XI1210   PRI1210  0.606604   UPBROW30769 1.000000
    XI1310   PRI0210  -0.000355   PRI0510  -0.002449
    XI1310   PRI0710  -0.016934   PRI0810  -0.002466
    XI1310   PRI0910  -0.023804   PRI1010  -0.002215
    XI1310   PRI1110  -0.064066   PRI1210  -0.023891
    XI1310   PRI1410  -0.173612   PRI1610  -0.001402
    XI1310   PRI1710  -0.014122   PRI1810  -0.003989
    XI1310   PRI1910  -0.001194   PRI2010  -0.092301
    XI1310   PRI1310  0.724759   UPBROW30770 1.000000
    XI1410   PRI0110  -0.015773   PRI0210  -0.000483
    XI1410   PRI0410  -0.003674   PRI0510  -0.003179
    XI1410   PRI0610  -0.003954   PRI0710  -0.006703
    XI1410   PRI0810  -0.028331   PRI0910  -0.038343
    XI1410   PRI1010  -0.003297   PRI1110  -0.059222
    XI1410   PRI1210  -0.031024   PRI1310  -0.013418
    XI1410   PRI1510  -0.000006   PRI1610  0.000047
    XI1410   PRI1710  -0.013645   PRI1810  -0.005793
    XI1410   PRI1910  -0.003029   PRI2010  -0.122929
    XI1410   PRI1410  0.780186   UPBROW30771 1.000000
    XI1510   PRI0510  -0.001300   PRI0710  -0.001300
    XI1510   PRI0810  -0.000557   PRI0910  -0.008174
    XI1510   PRI1010  -0.018020   PRI1110  -0.000743
    XI1510   PRI1310  -0.002601   PRI1410  -0.012447
    XI1510   PRI1710  -0.011704   PRI1810  -0.003901
    XI1510   PRI1910  -0.000557   PRI2010  -0.309493
    XI1510   PRI1510  0.997771   UPBROW30772 1.000000
    XI1610   PRI0110  -0.000838   PRI0210  -0.000076
    XI1610   PRI0510  -0.001523   PRI0610  -0.022011
    XI1610   PRI0710  -0.001142   PRI0810  -0.001523
    XI1610   PRI0910  -0.002818   PRI1010  -0.052171
    XI1610   PRI1110  -0.000076   PRI1310  -0.035187
    XI1610   PRI1410  -0.007007   PRI1710  -0.032216
    XI1610   PRI1810  -0.001219   PRI1910  -0.000533
    XI1610   PRI2010  -0.171516   PRI1610  0.949886
    XI1610   UPBROW30773 1.000000
    XI1710   PRI0110  -0.001548   PRI0210  -0.000178
    XI1710   PRI0310  -0.000783   PRI0410  -0.000036
    XI1710   PRI0510  -0.017634   PRI0610  -0.000160
    XI1710   PRI0710  -0.003221   PRI0810  -0.001940
    XI1710   PRI0910  -0.007918   PRI1010  -0.030196
    XI1710   PRI1110  -0.003577   PRI1210  -0.001424
    XI1710   PRI1310  -0.013577   PRI1410  -0.011869
    XI1710   PRI1510  -0.000819   PRI1610  -0.001032
    XI1710   PRI1810  -0.003915   PRI1910  -0.000890
    XI1710   PRI2010  -0.166071   PRI1710  0.878788
    XI1710   UPBROW30774 1.000000
    XI1810   PRI0210  -0.059245   PRI0410  -0.000062
    XI1810   PRI0510  -0.041988   PRI0610  -0.000123
    XI1810   PRI0710  -0.000584   PRI0810  -0.001784
    XI1810   PRI0910  -0.003722   PRI1010  -0.014704
    XI1810   PRI1110  -0.001015   PRI1210  -0.000615
    XI1810   PRI1310  -0.000277   PRI1410  -0.007536
    XI1810   PRI1610  -0.000031   PRI1710  -0.028884
    XI1810   PRI1910  -0.041189   PRI2010  -0.054785
    XI1810   PRI1810  0.878803   UPBROW30775 1.000000
    XI1910   PRI0210  -0.000234   PRI0310  -0.183070
    XI1910   PRI0510  -0.014421   PRI0710  -0.000281
    XI1910   PRI0810  -0.000468   PRI0910  -0.000047
    XI1910   PRI1010  -0.000702   PRI1110  -0.001077
    XI1910   PRI1410  -0.000094   PRI1710  -0.000187
    XI1910   PRI1810  -0.002201   PRI2010  -0.049724
    XI1910   PRI1910  0.660127   UPBROW30776 1.000000
    XI2010   PRI0110  -0.005020   PRI0210  -0.000102
    XI2010   PRI0310  -0.000184   PRI0410  -0.000054
    XI2010   PRI0510  -0.012360   PRI0610  -0.008987
    XI2010   PRI0710  -0.001156   PRI0810  -0.004593
    XI2010   PRI0910  -0.005133   PRI1010  -0.004367
    XI2010   PRI1110  -0.000564   PRI1210  -0.000503
    XI2010   PRI1310  -0.004285   PRI1410  -0.043513
    XI2010   PRI1510  -0.000877   PRI1610  -0.006966
    XI2010   PRI1710  -0.006210   PRI1810  -0.008192
    XI2010   PRI1910  -0.002209   PRI2010  0.817877
    XI2010   UPBROW30777 1.000000
    YI0110   PRI0110  -1.000000   REVENUE  -7.000000
    YI0110   UPBROW31009 1.000000
    YI0210   PRI0210  -1.000000   REVENUE  -4.000000
    YI0210   UPBROW31010 1.000000
    YI0310   PRI0310  -1.000000   REVENUE  -7.000000
    YI0310   UPBROW31011 1.000000
    SI0110   PRI0111  1.000000   PRI0110  -1.000000
    SI0110   UPBROW31449 1.000000
    SI0210   PRI0211  1.000000   PRI0210  -1.000000
    SI0210   UPBROW31450 1.000000
    SI0310   PRI0311  1.000000   PRI0310  -1.000000
    SI0310   UPBROW31451 1.000000
    SI0410   PRI0411  1.000000   PRI0410  -1.000000
    SI0410   UPBROW31201 1.000000
    SI0510   PRI0511  1.000000   PRI0510  -1.000000
    SI0510   UPBROW31202 1.000000
    SI0610   PRI0611  1.000000   PRI0610  -1.000000
    SI0610   UPBROW31203 1.000000
    SI0710   PRI0711  1.000000   PRI0710  -1.000000
    SI0710   UPBROW31204 1.000000
    SI0810   PRI0811  1.000000   PRI0810  -1.000000
    SI0810   UPBROW31205 1.000000
    SI0910   PRI0911  1.000000   PRI0910  -1.000000
    SI0910   UPBROW31206 1.000000
    SI1010   PRI1011  1.000000   PRI1010  -1.000000
    SI1010   UPBROW31207 1.000000
    SI1110   PRI1111  1.000000   PRI1110  -1.000000
    SI1110   UPBROW31208 1.000000
    SI1210   PRI1211  1.000000   PRI1210  -1.000000
    SI1210   UPBROW31209 1.000000
    SI1310   PRI1311  1.000000   PRI1310  -1.000000
    SI1310   UPBROW31210 1.000000
    SI1410   PRI1411  1.000000   PRI1410  -1.000000
    SI1410   UPBROW31211 1.000000
    SI1510   PRI1511  1.000000   PRI1510  -1.000000
    SI1510   UPBROW31212 1.000000
    SI1610   PRI1611  1.000000   PRI1610  -1.000000
    SI1610   UPBROW31213 1.000000
    SI1710   PRI1711  1.000000   PRI1710  -1.000000
    SI1710   UPBROW31214 1.000000
    SI1810   PRI1811  1.000000   PRI1810  -1.000000
    SI1810   UPBROW31215 1.000000
    SI1910   PRI1911  1.000000   PRI1910  -1.000000
    SI1910   UPBROW31216 1.000000
    SI2010   PRI2011  1.000000   PRI2010  -1.000000
    SI2010   UPBROW31217 1.000000
    XI0111   PRI0211  -0.000066   PRI0411  -0.001575
    XI0111   PRI0511  -0.006836   PRI0611  -0.068339
    XI0111   PRI0711  -0.003500   PRI0811  -0.000372
    XI0111   PRI0911  -0.034585   PRI1011  -0.014700
    XI0111   PRI1211  -0.000033   PRI1311  -0.001006
    XI0111   PRI1411  -0.014208   PRI1611  -0.000087
    XI0111   PRI1711  -0.014689   PRI1811  -0.002100
    XI0111   PRI1911  -0.000219   PRI2011  -0.115197
    XI0111   PRI0111  0.690602
    XI0211   PRI0311  -0.000539   PRI0411  -0.001077
    XI0211   PRI0511  -0.007542   PRI0711  -0.006285
    XI0211   PRI0811  -0.000180   PRI0911  -0.029808
    XI0211   PRI1011  -0.012390   PRI1111  -0.013647
    XI0211   PRI1211  -0.003053   PRI1311  -0.000180
    XI0211   PRI1411  -0.070569   PRI1611  -0.000180
    XI0211   PRI1711  -0.008978   PRI1811  -0.027114
    XI0211   PRI1911  -0.000180   PRI2011  -0.142754
    XI0211   PRI0211  0.840546
    XI0311   PRI0511  -0.026987   PRI0711  -0.000345
    XI0311   PRI0811  -0.000058   PRI0911  -0.012889
    XI0311   PRI1011  -0.002071   PRI1111  -0.006790
    XI0311   PRI1411  -0.037459   PRI1611  -0.000230
    XI0311   PRI1711  -0.002877   PRI1811  -0.008401
    XI0311   PRI1911  -0.003050   PRI2011  -0.173370
    XI0311   PRI0311  0.972380
    XI0411   PRI0211  -0.001637   PRI0511  -0.013370
    XI0411   PRI0711  -0.003820   PRI0811  -0.005866
    XI0411   PRI0911  -0.050205   PRI1011  -0.018417
    XI0411   PRI1111  -0.030559   PRI1211  -0.002319
    XI0411   PRI1311  -0.002183   PRI1411  -0.084584
    XI0411   PRI1711  -0.010914   PRI1811  -0.037108
    XI0411   PRI1911  -0.009277   PRI2011  -0.159209
    XI0411   PRI0411  0.869577   UPBROW30778 1.000000
    XI0511   PRI0111  -0.002640   PRI0411  -0.008734
    XI0511   PRI0711  -0.003525   PRI0811  -0.003571
    XI0511   PRI0911  -0.011118   PRI1011  -0.019406
    XI0511   PRI1111  -0.016864   PRI1211  -0.027170
    XI0511   PRI1311  -0.000059   PRI1411  -0.298211
    XI0511   PRI1611  -0.000524   PRI1711  -0.029686
    XI0511   PRI1811  -0.000563   PRI1911  -0.000124
    XI0511   PRI2011  -0.207253   PRI0511  0.999712
    XI0511   UPBROW30779 1.000000
    XI0611   PRI0111  -0.338610   PRI0211  -0.000364
    XI0611   PRI0411  -0.000095   PRI0511  -0.001957
    XI0611   PRI0711  -0.001351   PRI0811  -0.023418
    XI0611   PRI0911  -0.010964   PRI1011  -0.001827
    XI0611   PRI1111  -0.000104   PRI1211  -0.000043
    XI0611   PRI1311  -0.000035   PRI1411  -0.045191
    XI0611   PRI1611  -0.000156   PRI1711  -0.022673
    XI0611   PRI1811  -0.003482   PRI1911  -0.002165
    XI0611   PRI2011  -0.103173   PRI0611  0.805874
    XI0611   UPBROW30780 1.000000
    XI0711   PRI0111  -0.048259   PRI0211  -0.000457
    XI0711   PRI0411  -0.000016   PRI0511  -0.001778
    XI0711   PRI0611  -0.001599   PRI0811  -0.009560
    XI0711   PRI0911  -0.076794   PRI1011  -0.001109
    XI0711   PRI1211  -0.000049   PRI1311  -0.000131
    XI0711   PRI1411  -0.019790   PRI1611  -0.000294
    XI0711   PRI1711  -0.011926   PRI1811  -0.006249
    XI0711   PRI1911  -0.001468   PRI2011  -0.084706
    XI0711   PRI0711  0.576973   UPBROW30781 1.000000
    XI0811   PRI0211  -0.003618   PRI0411  -0.003519
    XI0811   PRI0511  -0.005942   PRI0611  -0.009694
    XI0811   PRI0711  -0.011055   PRI0911  -0.062610
    XI0811   PRI1011  -0.005876   PRI1111  -0.001261
    XI0811   PRI1211  -0.001029   PRI1411  -0.094579
    XI0811   PRI1611  -0.000166   PRI1711  -0.032334
    XI0811   PRI1811  -0.011055   PRI1911  -0.006805
    XI0811   PRI2011  -0.103575   PRI0811  0.725027
    XI0811   UPBROW30782 1.000000
    XI0911   PRI0111  -0.001411   PRI0211  -0.002540
    XI0911   PRI0311  -0.001129   PRI0411  -0.014856
    XI0911   PRI0511  -0.005063   PRI0611  -0.007818
    XI0911   PRI0711  -0.024948   PRI0811  -0.024632
    XI0911   PRI1011  -0.037944   PRI1111  -0.004365
    XI0911   PRI1211  -0.007752   PRI1311  -0.002523
    XI0911   PRI1411  -0.047572   PRI1611  -0.000398
    XI0911   PRI1711  -0.019537   PRI1811  -0.013843
    XI0911   PRI1911  -0.008449   PRI2011  -0.115642
    XI0911   PRI0911  0.733625   UPBROW30783 1.000000
    XI1011   PRI0211  -0.000367   PRI0311  -0.460145
    XI1011   PRI0411  -0.002047   PRI0511  -0.011090
    XI1011   PRI0611  -0.001619   PRI0711  -0.000092
    XI1011   PRI0811  -0.006019   PRI0911  -0.023770
    XI1011   PRI1111  -0.000244   PRI1211  -0.001466
    XI1011   PRI1311  -0.000092   PRI1411  -0.013015
    XI1011   PRI1611  -0.000031   PRI1711  -0.035563
    XI1011   PRI1811  -0.005622   PRI1911  -0.010815
    XI1011   PRI2011  -0.076136   PRI1011  0.937888
    XI1011   UPBROW30784 1.000000
    XI1111   PRI0211  -0.026280   PRI0411  -0.047844
    XI1111   PRI0511  -0.009677   PRI0611  -0.000027
    XI1111   PRI0711  -0.000782   PRI0811  -0.001078
    XI1111   PRI0911  -0.016038   PRI1011  -0.004232
    XI1111   PRI1211  -0.033531   PRI1311  -0.005202
    XI1111   PRI1411  -0.070863   PRI1611  -0.000243
    XI1111   PRI1711  -0.042965   PRI1811  -0.018113
    XI1111   PRI1911  -0.015040   PRI2011  -0.122480
    XI1111   PRI1111  0.800189   UPBROW30785 1.000000
    XI1211   PRI0211  -0.000753   PRI0411  -0.067166
    XI1211   PRI0511  -0.003464   PRI0611  -0.000678
    XI1211   PRI0711  -0.001129   PRI0811  -0.002000
    XI1211   PRI0911  -0.022401   PRI1011  -0.002635
    XI1211   PRI1111  -0.016904   PRI1311  -0.002598
    XI1211   PRI1411  -0.053311   PRI1611  -0.000301
    XI1211   PRI1711  -0.022326   PRI1811  -0.017206
    XI1211   PRI1911  -0.008772   PRI2011  -0.134483
    XI1211   PRI1211  0.606604   UPBROW30786 1.000000
    XI1311   PRI0211  -0.000355   PRI0511  -0.002449
    XI1311   PRI0711  -0.016934   PRI0811  -0.002466
    XI1311   PRI0911  -0.023804   PRI1011  -0.002215
    XI1311   PRI1111  -0.064066   PRI1211  -0.023891
    XI1311   PRI1411  -0.173612   PRI1611  -0.001402
    XI1311   PRI1711  -0.014122   PRI1811  -0.003989
    XI1311   PRI1911  -0.001194   PRI2011  -0.092301
    XI1311   PRI1311  0.724759   UPBROW30787 1.000000
    XI1411   PRI0111  -0.015773   PRI0211  -0.000483
    XI1411   PRI0411  -0.003674   PRI0511  -0.003179
    XI1411   PRI0611  -0.003954   PRI0711  -0.006703
    XI1411   PRI0811  -0.028331   PRI0911  -0.038343
    XI1411   PRI1011  -0.003297   PRI1111  -0.059222
    XI1411   PRI1211  -0.031024   PRI1311  -0.013418
    XI1411   PRI1511  -0.000006   PRI1611  0.000047
    XI1411   PRI1711  -0.013645   PRI1811  -0.005793
    XI1411   PRI1911  -0.003029   PRI2011  -0.122929
    XI1411   PRI1411  0.780186   UPBROW30788 1.000000
    XI1511   PRI0511  -0.001300   PRI0711  -0.001300
    XI1511   PRI0811  -0.000557   PRI0911  -0.008174
    XI1511   PRI1011  -0.018020   PRI1111  -0.000743
    XI1511   PRI1311  -0.002601   PRI1411  -0.012447
    XI1511   PRI1711  -0.011704   PRI1811  -0.003901
    XI1511   PRI1911  -0.000557   PRI2011  -0.309493
    XI1511   PRI1511  0.997771   UPBROW30789 1.000000
    XI1611   PRI0111  -0.000838   PRI0211  -0.000076
    XI1611   PRI0511  -0.001523   PRI0611  -0.022011
    XI1611   PRI0711  -0.001142   PRI0811  -0.001523
    XI1611   PRI0911  -0.002818   PRI1011  -0.052171
    XI1611   PRI1111  -0.000076   PRI1311  -0.035187
    XI1611   PRI1411  -0.007007   PRI1711  -0.032216
    XI1611   PRI1811  -0.001219   PRI1911  -0.000533
    XI1611   PRI2011  -0.171516   PRI1611  0.949886
    XI1611   UPBROW30790 1.000000
    XI1711   PRI0111  -0.001548   PRI0211  -0.000178
    XI1711   PRI0311  -0.000783   PRI0411  -0.000036
    XI1711   PRI0511  -0.017634   PRI0611  -0.000160
    XI1711   PRI0711  -0.003221   PRI0811  -0.001940
    XI1711   PRI0911  -0.007918   PRI1011  -0.030196
    XI1711   PRI1111  -0.003577   PRI1211  -0.001424
    XI1711   PRI1311  -0.013577   PRI1411  -0.011869
    XI1711   PRI1511  -0.000819   PRI1611  -0.001032
    XI1711   PRI1811  -0.003915   PRI1911  -0.000890
    XI1711   PRI2011  -0.166071   PRI1711  0.878788
    XI1711   UPBROW30791 1.000000
    XI1811   PRI0211  -0.059245   PRI0411  -0.000062
    XI1811   PRI0511  -0.041988   PRI0611  -0.000123
    XI1811   PRI0711  -0.000584   PRI0811  -0.001784
    XI1811   PRI0911  -0.003722   PRI1011  -0.014704
    XI1811   PRI1111  -0.001015   PRI1211  -0.000615
    XI1811   PRI1311  -0.000277   PRI1411  -0.007536
    XI1811   PRI1611  -0.000031   PRI1711  -0.028884
    XI1811   PRI1911  -0.041189   PRI2011  -0.054785
    XI1811   PRI1811  0.878803   UPBROW30792 1.000000
    XI1911   PRI0211  -0.000234   PRI0311  -0.183070
    XI1911   PRI0511  -0.014421   PRI0711  -0.000281
    XI1911   PRI0811  -0.000468   PRI0911  -0.000047
    XI1911   PRI1011  -0.000702   PRI1111  -0.001077
    XI1911   PRI1411  -0.000094   PRI1711  -0.000187
    XI1911   PRI1811  -0.002201   PRI2011  -0.049724
    XI1911   PRI1911  0.660127   UPBROW30793 1.000000
    XI2011   PRI0111  -0.005020   PRI0211  -0.000102
    XI2011   PRI0311  -0.000184   PRI0411  -0.000054
    XI2011   PRI0511  -0.012360   PRI0611  -0.008987
    XI2011   PRI0711  -0.001156   PRI0811  -0.004593
    XI2011   PRI0911  -0.005133   PRI1011  -0.004367
    XI2011   PRI1111  -0.000564   PRI1211  -0.000503
    XI2011   PRI1311  -0.004285   PRI1411  -0.043513
    XI2011   PRI1511  -0.000877   PRI1611  -0.006966
    XI2011   PRI1711  -0.006210   PRI1811  -0.008192
    XI2011   PRI1911  -0.002209   PRI2011  0.817877
    XI2011   UPBROW30794 1.000000
    YI0111   PRI0111  -1.000000   REVENUE  -1.000000
    YI0111   UPBROW31012 1.000000
    YI0211   PRI0211  -1.000000   REVENUE  -7.000000
    YI0211   UPBROW31013 1.000000
    YI0311   PRI0311  -1.000000   REVENUE  -5.000000
    YI0311   UPBROW31014 1.000000
    SI0111   PRI0112  1.000000   PRI0111  -1.000000
    SI0111   UPBROW31452 1.000000
    SI0211   PRI0212  1.000000   PRI0211  -1.000000
    SI0211   UPBROW31453 1.000000
    SI0311   PRI0312  1.000000   PRI0311  -1.000000
    SI0311   UPBROW31454 1.000000
    SI0411   PRI0412  1.000000   PRI0411  -1.000000
    SI0411   UPBROW31218 1.000000
    SI0511   PRI0512  1.000000   PRI0511  -1.000000
    SI0511   UPBROW31219 1.000000
    SI0611   PRI0612  1.000000   PRI0611  -1.000000
    SI0611   UPBROW31220 1.000000
    SI0711   PRI0712  1.000000   PRI0711  -1.000000
    SI0711   UPBROW31221 1.000000
    SI0811   PRI0812  1.000000   PRI0811  -1.000000
    SI0811   UPBROW31222 1.000000
    SI0911   PRI0912  1.000000   PRI0911  -1.000000
    SI0911   UPBROW31223 1.000000
    SI1011   PRI1012  1.000000   PRI1011  -1.000000
    SI1011   UPBROW31224 1.000000
    SI1111   PRI1112  1.000000   PRI1111  -1.000000
    SI1111   UPBROW31225 1.000000
    SI1211   PRI1212  1.000000   PRI1211  -1.000000
    SI1211   UPBROW31226 1.000000
    SI1311   PRI1312  1.000000   PRI1311  -1.000000
    SI1311   UPBROW31227 1.000000
    SI1411   PRI1412  1.000000   PRI1411  -1.000000
    SI1411   UPBROW31228 1.000000
    SI1511   PRI1512  1.000000   PRI1511  -1.000000
    SI1511   UPBROW31229 1.000000
    SI1611   PRI1612  1.000000   PRI1611  -1.000000
    SI1611   UPBROW31230 1.000000
    SI1711   PRI1712  1.000000   PRI1711  -1.000000
    SI1711   UPBROW31231 1.000000
    SI1811   PRI1812  1.000000   PRI1811  -1.000000
    SI1811   UPBROW31232 1.000000
    SI1911   PRI1912  1.000000   PRI1911  -1.000000
    SI1911   UPBROW31233 1.000000
    SI2011   PRI2012  1.000000   PRI2011  -1.000000
    SI2011   UPBROW31234 1.000000
    XI0112   PRI0212  -0.000066   PRI0412  -0.001575
    XI0112   PRI0512  -0.006836   PRI0612  -0.068339
    XI0112   PRI0712  -0.003500   PRI0812  -0.000372
    XI0112   PRI0912  -0.034585   PRI1012  -0.014700
    XI0112   PRI1212  -0.000033   PRI1312  -0.001006
    XI0112   PRI1412  -0.014208   PRI1612  -0.000087
    XI0112   PRI1712  -0.014689   PRI1812  -0.002100
    XI0112   PRI1912  -0.000219   PRI2012  -0.115197
    XI0112   PRI0112  0.690602
    XI0212   PRI0312  -0.000539   PRI0412  -0.001077
    XI0212   PRI0512  -0.007542   PRI0712  -0.006285
    XI0212   PRI0812  -0.000180   PRI0912  -0.029808
    XI0212   PRI1012  -0.012390   PRI1112  -0.013647
    XI0212   PRI1212  -0.003053   PRI1312  -0.000180
    XI0212   PRI1412  -0.070569   PRI1612  -0.000180
    XI0212   PRI1712  -0.008978   PRI1812  -0.027114
    XI0212   PRI1912  -0.000180   PRI2012  -0.142754
    XI0212   PRI0212  0.840546
    XI0312   PRI0512  -0.026987   PRI0712  -0.000345
    XI0312   PRI0812  -0.000058   PRI0912  -0.012889
    XI0312   PRI1012  -0.002071   PRI1112  -0.006790
    XI0312   PRI1412  -0.037459   PRI1612  -0.000230
    XI0312   PRI1712  -0.002877   PRI1812  -0.008401
    XI0312   PRI1912  -0.003050   PRI2012  -0.173370
    XI0312   PRI0312  0.972380
    XI0412   PRI0212  -0.001637   PRI0512  -0.013370
    XI0412   PRI0712  -0.003820   PRI0812  -0.005866
    XI0412   PRI0912  -0.050205   PRI1012  -0.018417
    XI0412   PRI1112  -0.030559   PRI1212  -0.002319
    XI0412   PRI1312  -0.002183   PRI1412  -0.084584
    XI0412   PRI1712  -0.010914   PRI1812  -0.037108
    XI0412   PRI1912  -0.009277   PRI2012  -0.159209
    XI0412   PRI0412  0.869577   UPBROW30795 1.000000
    XI0512   PRI0112  -0.002640   PRI0412  -0.008734
    XI0512   PRI0712  -0.003525   PRI0812  -0.003571
    XI0512   PRI0912  -0.011118   PRI1012  -0.019406
    XI0512   PRI1112  -0.016864   PRI1212  -0.027170
    XI0512   PRI1312  -0.000059   PRI1412  -0.298211
    XI0512   PRI1612  -0.000524   PRI1712  -0.029686
    XI0512   PRI1812  -0.000563   PRI1912  -0.000124
    XI0512   PRI2012  -0.207253   PRI0512  0.999712
    XI0512   UPBROW30796 1.000000
    XI0612   PRI0112  -0.338610   PRI0212  -0.000364
    XI0612   PRI0412  -0.000095   PRI0512  -0.001957
    XI0612   PRI0712  -0.001351   PRI0812  -0.023418
    XI0612   PRI0912  -0.010964   PRI1012  -0.001827
    XI0612   PRI1112  -0.000104   PRI1212  -0.000043
    XI0612   PRI1312  -0.000035   PRI1412  -0.045191
    XI0612   PRI1612  -0.000156   PRI1712  -0.022673
    XI0612   PRI1812  -0.003482   PRI1912  -0.002165
    XI0612   PRI2012  -0.103173   PRI0612  0.805874
    XI0612   UPBROW30797 1.000000
    XI0712   PRI0112  -0.048259   PRI0212  -0.000457
    XI0712   PRI0412  -0.000016   PRI0512  -0.001778
    XI0712   PRI0612  -0.001599   PRI0812  -0.009560
    XI0712   PRI0912  -0.076794   PRI1012  -0.001109
    XI0712   PRI1212  -0.000049   PRI1312  -0.000131
    XI0712   PRI1412  -0.019790   PRI1612  -0.000294
    XI0712   PRI1712  -0.011926   PRI1812  -0.006249
    XI0712   PRI1912  -0.001468   PRI2012  -0.084706
    XI0712   PRI0712  0.576973   UPBROW30798 1.000000
    XI0812   PRI0212  -0.003618   PRI0412  -0.003519
    XI0812   PRI0512  -0.005942   PRI0612  -0.009694
    XI0812   PRI0712  -0.011055   PRI0912  -0.062610
    XI0812   PRI1012  -0.005876   PRI1112  -0.001261
    XI0812   PRI1212  -0.001029   PRI1412  -0.094579
    XI0812   PRI1612  -0.000166   PRI1712  -0.032334
    XI0812   PRI1812  -0.011055   PRI1912  -0.006805
    XI0812   PRI2012  -0.103575   PRI0812  0.725027
    XI0812   UPBROW30799 1.000000
    XI0912   PRI0112  -0.001411   PRI0212  -0.002540
    XI0912   PRI0312  -0.001129   PRI0412  -0.014856
    XI0912   PRI0512  -0.005063   PRI0612  -0.007818
    XI0912   PRI0712  -0.024948   PRI0812  -0.024632
    XI0912   PRI1012  -0.037944   PRI1112  -0.004365
    XI0912   PRI1212  -0.007752   PRI1312  -0.002523
    XI0912   PRI1412  -0.047572   PRI1612  -0.000398
    XI0912   PRI1712  -0.019537   PRI1812  -0.013843
    XI0912   PRI1912  -0.008449   PRI2012  -0.115642
    XI0912   PRI0912  0.733625   UPBROW30800 1.000000
    XI1012   PRI0212  -0.000367   PRI0312  -0.460145
    XI1012   PRI0412  -0.002047   PRI0512  -0.011090
    XI1012   PRI0612  -0.001619   PRI0712  -0.000092
    XI1012   PRI0812  -0.006019   PRI0912  -0.023770
    XI1012   PRI1112  -0.000244   PRI1212  -0.001466
    XI1012   PRI1312  -0.000092   PRI1412  -0.013015
    XI1012   PRI1612  -0.000031   PRI1712  -0.035563
    XI1012   PRI1812  -0.005622   PRI1912  -0.010815
    XI1012   PRI2012  -0.076136   PRI1012  0.937888
    XI1012   UPBROW30801 1.000000
    XI1112   PRI0212  -0.026280   PRI0412  -0.047844
    XI1112   PRI0512  -0.009677   PRI0612  -0.000027
    XI1112   PRI0712  -0.000782   PRI0812  -0.001078
    XI1112   PRI0912  -0.016038   PRI1012  -0.004232
    XI1112   PRI1212  -0.033531   PRI1312  -0.005202
    XI1112   PRI1412  -0.070863   PRI1612  -0.000243
    XI1112   PRI1712  -0.042965   PRI1812  -0.018113
    XI1112   PRI1912  -0.015040   PRI2012  -0.122480
    XI1112   PRI1112  0.800189   UPBROW30802 1.000000
    XI1212   PRI0212  -0.000753   PRI0412  -0.067166
    XI1212   PRI0512  -0.003464   PRI0612  -0.000678
    XI1212   PRI0712  -0.001129   PRI0812  -0.002000
    XI1212   PRI0912  -0.022401   PRI1012  -0.002635
    XI1212   PRI1112  -0.016904   PRI1312  -0.002598
    XI1212   PRI1412  -0.053311   PRI1612  -0.000301
    XI1212   PRI1712  -0.022326   PRI1812  -0.017206
    XI1212   PRI1912  -0.008772   PRI2012  -0.134483
    XI1212   PRI1212  0.606604   UPBROW30803 1.000000
    XI1312   PRI0212  -0.000355   PRI0512  -0.002449
    XI1312   PRI0712  -0.016934   PRI0812  -0.002466
    XI1312   PRI0912  -0.023804   PRI1012  -0.002215
    XI1312   PRI1112  -0.064066   PRI1212  -0.023891
    XI1312   PRI1412  -0.173612   PRI1612  -0.001402
    XI1312   PRI1712  -0.014122   PRI1812  -0.003989
    XI1312   PRI1912  -0.001194   PRI2012  -0.092301
    XI1312   PRI1312  0.724759   UPBROW30804 1.000000
    XI1412   PRI0112  -0.015773   PRI0212  -0.000483
    XI1412   PRI0412  -0.003674   PRI0512  -0.003179
    XI1412   PRI0612  -0.003954   PRI0712  -0.006703
    XI1412   PRI0812  -0.028331   PRI0912  -0.038343
    XI1412   PRI1012  -0.003297   PRI1112  -0.059222
    XI1412   PRI1212  -0.031024   PRI1312  -0.013418
    XI1412   PRI1512  -0.000006   PRI1612  0.000047
    XI1412   PRI1712  -0.013645   PRI1812  -0.005793
    XI1412   PRI1912  -0.003029   PRI2012  -0.122929
    XI1412   PRI1412  0.780186   UPBROW30805 1.000000
    XI1512   PRI0512  -0.001300   PRI0712  -0.001300
    XI1512   PRI0812  -0.000557   PRI0912  -0.008174
    XI1512   PRI1012  -0.018020   PRI1112  -0.000743
    XI1512   PRI1312  -0.002601   PRI1412  -0.012447
    XI1512   PRI1712  -0.011704   PRI1812  -0.003901
    XI1512   PRI1912  -0.000557   PRI2012  -0.309493
    XI1512   PRI1512  0.997771   UPBROW30806 1.000000
    XI1612   PRI0112  -0.000838   PRI0212  -0.000076
    XI1612   PRI0512  -0.001523   PRI0612  -0.022011
    XI1612   PRI0712  -0.001142   PRI0812  -0.001523
    XI1612   PRI0912  -0.002818   PRI1012  -0.052171
    XI1612   PRI1112  -0.000076   PRI1312  -0.035187
    XI1612   PRI1412  -0.007007   PRI1712  -0.032216
    XI1612   PRI1812  -0.001219   PRI1912  -0.000533
    XI1612   PRI2012  -0.171516   PRI1612  0.949886
    XI1612   UPBROW30807 1.000000
    XI1712   PRI0112  -0.001548   PRI0212  -0.000178
    XI1712   PRI0312  -0.000783   PRI0412  -0.000036
    XI1712   PRI0512  -0.017634   PRI0612  -0.000160
    XI1712   PRI0712  -0.003221   PRI0812  -0.001940
    XI1712   PRI0912  -0.007918   PRI1012  -0.030196
    XI1712   PRI1112  -0.003577   PRI1212  -0.001424
    XI1712   PRI1312  -0.013577   PRI1412  -0.011869
    XI1712   PRI1512  -0.000819   PRI1612  -0.001032
    XI1712   PRI1812  -0.003915   PRI1912  -0.000890
    XI1712   PRI2012  -0.166071   PRI1712  0.878788
    XI1712   UPBROW30808 1.000000
    XI1812   PRI0212  -0.059245   PRI0412  -0.000062
    XI1812   PRI0512  -0.041988   PRI0612  -0.000123
    XI1812   PRI0712  -0.000584   PRI0812  -0.001784
    XI1812   PRI0912  -0.003722   PRI1012  -0.014704
    XI1812   PRI1112  -0.001015   PRI1212  -0.000615
    XI1812   PRI1312  -0.000277   PRI1412  -0.007536
    XI1812   PRI1612  -0.000031   PRI1712  -0.028884
    XI1812   PRI1912  -0.041189   PRI2012  -0.054785
    XI1812   PRI1812  0.878803   UPBROW30809 1.000000
    XI1912   PRI0212  -0.000234   PRI0312  -0.183070
    XI1912   PRI0512  -0.014421   PRI0712  -0.000281
    XI1912   PRI0812  -0.000468   PRI0912  -0.000047
    XI1912   PRI1012  -0.000702   PRI1112  -0.001077
    XI1912   PRI1412  -0.000094   PRI1712  -0.000187
    XI1912   PRI1812  -0.002201   PRI2012  -0.049724
    XI1912   PRI1912  0.660127   UPBROW30810 1.000000
    XI2012   PRI0112  -0.005020   PRI0212  -0.000102
    XI2012   PRI0312  -0.000184   PRI0412  -0.000054
    XI2012   PRI0512  -0.012360   PRI0612  -0.008987
    XI2012   PRI0712  -0.001156   PRI0812  -0.004593
    XI2012   PRI0912  -0.005133   PRI1012  -0.004367
    XI2012   PRI1112  -0.000564   PRI1212  -0.000503
    XI2012   PRI1312  -0.004285   PRI1412  -0.043513
    XI2012   PRI1512  -0.000877   PRI1612  -0.006966
    XI2012   PRI1712  -0.006210   PRI1812  -0.008192
    XI2012   PRI1912  -0.002209   PRI2012  0.817877
    XI2012   UPBROW30811 1.000000
    YI0112   PRI0112  -1.000000   REVENUE  -7.000000
    YI0112   UPBROW31015 1.000000
    YI0212   PRI0212  -1.000000   REVENUE  -4.000000
    YI0212   UPBROW31016 1.000000
    YI0312   PRI0312  -1.000000   REVENUE  -3.000000
    YI0312   UPBROW31017 1.000000
    SI0112   PRI0113  1.000000   PRI0112  -1.000000
    SI0112   UPBROW31455 1.000000
    SI0212   PRI0213  1.000000   PRI0212  -1.000000
    SI0212   UPBROW31456 1.000000
    SI0312   PRI0313  1.000000   PRI0312  -1.000000
    SI0312   UPBROW31457 1.000000
    SI0412   PRI0413  1.000000   PRI0412  -1.000000
    SI0412   UPBROW31235 1.000000
    SI0512   PRI0513  1.000000   PRI0512  -1.000000
    SI0512   UPBROW31236 1.000000
    SI0612   PRI0613  1.000000   PRI0612  -1.000000
    SI0612   UPBROW31237 1.000000
    SI0712   PRI0713  1.000000   PRI0712  -1.000000
    SI0712   UPBROW31238 1.000000
    SI0812   PRI0813  1.000000   PRI0812  -1.000000
    SI0812   UPBROW31239 1.000000
    SI0912   PRI0913  1.000000   PRI0912  -1.000000
    SI0912   UPBROW31240 1.000000
    SI1012   PRI1013  1.000000   PRI1012  -1.000000
    SI1012   UPBROW31241 1.000000
    SI1112   PRI1113  1.000000   PRI1112  -1.000000
    SI1112   UPBROW31242 1.000000
    SI1212   PRI1213  1.000000   PRI1212  -1.000000
    SI1212   UPBROW31243 1.000000
    SI1312   PRI1313  1.000000   PRI1312  -1.000000
    SI1312   UPBROW31244 1.000000
    SI1412   PRI1413  1.000000   PRI1412  -1.000000
    SI1412   UPBROW31245 1.000000
    SI1512   PRI1513  1.000000   PRI1512  -1.000000
    SI1512   UPBROW31246 1.000000
    SI1612   PRI1613  1.000000   PRI1612  -1.000000
    SI1612   UPBROW31247 1.000000
    SI1712   PRI1713  1.000000   PRI1712  -1.000000
    SI1712   UPBROW31248 1.000000
    SI1812   PRI1813  1.000000   PRI1812  -1.000000
    SI1812   UPBROW31249 1.000000
    SI1912   PRI1913  1.000000   PRI1912  -1.000000
    SI1912   UPBROW31250 1.000000
    SI2012   PRI2013  1.000000   PRI2012  -1.000000
    SI2012   UPBROW31251 1.000000
    XI0113   PRI0213  -0.000066   PRI0413  -0.001575
    XI0113   PRI0513  -0.006836   PRI0613  -0.068339
    XI0113   PRI0713  -0.003500   PRI0813  -0.000372
    XI0113   PRI0913  -0.034585   PRI1013  -0.014700
    XI0113   PRI1213  -0.000033   PRI1313  -0.001006
    XI0113   PRI1413  -0.014208   PRI1613  -0.000087
    XI0113   PRI1713  -0.014689   PRI1813  -0.002100
    XI0113   PRI1913  -0.000219   PRI2013  -0.115197
    XI0113   PRI0113  0.690602
    XI0213   PRI0313  -0.000539   PRI0413  -0.001077
    XI0213   PRI0513  -0.007542   PRI0713  -0.006285
    XI0213   PRI0813  -0.000180   PRI0913  -0.029808
    XI0213   PRI1013  -0.012390   PRI1113  -0.013647
    XI0213   PRI1213  -0.003053   PRI1313  -0.000180
    XI0213   PRI1413  -0.070569   PRI1613  -0.000180
    XI0213   PRI1713  -0.008978   PRI1813  -0.027114
    XI0213   PRI1913  -0.000180   PRI2013  -0.142754
    XI0213   PRI0213  0.840546
    XI0313   PRI0513  -0.026987   PRI0713  -0.000345
    XI0313   PRI0813  -0.000058   PRI0913  -0.012889
    XI0313   PRI1013  -0.002071   PRI1113  -0.006790
    XI0313   PRI1413  -0.037459   PRI1613  -0.000230
    XI0313   PRI1713  -0.002877   PRI1813  -0.008401
    XI0313   PRI1913  -0.003050   PRI2013  -0.173370
    XI0313   PRI0313  0.972380
    XI0413   PRI0213  -0.001637   PRI0513  -0.013370
    XI0413   PRI0713  -0.003820   PRI0813  -0.005866
    XI0413   PRI0913  -0.050205   PRI1013  -0.018417
    XI0413   PRI1113  -0.030559   PRI1213  -0.002319
    XI0413   PRI1313  -0.002183   PRI1413  -0.084584
    XI0413   PRI1713  -0.010914   PRI1813  -0.037108
    XI0413   PRI1913  -0.009277   PRI2013  -0.159209
    XI0413   PRI0413  0.869577   UPBROW30812 1.000000
    XI0513   PRI0113  -0.002640   PRI0413  -0.008734
    XI0513   PRI0713  -0.003525   PRI0813  -0.003571
    XI0513   PRI0913  -0.011118   PRI1013  -0.019406
    XI0513   PRI1113  -0.016864   PRI1213  -0.027170
    XI0513   PRI1313  -0.000059   PRI1413  -0.298211
    XI0513   PRI1613  -0.000524   PRI1713  -0.029686
    XI0513   PRI1813  -0.000563   PRI1913  -0.000124
    XI0513   PRI2013  -0.207253   PRI0513  0.999712
    XI0513   UPBROW30813 1.000000
    XI0613   PRI0113  -0.338610   PRI0213  -0.000364
    XI0613   PRI0413  -0.000095   PRI0513  -0.001957
    XI0613   PRI0713  -0.001351   PRI0813  -0.023418
    XI0613   PRI0913  -0.010964   PRI1013  -0.001827
    XI0613   PRI1113  -0.000104   PRI1213  -0.000043
    XI0613   PRI1313  -0.000035   PRI1413  -0.045191
    XI0613   PRI1613  -0.000156   PRI1713  -0.022673
    XI0613   PRI1813  -0.003482   PRI1913  -0.002165
    XI0613   PRI2013  -0.103173   PRI0613  0.805874
    XI0613   UPBROW30814 1.000000
    XI0713   PRI0113  -0.048259   PRI0213  -0.000457
    XI0713   PRI0413  -0.000016   PRI0513  -0.001778
    XI0713   PRI0613  -0.001599   PRI0813  -0.009560
    XI0713   PRI0913  -0.076794   PRI1013  -0.001109
    XI0713   PRI1213  -0.000049   PRI1313  -0.000131
    XI0713   PRI1413  -0.019790   PRI1613  -0.000294
    XI0713   PRI1713  -0.011926   PRI1813  -0.006249
    XI0713   PRI1913  -0.001468   PRI2013  -0.084706
    XI0713   PRI0713  0.576973   UPBROW30815 1.000000
    XI0813   PRI0213  -0.003618   PRI0413  -0.003519
    XI0813   PRI0513  -0.005942   PRI0613  -0.009694
    XI0813   PRI0713  -0.011055   PRI0913  -0.062610
    XI0813   PRI1013  -0.005876   PRI1113  -0.001261
    XI0813   PRI1213  -0.001029   PRI1413  -0.094579
    XI0813   PRI1613  -0.000166   PRI1713  -0.032334
    XI0813   PRI1813  -0.011055   PRI1913  -0.006805
    XI0813   PRI2013  -0.103575   PRI0813  0.725027
    XI0813   UPBROW30816 1.000000
    XI0913   PRI0113  -0.001411   PRI0213  -0.002540
    XI0913   PRI0313  -0.001129   PRI0413  -0.014856
    XI0913   PRI0513  -0.005063   PRI0613  -0.007818
    XI0913   PRI0713  -0.024948   PRI0813  -0.024632
    XI0913   PRI1013  -0.037944   PRI1113  -0.004365
    XI0913   PRI1213  -0.007752   PRI1313  -0.002523
    XI0913   PRI1413  -0.047572   PRI1613  -0.000398
    XI0913   PRI1713  -0.019537   PRI1813  -0.013843
    XI0913   PRI1913  -0.008449   PRI2013  -0.115642
    XI0913   PRI0913  0.733625   UPBROW30817 1.000000
    XI1013   PRI0213  -0.000367   PRI0313  -0.460145
    XI1013   PRI0413  -0.002047   PRI0513  -0.011090
    XI1013   PRI0613  -0.001619   PRI0713  -0.000092
    XI1013   PRI0813  -0.006019   PRI0913  -0.023770
    XI1013   PRI1113  -0.000244   PRI1213  -0.001466
    XI1013   PRI1313  -0.000092   PRI1413  -0.013015
    XI1013   PRI1613  -0.000031   PRI1713  -0.035563
    XI1013   PRI1813  -0.005622   PRI1913  -0.010815
    XI1013   PRI2013  -0.076136   PRI1013  0.937888
    XI1013   UPBROW30818 1.000000
    XI1113   PRI0213  -0.026280   PRI0413  -0.047844
    XI1113   PRI0513  -0.009677   PRI0613  -0.000027
    XI1113   PRI0713  -0.000782   PRI0813  -0.001078
    XI1113   PRI0913  -0.016038   PRI1013  -0.004232
    XI1113   PRI1213  -0.033531   PRI1313  -0.005202
    XI1113   PRI1413  -0.070863   PRI1613  -0.000243
    XI1113   PRI1713  -0.042965   PRI1813  -0.018113
    XI1113   PRI1913  -0.015040   PRI2013  -0.122480
    XI1113   PRI1113  0.800189   UPBROW30819 1.000000
    XI1213   PRI0213  -0.000753   PRI0413  -0.067166
    XI1213   PRI0513  -0.003464   PRI0613  -0.000678
    XI1213   PRI0713  -0.001129   PRI0813  -0.002000
    XI1213   PRI0913  -0.022401   PRI1013  -0.002635
    XI1213   PRI1113  -0.016904   PRI1313  -0.002598
    XI1213   PRI1413  -0.053311   PRI1613  -0.000301
    XI1213   PRI1713  -0.022326   PRI1813  -0.017206
    XI1213   PRI1913  -0.008772   PRI2013  -0.134483
    XI1213   PRI1213  0.606604   UPBROW30820 1.000000
    XI1313   PRI0213  -0.000355   PRI0513  -0.002449
    XI1313   PRI0713  -0.016934   PRI0813  -0.002466
    XI1313   PRI0913  -0.023804   PRI1013  -0.002215
    XI1313   PRI1113  -0.064066   PRI1213  -0.023891
    XI1313   PRI1413  -0.173612   PRI1613  -0.001402
    XI1313   PRI1713  -0.014122   PRI1813  -0.003989
    XI1313   PRI1913  -0.001194   PRI2013  -0.092301
    XI1313   PRI1313  0.724759   UPBROW30821 1.000000
    XI1413   PRI0113  -0.015773   PRI0213  -0.000483
    XI1413   PRI0413  -0.003674   PRI0513  -0.003179
    XI1413   PRI0613  -0.003954   PRI0713  -0.006703
    XI1413   PRI0813  -0.028331   PRI0913  -0.038343
    XI1413   PRI1013  -0.003297   PRI1113  -0.059222
    XI1413   PRI1213  -0.031024   PRI1313  -0.013418
    XI1413   PRI1513  -0.000006   PRI1613  0.000047
    XI1413   PRI1713  -0.013645   PRI1813  -0.005793
    XI1413   PRI1913  -0.003029   PRI2013  -0.122929
    XI1413   PRI1413  0.780186   UPBROW30822 1.000000
    XI1513   PRI0513  -0.001300   PRI0713  -0.001300
    XI1513   PRI0813  -0.000557   PRI0913  -0.008174
    XI1513   PRI1013  -0.018020   PRI1113  -0.000743
    XI1513   PRI1313  -0.002601   PRI1413  -0.012447
    XI1513   PRI1713  -0.011704   PRI1813  -0.003901
    XI1513   PRI1913  -0.000557   PRI2013  -0.309493
    XI1513   PRI1513  0.997771   UPBROW30823 1.000000
    XI1613   PRI0113  -0.000838   PRI0213  -0.000076
    XI1613   PRI0513  -0.001523   PRI0613  -0.022011
    XI1613   PRI0713  -0.001142   PRI0813  -0.001523
    XI1613   PRI0913  -0.002818   PRI1013  -0.052171
    XI1613   PRI1113  -0.000076   PRI1313  -0.035187
    XI1613   PRI1413  -0.007007   PRI1713  -0.032216
    XI1613   PRI1813  -0.001219   PRI1913  -0.000533
    XI1613   PRI2013  -0.171516   PRI1613  0.949886
    XI1613   UPBROW30824 1.000000
    XI1713   PRI0113  -0.001548   PRI0213  -0.000178
    XI1713   PRI0313  -0.000783   PRI0413  -0.000036
    XI1713   PRI0513  -0.017634   PRI0613  -0.000160
    XI1713   PRI0713  -0.003221   PRI0813  -0.001940
    XI1713   PRI0913  -0.007918   PRI1013  -0.030196
    XI1713   PRI1113  -0.003577   PRI1213  -0.001424
    XI1713   PRI1313  -0.013577   PRI1413  -0.011869
    XI1713   PRI1513  -0.000819   PRI1613  -0.001032
    XI1713   PRI1813  -0.003915   PRI1913  -0.000890
    XI1713   PRI2013  -0.166071   PRI1713  0.878788
    XI1713   UPBROW30825 1.000000
    XI1813   PRI0213  -0.059245   PRI0413  -0.000062
    XI1813   PRI0513  -0.041988   PRI0613  -0.000123
    XI1813   PRI0713  -0.000584   PRI0813  -0.001784
    XI1813   PRI0913  -0.003722   PRI1013  -0.014704
    XI1813   PRI1113  -0.001015   PRI1213  -0.000615
    XI1813   PRI1313  -0.000277   PRI1413  -0.007536
    XI1813   PRI1613  -0.000031   PRI1713  -0.028884
    XI1813   PRI1913  -0.041189   PRI2013  -0.054785
    XI1813   PRI1813  0.878803   UPBROW30826 1.000000
    XI1913   PRI0213  -0.000234   PRI0313  -0.183070
    XI1913   PRI0513  -0.014421   PRI0713  -0.000281
    XI1913   PRI0813  -0.000468   PRI0913  -0.000047
    XI1913   PRI1013  -0.000702   PRI1113  -0.001077
    XI1913   PRI1413  -0.000094   PRI1713  -0.000187
    XI1913   PRI1813  -0.002201   PRI2013  -0.049724
    XI1913   PRI1913  0.660127   UPBROW30827 1.000000
    XI2013   PRI0113  -0.005020   PRI0213  -0.000102
    XI2013   PRI0313  -0.000184   PRI0413  -0.000054
    XI2013   PRI0513  -0.012360   PRI0613  -0.008987
    XI2013   PRI0713  -0.001156   PRI0813  -0.004593
    XI2013   PRI0913  -0.005133   PRI1013  -0.004367
    XI2013   PRI1113  -0.000564   PRI1213  -0.000503
    XI2013   PRI1313  -0.004285   PRI1413  -0.043513
    XI2013   PRI1513  -0.000877   PRI1613  -0.006966
    XI2013   PRI1713  -0.006210   PRI1813  -0.008192
    XI2013   PRI1913  -0.002209   PRI2013  0.817877
    XI2013   UPBROW30828 1.000000
    YI0113   PRI0113  -1.000000   REVENUE  -1.000000
    YI0113   UPBROW31018 1.000000
    YI0213   PRI0213  -1.000000   REVENUE  -1.000000
    YI0213   UPBROW31019 1.000000
    YI0313   PRI0313  -1.000000   REVENUE  -1.000000
    YI0313   UPBROW31020 1.000000
    SI0113   PRI0114  1.000000   PRI0113  -1.000000
    SI0113   UPBROW31458 1.000000
    SI0213   PRI0214  1.000000   PRI0213  -1.000000
    SI0213   UPBROW31459 1.000000
    SI0313   PRI0314  1.000000   PRI0313  -1.000000
    SI0313   UPBROW31460 1.000000
    SI0413   PRI0414  1.000000   PRI0413  -1.000000
    SI0413   UPBROW31252 1.000000
    SI0513   PRI0514  1.000000   PRI0513  -1.000000
    SI0513   UPBROW31253 1.000000
    SI0613   PRI0614  1.000000   PRI0613  -1.000000
    SI0613   UPBROW31254 1.000000
    SI0713   PRI0714  1.000000   PRI0713  -1.000000
    SI0713   UPBROW31255 1.000000
    SI0813   PRI0814  1.000000   PRI0813  -1.000000
    SI0813   UPBROW31256 1.000000
    SI0913   PRI0914  1.000000   PRI0913  -1.000000
    SI0913   UPBROW31257 1.000000
    SI1013   PRI1014  1.000000   PRI1013  -1.000000
    SI1013   UPBROW31258 1.000000
    SI1113   PRI1114  1.000000   PRI1113  -1.000000
    SI1113   UPBROW31259 1.000000
    SI1213   PRI1214  1.000000   PRI1213  -1.000000
    SI1213   UPBROW31260 1.000000
    SI1313   PRI1314  1.000000   PRI1313  -1.000000
    SI1313   UPBROW31261 1.000000
    SI1413   PRI1414  1.000000   PRI1413  -1.000000
    SI1413   UPBROW31262 1.000000
    SI1513   PRI1514  1.000000   PRI1513  -1.000000
    SI1513   UPBROW31263 1.000000
    SI1613   PRI1614  1.000000   PRI1613  -1.000000
    SI1613   UPBROW31264 1.000000
    SI1713   PRI1714  1.000000   PRI1713  -1.000000
    SI1713   UPBROW31265 1.000000
    SI1813   PRI1814  1.000000   PRI1813  -1.000000
    SI1813   UPBROW31266 1.000000
    SI1913   PRI1914  1.000000   PRI1913  -1.000000
    SI1913   UPBROW31267 1.000000
    SI2013   PRI2014  1.000000   PRI2013  -1.000000
    SI2013   UPBROW31268 1.000000
    XI0114   PRI0214  -0.000066   PRI0414  -0.001575
    XI0114   PRI0514  -0.006836   PRI0614  -0.068339
    XI0114   PRI0714  -0.003500   PRI0814  -0.000372
    XI0114   PRI0914  -0.034585   PRI1014  -0.014700
    XI0114   PRI1214  -0.000033   PRI1314  -0.001006
    XI0114   PRI1414  -0.014208   PRI1614  -0.000087
    XI0114   PRI1714  -0.014689   PRI1814  -0.002100
    XI0114   PRI1914  -0.000219   PRI2014  -0.115197
    XI0114   PRI0114  0.690602
    XI0214   PRI0314  -0.000539   PRI0414  -0.001077
    XI0214   PRI0514  -0.007542   PRI0714  -0.006285
    XI0214   PRI0814  -0.000180   PRI0914  -0.029808
    XI0214   PRI1014  -0.012390   PRI1114  -0.013647
    XI0214   PRI1214  -0.003053   PRI1314  -0.000180
    XI0214   PRI1414  -0.070569   PRI1614  -0.000180
    XI0214   PRI1714  -0.008978   PRI1814  -0.027114
    XI0214   PRI1914  -0.000180   PRI2014  -0.142754
    XI0214   PRI0214  0.840546
    XI0314   PRI0514  -0.026987   PRI0714  -0.000345
    XI0314   PRI0814  -0.000058   PRI0914  -0.012889
    XI0314   PRI1014  -0.002071   PRI1114  -0.006790
    XI0314   PRI1414  -0.037459   PRI1614  -0.000230
    XI0314   PRI1714  -0.002877   PRI1814  -0.008401
    XI0314   PRI1914  -0.003050   PRI2014  -0.173370
    XI0314   PRI0314  0.972380
    XI0414   PRI0214  -0.001637   PRI0514  -0.013370
    XI0414   PRI0714  -0.003820   PRI0814  -0.005866
    XI0414   PRI0914  -0.050205   PRI1014  -0.018417
    XI0414   PRI1114  -0.030559   PRI1214  -0.002319
    XI0414   PRI1314  -0.002183   PRI1414  -0.084584
    XI0414   PRI1714  -0.010914   PRI1814  -0.037108
    XI0414   PRI1914  -0.009277   PRI2014  -0.159209
    XI0414   PRI0414  0.869577   UPBROW30829 1.000000
    XI0514   PRI0114  -0.002640   PRI0414  -0.008734
    XI0514   PRI0714  -0.003525   PRI0814  -0.003571
    XI0514   PRI0914  -0.011118   PRI1014  -0.019406
    XI0514   PRI1114  -0.016864   PRI1214  -0.027170
    XI0514   PRI1314  -0.000059   PRI1414  -0.298211
    XI0514   PRI1614  -0.000524   PRI1714  -0.029686
    XI0514   PRI1814  -0.000563   PRI1914  -0.000124
    XI0514   PRI2014  -0.207253   PRI0514  0.999712
    XI0514   UPBROW30830 1.000000
    XI0614   PRI0114  -0.338610   PRI0214  -0.000364
    XI0614   PRI0414  -0.000095   PRI0514  -0.001957
    XI0614   PRI0714  -0.001351   PRI0814  -0.023418
    XI0614   PRI0914  -0.010964   PRI1014  -0.001827
    XI0614   PRI1114  -0.000104   PRI1214  -0.000043
    XI0614   PRI1314  -0.000035   PRI1414  -0.045191
    XI0614   PRI1614  -0.000156   PRI1714  -0.022673
    XI0614   PRI1814  -0.003482   PRI1914  -0.002165
    XI0614   PRI2014  -0.103173   PRI0614  0.805874
    XI0614   UPBROW30831 1.000000
    XI0714   PRI0114  -0.048259   PRI0214  -0.000457
    XI0714   PRI0414  -0.000016   PRI0514  -0.001778
    XI0714   PRI0614  -0.001599   PRI0814  -0.009560
    XI0714   PRI0914  -0.076794   PRI1014  -0.001109
    XI0714   PRI1214  -0.000049   PRI1314  -0.000131
    XI0714   PRI1414  -0.019790   PRI1614  -0.000294
    XI0714   PRI1714  -0.011926   PRI1814  -0.006249
    XI0714   PRI1914  -0.001468   PRI2014  -0.084706
    XI0714   PRI0714  0.576973   UPBROW30832 1.000000
    XI0814   PRI0214  -0.003618   PRI0414  -0.003519
    XI0814   PRI0514  -0.005942   PRI0614  -0.009694
    XI0814   PRI0714  -0.011055   PRI0914  -0.062610
    XI0814   PRI1014  -0.005876   PRI1114  -0.001261
    XI0814   PRI1214  -0.001029   PRI1414  -0.094579
    XI0814   PRI1614  -0.000166   PRI1714  -0.032334
    XI0814   PRI1814  -0.011055   PRI1914  -0.006805
    XI0814   PRI2014  -0.103575   PRI0814  0.725027
    XI0814   UPBROW30833 1.000000
    XI0914   PRI0114  -0.001411   PRI0214  -0.002540
    XI0914   PRI0314  -0.001129   PRI0414  -0.014856
    XI0914   PRI0514  -0.005063   PRI0614  -0.007818
    XI0914   PRI0714  -0.024948   PRI0814  -0.024632
    XI0914   PRI1014  -0.037944   PRI1114  -0.004365
    XI0914   PRI1214  -0.007752   PRI1314  -0.002523
    XI0914   PRI1414  -0.047572   PRI1614  -0.000398
    XI0914   PRI1714  -0.019537   PRI1814  -0.013843
    XI0914   PRI1914  -0.008449   PRI2014  -0.115642
    XI0914   PRI0914  0.733625   UPBROW30834 1.000000
    XI1014   PRI0214  -0.000367   PRI0314  -0.460145
    XI1014   PRI0414  -0.002047   PRI0514  -0.011090
    XI1014   PRI0614  -0.001619   PRI0714  -0.000092
    XI1014   PRI0814  -0.006019   PRI0914  -0.023770
    XI1014   PRI1114  -0.000244   PRI1214  -0.001466
    XI1014   PRI1314  -0.000092   PRI1414  -0.013015
    XI1014   PRI1614  -0.000031   PRI1714  -0.035563
    XI1014   PRI1814  -0.005622   PRI1914  -0.010815
    XI1014   PRI2014  -0.076136   PRI1014  0.937888
    XI1014   UPBROW30835 1.000000
    XI1114   PRI0214  -0.026280   PRI0414  -0.047844
    XI1114   PRI0514  -0.009677   PRI0614  -0.000027
    XI1114   PRI0714  -0.000782   PRI0814  -0.001078
    XI1114   PRI0914  -0.016038   PRI1014  -0.004232
    XI1114   PRI1214  -0.033531   PRI1314  -0.005202
    XI1114   PRI1414  -0.070863   PRI1614  -0.000243
    XI1114   PRI1714  -0.042965   PRI1814  -0.018113
    XI1114   PRI1914  -0.015040   PRI2014  -0.122480
    XI1114   PRI1114  0.800189   UPBROW30836 1.000000
    XI1214   PRI0214  -0.000753   PRI0414  -0.067166
    XI1214   PRI0514  -0.003464   PRI0614  -0.000678
    XI1214   PRI0714  -0.001129   PRI0814  -0.002000
    XI1214   PRI0914  -0.022401   PRI1014  -0.002635
    XI1214   PRI1114  -0.016904   PRI1314  -0.002598
    XI1214   PRI1414  -0.053311   PRI1614  -0.000301
    XI1214   PRI1714  -0.022326   PRI1814  -0.017206
    XI1214   PRI1914  -0.008772   PRI2014  -0.134483
    XI1214   PRI1214  0.606604   UPBROW30837 1.000000
    XI1314   PRI0214  -0.000355   PRI0514  -0.002449
    XI1314   PRI0714  -0.016934   PRI0814  -0.002466
    XI1314   PRI0914  -0.023804   PRI1014  -0.002215
    XI1314   PRI1114  -0.064066   PRI1214  -0.023891
    XI1314   PRI1414  -0.173612   PRI1614  -0.001402
    XI1314   PRI1714  -0.014122   PRI1814  -0.003989
    XI1314   PRI1914  -0.001194   PRI2014  -0.092301
    XI1314   PRI1314  0.724759   UPBROW30838 1.000000
    XI1414   PRI0114  -0.015773   PRI0214  -0.000483
    XI1414   PRI0414  -0.003674   PRI0514  -0.003179
    XI1414   PRI0614  -0.003954   PRI0714  -0.006703
    XI1414   PRI0814  -0.028331   PRI0914  -0.038343
    XI1414   PRI1014  -0.003297   PRI1114  -0.059222
    XI1414   PRI1214  -0.031024   PRI1314  -0.013418
    XI1414   PRI1514  -0.000006   PRI1614  0.000047
    XI1414   PRI1714  -0.013645   PRI1814  -0.005793
    XI1414   PRI1914  -0.003029   PRI2014  -0.122929
    XI1414   PRI1414  0.780186   UPBROW30839 1.000000
    XI1514   PRI0514  -0.001300   PRI0714  -0.001300
    XI1514   PRI0814  -0.000557   PRI0914  -0.008174
    XI1514   PRI1014  -0.018020   PRI1114  -0.000743
    XI1514   PRI1314  -0.002601   PRI1414  -0.012447
    XI1514   PRI1714  -0.011704   PRI1814  -0.003901
    XI1514   PRI1914  -0.000557   PRI2014  -0.309493
    XI1514   PRI1514  0.997771   UPBROW30840 1.000000
    XI1614   PRI0114  -0.000838   PRI0214  -0.000076
    XI1614   PRI0514  -0.001523   PRI0614  -0.022011
    XI1614   PRI0714  -0.001142   PRI0814  -0.001523
    XI1614   PRI0914  -0.002818   PRI1014  -0.052171
    XI1614   PRI1114  -0.000076   PRI1314  -0.035187
    XI1614   PRI1414  -0.007007   PRI1714  -0.032216
    XI1614   PRI1814  -0.001219   PRI1914  -0.000533
    XI1614   PRI2014  -0.171516   PRI1614  0.949886
    XI1614   UPBROW30841 1.000000
    XI1714   PRI0114  -0.001548   PRI0214  -0.000178
    XI1714   PRI0314  -0.000783   PRI0414  -0.000036
    XI1714   PRI0514  -0.017634   PRI0614  -0.000160
    XI1714   PRI0714  -0.003221   PRI0814  -0.001940
    XI1714   PRI0914  -0.007918   PRI1014  -0.030196
    XI1714   PRI1114  -0.003577   PRI1214  -0.001424
    XI1714   PRI1314  -0.013577   PRI1414  -0.011869
    XI1714   PRI1514  -0.000819   PRI1614  -0.001032
    XI1714   PRI1814  -0.003915   PRI1914  -0.000890
    XI1714   PRI2014  -0.166071   PRI1714  0.878788
    XI1714   UPBROW30842 1.000000
    XI1814   PRI0214  -0.059245   PRI0414  -0.000062
    XI1814   PRI0514  -0.041988   PRI0614  -0.000123
    XI1814   PRI0714  -0.000584   PRI0814  -0.001784
    XI1814   PRI0914  -0.003722   PRI1014  -0.014704
    XI1814   PRI1114  -0.001015   PRI1214  -0.000615
    XI1814   PRI1314  -0.000277   PRI1414  -0.007536
    XI1814   PRI1614  -0.000031   PRI1714  -0.028884
    XI1814   PRI1914  -0.041189   PRI2014  -0.054785
    XI1814   PRI1814  0.878803   UPBROW30843 1.000000
    XI1914   PRI0214  -0.000234   PRI0314  -0.183070
    XI1914   PRI0514  -0.014421   PRI0714  -0.000281
    XI1914   PRI0814  -0.000468   PRI0914  -0.000047
    XI1914   PRI1014  -0.000702   PRI1114  -0.001077
    XI1914   PRI1414  -0.000094   PRI1714  -0.000187
    XI1914   PRI1814  -0.002201   PRI2014  -0.049724
    XI1914   PRI1914  0.660127   UPBROW30844 1.000000
    XI2014   PRI0114  -0.005020   PRI0214  -0.000102
    XI2014   PRI0314  -0.000184   PRI0414  -0.000054
    XI2014   PRI0514  -0.012360   PRI0614  -0.008987
    XI2014   PRI0714  -0.001156   PRI0814  -0.004593
    XI2014   PRI0914  -0.005133   PRI1014  -0.004367
    XI2014   PRI1114  -0.000564   PRI1214  -0.000503
    XI2014   PRI1314  -0.004285   PRI1414  -0.043513
    XI2014   PRI1514  -0.000877   PRI1614  -0.006966
    XI2014   PRI1714  -0.006210   PRI1814  -0.008192
    XI2014   PRI1914  -0.002209   PRI2014  0.817877
    XI2014   UPBROW30845 1.000000
    YI0114   PRI0114  -1.000000   REVENUE  -7.000000
    YI0114   UPBROW31021 1.000000
    YI0214   PRI0214  -1.000000   REVENUE  -4.000000
    YI0214   UPBROW31022 1.000000
    YI0314   PRI0314  -1.000000   REVENUE  -3.000000
    YI0314   UPBROW31023 1.000000
    SI0114   PRI0115  1.000000   PRI0114  -1.000000
    SI0114   UPBROW31461 1.000000
    SI0214   PRI0215  1.000000   PRI0214  -1.000000
    SI0214   UPBROW31462 1.000000
    SI0314   PRI0315  1.000000   PRI0314  -1.000000
    SI0314   UPBROW31463 1.000000
    SI0414   PRI0415  1.000000   PRI0414  -1.000000
    SI0414   UPBROW31269 1.000000
    SI0514   PRI0515  1.000000   PRI0514  -1.000000
    SI0514   UPBROW31270 1.000000
    SI0614   PRI0615  1.000000   PRI0614  -1.000000
    SI0614   UPBROW31271 1.000000
    SI0714   PRI0715  1.000000   PRI0714  -1.000000
    SI0714   UPBROW31272 1.000000
    SI0814   PRI0815  1.000000   PRI0814  -1.000000
    SI0814   UPBROW31273 1.000000
    SI0914   PRI0915  1.000000   PRI0914  -1.000000
    SI0914   UPBROW31274 1.000000
    SI1014   PRI1015  1.000000   PRI1014  -1.000000
    SI1014   UPBROW31275 1.000000
    SI1114   PRI1115  1.000000   PRI1114  -1.000000
    SI1114   UPBROW31276 1.000000
    SI1214   PRI1215  1.000000   PRI1214  -1.000000
    SI1214   UPBROW31277 1.000000
    SI1314   PRI1315  1.000000   PRI1314  -1.000000
    SI1314   UPBROW31278 1.000000
    SI1414   PRI1415  1.000000   PRI1414  -1.000000
    SI1414   UPBROW31279 1.000000
    SI1514   PRI1515  1.000000   PRI1514  -1.000000
    SI1514   UPBROW31280 1.000000
    SI1614   PRI1615  1.000000   PRI1614  -1.000000
    SI1614   UPBROW31281 1.000000
    SI1714   PRI1715  1.000000   PRI1714  -1.000000
    SI1714   UPBROW31282 1.000000
    SI1814   PRI1815  1.000000   PRI1814  -1.000000
    SI1814   UPBROW31283 1.000000
    SI1914   PRI1915  1.000000   PRI1914  -1.000000
    SI1914   UPBROW31284 1.000000
    SI2014   PRI2015  1.000000   PRI2014  -1.000000
    SI2014   UPBROW31285 1.000000
    XI0115   PRI0215  -0.000066   PRI0415  -0.001575
    XI0115   PRI0515  -0.006836   PRI0615  -0.068339
    XI0115   PRI0715  -0.003500   PRI0815  -0.000372
    XI0115   PRI0915  -0.034585   PRI1015  -0.014700
    XI0115   PRI1215  -0.000033   PRI1315  -0.001006
    XI0115   PRI1415  -0.014208   PRI1615  -0.000087
    XI0115   PRI1715  -0.014689   PRI1815  -0.002100
    XI0115   PRI1915  -0.000219   PRI2015  -0.115197
    XI0115   PRI0115  0.690602
    XI0215   PRI0315  -0.000539   PRI0415  -0.001077
    XI0215   PRI0515  -0.007542   PRI0715  -0.006285
    XI0215   PRI0815  -0.000180   PRI0915  -0.029808
    XI0215   PRI1015  -0.012390   PRI1115  -0.013647
    XI0215   PRI1215  -0.003053   PRI1315  -0.000180
    XI0215   PRI1415  -0.070569   PRI1615  -0.000180
    XI0215   PRI1715  -0.008978   PRI1815  -0.027114
    XI0215   PRI1915  -0.000180   PRI2015  -0.142754
    XI0215   PRI0215  0.840546
    XI0315   PRI0515  -0.026987   PRI0715  -0.000345
    XI0315   PRI0815  -0.000058   PRI0915  -0.012889
    XI0315   PRI1015  -0.002071   PRI1115  -0.006790
    XI0315   PRI1415  -0.037459   PRI1615  -0.000230
    XI0315   PRI1715  -0.002877   PRI1815  -0.008401
    XI0315   PRI1915  -0.003050   PRI2015  -0.173370
    XI0315   PRI0315  0.972380
    XI0415   PRI0215  -0.001637   PRI0515  -0.013370
    XI0415   PRI0715  -0.003820   PRI0815  -0.005866
    XI0415   PRI0915  -0.050205   PRI1015  -0.018417
    XI0415   PRI1115  -0.030559   PRI1215  -0.002319
    XI0415   PRI1315  -0.002183   PRI1415  -0.084584
    XI0415   PRI1715  -0.010914   PRI1815  -0.037108
    XI0415   PRI1915  -0.009277   PRI2015  -0.159209
    XI0415   PRI0415  0.869577   UPBROW30846 1.000000
    XI0515   PRI0115  -0.002640   PRI0415  -0.008734
    XI0515   PRI0715  -0.003525   PRI0815  -0.003571
    XI0515   PRI0915  -0.011118   PRI1015  -0.019406
    XI0515   PRI1115  -0.016864   PRI1215  -0.027170
    XI0515   PRI1315  -0.000059   PRI1415  -0.298211
    XI0515   PRI1615  -0.000524   PRI1715  -0.029686
    XI0515   PRI1815  -0.000563   PRI1915  -0.000124
    XI0515   PRI2015  -0.207253   PRI0515  0.999712
    XI0515   UPBROW30847 1.000000
    XI0615   PRI0115  -0.338610   PRI0215  -0.000364
    XI0615   PRI0415  -0.000095   PRI0515  -0.001957
    XI0615   PRI0715  -0.001351   PRI0815  -0.023418
    XI0615   PRI0915  -0.010964   PRI1015  -0.001827
    XI0615   PRI1115  -0.000104   PRI1215  -0.000043
    XI0615   PRI1315  -0.000035   PRI1415  -0.045191
    XI0615   PRI1615  -0.000156   PRI1715  -0.022673
    XI0615   PRI1815  -0.003482   PRI1915  -0.002165
    XI0615   PRI2015  -0.103173   PRI0615  0.805874
    XI0615   UPBROW30848 1.000000
    XI0715   PRI0115  -0.048259   PRI0215  -0.000457
    XI0715   PRI0415  -0.000016   PRI0515  -0.001778
    XI0715   PRI0615  -0.001599   PRI0815  -0.009560
    XI0715   PRI0915  -0.076794   PRI1015  -0.001109
    XI0715   PRI1215  -0.000049   PRI1315  -0.000131
    XI0715   PRI1415  -0.019790   PRI1615  -0.000294
    XI0715   PRI1715  -0.011926   PRI1815  -0.006249
    XI0715   PRI1915  -0.001468   PRI2015  -0.084706
    XI0715   PRI0715  0.576973   UPBROW30849 1.000000
    XI0815   PRI0215  -0.003618   PRI0415  -0.003519
    XI0815   PRI0515  -0.005942   PRI0615  -0.009694
    XI0815   PRI0715  -0.011055   PRI0915  -0.062610
    XI0815   PRI1015  -0.005876   PRI1115  -0.001261
    XI0815   PRI1215  -0.001029   PRI1415  -0.094579
    XI0815   PRI1615  -0.000166   PRI1715  -0.032334
    XI0815   PRI1815  -0.011055   PRI1915  -0.006805
    XI0815   PRI2015  -0.103575   PRI0815  0.725027
    XI0815   UPBROW30850 1.000000
    XI0915   PRI0115  -0.001411   PRI0215  -0.002540
    XI0915   PRI0315  -0.001129   PRI0415  -0.014856
    XI0915   PRI0515  -0.005063   PRI0615  -0.007818
    XI0915   PRI0715  -0.024948   PRI0815  -0.024632
    XI0915   PRI1015  -0.037944   PRI1115  -0.004365
    XI0915   PRI1215  -0.007752   PRI1315  -0.002523
    XI0915   PRI1415  -0.047572   PRI1615  -0.000398
    XI0915   PRI1715  -0.019537   PRI1815  -0.013843
    XI0915   PRI1915  -0.008449   PRI2015  -0.115642
    XI0915   PRI0915  0.733625   UPBROW30851 1.000000
    XI1015   PRI0215  -0.000367   PRI0315  -0.460145
    XI1015   PRI0415  -0.002047   PRI0515  -0.011090
    XI1015   PRI0615  -0.001619   PRI0715  -0.000092
    XI1015   PRI0815  -0.006019   PRI0915  -0.023770
    XI1015   PRI1115  -0.000244   PRI1215  -0.001466
    XI1015   PRI1315  -0.000092   PRI1415  -0.013015
    XI1015   PRI1615  -0.000031   PRI1715  -0.035563
    XI1015   PRI1815  -0.005622   PRI1915  -0.010815
    XI1015   PRI2015  -0.076136   PRI1015  0.937888
    XI1015   UPBROW30852 1.000000
    XI1115   PRI0215  -0.026280   PRI0415  -0.047844
    XI1115   PRI0515  -0.009677   PRI0615  -0.000027
    XI1115   PRI0715  -0.000782   PRI0815  -0.001078
    XI1115   PRI0915  -0.016038   PRI1015  -0.004232
    XI1115   PRI1215  -0.033531   PRI1315  -0.005202
    XI1115   PRI1415  -0.070863   PRI1615  -0.000243
    XI1115   PRI1715  -0.042965   PRI1815  -0.018113
    XI1115   PRI1915  -0.015040   PRI2015  -0.122480
    XI1115   PRI1115  0.800189   UPBROW30853 1.000000
    XI1215   PRI0215  -0.000753   PRI0415  -0.067166
    XI1215   PRI0515  -0.003464   PRI0615  -0.000678
    XI1215   PRI0715  -0.001129   PRI0815  -0.002000
    XI1215   PRI0915  -0.022401   PRI1015  -0.002635
    XI1215   PRI1115  -0.016904   PRI1315  -0.002598
    XI1215   PRI1415  -0.053311   PRI1615  -0.000301
    XI1215   PRI1715  -0.022326   PRI1815  -0.017206
    XI1215   PRI1915  -0.008772   PRI2015  -0.134483
    XI1215   PRI1215  0.606604   UPBROW30854 1.000000
    XI1315   PRI0215  -0.000355   PRI0515  -0.002449
    XI1315   PRI0715  -0.016934   PRI0815  -0.002466
    XI1315   PRI0915  -0.023804   PRI1015  -0.002215
    XI1315   PRI1115  -0.064066   PRI1215  -0.023891
    XI1315   PRI1415  -0.173612   PRI1615  -0.001402
    XI1315   PRI1715  -0.014122   PRI1815  -0.003989
    XI1315   PRI1915  -0.001194   PRI2015  -0.092301
    XI1315   PRI1315  0.724759   UPBROW30855 1.000000
    XI1415   PRI0115  -0.015773   PRI0215  -0.000483
    XI1415   PRI0415  -0.003674   PRI0515  -0.003179
    XI1415   PRI0615  -0.003954   PRI0715  -0.006703
    XI1415   PRI0815  -0.028331   PRI0915  -0.038343
    XI1415   PRI1015  -0.003297   PRI1115  -0.059222
    XI1415   PRI1215  -0.031024   PRI1315  -0.013418
    XI1415   PRI1515  -0.000006   PRI1615  0.000047
    XI1415   PRI1715  -0.013645   PRI1815  -0.005793
    XI1415   PRI1915  -0.003029   PRI2015  -0.122929
    XI1415   PRI1415  0.780186   UPBROW30856 1.000000
    XI1515   PRI0515  -0.001300   PRI0715  -0.001300
    XI1515   PRI0815  -0.000557   PRI0915  -0.008174
    XI1515   PRI1015  -0.018020   PRI1115  -0.000743
    XI1515   PRI1315  -0.002601   PRI1415  -0.012447
    XI1515   PRI1715  -0.011704   PRI1815  -0.003901
    XI1515   PRI1915  -0.000557   PRI2015  -0.309493
    XI1515   PRI1515  0.997771   UPBROW30857 1.000000
    XI1615   PRI0115  -0.000838   PRI0215  -0.000076
    XI1615   PRI0515  -0.001523   PRI0615  -0.022011
    XI1615   PRI0715  -0.001142   PRI0815  -0.001523
    XI1615   PRI0915  -0.002818   PRI1015  -0.052171
    XI1615   PRI1115  -0.000076   PRI1315  -0.035187
    XI1615   PRI1415  -0.007007   PRI1715  -0.032216
    XI1615   PRI1815  -0.001219   PRI1915  -0.000533
    XI1615   PRI2015  -0.171516   PRI1615  0.949886
    XI1615   UPBROW30858 1.000000
    XI1715   PRI0115  -0.001548   PRI0215  -0.000178
    XI1715   PRI0315  -0.000783   PRI0415  -0.000036
    XI1715   PRI0515  -0.017634   PRI0615  -0.000160
    XI1715   PRI0715  -0.003221   PRI0815  -0.001940
    XI1715   PRI0915  -0.007918   PRI1015  -0.030196
    XI1715   PRI1115  -0.003577   PRI1215  -0.001424
    XI1715   PRI1315  -0.013577   PRI1415  -0.011869
    XI1715   PRI1515  -0.000819   PRI1615  -0.001032
    XI1715   PRI1815  -0.003915   PRI1915  -0.000890
    XI1715   PRI2015  -0.166071   PRI1715  0.878788
    XI1715   UPBROW30859 1.000000
    XI1815   PRI0215  -0.059245   PRI0415  -0.000062
    XI1815   PRI0515  -0.041988   PRI0615  -0.000123
    XI1815   PRI0715  -0.000584   PRI0815  -0.001784
    XI1815   PRI0915  -0.003722   PRI1015  -0.014704
    XI1815   PRI1115  -0.001015   PRI1215  -0.000615
    XI1815   PRI1315  -0.000277   PRI1415  -0.007536
    XI1815   PRI1615  -0.000031   PRI1715  -0.028884
    XI1815   PRI1915  -0.041189   PRI2015  -0.054785
    XI1815   PRI1815  0.878803   UPBROW30860 1.000000
    XI1915   PRI0215  -0.000234   PRI0315  -0.183070
    XI1915   PRI0515  -0.014421   PRI0715  -0.000281
    XI1915   PRI0815  -0.000468   PRI0915  -0.000047
    XI1915   PRI1015  -0.000702   PRI1115  -0.001077
    XI1915   PRI1415  -0.000094   PRI1715  -0.000187
    XI1915   PRI1815  -0.002201   PRI2015  -0.049724
    XI1915   PRI1915  0.660127   UPBROW30861 1.000000
    XI2015   PRI0115  -0.005020   PRI0215  -0.000102
    XI2015   PRI0315  -0.000184   PRI0415  -0.000054
    XI2015   PRI0515  -0.012360   PRI0615  -0.008987
    XI2015   PRI0715  -0.001156   PRI0815  -0.004593
    XI2015   PRI0915  -0.005133   PRI1015  -0.004367
    XI2015   PRI1115  -0.000564   PRI1215  -0.000503
    XI2015   PRI1315  -0.004285   PRI1415  -0.043513
    XI2015   PRI1515  -0.000877   PRI1615  -0.006966
    XI2015   PRI1715  -0.006210   PRI1815  -0.008192
    XI2015   PRI1915  -0.002209   PRI2015  0.817877
    XI2015   UPBROW30862 1.000000
    YI0115   PRI0115  -1.000000   REVENUE  -1.000000
    YI0115   UPBROW31024 1.000000
    YI0215   PRI0215  -1.000000   REVENUE  -7.000000
    YI0215   UPBROW31025 1.000000
    YI0315   PRI0315  -1.000000   REVENUE  -5.000000
    YI0315   UPBROW31026 1.000000
    SI0115   PRI0116  1.000000   PRI0115  -1.000000
    SI0115   UPBROW31464 1.000000
    SI0215   PRI0216  1.000000   PRI0215  -1.000000
    SI0215   UPBROW31465 1.000000
    SI0315   PRI0316  1.000000   PRI0315  -1.000000
    SI0315   UPBROW31466 1.000000
    SI0415   PRI0416  1.000000   PRI0415  -1.000000
    SI0415   UPBROW31286 1.000000
    SI0515   PRI0516  1.000000   PRI0515  -1.000000
    SI0515   UPBROW31287 1.000000
    SI0615   PRI0616  1.000000   PRI0615  -1.000000
    SI0615   UPBROW31288 1.000000
    SI0715   PRI0716  1.000000   PRI0715  -1.000000
    SI0715   UPBROW31289 1.000000
    SI0815   PRI0816  1.000000   PRI0815  -1.000000
    SI0815   UPBROW31290 1.000000
    SI0915   PRI0916  1.000000   PRI0915  -1.000000
    SI0915   UPBROW31291 1.000000
    SI1015   PRI1016  1.000000   PRI1015  -1.000000
    SI1015   UPBROW31292 1.000000
    SI1115   PRI1116  1.000000   PRI1115  -1.000000
    SI1115   UPBROW31293 1.000000
    SI1215   PRI1216  1.000000   PRI1215  -1.000000
    SI1215   UPBROW31294 1.000000
    SI1315   PRI1316  1.000000   PRI1315  -1.000000
    SI1315   UPBROW31295 1.000000
    SI1415   PRI1416  1.000000   PRI1415  -1.000000
    SI1415   UPBROW31296 1.000000
    SI1515   PRI1516  1.000000   PRI1515  -1.000000
    SI1515   UPBROW31297 1.000000
    SI1615   PRI1616  1.000000   PRI1615  -1.000000
    SI1615   UPBROW31298 1.000000
    SI1715   PRI1716  1.000000   PRI1715  -1.000000
    SI1715   UPBROW31299 1.000000
    SI1815   PRI1816  1.000000   PRI1815  -1.000000
    SI1815   UPBROW31300 1.000000
    SI1915   PRI1916  1.000000   PRI1915  -1.000000
    SI1915   UPBROW31301 1.000000
    SI2015   PRI2016  1.000000   PRI2015  -1.000000
    SI2015   UPBROW31302 1.000000
    XI0116   PRI0216  -0.000066   PRI0416  -0.001575
    XI0116   PRI0516  -0.006836   PRI0616  -0.068339
    XI0116   PRI0716  -0.003500   PRI0816  -0.000372
    XI0116   PRI0916  -0.034585   PRI1016  -0.014700
    XI0116   PRI1216  -0.000033   PRI1316  -0.001006
    XI0116   PRI1416  -0.014208   PRI1616  -0.000087
    XI0116   PRI1716  -0.014689   PRI1816  -0.002100
    XI0116   PRI1916  -0.000219   PRI2016  -0.115197
    XI0116   PRI0116  0.690602
    XI0216   PRI0316  -0.000539   PRI0416  -0.001077
    XI0216   PRI0516  -0.007542   PRI0716  -0.006285
    XI0216   PRI0816  -0.000180   PRI0916  -0.029808
    XI0216   PRI1016  -0.012390   PRI1116  -0.013647
    XI0216   PRI1216  -0.003053   PRI1316  -0.000180
    XI0216   PRI1416  -0.070569   PRI1616  -0.000180
    XI0216   PRI1716  -0.008978   PRI1816  -0.027114
    XI0216   PRI1916  -0.000180   PRI2016  -0.142754
    XI0216   PRI0216  0.840546
    XI0316   PRI0516  -0.026987   PRI0716  -0.000345
    XI0316   PRI0816  -0.000058   PRI0916  -0.012889
    XI0316   PRI1016  -0.002071   PRI1116  -0.006790
    XI0316   PRI1416  -0.037459   PRI1616  -0.000230
    XI0316   PRI1716  -0.002877   PRI1816  -0.008401
    XI0316   PRI1916  -0.003050   PRI2016  -0.173370
    XI0316   PRI0316  0.972380
    XI0416   PRI0216  -0.001637   PRI0516  -0.013370
    XI0416   PRI0716  -0.003820   PRI0816  -0.005866
    XI0416   PRI0916  -0.050205   PRI1016  -0.018417
    XI0416   PRI1116  -0.030559   PRI1216  -0.002319
    XI0416   PRI1316  -0.002183   PRI1416  -0.084584
    XI0416   PRI1716  -0.010914   PRI1816  -0.037108
    XI0416   PRI1916  -0.009277   PRI2016  -0.159209
    XI0416   PRI0416  0.869577   UPBROW30863 1.000000
    XI0516   PRI0116  -0.002640   PRI0416  -0.008734
    XI0516   PRI0716  -0.003525   PRI0816  -0.003571
    XI0516   PRI0916  -0.011118   PRI1016  -0.019406
    XI0516   PRI1116  -0.016864   PRI1216  -0.027170
    XI0516   PRI1316  -0.000059   PRI1416  -0.298211
    XI0516   PRI1616  -0.000524   PRI1716  -0.029686
    XI0516   PRI1816  -0.000563   PRI1916  -0.000124
    XI0516   PRI2016  -0.207253   PRI0516  0.999712
    XI0516   UPBROW30864 1.000000
    XI0616   PRI0116  -0.338610   PRI0216  -0.000364
    XI0616   PRI0416  -0.000095   PRI0516  -0.001957
    XI0616   PRI0716  -0.001351   PRI0816  -0.023418
    XI0616   PRI0916  -0.010964   PRI1016  -0.001827
    XI0616   PRI1116  -0.000104   PRI1216  -0.000043
    XI0616   PRI1316  -0.000035   PRI1416  -0.045191
    XI0616   PRI1616  -0.000156   PRI1716  -0.022673
    XI0616   PRI1816  -0.003482   PRI1916  -0.002165
    XI0616   PRI2016  -0.103173   PRI0616  0.805874
    XI0616   UPBROW30865 1.000000
    XI0716   PRI0116  -0.048259   PRI0216  -0.000457
    XI0716   PRI0416  -0.000016   PRI0516  -0.001778
    XI0716   PRI0616  -0.001599   PRI0816  -0.009560
    XI0716   PRI0916  -0.076794   PRI1016  -0.001109
    XI0716   PRI1216  -0.000049   PRI1316  -0.000131
    XI0716   PRI1416  -0.019790   PRI1616  -0.000294
    XI0716   PRI1716  -0.011926   PRI1816  -0.006249
    XI0716   PRI1916  -0.001468   PRI2016  -0.084706
    XI0716   PRI0716  0.576973   UPBROW30866 1.000000
    XI0816   PRI0216  -0.003618   PRI0416  -0.003519
    XI0816   PRI0516  -0.005942   PRI0616  -0.009694
    XI0816   PRI0716  -0.011055   PRI0916  -0.062610
    XI0816   PRI1016  -0.005876   PRI1116  -0.001261
    XI0816   PRI1216  -0.001029   PRI1416  -0.094579
    XI0816   PRI1616  -0.000166   PRI1716  -0.032334
    XI0816   PRI1816  -0.011055   PRI1916  -0.006805
    XI0816   PRI2016  -0.103575   PRI0816  0.725027
    XI0816   UPBROW30867 1.000000
    XI0916   PRI0116  -0.001411   PRI0216  -0.002540
    XI0916   PRI0316  -0.001129   PRI0416  -0.014856
    XI0916   PRI0516  -0.005063   PRI0616  -0.007818
    XI0916   PRI0716  -0.024948   PRI0816  -0.024632
    XI0916   PRI1016  -0.037944   PRI1116  -0.004365
    XI0916   PRI1216  -0.007752   PRI1316  -0.002523
    XI0916   PRI1416  -0.047572   PRI1616  -0.000398
    XI0916   PRI1716  -0.019537   PRI1816  -0.013843
    XI0916   PRI1916  -0.008449   PRI2016  -0.115642
    XI0916   PRI0916  0.733625   UPBROW30868 1.000000
    XI1016   PRI0216  -0.000367   PRI0316  -0.460145
    XI1016   PRI0416  -0.002047   PRI0516  -0.011090
    XI1016   PRI0616  -0.001619   PRI0716  -0.000092
    XI1016   PRI0816  -0.006019   PRI0916  -0.023770
    XI1016   PRI1116  -0.000244   PRI1216  -0.001466
    XI1016   PRI1316  -0.000092   PRI1416  -0.013015
    XI1016   PRI1616  -0.000031   PRI1716  -0.035563
    XI1016   PRI1816  -0.005622   PRI1916  -0.010815
    XI1016   PRI2016  -0.076136   PRI1016  0.937888
    XI1016   UPBROW30869 1.000000
    XI1116   PRI0216  -0.026280   PRI0416  -0.047844
    XI1116   PRI0516  -0.009677   PRI0616  -0.000027
    XI1116   PRI0716  -0.000782   PRI0816  -0.001078
    XI1116   PRI0916  -0.016038   PRI1016  -0.004232
    XI1116   PRI1216  -0.033531   PRI1316  -0.005202
    XI1116   PRI1416  -0.070863   PRI1616  -0.000243
    XI1116   PRI1716  -0.042965   PRI1816  -0.018113
    XI1116   PRI1916  -0.015040   PRI2016  -0.122480
    XI1116   PRI1116  0.800189   UPBROW30870 1.000000
    XI1216   PRI0216  -0.000753   PRI0416  -0.067166
    XI1216   PRI0516  -0.003464   PRI0616  -0.000678
    XI1216   PRI0716  -0.001129   PRI0816  -0.002000
    XI1216   PRI0916  -0.022401   PRI1016  -0.002635
    XI1216   PRI1116  -0.016904   PRI1316  -0.002598
    XI1216   PRI1416  -0.053311   PRI1616  -0.000301
    XI1216   PRI1716  -0.022326   PRI1816  -0.017206
    XI1216   PRI1916  -0.008772   PRI2016  -0.134483
    XI1216   PRI1216  0.606604   UPBROW30871 1.000000
    XI1316   PRI0216  -0.000355   PRI0516  -0.002449
    XI1316   PRI0716  -0.016934   PRI0816  -0.002466
    XI1316   PRI0916  -0.023804   PRI1016  -0.002215
    XI1316   PRI1116  -0.064066   PRI1216  -0.023891
    XI1316   PRI1416  -0.173612   PRI1616  -0.001402
    XI1316   PRI1716  -0.014122   PRI1816  -0.003989
    XI1316   PRI1916  -0.001194   PRI2016  -0.092301
    XI1316   PRI1316  0.724759   UPBROW30872 1.000000
    XI1416   PRI0116  -0.015773   PRI0216  -0.000483
    XI1416   PRI0416  -0.003674   PRI0516  -0.003179
    XI1416   PRI0616  -0.003954   PRI0716  -0.006703
    XI1416   PRI0816  -0.028331   PRI0916  -0.038343
    XI1416   PRI1016  -0.003297   PRI1116  -0.059222
    XI1416   PRI1216  -0.031024   PRI1316  -0.013418
    XI1416   PRI1516  -0.000006   PRI1616  0.000047
    XI1416   PRI1716  -0.013645   PRI1816  -0.005793
    XI1416   PRI1916  -0.003029   PRI2016  -0.122929
    XI1416   PRI1416  0.780186   UPBROW30873 1.000000
    XI1516   PRI0516  -0.001300   PRI0716  -0.001300
    XI1516   PRI0816  -0.000557   PRI0916  -0.008174
    XI1516   PRI1016  -0.018020   PRI1116  -0.000743
    XI1516   PRI1316  -0.002601   PRI1416  -0.012447
    XI1516   PRI1716  -0.011704   PRI1816  -0.003901
    XI1516   PRI1916  -0.000557   PRI2016  -0.309493
    XI1516   PRI1516  0.997771   UPBROW30874 1.000000
    XI1616   PRI0116  -0.000838   PRI0216  -0.000076
    XI1616   PRI0516  -0.001523   PRI0616  -0.022011
    XI1616   PRI0716  -0.001142   PRI0816  -0.001523
    XI1616   PRI0916  -0.002818   PRI1016  -0.052171
    XI1616   PRI1116  -0.000076   PRI1316  -0.035187
    XI1616   PRI1416  -0.007007   PRI1716  -0.032216
    XI1616   PRI1816  -0.001219   PRI1916  -0.000533
    XI1616   PRI2016  -0.171516   PRI1616  0.949886
    XI1616   UPBROW30875 1.000000
    XI1716   PRI0116  -0.001548   PRI0216  -0.000178
    XI1716   PRI0316  -0.000783   PRI0416  -0.000036
    XI1716   PRI0516  -0.017634   PRI0616  -0.000160
    XI1716   PRI0716  -0.003221   PRI0816  -0.001940
    XI1716   PRI0916  -0.007918   PRI1016  -0.030196
    XI1716   PRI1116  -0.003577   PRI1216  -0.001424
    XI1716   PRI1316  -0.013577   PRI1416  -0.011869
    XI1716   PRI1516  -0.000819   PRI1616  -0.001032
    XI1716   PRI1816  -0.003915   PRI1916  -0.000890
    XI1716   PRI2016  -0.166071   PRI1716  0.878788
    XI1716   UPBROW30876 1.000000
    XI1816   PRI0216  -0.059245   PRI0416  -0.000062
    XI1816   PRI0516  -0.041988   PRI0616  -0.000123
    XI1816   PRI0716  -0.000584   PRI0816  -0.001784
    XI1816   PRI0916  -0.003722   PRI1016  -0.014704
    XI1816   PRI1116  -0.001015   PRI1216  -0.000615
    XI1816   PRI1316  -0.000277   PRI1416  -0.007536
    XI1816   PRI1616  -0.000031   PRI1716  -0.028884
    XI1816   PRI1916  -0.041189   PRI2016  -0.054785
    XI1816   PRI1816  0.878803   UPBROW30877 1.000000
    XI1916   PRI0216  -0.000234   PRI0316  -0.183070
    XI1916   PRI0516  -0.014421   PRI0716  -0.000281
    XI1916   PRI0816  -0.000468   PRI0916  -0.000047
    XI1916   PRI1016  -0.000702   PRI1116  -0.001077
    XI1916   PRI1416  -0.000094   PRI1716  -0.000187
    XI1916   PRI1816  -0.002201   PRI2016  -0.049724
    XI1916   PRI1916  0.660127   UPBROW30878 1.000000
    XI2016   PRI0116  -0.005020   PRI0216  -0.000102
    XI2016   PRI0316  -0.000184   PRI0416  -0.000054
    XI2016   PRI0516  -0.012360   PRI0616  -0.008987
    XI2016   PRI0716  -0.001156   PRI0816  -0.004593
    XI2016   PRI0916  -0.005133   PRI1016  -0.004367
    XI2016   PRI1116  -0.000564   PRI1216  -0.000503
    XI2016   PRI1316  -0.004285   PRI1416  -0.043513
    XI2016   PRI1516  -0.000877   PRI1616  -0.006966
    XI2016   PRI1716  -0.006210   PRI1816  -0.008192
    XI2016   PRI1916  -0.002209   PRI2016  0.817877
    XI2016   UPBROW30879 1.000000
    YI0116   PRI0116  -1.000000   REVENUE  -7.000000
    YI0116   UPBROW31027 1.000000
    YI0216   PRI0216  -1.000000   REVENUE  -4.000000
    YI0216   UPBROW31028 1.000000
    YI0316   PRI0316  -1.000000   REVENUE  -7.000000
    YI0316   UPBROW31029 1.000000
    SI0116   PRI0117  1.000000   PRI0116  -1.000000
    SI0116   UPBROW31467 1.000000
    SI0216   PRI0217  1.000000   PRI0216  -1.000000
    SI0216   UPBROW31468 1.000000
    SI0316   PRI0317  1.000000   PRI0316  -1.000000
    SI0316   UPBROW31469 1.000000
    SI0416   PRI0417  1.000000   PRI0416  -1.000000
    SI0416   UPBROW31303 1.000000
    SI0516   PRI0517  1.000000   PRI0516  -1.000000
    SI0516   UPBROW31304 1.000000
    SI0616   PRI0617  1.000000   PRI0616  -1.000000
    SI0616   UPBROW31305 1.000000
    SI0716   PRI0717  1.000000   PRI0716  -1.000000
    SI0716   UPBROW31306 1.000000
    SI0816   PRI0817  1.000000   PRI0816  -1.000000
    SI0816   UPBROW31307 1.000000
    SI0916   PRI0917  1.000000   PRI0916  -1.000000
    SI0916   UPBROW31308 1.000000
    SI1016   PRI1017  1.000000   PRI1016  -1.000000
    SI1016   UPBROW31309 1.000000
    SI1116   PRI1117  1.000000   PRI1116  -1.000000
    SI1116   UPBROW31310 1.000000
    SI1216   PRI1217  1.000000   PRI1216  -1.000000
    SI1216   UPBROW31311 1.000000
    SI1316   PRI1317  1.000000   PRI1316  -1.000000
    SI1316   UPBROW31312 1.000000
    SI1416   PRI1417  1.000000   PRI1416  -1.000000
    SI1416   UPBROW31313 1.000000
    SI1516   PRI1517  1.000000   PRI1516  -1.000000
    SI1516   UPBROW31314 1.000000
    SI1616   PRI1617  1.000000   PRI1616  -1.000000
    SI1616   UPBROW31315 1.000000
    SI1716   PRI1717  1.000000   PRI1716  -1.000000
    SI1716   UPBROW31316 1.000000
    SI1816   PRI1817  1.000000   PRI1816  -1.000000
    SI1816   UPBROW31317 1.000000
    SI1916   PRI1917  1.000000   PRI1916  -1.000000
    SI1916   UPBROW31318 1.000000
    SI2016   PRI2017  1.000000   PRI2016  -1.000000
    SI2016   UPBROW31319 1.000000
    XI0117   PRI0217  -0.000066   PRI0417  -0.001575
    XI0117   PRI0517  -0.006836   PRI0617  -0.068339
    XI0117   PRI0717  -0.003500   PRI0817  -0.000372
    XI0117   PRI0917  -0.034585   PRI1017  -0.014700
    XI0117   PRI1217  -0.000033   PRI1317  -0.001006
    XI0117   PRI1417  -0.014208   PRI1617  -0.000087
    XI0117   PRI1717  -0.014689   PRI1817  -0.002100
    XI0117   PRI1917  -0.000219   PRI2017  -0.115197
    XI0117   PRI0117  0.690602
    XI0217   PRI0317  -0.000539   PRI0417  -0.001077
    XI0217   PRI0517  -0.007542   PRI0717  -0.006285
    XI0217   PRI0817  -0.000180   PRI0917  -0.029808
    XI0217   PRI1017  -0.012390   PRI1117  -0.013647
    XI0217   PRI1217  -0.003053   PRI1317  -0.000180
    XI0217   PRI1417  -0.070569   PRI1617  -0.000180
    XI0217   PRI1717  -0.008978   PRI1817  -0.027114
    XI0217   PRI1917  -0.000180   PRI2017  -0.142754
    XI0217   PRI0217  0.840546
    XI0317   PRI0517  -0.026987   PRI0717  -0.000345
    XI0317   PRI0817  -0.000058   PRI0917  -0.012889
    XI0317   PRI1017  -0.002071   PRI1117  -0.006790
    XI0317   PRI1417  -0.037459   PRI1617  -0.000230
    XI0317   PRI1717  -0.002877   PRI1817  -0.008401
    XI0317   PRI1917  -0.003050   PRI2017  -0.173370
    XI0317   PRI0317  0.972380
    XI0417   PRI0217  -0.001637   PRI0517  -0.013370
    XI0417   PRI0717  -0.003820   PRI0817  -0.005866
    XI0417   PRI0917  -0.050205   PRI1017  -0.018417
    XI0417   PRI1117  -0.030559   PRI1217  -0.002319
    XI0417   PRI1317  -0.002183   PRI1417  -0.084584
    XI0417   PRI1717  -0.010914   PRI1817  -0.037108
    XI0417   PRI1917  -0.009277   PRI2017  -0.159209
    XI0417   PRI0417  0.869577   UPBROW30880 1.000000
    XI0517   PRI0117  -0.002640   PRI0417  -0.008734
    XI0517   PRI0717  -0.003525   PRI0817  -0.003571
    XI0517   PRI0917  -0.011118   PRI1017  -0.019406
    XI0517   PRI1117  -0.016864   PRI1217  -0.027170
    XI0517   PRI1317  -0.000059   PRI1417  -0.298211
    XI0517   PRI1617  -0.000524   PRI1717  -0.029686
    XI0517   PRI1817  -0.000563   PRI1917  -0.000124
    XI0517   PRI2017  -0.207253   PRI0517  0.999712
    XI0517   UPBROW30881 1.000000
    XI0617   PRI0117  -0.338610   PRI0217  -0.000364
    XI0617   PRI0417  -0.000095   PRI0517  -0.001957
    XI0617   PRI0717  -0.001351   PRI0817  -0.023418
    XI0617   PRI0917  -0.010964   PRI1017  -0.001827
    XI0617   PRI1117  -0.000104   PRI1217  -0.000043
    XI0617   PRI1317  -0.000035   PRI1417  -0.045191
    XI0617   PRI1617  -0.000156   PRI1717  -0.022673
    XI0617   PRI1817  -0.003482   PRI1917  -0.002165
    XI0617   PRI2017  -0.103173   PRI0617  0.805874
    XI0617   UPBROW30882 1.000000
    XI0717   PRI0117  -0.048259   PRI0217  -0.000457
    XI0717   PRI0417  -0.000016   PRI0517  -0.001778
    XI0717   PRI0617  -0.001599   PRI0817  -0.009560
    XI0717   PRI0917  -0.076794   PRI1017  -0.001109
    XI0717   PRI1217  -0.000049   PRI1317  -0.000131
    XI0717   PRI1417  -0.019790   PRI1617  -0.000294
    XI0717   PRI1717  -0.011926   PRI1817  -0.006249
    XI0717   PRI1917  -0.001468   PRI2017  -0.084706
    XI0717   PRI0717  0.576973   UPBROW30883 1.000000
    XI0817   PRI0217  -0.003618   PRI0417  -0.003519
    XI0817   PRI0517  -0.005942   PRI0617  -0.009694
    XI0817   PRI0717  -0.011055   PRI0917  -0.062610
    XI0817   PRI1017  -0.005876   PRI1117  -0.001261
    XI0817   PRI1217  -0.001029   PRI1417  -0.094579
    XI0817   PRI1617  -0.000166   PRI1717  -0.032334
    XI0817   PRI1817  -0.011055   PRI1917  -0.006805
    XI0817   PRI2017  -0.103575   PRI0817  0.725027
    XI0817   UPBROW30884 1.000000
    XI0917   PRI0117  -0.001411   PRI0217  -0.002540
    XI0917   PRI0317  -0.001129   PRI0417  -0.014856
    XI0917   PRI0517  -0.005063   PRI0617  -0.007818
    XI0917   PRI0717  -0.024948   PRI0817  -0.024632
    XI0917   PRI1017  -0.037944   PRI1117  -0.004365
    XI0917   PRI1217  -0.007752   PRI1317  -0.002523
    XI0917   PRI1417  -0.047572   PRI1617  -0.000398
    XI0917   PRI1717  -0.019537   PRI1817  -0.013843
    XI0917   PRI1917  -0.008449   PRI2017  -0.115642
    XI0917   PRI0917  0.733625   UPBROW30885 1.000000
    XI1017   PRI0217  -0.000367   PRI0317  -0.460145
    XI1017   PRI0417  -0.002047   PRI0517  -0.011090
    XI1017   PRI0617  -0.001619   PRI0717  -0.000092
    XI1017   PRI0817  -0.006019   PRI0917  -0.023770
    XI1017   PRI1117  -0.000244   PRI1217  -0.001466
    XI1017   PRI1317  -0.000092   PRI1417  -0.013015
    XI1017   PRI1617  -0.000031   PRI1717  -0.035563
    XI1017   PRI1817  -0.005622   PRI1917  -0.010815
    XI1017   PRI2017  -0.076136   PRI1017  0.937888
    XI1017   UPBROW30886 1.000000
    XI1117   PRI0217  -0.026280   PRI0417  -0.047844
    XI1117   PRI0517  -0.009677   PRI0617  -0.000027
    XI1117   PRI0717  -0.000782   PRI0817  -0.001078
    XI1117   PRI0917  -0.016038   PRI1017  -0.004232
    XI1117   PRI1217  -0.033531   PRI1317  -0.005202
    XI1117   PRI1417  -0.070863   PRI1617  -0.000243
    XI1117   PRI1717  -0.042965   PRI1817  -0.018113
    XI1117   PRI1917  -0.015040   PRI2017  -0.122480
    XI1117   PRI1117  0.800189   UPBROW30887 1.000000
    XI1217   PRI0217  -0.000753   PRI0417  -0.067166
    XI1217   PRI0517  -0.003464   PRI0617  -0.000678
    XI1217   PRI0717  -0.001129   PRI0817  -0.002000
    XI1217   PRI0917  -0.022401   PRI1017  -0.002635
    XI1217   PRI1117  -0.016904   PRI1317  -0.002598
    XI1217   PRI1417  -0.053311   PRI1617  -0.000301
    XI1217   PRI1717  -0.022326   PRI1817  -0.017206
    XI1217   PRI1917  -0.008772   PRI2017  -0.134483
    XI1217   PRI1217  0.606604   UPBROW30888 1.000000
    XI1317   PRI0217  -0.000355   PRI0517  -0.002449
    XI1317   PRI0717  -0.016934   PRI0817  -0.002466
    XI1317   PRI0917  -0.023804   PRI1017  -0.002215
    XI1317   PRI1117  -0.064066   PRI1217  -0.023891
    XI1317   PRI1417  -0.173612   PRI1617  -0.001402
    XI1317   PRI1717  -0.014122   PRI1817  -0.003989
    XI1317   PRI1917  -0.001194   PRI2017  -0.092301
    XI1317   PRI1317  0.724759   UPBROW30889 1.000000
    XI1417   PRI0117  -0.015773   PRI0217  -0.000483
    XI1417   PRI0417  -0.003674   PRI0517  -0.003179
    XI1417   PRI0617  -0.003954   PRI0717  -0.006703
    XI1417   PRI0817  -0.028331   PRI0917  -0.038343
    XI1417   PRI1017  -0.003297   PRI1117  -0.059222
    XI1417   PRI1217  -0.031024   PRI1317  -0.013418
    XI1417   PRI1517  -0.000006   PRI1617  0.000047
    XI1417   PRI1717  -0.013645   PRI1817  -0.005793
    XI1417   PRI1917  -0.003029   PRI2017  -0.122929
    XI1417   PRI1417  0.780186   UPBROW30890 1.000000
    XI1517   PRI0517  -0.001300   PRI0717  -0.001300
    XI1517   PRI0817  -0.000557   PRI0917  -0.008174
    XI1517   PRI1017  -0.018020   PRI1117  -0.000743
    XI1517   PRI1317  -0.002601   PRI1417  -0.012447
    XI1517   PRI1717  -0.011704   PRI1817  -0.003901
    XI1517   PRI1917  -0.000557   PRI2017  -0.309493
    XI1517   PRI1517  0.997771   UPBROW30891 1.000000
    XI1617   PRI0117  -0.000838   PRI0217  -0.000076
    XI1617   PRI0517  -0.001523   PRI0617  -0.022011
    XI1617   PRI0717  -0.001142   PRI0817  -0.001523
    XI1617   PRI0917  -0.002818   PRI1017  -0.052171
    XI1617   PRI1117  -0.000076   PRI1317  -0.035187
    XI1617   PRI1417  -0.007007   PRI1717  -0.032216
    XI1617   PRI1817  -0.001219   PRI1917  -0.000533
    XI1617   PRI2017  -0.171516   PRI1617  0.949886
    XI1617   UPBROW30892 1.000000
    XI1717   PRI0117  -0.001548   PRI0217  -0.000178
    XI1717   PRI0317  -0.000783   PRI0417  -0.000036
    XI1717   PRI0517  -0.017634   PRI0617  -0.000160
    XI1717   PRI0717  -0.003221   PRI0817  -0.001940
    XI1717   PRI0917  -0.007918   PRI1017  -0.030196
    XI1717   PRI1117  -0.003577   PRI1217  -0.001424
    XI1717   PRI1317  -0.013577   PRI1417  -0.011869
    XI1717   PRI1517  -0.000819   PRI1617  -0.001032
    XI1717   PRI1817  -0.003915   PRI1917  -0.000890
    XI1717   PRI2017  -0.166071   PRI1717  0.878788
    XI1717   UPBROW30893 1.000000
    XI1817   PRI0217  -0.059245   PRI0417  -0.000062
    XI1817   PRI0517  -0.041988   PRI0617  -0.000123
    XI1817   PRI0717  -0.000584   PRI0817  -0.001784
    XI1817   PRI0917  -0.003722   PRI1017  -0.014704
    XI1817   PRI1117  -0.001015   PRI1217  -0.000615
    XI1817   PRI1317  -0.000277   PRI1417  -0.007536
    XI1817   PRI1617  -0.000031   PRI1717  -0.028884
    XI1817   PRI1917  -0.041189   PRI2017  -0.054785
    XI1817   PRI1817  0.878803   UPBROW30894 1.000000
    XI1917   PRI0217  -0.000234   PRI0317  -0.183070
    XI1917   PRI0517  -0.014421   PRI0717  -0.000281
    XI1917   PRI0817  -0.000468   PRI0917  -0.000047
    XI1917   PRI1017  -0.000702   PRI1117  -0.001077
    XI1917   PRI1417  -0.000094   PRI1717  -0.000187
    XI1917   PRI1817  -0.002201   PRI2017  -0.049724
    XI1917   PRI1917  0.660127   UPBROW30895 1.000000
    XI2017   PRI0117  -0.005020   PRI0217  -0.000102
    XI2017   PRI0317  -0.000184   PRI0417  -0.000054
    XI2017   PRI0517  -0.012360   PRI0617  -0.008987
    XI2017   PRI0717  -0.001156   PRI0817  -0.004593
    XI2017   PRI0917  -0.005133   PRI1017  -0.004367
    XI2017   PRI1117  -0.000564   PRI1217  -0.000503
    XI2017   PRI1317  -0.004285   PRI1417  -0.043513
    XI2017   PRI1517  -0.000877   PRI1617  -0.006966
    XI2017   PRI1717  -0.006210   PRI1817  -0.008192
    XI2017   PRI1917  -0.002209   PRI2017  0.817877
    XI2017   UPBROW30896 1.000000
    YI0117   PRI0117  -1.000000   REVENUE  -1.000000
    YI0117   UPBROW31030 1.000000
    YI0217   PRI0217  -1.000000   REVENUE  -1.000000
    YI0217   UPBROW31031 1.000000
    YI0317   PRI0317  -1.000000   REVENUE  -5.000000
    YI0317   UPBROW31032 1.000000
    SI0117   PRI0118  1.000000   PRI0117  -1.000000
    SI0117   UPBROW31470 1.000000
    SI0217   PRI0218  1.000000   PRI0217  -1.000000
    SI0217   UPBROW31471 1.000000
    SI0317   PRI0318  1.000000   PRI0317  -1.000000
    SI0317   UPBROW31472 1.000000
    SI0417   PRI0418  1.000000   PRI0417  -1.000000
    SI0417   UPBROW31320 1.000000
    SI0517   PRI0518  1.000000   PRI0517  -1.000000
    SI0517   UPBROW31321 1.000000
    SI0617   PRI0618  1.000000   PRI0617  -1.000000
    SI0617   UPBROW31322 1.000000
    SI0717   PRI0718  1.000000   PRI0717  -1.000000
    SI0717   UPBROW31323 1.000000
    SI0817   PRI0818  1.000000   PRI0817  -1.000000
    SI0817   UPBROW31324 1.000000
    SI0917   PRI0918  1.000000   PRI0917  -1.000000
    SI0917   UPBROW31325 1.000000
    SI1017   PRI1018  1.000000   PRI1017  -1.000000
    SI1017   UPBROW31326 1.000000
    SI1117   PRI1118  1.000000   PRI1117  -1.000000
    SI1117   UPBROW31327 1.000000
    SI1217   PRI1218  1.000000   PRI1217  -1.000000
    SI1217   UPBROW31328 1.000000
    SI1317   PRI1318  1.000000   PRI1317  -1.000000
    SI1317   UPBROW31329 1.000000
    SI1417   PRI1418  1.000000   PRI1417  -1.000000
    SI1417   UPBROW31330 1.000000
    SI1517   PRI1518  1.000000   PRI1517  -1.000000
    SI1517   UPBROW31331 1.000000
    SI1617   PRI1618  1.000000   PRI1617  -1.000000
    SI1617   UPBROW31332 1.000000
    SI1717   PRI1718  1.000000   PRI1717  -1.000000
    SI1717   UPBROW31333 1.000000
    SI1817   PRI1818  1.000000   PRI1817  -1.000000
    SI1817   UPBROW31334 1.000000
    SI1917   PRI1918  1.000000   PRI1917  -1.000000
    SI1917   UPBROW31335 1.000000
    SI2017   PRI2018  1.000000   PRI2017  -1.000000
    SI2017   UPBROW31336 1.000000
    XI0118   PRI0218  -0.000066   PRI0418  -0.001575
    XI0118   PRI0518  -0.006836   PRI0618  -0.068339
    XI0118   PRI0718  -0.003500   PRI0818  -0.000372
    XI0118   PRI0918  -0.034585   PRI1018  -0.014700
    XI0118   PRI1218  -0.000033   PRI1318  -0.001006
    XI0118   PRI1418  -0.014208   PRI1618  -0.000087
    XI0118   PRI1718  -0.014689   PRI1818  -0.002100
    XI0118   PRI1918  -0.000219   PRI2018  -0.115197
    XI0118   PRI0118  0.690602
    XI0218   PRI0318  -0.000539   PRI0418  -0.001077
    XI0218   PRI0518  -0.007542   PRI0718  -0.006285
    XI0218   PRI0818  -0.000180   PRI0918  -0.029808
    XI0218   PRI1018  -0.012390   PRI1118  -0.013647
    XI0218   PRI1218  -0.003053   PRI1318  -0.000180
    XI0218   PRI1418  -0.070569   PRI1618  -0.000180
    XI0218   PRI1718  -0.008978   PRI1818  -0.027114
    XI0218   PRI1918  -0.000180   PRI2018  -0.142754
    XI0218   PRI0218  0.840546
    XI0318   PRI0518  -0.026987   PRI0718  -0.000345
    XI0318   PRI0818  -0.000058   PRI0918  -0.012889
    XI0318   PRI1018  -0.002071   PRI1118  -0.006790
    XI0318   PRI1418  -0.037459   PRI1618  -0.000230
    XI0318   PRI1718  -0.002877   PRI1818  -0.008401
    XI0318   PRI1918  -0.003050   PRI2018  -0.173370
    XI0318   PRI0318  0.972380
    XI0418   PRI0218  -0.001637   PRI0518  -0.013370
    XI0418   PRI0718  -0.003820   PRI0818  -0.005866
    XI0418   PRI0918  -0.050205   PRI1018  -0.018417
    XI0418   PRI1118  -0.030559   PRI1218  -0.002319
    XI0418   PRI1318  -0.002183   PRI1418  -0.084584
    XI0418   PRI1718  -0.010914   PRI1818  -0.037108
    XI0418   PRI1918  -0.009277   PRI2018  -0.159209
    XI0418   PRI0418  0.869577   UPBROW30897 1.000000
    XI0518   PRI0118  -0.002640   PRI0418  -0.008734
    XI0518   PRI0718  -0.003525   PRI0818  -0.003571
    XI0518   PRI0918  -0.011118   PRI1018  -0.019406
    XI0518   PRI1118  -0.016864   PRI1218  -0.027170
    XI0518   PRI1318  -0.000059   PRI1418  -0.298211
    XI0518   PRI1618  -0.000524   PRI1718  -0.029686
    XI0518   PRI1818  -0.000563   PRI1918  -0.000124
    XI0518   PRI2018  -0.207253   PRI0518  0.999712
    XI0518   UPBROW30898 1.000000
    XI0618   PRI0118  -0.338610   PRI0218  -0.000364
    XI0618   PRI0418  -0.000095   PRI0518  -0.001957
    XI0618   PRI0718  -0.001351   PRI0818  -0.023418
    XI0618   PRI0918  -0.010964   PRI1018  -0.001827
    XI0618   PRI1118  -0.000104   PRI1218  -0.000043
    XI0618   PRI1318  -0.000035   PRI1418  -0.045191
    XI0618   PRI1618  -0.000156   PRI1718  -0.022673
    XI0618   PRI1818  -0.003482   PRI1918  -0.002165
    XI0618   PRI2018  -0.103173   PRI0618  0.805874
    XI0618   UPBROW30899 1.000000
    XI0718   PRI0118  -0.048259   PRI0218  -0.000457
    XI0718   PRI0418  -0.000016   PRI0518  -0.001778
    XI0718   PRI0618  -0.001599   PRI0818  -0.009560
    XI0718   PRI0918  -0.076794   PRI1018  -0.001109
    XI0718   PRI1218  -0.000049   PRI1318  -0.000131
    XI0718   PRI1418  -0.019790   PRI1618  -0.000294
    XI0718   PRI1718  -0.011926   PRI1818  -0.006249
    XI0718   PRI1918  -0.001468   PRI2018  -0.084706
    XI0718   PRI0718  0.576973   UPBROW30900 1.000000
    XI0818   PRI0218  -0.003618   PRI0418  -0.003519
    XI0818   PRI0518  -0.005942   PRI0618  -0.009694
    XI0818   PRI0718  -0.011055   PRI0918  -0.062610
    XI0818   PRI1018  -0.005876   PRI1118  -0.001261
    XI0818   PRI1218  -0.001029   PRI1418  -0.094579
    XI0818   PRI1618  -0.000166   PRI1718  -0.032334
    XI0818   PRI1818  -0.011055   PRI1918  -0.006805
    XI0818   PRI2018  -0.103575   PRI0818  0.725027
    XI0818   UPBROW30901 1.000000
    XI0918   PRI0118  -0.001411   PRI0218  -0.002540
    XI0918   PRI0318  -0.001129   PRI0418  -0.014856
    XI0918   PRI0518  -0.005063   PRI0618  -0.007818
    XI0918   PRI0718  -0.024948   PRI0818  -0.024632
    XI0918   PRI1018  -0.037944   PRI1118  -0.004365
    XI0918   PRI1218  -0.007752   PRI1318  -0.002523
    XI0918   PRI1418  -0.047572   PRI1618  -0.000398
    XI0918   PRI1718  -0.019537   PRI1818  -0.013843
    XI0918   PRI1918  -0.008449   PRI2018  -0.115642
    XI0918   PRI0918  0.733625   UPBROW30902 1.000000
    XI1018   PRI0218  -0.000367   PRI0318  -0.460145
    XI1018   PRI0418  -0.002047   PRI0518  -0.011090
    XI1018   PRI0618  -0.001619   PRI0718  -0.000092
    XI1018   PRI0818  -0.006019   PRI0918  -0.023770
    XI1018   PRI1118  -0.000244   PRI1218  -0.001466
    XI1018   PRI1318  -0.000092   PRI1418  -0.013015
    XI1018   PRI1618  -0.000031   PRI1718  -0.035563
    XI1018   PRI1818  -0.005622   PRI1918  -0.010815
    XI1018   PRI2018  -0.076136   PRI1018  0.937888
    XI1018   UPBROW30903 1.000000
    XI1118   PRI0218  -0.026280   PRI0418  -0.047844
    XI1118   PRI0518  -0.009677   PRI0618  -0.000027
    XI1118   PRI0718  -0.000782   PRI0818  -0.001078
    XI1118   PRI0918  -0.016038   PRI1018  -0.004232
    XI1118   PRI1218  -0.033531   PRI1318  -0.005202
    XI1118   PRI1418  -0.070863   PRI1618  -0.000243
    XI1118   PRI1718  -0.042965   PRI1818  -0.018113
    XI1118   PRI1918  -0.015040   PRI2018  -0.122480
    XI1118   PRI1118  0.800189   UPBROW30904 1.000000
    XI1218   PRI0218  -0.000753   PRI0418  -0.067166
    XI1218   PRI0518  -0.003464   PRI0618  -0.000678
    XI1218   PRI0718  -0.001129   PRI0818  -0.002000
    XI1218   PRI0918  -0.022401   PRI1018  -0.002635
    XI1218   PRI1118  -0.016904   PRI1318  -0.002598
    XI1218   PRI1418  -0.053311   PRI1618  -0.000301
    XI1218   PRI1718  -0.022326   PRI1818  -0.017206
    XI1218   PRI1918  -0.008772   PRI2018  -0.134483
    XI1218   PRI1218  0.606604   UPBROW30905 1.000000
    XI1318   PRI0218  -0.000355   PRI0518  -0.002449
    XI1318   PRI0718  -0.016934   PRI0818  -0.002466
    XI1318   PRI0918  -0.023804   PRI1018  -0.002215
    XI1318   PRI1118  -0.064066   PRI1218  -0.023891
    XI1318   PRI1418  -0.173612   PRI1618  -0.001402
    XI1318   PRI1718  -0.014122   PRI1818  -0.003989
    XI1318   PRI1918  -0.001194   PRI2018  -0.092301
    XI1318   PRI1318  0.724759   UPBROW30906 1.000000
    XI1418   PRI0118  -0.015773   PRI0218  -0.000483
    XI1418   PRI0418  -0.003674   PRI0518  -0.003179
    XI1418   PRI0618  -0.003954   PRI0718  -0.006703
    XI1418   PRI0818  -0.028331   PRI0918  -0.038343
    XI1418   PRI1018  -0.003297   PRI1118  -0.059222
    XI1418   PRI1218  -0.031024   PRI1318  -0.013418
    XI1418   PRI1518  -0.000006   PRI1618  0.000047
    XI1418   PRI1718  -0.013645   PRI1818  -0.005793
    XI1418   PRI1918  -0.003029   PRI2018  -0.122929
    XI1418   PRI1418  0.780186   UPBROW30907 1.000000
    XI1518   PRI0518  -0.001300   PRI0718  -0.001300
    XI1518   PRI0818  -0.000557   PRI0918  -0.008174
    XI1518   PRI1018  -0.018020   PRI1118  -0.000743
    XI1518   PRI1318  -0.002601   PRI1418  -0.012447
    XI1518   PRI1718  -0.011704   PRI1818  -0.003901
    XI1518   PRI1918  -0.000557   PRI2018  -0.309493
    XI1518   PRI1518  0.997771   UPBROW30908 1.000000
    XI1618   PRI0118  -0.000838   PRI0218  -0.000076
    XI1618   PRI0518  -0.001523   PRI0618  -0.022011
    XI1618   PRI0718  -0.001142   PRI0818  -0.001523
    XI1618   PRI0918  -0.002818   PRI1018  -0.052171
    XI1618   PRI1118  -0.000076   PRI1318  -0.035187
    XI1618   PRI1418  -0.007007   PRI1718  -0.032216
    XI1618   PRI1818  -0.001219   PRI1918  -0.000533
    XI1618   PRI2018  -0.171516   PRI1618  0.949886
    XI1618   UPBROW30909 1.000000
    XI1718   PRI0118  -0.001548   PRI0218  -0.000178
    XI1718   PRI0318  -0.000783   PRI0418  -0.000036
    XI1718   PRI0518  -0.017634   PRI0618  -0.000160
    XI1718   PRI0718  -0.003221   PRI0818  -0.001940
    XI1718   PRI0918  -0.007918   PRI1018  -0.030196
    XI1718   PRI1118  -0.003577   PRI1218  -0.001424
    XI1718   PRI1318  -0.013577   PRI1418  -0.011869
    XI1718   PRI1518  -0.000819   PRI1618  -0.001032
    XI1718   PRI1818  -0.003915   PRI1918  -0.000890
    XI1718   PRI2018  -0.166071   PRI1718  0.878788
    XI1718   UPBROW30910 1.000000
    XI1818   PRI0218  -0.059245   PRI0418  -0.000062
    XI1818   PRI0518  -0.041988   PRI0618  -0.000123
    XI1818   PRI0718  -0.000584   PRI0818  -0.001784
    XI1818   PRI0918  -0.003722   PRI1018  -0.014704
    XI1818   PRI1118  -0.001015   PRI1218  -0.000615
    XI1818   PRI1318  -0.000277   PRI1418  -0.007536
    XI1818   PRI1618  -0.000031   PRI1718  -0.028884
    XI1818   PRI1918  -0.041189   PRI2018  -0.054785
    XI1818   PRI1818  0.878803   UPBROW30911 1.000000
    XI1918   PRI0218  -0.000234   PRI0318  -0.183070
    XI1918   PRI0518  -0.014421   PRI0718  -0.000281
    XI1918   PRI0818  -0.000468   PRI0918  -0.000047
    XI1918   PRI1018  -0.000702   PRI1118  -0.001077
    XI1918   PRI1418  -0.000094   PRI1718  -0.000187
    XI1918   PRI1818  -0.002201   PRI2018  -0.049724
    XI1918   PRI1918  0.660127   UPBROW30912 1.000000
    XI2018   PRI0118  -0.005020   PRI0218  -0.000102
    XI2018   PRI0318  -0.000184   PRI0418  -0.000054
    XI2018   PRI0518  -0.012360   PRI0618  -0.008987
    XI2018   PRI0718  -0.001156   PRI0818  -0.004593
    XI2018   PRI0918  -0.005133   PRI1018  -0.004367
    XI2018   PRI1118  -0.000564   PRI1218  -0.000503
    XI2018   PRI1318  -0.004285   PRI1418  -0.043513
    XI2018   PRI1518  -0.000877   PRI1618  -0.006966
    XI2018   PRI1718  -0.006210   PRI1818  -0.008192
    XI2018   PRI1918  -0.002209   PRI2018  0.817877
    XI2018   UPBROW30913 1.000000
    YI0118   PRI0118  -1.000000   REVENUE  -7.000000
    YI0118   UPBROW31033 1.000000
    YI0218   PRI0218  -1.000000   REVENUE  -4.000000
    YI0218   UPBROW31034 1.000000
    YI0318   PRI0318  -1.000000   REVENUE  -3.000000
    YI0318   UPBROW31035 1.000000
    SI0118   PRI0119  1.000000   PRI0118  -1.000000
    SI0118   UPBROW31473 1.000000
    SI0218   PRI0219  1.000000   PRI0218  -1.000000
    SI0218   UPBROW31474 1.000000
    SI0318   PRI0319  1.000000   PRI0318  -1.000000
    SI0318   UPBROW31475 1.000000
    SI0418   PRI0419  1.000000   PRI0418  -1.000000
    SI0418   UPBROW31337 1.000000
    SI0518   PRI0519  1.000000   PRI0518  -1.000000
    SI0518   UPBROW31338 1.000000
    SI0618   PRI0619  1.000000   PRI0618  -1.000000
    SI0618   UPBROW31339 1.000000
    SI0718   PRI0719  1.000000   PRI0718  -1.000000
    SI0718   UPBROW31340 1.000000
    SI0818   PRI0819  1.000000   PRI0818  -1.000000
    SI0818   UPBROW31341 1.000000
    SI0918   PRI0919  1.000000   PRI0918  -1.000000
    SI0918   UPBROW31342 1.000000
    SI1018   PRI1019  1.000000   PRI1018  -1.000000
    SI1018   UPBROW31343 1.000000
    SI1118   PRI1119  1.000000   PRI1118  -1.000000
    SI1118   UPBROW31344 1.000000
    SI1218   PRI1219  1.000000   PRI1218  -1.000000
    SI1218   UPBROW31345 1.000000
    SI1318   PRI1319  1.000000   PRI1318  -1.000000
    SI1318   UPBROW31346 1.000000
    SI1418   PRI1419  1.000000   PRI1418  -1.000000
    SI1418   UPBROW31347 1.000000
    SI1518   PRI1519  1.000000   PRI1518  -1.000000
    SI1518   UPBROW31348 1.000000
    SI1618   PRI1619  1.000000   PRI1618  -1.000000
    SI1618   UPBROW31349 1.000000
    SI1718   PRI1719  1.000000   PRI1718  -1.000000
    SI1718   UPBROW31350 1.000000
    SI1818   PRI1819  1.000000   PRI1818  -1.000000
    SI1818   UPBROW31351 1.000000
    SI1918   PRI1919  1.000000   PRI1918  -1.000000
    SI1918   UPBROW31352 1.000000
    SI2018   PRI2019  1.000000   PRI2018  -1.000000
    SI2018   UPBROW31353 1.000000
    XI0119   PRI0219  -0.000066   PRI0419  -0.001575
    XI0119   PRI0519  -0.006836   PRI0619  -0.068339
    XI0119   PRI0719  -0.003500   PRI0819  -0.000372
    XI0119   PRI0919  -0.034585   PRI1019  -0.014700
    XI0119   PRI1219  -0.000033   PRI1319  -0.001006
    XI0119   PRI1419  -0.014208   PRI1619  -0.000087
    XI0119   PRI1719  -0.014689   PRI1819  -0.002100
    XI0119   PRI1919  -0.000219   PRI2019  -0.115197
    XI0119   PRI0119  0.690602
    XI0219   PRI0319  -0.000539   PRI0419  -0.001077
    XI0219   PRI0519  -0.007542   PRI0719  -0.006285
    XI0219   PRI0819  -0.000180   PRI0919  -0.029808
    XI0219   PRI1019  -0.012390   PRI1119  -0.013647
    XI0219   PRI1219  -0.003053   PRI1319  -0.000180
    XI0219   PRI1419  -0.070569   PRI1619  -0.000180
    XI0219   PRI1719  -0.008978   PRI1819  -0.027114
    XI0219   PRI1919  -0.000180   PRI2019  -0.142754
    XI0219   PRI0219  0.840546
    XI0319   PRI0519  -0.026987   PRI0719  -0.000345
    XI0319   PRI0819  -0.000058   PRI0919  -0.012889
    XI0319   PRI1019  -0.002071   PRI1119  -0.006790
    XI0319   PRI1419  -0.037459   PRI1619  -0.000230
    XI0319   PRI1719  -0.002877   PRI1819  -0.008401
    XI0319   PRI1919  -0.003050   PRI2019  -0.173370
    XI0319   PRI0319  0.972380
    XI0419   PRI0219  -0.001637   PRI0519  -0.013370
    XI0419   PRI0719  -0.003820   PRI0819  -0.005866
    XI0419   PRI0919  -0.050205   PRI1019  -0.018417
    XI0419   PRI1119  -0.030559   PRI1219  -0.002319
    XI0419   PRI1319  -0.002183   PRI1419  -0.084584
    XI0419   PRI1719  -0.010914   PRI1819  -0.037108
    XI0419   PRI1919  -0.009277   PRI2019  -0.159209
    XI0419   PRI0419  0.869577   UPBROW30914 1.000000
    XI0519   PRI0119  -0.002640   PRI0419  -0.008734
    XI0519   PRI0719  -0.003525   PRI0819  -0.003571
    XI0519   PRI0919  -0.011118   PRI1019  -0.019406
    XI0519   PRI1119  -0.016864   PRI1219  -0.027170
    XI0519   PRI1319  -0.000059   PRI1419  -0.298211
    XI0519   PRI1619  -0.000524   PRI1719  -0.029686
    XI0519   PRI1819  -0.000563   PRI1919  -0.000124
    XI0519   PRI2019  -0.207253   PRI0519  0.999712
    XI0519   UPBROW30915 1.000000
    XI0619   PRI0119  -0.338610   PRI0219  -0.000364
    XI0619   PRI0419  -0.000095   PRI0519  -0.001957
    XI0619   PRI0719  -0.001351   PRI0819  -0.023418
    XI0619   PRI0919  -0.010964   PRI1019  -0.001827
    XI0619   PRI1119  -0.000104   PRI1219  -0.000043
    XI0619   PRI1319  -0.000035   PRI1419  -0.045191
    XI0619   PRI1619  -0.000156   PRI1719  -0.022673
    XI0619   PRI1819  -0.003482   PRI1919  -0.002165
    XI0619   PRI2019  -0.103173   PRI0619  0.805874
    XI0619   UPBROW30916 1.000000
    XI0719   PRI0119  -0.048259   PRI0219  -0.000457
    XI0719   PRI0419  -0.000016   PRI0519  -0.001778
    XI0719   PRI0619  -0.001599   PRI0819  -0.009560
    XI0719   PRI0919  -0.076794   PRI1019  -0.001109
    XI0719   PRI1219  -0.000049   PRI1319  -0.000131
    XI0719   PRI1419  -0.019790   PRI1619  -0.000294
    XI0719   PRI1719  -0.011926   PRI1819  -0.006249
    XI0719   PRI1919  -0.001468   PRI2019  -0.084706
    XI0719   PRI0719  0.576973   UPBROW30917 1.000000
    XI0819   PRI0219  -0.003618   PRI0419  -0.003519
    XI0819   PRI0519  -0.005942   PRI0619  -0.009694
    XI0819   PRI0719  -0.011055   PRI0919  -0.062610
    XI0819   PRI1019  -0.005876   PRI1119  -0.001261
    XI0819   PRI1219  -0.001029   PRI1419  -0.094579
    XI0819   PRI1619  -0.000166   PRI1719  -0.032334
    XI0819   PRI1819  -0.011055   PRI1919  -0.006805
    XI0819   PRI2019  -0.103575   PRI0819  0.725027
    XI0819   UPBROW30918 1.000000
    XI0919   PRI0119  -0.001411   PRI0219  -0.002540
    XI0919   PRI0319  -0.001129   PRI0419  -0.014856
    XI0919   PRI0519  -0.005063   PRI0619  -0.007818
    XI0919   PRI0719  -0.024948   PRI0819  -0.024632
    XI0919   PRI1019  -0.037944   PRI1119  -0.004365
    XI0919   PRI1219  -0.007752   PRI1319  -0.002523
    XI0919   PRI1419  -0.047572   PRI1619  -0.000398
    XI0919   PRI1719  -0.019537   PRI1819  -0.013843
    XI0919   PRI1919  -0.008449   PRI2019  -0.115642
    XI0919   PRI0919  0.733625   UPBROW30919 1.000000
    XI1019   PRI0219  -0.000367   PRI0319  -0.460145
    XI1019   PRI0419  -0.002047   PRI0519  -0.011090
    XI1019   PRI0619  -0.001619   PRI0719  -0.000092
    XI1019   PRI0819  -0.006019   PRI0919  -0.023770
    XI1019   PRI1119  -0.000244   PRI1219  -0.001466
    XI1019   PRI1319  -0.000092   PRI1419  -0.013015
    XI1019   PRI1619  -0.000031   PRI1719  -0.035563
    XI1019   PRI1819  -0.005622   PRI1919  -0.010815
    XI1019   PRI2019  -0.076136   PRI1019  0.937888
    XI1019   UPBROW30920 1.000000
    XI1119   PRI0219  -0.026280   PRI0419  -0.047844
    XI1119   PRI0519  -0.009677   PRI0619  -0.000027
    XI1119   PRI0719  -0.000782   PRI0819  -0.001078
    XI1119   PRI0919  -0.016038   PRI1019  -0.004232
    XI1119   PRI1219  -0.033531   PRI1319  -0.005202
    XI1119   PRI1419  -0.070863   PRI1619  -0.000243
    XI1119   PRI1719  -0.042965   PRI1819  -0.018113
    XI1119   PRI1919  -0.015040   PRI2019  -0.122480
    XI1119   PRI1119  0.800189   UPBROW30921 1.000000
    XI1219   PRI0219  -0.000753   PRI0419  -0.067166
    XI1219   PRI0519  -0.003464   PRI0619  -0.000678
    XI1219   PRI0719  -0.001129   PRI0819  -0.002000
    XI1219   PRI0919  -0.022401   PRI1019  -0.002635
    XI1219   PRI1119  -0.016904   PRI1319  -0.002598
    XI1219   PRI1419  -0.053311   PRI1619  -0.000301
    XI1219   PRI1719  -0.022326   PRI1819  -0.017206
    XI1219   PRI1919  -0.008772   PRI2019  -0.134483
    XI1219   PRI1219  0.606604   UPBROW30922 1.000000
    XI1319   PRI0219  -0.000355   PRI0519  -0.002449
    XI1319   PRI0719  -0.016934   PRI0819  -0.002466
    XI1319   PRI0919  -0.023804   PRI1019  -0.002215
    XI1319   PRI1119  -0.064066   PRI1219  -0.023891
    XI1319   PRI1419  -0.173612   PRI1619  -0.001402
    XI1319   PRI1719  -0.014122   PRI1819  -0.003989
    XI1319   PRI1919  -0.001194   PRI2019  -0.092301
    XI1319   PRI1319  0.724759   UPBROW30923 1.000000
    XI1419   PRI0119  -0.015773   PRI0219  -0.000483
    XI1419   PRI0419  -0.003674   PRI0519  -0.003179
    XI1419   PRI0619  -0.003954   PRI0719  -0.006703
    XI1419   PRI0819  -0.028331   PRI0919  -0.038343
    XI1419   PRI1019  -0.003297   PRI1119  -0.059222
    XI1419   PRI1219  -0.031024   PRI1319  -0.013418
    XI1419   PRI1519  -0.000006   PRI1619  0.000047
    XI1419   PRI1719  -0.013645   PRI1819  -0.005793
    XI1419   PRI1919  -0.003029   PRI2019  -0.122929
    XI1419   PRI1419  0.780186   UPBROW30924 1.000000
    XI1519   PRI0519  -0.001300   PRI0719  -0.001300
    XI1519   PRI0819  -0.000557   PRI0919  -0.008174
    XI1519   PRI1019  -0.018020   PRI1119  -0.000743
    XI1519   PRI1319  -0.002601   PRI1419  -0.012447
    XI1519   PRI1719  -0.011704   PRI1819  -0.003901
    XI1519   PRI1919  -0.000557   PRI2019  -0.309493
    XI1519   PRI1519  0.997771   UPBROW30925 1.000000
    XI1619   PRI0119  -0.000838   PRI0219  -0.000076
    XI1619   PRI0519  -0.001523   PRI0619  -0.022011
    XI1619   PRI0719  -0.001142   PRI0819  -0.001523
    XI1619   PRI0919  -0.002818   PRI1019  -0.052171
    XI1619   PRI1119  -0.000076   PRI1319  -0.035187
    XI1619   PRI1419  -0.007007   PRI1719  -0.032216
    XI1619   PRI1819  -0.001219   PRI1919  -0.000533
    XI1619   PRI2019  -0.171516   PRI1619  0.949886
    XI1619   UPBROW30926 1.000000
    XI1719   PRI0119  -0.001548   PRI0219  -0.000178
    XI1719   PRI0319  -0.000783   PRI0419  -0.000036
    XI1719   PRI0519  -0.017634   PRI0619  -0.000160
    XI1719   PRI0719  -0.003221   PRI0819  -0.001940
    XI1719   PRI0919  -0.007918   PRI1019  -0.030196
    XI1719   PRI1119  -0.003577   PRI1219  -0.001424
    XI1719   PRI1319  -0.013577   PRI1419  -0.011869
    XI1719   PRI1519  -0.000819   PRI1619  -0.001032
    XI1719   PRI1819  -0.003915   PRI1919  -0.000890
    XI1719   PRI2019  -0.166071   PRI1719  0.878788
    XI1719   UPBROW30927 1.000000
    XI1819   PRI0219  -0.059245   PRI0419  -0.000062
    XI1819   PRI0519  -0.041988   PRI0619  -0.000123
    XI1819   PRI0719  -0.000584   PRI0819  -0.001784
    XI1819   PRI0919  -0.003722   PRI1019  -0.014704
    XI1819   PRI1119  -0.001015   PRI1219  -0.000615
    XI1819   PRI1319  -0.000277   PRI1419  -0.007536
    XI1819   PRI1619  -0.000031   PRI1719  -0.028884
    XI1819   PRI1919  -0.041189   PRI2019  -0.054785
    XI1819   PRI1819  0.878803   UPBROW30928 1.000000
    XI1919   PRI0219  -0.000234   PRI0319  -0.183070
    XI1919   PRI0519  -0.014421   PRI0719  -0.000281
    XI1919   PRI0819  -0.000468   PRI0919  -0.000047
    XI1919   PRI1019  -0.000702   PRI1119  -0.001077
    XI1919   PRI1419  -0.000094   PRI1719  -0.000187
    XI1919   PRI1819  -0.002201   PRI2019  -0.049724
    XI1919   PRI1919  0.660127   UPBROW30929 1.000000
    XI2019   PRI0119  -0.005020   PRI0219  -0.000102
    XI2019   PRI0319  -0.000184   PRI0419  -0.000054
    XI2019   PRI0519  -0.012360   PRI0619  -0.008987
    XI2019   PRI0719  -0.001156   PRI0819  -0.004593
    XI2019   PRI0919  -0.005133   PRI1019  -0.004367
    XI2019   PRI1119  -0.000564   PRI1219  -0.000503
    XI2019   PRI1319  -0.004285   PRI1419  -0.043513
    XI2019   PRI1519  -0.000877   PRI1619  -0.006966
    XI2019   PRI1719  -0.006210   PRI1819  -0.008192
    XI2019   PRI1919  -0.002209   PRI2019  0.817877
    XI2019   UPBROW30930 1.000000
    YI0119   PRI0119  -1.000000   REVENUE  -1.000000
    YI0119   UPBROW31036 1.000000
    YI0219   PRI0219  -1.000000   REVENUE  -7.000000
    YI0219   UPBROW31037 1.000000
    YI0319   PRI0319  -1.000000   REVENUE  -1.000000
    YI0319   UPBROW31038 1.000000
    SI0119   PRI0120  1.000000   PRI0119  -1.000000
    SI0119   UPBROW31476 1.000000
    SI0219   PRI0220  1.000000   PRI0219  -1.000000
    SI0219   UPBROW31477 1.000000
    SI0319   PRI0320  1.000000   PRI0319  -1.000000
    SI0319   UPBROW31478 1.000000
    SI0419   PRI0420  1.000000   PRI0419  -1.000000
    SI0419   UPBROW31354 1.000000
    SI0519   PRI0520  1.000000   PRI0519  -1.000000
    SI0519   UPBROW31355 1.000000
    SI0619   PRI0620  1.000000   PRI0619  -1.000000
    SI0619   UPBROW31356 1.000000
    SI0719   PRI0720  1.000000   PRI0719  -1.000000
    SI0719   UPBROW31357 1.000000
    SI0819   PRI0820  1.000000   PRI0819  -1.000000
    SI0819   UPBROW31358 1.000000
    SI0919   PRI0920  1.000000   PRI0919  -1.000000
    SI0919   UPBROW31359 1.000000
    SI1019   PRI1020  1.000000   PRI1019  -1.000000
    SI1019   UPBROW31360 1.000000
    SI1119   PRI1120  1.000000   PRI1119  -1.000000
    SI1119   UPBROW31361 1.000000
    SI1219   PRI1220  1.000000   PRI1219  -1.000000
    SI1219   UPBROW31362 1.000000
    SI1319   PRI1320  1.000000   PRI1319  -1.000000
    SI1319   UPBROW31363 1.000000
    SI1419   PRI1420  1.000000   PRI1419  -1.000000
    SI1419   UPBROW31364 1.000000
    SI1519   PRI1520  1.000000   PRI1519  -1.000000
    SI1519   UPBROW31365 1.000000
    SI1619   PRI1620  1.000000   PRI1619  -1.000000
    SI1619   UPBROW31366 1.000000
    SI1719   PRI1720  1.000000   PRI1719  -1.000000
    SI1719   UPBROW31367 1.000000
    SI1819   PRI1820  1.000000   PRI1819  -1.000000
    SI1819   UPBROW31368 1.000000
    SI1919   PRI1920  1.000000   PRI1919  -1.000000
    SI1919   UPBROW31369 1.000000
    SI2019   PRI2020  1.000000   PRI2019  -1.000000
    SI2019   UPBROW31370 1.000000
    XI0120   PRI0220  -0.000066   PRI0420  -0.001575
    XI0120   PRI0520  -0.006836   PRI0620  -0.068339
    XI0120   PRI0720  -0.003500   PRI0820  -0.000372
    XI0120   PRI0920  -0.034585   PRI1020  -0.014700
    XI0120   PRI1220  -0.000033   PRI1320  -0.001006
    XI0120   PRI1420  -0.014208   PRI1620  -0.000087
    XI0120   PRI1720  -0.014689   PRI1820  -0.002100
    XI0120   PRI1920  -0.000219   PRI2020  -0.115197
    XI0120   PRI0120  0.690602
    XI0220   PRI0320  -0.000539   PRI0420  -0.001077
    XI0220   PRI0520  -0.007542   PRI0720  -0.006285
    XI0220   PRI0820  -0.000180   PRI0920  -0.029808
    XI0220   PRI1020  -0.012390   PRI1120  -0.013647
    XI0220   PRI1220  -0.003053   PRI1320  -0.000180
    XI0220   PRI1420  -0.070569   PRI1620  -0.000180
    XI0220   PRI1720  -0.008978   PRI1820  -0.027114
    XI0220   PRI1920  -0.000180   PRI2020  -0.142754
    XI0220   PRI0220  0.840546
    XI0320   PRI0520  -0.026987   PRI0720  -0.000345
    XI0320   PRI0820  -0.000058   PRI0920  -0.012889
    XI0320   PRI1020  -0.002071   PRI1120  -0.006790
    XI0320   PRI1420  -0.037459   PRI1620  -0.000230
    XI0320   PRI1720  -0.002877   PRI1820  -0.008401
    XI0320   PRI1920  -0.003050   PRI2020  -0.173370
    XI0320   PRI0320  0.972380
    XI0420   PRI0220  -0.001637   PRI0520  -0.013370
    XI0420   PRI0720  -0.003820   PRI0820  -0.005866
    XI0420   PRI0920  -0.050205   PRI1020  -0.018417
    XI0420   PRI1120  -0.030559   PRI1220  -0.002319
    XI0420   PRI1320  -0.002183   PRI1420  -0.084584
    XI0420   PRI1720  -0.010914   PRI1820  -0.037108
    XI0420   PRI1920  -0.009277   PRI2020  -0.159209
    XI0420   PRI0420  0.869577   UPBROW30931 1.000000
    XI0520   PRI0120  -0.002640   PRI0420  -0.008734
    XI0520   PRI0720  -0.003525   PRI0820  -0.003571
    XI0520   PRI0920  -0.011118   PRI1020  -0.019406
    XI0520   PRI1120  -0.016864   PRI1220  -0.027170
    XI0520   PRI1320  -0.000059   PRI1420  -0.298211
    XI0520   PRI1620  -0.000524   PRI1720  -0.029686
    XI0520   PRI1820  -0.000563   PRI1920  -0.000124
    XI0520   PRI2020  -0.207253   PRI0520  0.999712
    XI0520   UPBROW30932 1.000000
    XI0620   PRI0120  -0.338610   PRI0220  -0.000364
    XI0620   PRI0420  -0.000095   PRI0520  -0.001957
    XI0620   PRI0720  -0.001351   PRI0820  -0.023418
    XI0620   PRI0920  -0.010964   PRI1020  -0.001827
    XI0620   PRI1120  -0.000104   PRI1220  -0.000043
    XI0620   PRI1320  -0.000035   PRI1420  -0.045191
    XI0620   PRI1620  -0.000156   PRI1720  -0.022673
    XI0620   PRI1820  -0.003482   PRI1920  -0.002165
    XI0620   PRI2020  -0.103173   PRI0620  0.805874
    XI0620   UPBROW30933 1.000000
    XI0720   PRI0120  -0.048259   PRI0220  -0.000457
    XI0720   PRI0420  -0.000016   PRI0520  -0.001778
    XI0720   PRI0620  -0.001599   PRI0820  -0.009560
    XI0720   PRI0920  -0.076794   PRI1020  -0.001109
    XI0720   PRI1220  -0.000049   PRI1320  -0.000131
    XI0720   PRI1420  -0.019790   PRI1620  -0.000294
    XI0720   PRI1720  -0.011926   PRI1820  -0.006249
    XI0720   PRI1920  -0.001468   PRI2020  -0.084706
    XI0720   PRI0720  0.576973   UPBROW30934 1.000000
    XI0820   PRI0220  -0.003618   PRI0420  -0.003519
    XI0820   PRI0520  -0.005942   PRI0620  -0.009694
    XI0820   PRI0720  -0.011055   PRI0920  -0.062610
    XI0820   PRI1020  -0.005876   PRI1120  -0.001261
    XI0820   PRI1220  -0.001029   PRI1420  -0.094579
    XI0820   PRI1620  -0.000166   PRI1720  -0.032334
    XI0820   PRI1820  -0.011055   PRI1920  -0.006805
    XI0820   PRI2020  -0.103575   PRI0820  0.725027
    XI0820   UPBROW30935 1.000000
    XI0920   PRI0120  -0.001411   PRI0220  -0.002540
    XI0920   PRI0320  -0.001129   PRI0420  -0.014856
    XI0920   PRI0520  -0.005063   PRI0620  -0.007818
    XI0920   PRI0720  -0.024948   PRI0820  -0.024632
    XI0920   PRI1020  -0.037944   PRI1120  -0.004365
    XI0920   PRI1220  -0.007752   PRI1320  -0.002523
    XI0920   PRI1420  -0.047572   PRI1620  -0.000398
    XI0920   PRI1720  -0.019537   PRI1820  -0.013843
    XI0920   PRI1920  -0.008449   PRI2020  -0.115642
    XI0920   PRI0920  0.733625   UPBROW30936 1.000000
    XI1020   PRI0220  -0.000367   PRI0320  -0.460145
    XI1020   PRI0420  -0.002047   PRI0520  -0.011090
    XI1020   PRI0620  -0.001619   PRI0720  -0.000092
    XI1020   PRI0820  -0.006019   PRI0920  -0.023770
    XI1020   PRI1120  -0.000244   PRI1220  -0.001466
    XI1020   PRI1320  -0.000092   PRI1420  -0.013015
    XI1020   PRI1620  -0.000031   PRI1720  -0.035563
    XI1020   PRI1820  -0.005622   PRI1920  -0.010815
    XI1020   PRI2020  -0.076136   PRI1020  0.937888
    XI1020   UPBROW30937 1.000000
    XI1120   PRI0220  -0.026280   PRI0420  -0.047844
    XI1120   PRI0520  -0.009677   PRI0620  -0.000027
    XI1120   PRI0720  -0.000782   PRI0820  -0.001078
    XI1120   PRI0920  -0.016038   PRI1020  -0.004232
    XI1120   PRI1220  -0.033531   PRI1320  -0.005202
    XI1120   PRI1420  -0.070863   PRI1620  -0.000243
    XI1120   PRI1720  -0.042965   PRI1820  -0.018113
    XI1120   PRI1920  -0.015040   PRI2020  -0.122480
    XI1120   PRI1120  0.800189   UPBROW30938 1.000000
    XI1220   PRI0220  -0.000753   PRI0420  -0.067166
    XI1220   PRI0520  -0.003464   PRI0620  -0.000678
    XI1220   PRI0720  -0.001129   PRI0820  -0.002000
    XI1220   PRI0920  -0.022401   PRI1020  -0.002635
    XI1220   PRI1120  -0.016904   PRI1320  -0.002598
    XI1220   PRI1420  -0.053311   PRI1620  -0.000301
    XI1220   PRI1720  -0.022326   PRI1820  -0.017206
    XI1220   PRI1920  -0.008772   PRI2020  -0.134483
    XI1220   PRI1220  0.606604   UPBROW30939 1.000000
    XI1320   PRI0220  -0.000355   PRI0520  -0.002449
    XI1320   PRI0720  -0.016934   PRI0820  -0.002466
    XI1320   PRI0920  -0.023804   PRI1020  -0.002215
    XI1320   PRI1120  -0.064066   PRI1220  -0.023891
    XI1320   PRI1420  -0.173612   PRI1620  -0.001402
    XI1320   PRI1720  -0.014122   PRI1820  -0.003989
    XI1320   PRI1920  -0.001194   PRI2020  -0.092301
    XI1320   PRI1320  0.724759   UPBROW30940 1.000000
    XI1420   PRI0120  -0.015773   PRI0220  -0.000483
    XI1420   PRI0420  -0.003674   PRI0520  -0.003179
    XI1420   PRI0620  -0.003954   PRI0720  -0.006703
    XI1420   PRI0820  -0.028331   PRI0920  -0.038343
    XI1420   PRI1020  -0.003297   PRI1120  -0.059222
    XI1420   PRI1220  -0.031024   PRI1320  -0.013418
    XI1420   PRI1520  -0.000006   PRI1620  0.000047
    XI1420   PRI1720  -0.013645   PRI1820  -0.005793
    XI1420   PRI1920  -0.003029   PRI2020  -0.122929
    XI1420   PRI1420  0.780186   UPBROW30941 1.000000
    XI1520   PRI0520  -0.001300   PRI0720  -0.001300
    XI1520   PRI0820  -0.000557   PRI0920  -0.008174
    XI1520   PRI1020  -0.018020   PRI1120  -0.000743
    XI1520   PRI1320  -0.002601   PRI1420  -0.012447
    XI1520   PRI1720  -0.011704   PRI1820  -0.003901
    XI1520   PRI1920  -0.000557   PRI2020  -0.309493
    XI1520   PRI1520  0.997771   UPBROW30942 1.000000
    XI1620   PRI0120  -0.000838   PRI0220  -0.000076
    XI1620   PRI0520  -0.001523   PRI0620  -0.022011
    XI1620   PRI0720  -0.001142   PRI0820  -0.001523
    XI1620   PRI0920  -0.002818   PRI1020  -0.052171
    XI1620   PRI1120  -0.000076   PRI1320  -0.035187
    XI1620   PRI1420  -0.007007   PRI1720  -0.032216
    XI1620   PRI1820  -0.001219   PRI1920  -0.000533
    XI1620   PRI2020  -0.171516   PRI1620  0.949886
    XI1620   UPBROW30943 1.000000
    XI1720   PRI0120  -0.001548   PRI0220  -0.000178
    XI1720   PRI0320  -0.000783   PRI0420  -0.000036
    XI1720   PRI0520  -0.017634   PRI0620  -0.000160
    XI1720   PRI0720  -0.003221   PRI0820  -0.001940
    XI1720   PRI0920  -0.007918   PRI1020  -0.030196
    XI1720   PRI1120  -0.003577   PRI1220  -0.001424
    XI1720   PRI1320  -0.013577   PRI1420  -0.011869
    XI1720   PRI1520  -0.000819   PRI1620  -0.001032
    XI1720   PRI1820  -0.003915   PRI1920  -0.000890
    XI1720   PRI2020  -0.166071   PRI1720  0.878788
    XI1720   UPBROW30944 1.000000
    XI1820   PRI0220  -0.059245   PRI0420  -0.000062
    XI1820   PRI0520  -0.041988   PRI0620  -0.000123
    XI1820   PRI0720  -0.000584   PRI0820  -0.001784
    XI1820   PRI0920  -0.003722   PRI1020  -0.014704
    XI1820   PRI1120  -0.001015   PRI1220  -0.000615
    XI1820   PRI1320  -0.000277   PRI1420  -0.007536
    XI1820   PRI1620  -0.000031   PRI1720  -0.028884
    XI1820   PRI1920  -0.041189   PRI2020  -0.054785
    XI1820   PRI1820  0.878803   UPBROW30945 1.000000
    XI1920   PRI0220  -0.000234   PRI0320  -0.183070
    XI1920   PRI0520  -0.014421   PRI0720  -0.000281
    XI1920   PRI0820  -0.000468   PRI0920  -0.000047
    XI1920   PRI1020  -0.000702   PRI1120  -0.001077
    XI1920   PRI1420  -0.000094   PRI1720  -0.000187
    XI1920   PRI1820  -0.002201   PRI2020  -0.049724
    XI1920   PRI1920  0.660127   UPBROW30946 1.000000
    XI2020   PRI0120  -0.005020   PRI0220  -0.000102
    XI2020   PRI0320  -0.000184   PRI0420  -0.000054
    XI2020   PRI0520  -0.012360   PRI0620  -0.008987
    XI2020   PRI0720  -0.001156   PRI0820  -0.004593
    XI2020   PRI0920  -0.005133   PRI1020  -0.004367
    XI2020   PRI1120  -0.000564   PRI1220  -0.000503
    XI2020   PRI1320  -0.004285   PRI1420  -0.043513
    XI2020   PRI1520  -0.000877   PRI1620  -0.006966
    XI2020   PRI1720  -0.006210   PRI1820  -0.008192
    XI2020   PRI1920  -0.002209   PRI2020  0.817877
    XI2020   UPBROW30947 1.000000
    YI0120   PRI0120  -1.000000   REVENUE  -7.000000
    YI0120   UPBROW31039 1.000000
    YI0220   PRI0220  -1.000000   REVENUE  -4.000000
    YI0220   UPBROW31040 1.000000
    YI0320   PRI0320  -1.000000   REVENUE  -3.000000
    YI0320   UPBROW31041 1.000000
    SI0120   PRI0121  1.000000   PRI0120  -1.000000
    SI0120   UPBROW31479 1.000000
    SI0220   PRI0221  1.000000   PRI0220  -1.000000
    SI0220   UPBROW31480 1.000000
    SI0320   PRI0321  1.000000   PRI0320  -1.000000
    SI0320   UPBROW31481 1.000000
    SI0420   PRI0421  1.000000   PRI0420  -1.000000
    SI0420   UPBROW31371 1.000000
    SI0520   PRI0521  1.000000   PRI0520  -1.000000
    SI0520   UPBROW31372 1.000000
    SI0620   PRI0621  1.000000   PRI0620  -1.000000
    SI0620   UPBROW31373 1.000000
    SI0720   PRI0721  1.000000   PRI0720  -1.000000
    SI0720   UPBROW31374 1.000000
    SI0820   PRI0821  1.000000   PRI0820  -1.000000
    SI0820   UPBROW31375 1.000000
    SI0920   PRI0921  1.000000   PRI0920  -1.000000
    SI0920   UPBROW31376 1.000000
    SI1020   PRI1021  1.000000   PRI1020  -1.000000
    SI1020   UPBROW31377 1.000000
    SI1120   PRI1121  1.000000   PRI1120  -1.000000
    SI1120   UPBROW31378 1.000000
    SI1220   PRI1221  1.000000   PRI1220  -1.000000
    SI1220   UPBROW31379 1.000000
    SI1320   PRI1321  1.000000   PRI1320  -1.000000
    SI1320   UPBROW31380 1.000000
    SI1420   PRI1421  1.000000   PRI1420  -1.000000
    SI1420   UPBROW31381 1.000000
    SI1520   PRI1521  1.000000   PRI1520  -1.000000
    SI1520   UPBROW31382 1.000000
    SI1620   PRI1621  1.000000   PRI1620  -1.000000
    SI1620   UPBROW31383 1.000000
    SI1720   PRI1721  1.000000   PRI1720  -1.000000
    SI1720   UPBROW31384 1.000000
    SI1820   PRI1821  1.000000   PRI1820  -1.000000
    SI1820   UPBROW31385 1.000000
    SI1920   PRI1921  1.000000   PRI1920  -1.000000
    SI1920   UPBROW31386 1.000000
    SI2020   PRI2021  1.000000   PRI2020  -1.000000
    SI2020   UPBROW31387 1.000000
    XI0121   PRI0221  -0.000066   PRI0421  -0.001575
    XI0121   PRI0521  -0.006836   PRI0621  -0.068339
    XI0121   PRI0721  -0.003500   PRI0821  -0.000372
    XI0121   PRI0921  -0.034585   PRI1021  -0.014700
    XI0121   PRI1221  -0.000033   PRI1321  -0.001006
    XI0121   PRI1421  -0.014208   PRI1621  -0.000087
    XI0121   PRI1721  -0.014689   PRI1821  -0.002100
    XI0121   PRI1921  -0.000219   PRI2021  -0.115197
    XI0121   PRI0121  0.690602
    XI0221   PRI0321  -0.000539   PRI0421  -0.001077
    XI0221   PRI0521  -0.007542   PRI0721  -0.006285
    XI0221   PRI0821  -0.000180   PRI0921  -0.029808
    XI0221   PRI1021  -0.012390   PRI1121  -0.013647
    XI0221   PRI1221  -0.003053   PRI1321  -0.000180
    XI0221   PRI1421  -0.070569   PRI1621  -0.000180
    XI0221   PRI1721  -0.008978   PRI1821  -0.027114
    XI0221   PRI1921  -0.000180   PRI2021  -0.142754
    XI0221   PRI0221  0.840546
    XI0321   PRI0521  -0.026987   PRI0721  -0.000345
    XI0321   PRI0821  -0.000058   PRI0921  -0.012889
    XI0321   PRI1021  -0.002071   PRI1121  -0.006790
    XI0321   PRI1421  -0.037459   PRI1621  -0.000230
    XI0321   PRI1721  -0.002877   PRI1821  -0.008401
    XI0321   PRI1921  -0.003050   PRI2021  -0.173370
    XI0321   PRI0321  0.972380
    XI0421   PRI0221  -0.001637   PRI0521  -0.013370
    XI0421   PRI0721  -0.003820   PRI0821  -0.005866
    XI0421   PRI0921  -0.050205   PRI1021  -0.018417
    XI0421   PRI1121  -0.030559   PRI1221  -0.002319
    XI0421   PRI1321  -0.002183   PRI1421  -0.084584
    XI0421   PRI1721  -0.010914   PRI1821  -0.037108
    XI0421   PRI1921  -0.009277   PRI2021  -0.159209
    XI0421   PRI0421  0.869577   UPBROW30948 1.000000
    XI0521   PRI0121  -0.002640   PRI0421  -0.008734
    XI0521   PRI0721  -0.003525   PRI0821  -0.003571
    XI0521   PRI0921  -0.011118   PRI1021  -0.019406
    XI0521   PRI1121  -0.016864   PRI1221  -0.027170
    XI0521   PRI1321  -0.000059   PRI1421  -0.298211
    XI0521   PRI1621  -0.000524   PRI1721  -0.029686
    XI0521   PRI1821  -0.000563   PRI1921  -0.000124
    XI0521   PRI2021  -0.207253   PRI0521  0.999712
    XI0521   UPBROW30949 1.000000
    XI0621   PRI0121  -0.338610   PRI0221  -0.000364
    XI0621   PRI0421  -0.000095   PRI0521  -0.001957
    XI0621   PRI0721  -0.001351   PRI0821  -0.023418
    XI0621   PRI0921  -0.010964   PRI1021  -0.001827
    XI0621   PRI1121  -0.000104   PRI1221  -0.000043
    XI0621   PRI1321  -0.000035   PRI1421  -0.045191
    XI0621   PRI1621  -0.000156   PRI1721  -0.022673
    XI0621   PRI1821  -0.003482   PRI1921  -0.002165
    XI0621   PRI2021  -0.103173   PRI0621  0.805874
    XI0621   UPBROW30950 1.000000
    XI0721   PRI0121  -0.048259   PRI0221  -0.000457
    XI0721   PRI0421  -0.000016   PRI0521  -0.001778
    XI0721   PRI0621  -0.001599   PRI0821  -0.009560
    XI0721   PRI0921  -0.076794   PRI1021  -0.001109
    XI0721   PRI1221  -0.000049   PRI1321  -0.000131
    XI0721   PRI1421  -0.019790   PRI1621  -0.000294
    XI0721   PRI1721  -0.011926   PRI1821  -0.006249
    XI0721   PRI1921  -0.001468   PRI2021  -0.084706
    XI0721   PRI0721  0.576973   UPBROW30951 1.000000
    XI0821   PRI0221  -0.003618   PRI0421  -0.003519
    XI0821   PRI0521  -0.005942   PRI0621  -0.009694
    XI0821   PRI0721  -0.011055   PRI0921  -0.062610
    XI0821   PRI1021  -0.005876   PRI1121  -0.001261
    XI0821   PRI1221  -0.001029   PRI1421  -0.094579
    XI0821   PRI1621  -0.000166   PRI1721  -0.032334
    XI0821   PRI1821  -0.011055   PRI1921  -0.006805
    XI0821   PRI2021  -0.103575   PRI0821  0.725027
    XI0821   UPBROW30952 1.000000
    XI0921   PRI0121  -0.001411   PRI0221  -0.002540
    XI0921   PRI0321  -0.001129   PRI0421  -0.014856
    XI0921   PRI0521  -0.005063   PRI0621  -0.007818
    XI0921   PRI0721  -0.024948   PRI0821  -0.024632
    XI0921   PRI1021  -0.037944   PRI1121  -0.004365
    XI0921   PRI1221  -0.007752   PRI1321  -0.002523
    XI0921   PRI1421  -0.047572   PRI1621  -0.000398
    XI0921   PRI1721  -0.019537   PRI1821  -0.013843
    XI0921   PRI1921  -0.008449   PRI2021  -0.115642
    XI0921   PRI0921  0.733625   UPBROW30953 1.000000
    XI1021   PRI0221  -0.000367   PRI0321  -0.460145
    XI1021   PRI0421  -0.002047   PRI0521  -0.011090
    XI1021   PRI0621  -0.001619   PRI0721  -0.000092
    XI1021   PRI0821  -0.006019   PRI0921  -0.023770
    XI1021   PRI1121  -0.000244   PRI1221  -0.001466
    XI1021   PRI1321  -0.000092   PRI1421  -0.013015
    XI1021   PRI1621  -0.000031   PRI1721  -0.035563
    XI1021   PRI1821  -0.005622   PRI1921  -0.010815
    XI1021   PRI2021  -0.076136   PRI1021  0.937888
    XI1021   UPBROW30954 1.000000
    XI1121   PRI0221  -0.026280   PRI0421  -0.047844
    XI1121   PRI0521  -0.009677   PRI0621  -0.000027
    XI1121   PRI0721  -0.000782   PRI0821  -0.001078
    XI1121   PRI0921  -0.016038   PRI1021  -0.004232
    XI1121   PRI1221  -0.033531   PRI1321  -0.005202
    XI1121   PRI1421  -0.070863   PRI1621  -0.000243
    XI1121   PRI1721  -0.042965   PRI1821  -0.018113
    XI1121   PRI1921  -0.015040   PRI2021  -0.122480
    XI1121   PRI1121  0.800189   UPBROW30955 1.000000
    XI1221   PRI0221  -0.000753   PRI0421  -0.067166
    XI1221   PRI0521  -0.003464   PRI0621  -0.000678
    XI1221   PRI0721  -0.001129   PRI0821  -0.002000
    XI1221   PRI0921  -0.022401   PRI1021  -0.002635
    XI1221   PRI1121  -0.016904   PRI1321  -0.002598
    XI1221   PRI1421  -0.053311   PRI1621  -0.000301
    XI1221   PRI1721  -0.022326   PRI1821  -0.017206
    XI1221   PRI1921  -0.008772   PRI2021  -0.134483
    XI1221   PRI1221  0.606604   UPBROW30956 1.000000
    XI1321   PRI0221  -0.000355   PRI0521  -0.002449
    XI1321   PRI0721  -0.016934   PRI0821  -0.002466
    XI1321   PRI0921  -0.023804   PRI1021  -0.002215
    XI1321   PRI1121  -0.064066   PRI1221  -0.023891
    XI1321   PRI1421  -0.173612   PRI1621  -0.001402
    XI1321   PRI1721  -0.014122   PRI1821  -0.003989
    XI1321   PRI1921  -0.001194   PRI2021  -0.092301
    XI1321   PRI1321  0.724759   UPBROW30957 1.000000
    XI1421   PRI0121  -0.015773   PRI0221  -0.000483
    XI1421   PRI0421  -0.003674   PRI0521  -0.003179
    XI1421   PRI0621  -0.003954   PRI0721  -0.006703
    XI1421   PRI0821  -0.028331   PRI0921  -0.038343
    XI1421   PRI1021  -0.003297   PRI1121  -0.059222
    XI1421   PRI1221  -0.031024   PRI1321  -0.013418
    XI1421   PRI1521  -0.000006   PRI1621  0.000047
    XI1421   PRI1721  -0.013645   PRI1821  -0.005793
    XI1421   PRI1921  -0.003029   PRI2021  -0.122929
    XI1421   PRI1421  0.780186   UPBROW30958 1.000000
    XI1521   PRI0521  -0.001300   PRI0721  -0.001300
    XI1521   PRI0821  -0.000557   PRI0921  -0.008174
    XI1521   PRI1021  -0.018020   PRI1121  -0.000743
    XI1521   PRI1321  -0.002601   PRI1421  -0.012447
    XI1521   PRI1721  -0.011704   PRI1821  -0.003901
    XI1521   PRI1921  -0.000557   PRI2021  -0.309493
    XI1521   PRI1521  0.997771   UPBROW30959 1.000000
    XI1621   PRI0121  -0.000838   PRI0221  -0.000076
    XI1621   PRI0521  -0.001523   PRI0621  -0.022011
    XI1621   PRI0721  -0.001142   PRI0821  -0.001523
    XI1621   PRI0921  -0.002818   PRI1021  -0.052171
    XI1621   PRI1121  -0.000076   PRI1321  -0.035187
    XI1621   PRI1421  -0.007007   PRI1721  -0.032216
    XI1621   PRI1821  -0.001219   PRI1921  -0.000533
    XI1621   PRI2021  -0.171516   PRI1621  0.949886
    XI1621   UPBROW30960 1.000000
    XI1721   PRI0121  -0.001548   PRI0221  -0.000178
    XI1721   PRI0321  -0.000783   PRI0421  -0.000036
    XI1721   PRI0521  -0.017634   PRI0621  -0.000160
    XI1721   PRI0721  -0.003221   PRI0821  -0.001940
    XI1721   PRI0921  -0.007918   PRI1021  -0.030196
    XI1721   PRI1121  -0.003577   PRI1221  -0.001424
    XI1721   PRI1321  -0.013577   PRI1421  -0.011869
    XI1721   PRI1521  -0.000819   PRI1621  -0.001032
    XI1721   PRI1821  -0.003915   PRI1921  -0.000890
    XI1721   PRI2021  -0.166071   PRI1721  0.878788
    XI1721   UPBROW30961 1.000000
    XI1821   PRI0221  -0.059245   PRI0421  -0.000062
    XI1821   PRI0521  -0.041988   PRI0621  -0.000123
    XI1821   PRI0721  -0.000584   PRI0821  -0.001784
    XI1821   PRI0921  -0.003722   PRI1021  -0.014704
    XI1821   PRI1121  -0.001015   PRI1221  -0.000615
    XI1821   PRI1321  -0.000277   PRI1421  -0.007536
    XI1821   PRI1621  -0.000031   PRI1721  -0.028884
    XI1821   PRI1921  -0.041189   PRI2021  -0.054785
    XI1821   PRI1821  0.878803   UPBROW30962 1.000000
    XI1921   PRI0221  -0.000234   PRI0321  -0.183070
    XI1921   PRI0521  -0.014421   PRI0721  -0.000281
    XI1921   PRI0821  -0.000468   PRI0921  -0.000047
    XI1921   PRI1021  -0.000702   PRI1121  -0.001077
    XI1921   PRI1421  -0.000094   PRI1721  -0.000187
    XI1921   PRI1821  -0.002201   PRI2021  -0.049724
    XI1921   PRI1921  0.660127   UPBROW30963 1.000000
    XI2021   PRI0121  -0.005020   PRI0221  -0.000102
    XI2021   PRI0321  -0.000184   PRI0421  -0.000054
    XI2021   PRI0521  -0.012360   PRI0621  -0.008987
    XI2021   PRI0721  -0.001156   PRI0821  -0.004593
    XI2021   PRI0921  -0.005133   PRI1021  -0.004367
    XI2021   PRI1121  -0.000564   PRI1221  -0.000503
    XI2021   PRI1321  -0.004285   PRI1421  -0.043513
    XI2021   PRI1521  -0.000877   PRI1621  -0.006966
    XI2021   PRI1721  -0.006210   PRI1821  -0.008192
    XI2021   PRI1921  -0.002209   PRI2021  0.817877
    XI2021   UPBROW30964 1.000000
    YI0121   PRI0121  -1.000000   REVENUE  -1.000000
    YI0121   UPBROW31042 1.000000
    YI0221   PRI0221  -1.000000   REVENUE  -1.000000
    YI0221   UPBROW31043 1.000000
    YI0321   PRI0321  -1.000000   REVENUE  -5.000000
    YI0321   UPBROW31044 1.000000
    SI0121   PRI0122  1.000000   PRI0121  -1.000000
    SI0121   UPBROW31482 1.000000
    SI0221   PRI0222  1.000000   PRI0221  -1.000000
    SI0221   UPBROW31483 1.000000
    SI0321   PRI0322  1.000000   PRI0321  -1.000000
    SI0321   UPBROW31484 1.000000
    SI0421   PRI0422  1.000000   PRI0421  -1.000000
    SI0421   UPBROW31388 1.000000
    SI0521   PRI0522  1.000000   PRI0521  -1.000000
    SI0521   UPBROW31389 1.000000
    SI0621   PRI0622  1.000000   PRI0621  -1.000000
    SI0621   UPBROW31390 1.000000
    SI0721   PRI0722  1.000000   PRI0721  -1.000000
    SI0721   UPBROW31391 1.000000
    SI0821   PRI0822  1.000000   PRI0821  -1.000000
    SI0821   UPBROW31392 1.000000
    SI0921   PRI0922  1.000000   PRI0921  -1.000000
    SI0921   UPBROW31393 1.000000
    SI1021   PRI1022  1.000000   PRI1021  -1.000000
    SI1021   UPBROW31394 1.000000
    SI1121   PRI1122  1.000000   PRI1121  -1.000000
    SI1121   UPBROW31395 1.000000
    SI1221   PRI1222  1.000000   PRI1221  -1.000000
    SI1221   UPBROW31396 1.000000
    SI1321   PRI1322  1.000000   PRI1321  -1.000000
    SI1321   UPBROW31397 1.000000
    SI1421   PRI1422  1.000000   PRI1421  -1.000000
    SI1421   UPBROW31398 1.000000
    SI1521   PRI1522  1.000000   PRI1521  -1.000000
    SI1521   UPBROW31399 1.000000
    SI1621   PRI1622  1.000000   PRI1621  -1.000000
    SI1621   UPBROW31400 1.000000
    SI1721   PRI1722  1.000000   PRI1721  -1.000000
    SI1721   UPBROW31401 1.000000
    SI1821   PRI1822  1.000000   PRI1821  -1.000000
    SI1821   UPBROW31402 1.000000
    SI1921   PRI1922  1.000000   PRI1921  -1.000000
    SI1921   UPBROW31403 1.000000
    SI2021   PRI2022  1.000000   PRI2021  -1.000000
    SI2021   UPBROW31404 1.000000
    XI0122   PRI0222  -0.000066   PRI0422  -0.001575
    XI0122   PRI0522  -0.006836   PRI0622  -0.068339
    XI0122   PRI0722  -0.003500   PRI0822  -0.000372
    XI0122   PRI0922  -0.034585   PRI1022  -0.014700
    XI0122   PRI1222  -0.000033   PRI1322  -0.001006
    XI0122   PRI1422  -0.014208   PRI1622  -0.000087
    XI0122   PRI1722  -0.014689   PRI1822  -0.002100
    XI0122   PRI1922  -0.000219   PRI2022  -0.115197
    XI0122   PRI0122  0.690602
    XI0222   PRI0322  -0.000539   PRI0422  -0.001077
    XI0222   PRI0522  -0.007542   PRI0722  -0.006285
    XI0222   PRI0822  -0.000180   PRI0922  -0.029808
    XI0222   PRI1022  -0.012390   PRI1122  -0.013647
    XI0222   PRI1222  -0.003053   PRI1322  -0.000180
    XI0222   PRI1422  -0.070569   PRI1622  -0.000180
    XI0222   PRI1722  -0.008978   PRI1822  -0.027114
    XI0222   PRI1922  -0.000180   PRI2022  -0.142754
    XI0222   PRI0222  0.840546
    XI0322   PRI0522  -0.026987   PRI0722  -0.000345
    XI0322   PRI0822  -0.000058   PRI0922  -0.012889
    XI0322   PRI1022  -0.002071   PRI1122  -0.006790
    XI0322   PRI1422  -0.037459   PRI1622  -0.000230
    XI0322   PRI1722  -0.002877   PRI1822  -0.008401
    XI0322   PRI1922  -0.003050   PRI2022  -0.173370
    XI0322   PRI0322  0.972380
    XI0422   PRI0222  -0.001637   PRI0522  -0.013370
    XI0422   PRI0722  -0.003820   PRI0822  -0.005866
    XI0422   PRI0922  -0.050205   PRI1022  -0.018417
    XI0422   PRI1122  -0.030559   PRI1222  -0.002319
    XI0422   PRI1322  -0.002183   PRI1422  -0.084584
    XI0422   PRI1722  -0.010914   PRI1822  -0.037108
    XI0422   PRI1922  -0.009277   PRI2022  -0.159209
    XI0422   PRI0422  0.869577   UPBROW30965 1.000000
    XI0522   PRI0122  -0.002640   PRI0422  -0.008734
    XI0522   PRI0722  -0.003525   PRI0822  -0.003571
    XI0522   PRI0922  -0.011118   PRI1022  -0.019406
    XI0522   PRI1122  -0.016864   PRI1222  -0.027170
    XI0522   PRI1322  -0.000059   PRI1422  -0.298211
    XI0522   PRI1622  -0.000524   PRI1722  -0.029686
    XI0522   PRI1822  -0.000563   PRI1922  -0.000124
    XI0522   PRI2022  -0.207253   PRI0522  0.999712
    XI0522   UPBROW30966 1.000000
    XI0622   PRI0122  -0.338610   PRI0222  -0.000364
    XI0622   PRI0422  -0.000095   PRI0522  -0.001957
    XI0622   PRI0722  -0.001351   PRI0822  -0.023418
    XI0622   PRI0922  -0.010964   PRI1022  -0.001827
    XI0622   PRI1122  -0.000104   PRI1222  -0.000043
    XI0622   PRI1322  -0.000035   PRI1422  -0.045191
    XI0622   PRI1622  -0.000156   PRI1722  -0.022673
    XI0622   PRI1822  -0.003482   PRI1922  -0.002165
    XI0622   PRI2022  -0.103173   PRI0622  0.805874
    XI0622   UPBROW30967 1.000000
    XI0722   PRI0122  -0.048259   PRI0222  -0.000457
    XI0722   PRI0422  -0.000016   PRI0522  -0.001778
    XI0722   PRI0622  -0.001599   PRI0822  -0.009560
    XI0722   PRI0922  -0.076794   PRI1022  -0.001109
    XI0722   PRI1222  -0.000049   PRI1322  -0.000131
    XI0722   PRI1422  -0.019790   PRI1622  -0.000294
    XI0722   PRI1722  -0.011926   PRI1822  -0.006249
    XI0722   PRI1922  -0.001468   PRI2022  -0.084706
    XI0722   PRI0722  0.576973   UPBROW30968 1.000000
    XI0822   PRI0222  -0.003618   PRI0422  -0.003519
    XI0822   PRI0522  -0.005942   PRI0622  -0.009694
    XI0822   PRI0722  -0.011055   PRI0922  -0.062610
    XI0822   PRI1022  -0.005876   PRI1122  -0.001261
    XI0822   PRI1222  -0.001029   PRI1422  -0.094579
    XI0822   PRI1622  -0.000166   PRI1722  -0.032334
    XI0822   PRI1822  -0.011055   PRI1922  -0.006805
    XI0822   PRI2022  -0.103575   PRI0822  0.725027
    XI0822   UPBROW30969 1.000000
    XI0922   PRI0122  -0.001411   PRI0222  -0.002540
    XI0922   PRI0322  -0.001129   PRI0422  -0.014856
    XI0922   PRI0522  -0.005063   PRI0622  -0.007818
    XI0922   PRI0722  -0.024948   PRI0822  -0.024632
    XI0922   PRI1022  -0.037944   PRI1122  -0.004365
    XI0922   PRI1222  -0.007752   PRI1322  -0.002523
    XI0922   PRI1422  -0.047572   PRI1622  -0.000398
    XI0922   PRI1722  -0.019537   PRI1822  -0.013843
    XI0922   PRI1922  -0.008449   PRI2022  -0.115642
    XI0922   PRI0922  0.733625   UPBROW30970 1.000000
    XI1022   PRI0222  -0.000367   PRI0322  -0.460145
    XI1022   PRI0422  -0.002047   PRI0522  -0.011090
    XI1022   PRI0622  -0.001619   PRI0722  -0.000092
    XI1022   PRI0822  -0.006019   PRI0922  -0.023770
    XI1022   PRI1122  -0.000244   PRI1222  -0.001466
    XI1022   PRI1322  -0.000092   PRI1422  -0.013015
    XI1022   PRI1622  -0.000031   PRI1722  -0.035563
    XI1022   PRI1822  -0.005622   PRI1922  -0.010815
    XI1022   PRI2022  -0.076136   PRI1022  0.937888
    XI1022   UPBROW30971 1.000000
    XI1122   PRI0222  -0.026280   PRI0422  -0.047844
    XI1122   PRI0522  -0.009677   PRI0622  -0.000027
    XI1122   PRI0722  -0.000782   PRI0822  -0.001078
    XI1122   PRI0922  -0.016038   PRI1022  -0.004232
    XI1122   PRI1222  -0.033531   PRI1322  -0.005202
    XI1122   PRI1422  -0.070863   PRI1622  -0.000243
    XI1122   PRI1722  -0.042965   PRI1822  -0.018113
    XI1122   PRI1922  -0.015040   PRI2022  -0.122480
    XI1122   PRI1122  0.800189   UPBROW30972 1.000000
    XI1222   PRI0222  -0.000753   PRI0422  -0.067166
    XI1222   PRI0522  -0.003464   PRI0622  -0.000678
    XI1222   PRI0722  -0.001129   PRI0822  -0.002000
    XI1222   PRI0922  -0.022401   PRI1022  -0.002635
    XI1222   PRI1122  -0.016904   PRI1322  -0.002598
    XI1222   PRI1422  -0.053311   PRI1622  -0.000301
    XI1222   PRI1722  -0.022326   PRI1822  -0.017206
    XI1222   PRI1922  -0.008772   PRI2022  -0.134483
    XI1222   PRI1222  0.606604   UPBROW30973 1.000000
    XI1322   PRI0222  -0.000355   PRI0522  -0.002449
    XI1322   PRI0722  -0.016934   PRI0822  -0.002466
    XI1322   PRI0922  -0.023804   PRI1022  -0.002215
    XI1322   PRI1122  -0.064066   PRI1222  -0.023891
    XI1322   PRI1422  -0.173612   PRI1622  -0.001402
    XI1322   PRI1722  -0.014122   PRI1822  -0.003989
    XI1322   PRI1922  -0.001194   PRI2022  -0.092301
    XI1322   PRI1322  0.724759   UPBROW30974 1.000000
    XI1422   PRI0122  -0.015773   PRI0222  -0.000483
    XI1422   PRI0422  -0.003674   PRI0522  -0.003179
    XI1422   PRI0622  -0.003954   PRI0722  -0.006703
    XI1422   PRI0822  -0.028331   PRI0922  -0.038343
    XI1422   PRI1022  -0.003297   PRI1122  -0.059222
    XI1422   PRI1222  -0.031024   PRI1322  -0.013418
    XI1422   PRI1522  -0.000006   PRI1622  0.000047
    XI1422   PRI1722  -0.013645   PRI1822  -0.005793
    XI1422   PRI1922  -0.003029   PRI2022  -0.122929
    XI1422   PRI1422  0.780186   UPBROW30975 1.000000
    XI1522   PRI0522  -0.001300   PRI0722  -0.001300
    XI1522   PRI0822  -0.000557   PRI0922  -0.008174
    XI1522   PRI1022  -0.018020   PRI1122  -0.000743
    XI1522   PRI1322  -0.002601   PRI1422  -0.012447
    XI1522   PRI1722  -0.011704   PRI1822  -0.003901
    XI1522   PRI1922  -0.000557   PRI2022  -0.309493
    XI1522   PRI1522  0.997771   UPBROW30976 1.000000
    XI1622   PRI0122  -0.000838   PRI0222  -0.000076
    XI1622   PRI0522  -0.001523   PRI0622  -0.022011
    XI1622   PRI0722  -0.001142   PRI0822  -0.001523
    XI1622   PRI0922  -0.002818   PRI1022  -0.052171
    XI1622   PRI1122  -0.000076   PRI1322  -0.035187
    XI1622   PRI1422  -0.007007   PRI1722  -0.032216
    XI1622   PRI1822  -0.001219   PRI1922  -0.000533
    XI1622   PRI2022  -0.171516   PRI1622  0.949886
    XI1622   UPBROW30977 1.000000
    XI1722   PRI0122  -0.001548   PRI0222  -0.000178
    XI1722   PRI0322  -0.000783   PRI0422  -0.000036
    XI1722   PRI0522  -0.017634   PRI0622  -0.000160
    XI1722   PRI0722  -0.003221   PRI0822  -0.001940
    XI1722   PRI0922  -0.007918   PRI1022  -0.030196
    XI1722   PRI1122  -0.003577   PRI1222  -0.001424
    XI1722   PRI1322  -0.013577   PRI1422  -0.011869
    XI1722   PRI1522  -0.000819   PRI1622  -0.001032
    XI1722   PRI1822  -0.003915   PRI1922  -0.000890
    XI1722   PRI2022  -0.166071   PRI1722  0.878788
    XI1722   UPBROW30978 1.000000
    XI1822   PRI0222  -0.059245   PRI0422  -0.000062
    XI1822   PRI0522  -0.041988   PRI0622  -0.000123
    XI1822   PRI0722  -0.000584   PRI0822  -0.001784
    XI1822   PRI0922  -0.003722   PRI1022  -0.014704
    XI1822   PRI1122  -0.001015   PRI1222  -0.000615
    XI1822   PRI1322  -0.000277   PRI1422  -0.007536
    XI1822   PRI1622  -0.000031   PRI1722  -0.028884
    XI1822   PRI1922  -0.041189   PRI2022  -0.054785
    XI1822   PRI1822  0.878803   UPBROW30979 1.000000
    XI1922   PRI0222  -0.000234   PRI0322  -0.183070
    XI1922   PRI0522  -0.014421   PRI0722  -0.000281
    XI1922   PRI0822  -0.000468   PRI0922  -0.000047
    XI1922   PRI1022  -0.000702   PRI1122  -0.001077
    XI1922   PRI1422  -0.000094   PRI1722  -0.000187
    XI1922   PRI1822  -0.002201   PRI2022  -0.049724
    XI1922   PRI1922  0.660127   UPBROW30980 1.000000
    XI2022   PRI0122  -0.005020   PRI0222  -0.000102
    XI2022   PRI0322  -0.000184   PRI0422  -0.000054
    XI2022   PRI0522  -0.012360   PRI0622  -0.008987
    XI2022   PRI0722  -0.001156   PRI0822  -0.004593
    XI2022   PRI0922  -0.005133   PRI1022  -0.004367
    XI2022   PRI1122  -0.000564   PRI1222  -0.000503
    XI2022   PRI1322  -0.004285   PRI1422  -0.043513
    XI2022   PRI1522  -0.000877   PRI1622  -0.006966
    XI2022   PRI1722  -0.006210   PRI1822  -0.008192
    XI2022   PRI1922  -0.002209   PRI2022  0.817877
    XI2022   UPBROW30981 1.000000
    YI0122   PRI0122  -1.000000   REVENUE  -7.000000
    YI0122   UPBROW31045 1.000000
    YI0222   PRI0222  -1.000000   REVENUE  -4.000000
    YI0222   UPBROW31046 1.000000
    YI0322   PRI0322  -1.000000   REVENUE  -7.000000
    YI0322   UPBROW31047 1.000000
    SI0122   PRI0122  -1.000000   UPBROW31485 1.000000
    SI0222   PRI0222  -1.000000   UPBROW31486 1.000000
    SI0322   PRI0322  -1.000000   UPBROW31487 1.000000
    SI0422   PRI0422  -1.000000   UPBROW31405 1.000000
    SI0522   PRI0522  -1.000000   UPBROW31406 1.000000
    SI0622   PRI0622  -1.000000   UPBROW31407 1.000000
    SI0722   PRI0722  -1.000000   UPBROW31408 1.000000
    SI0822   PRI0822  -1.000000   UPBROW31409 1.000000
    SI0922   PRI0922  -1.000000   UPBROW31410 1.000000
    SI1022   PRI1022  -1.000000   UPBROW31411 1.000000
    SI1122   PRI1122  -1.000000   UPBROW31412 1.000000
    SI1222   PRI1222  -1.000000   UPBROW31413 1.000000
    SI1322   PRI1322  -1.000000   UPBROW31414 1.000000
    SI1422   PRI1422  -1.000000   UPBROW31415 1.000000
    SI1522   PRI1522  -1.000000   UPBROW31416 1.000000
    SI1622   PRI1622  -1.000000   UPBROW31417 1.000000
    SI1722   PRI1722  -1.000000   UPBROW31418 1.000000
    SI1822   PRI1822  -1.000000   UPBROW31419 1.000000
    SI1922   PRI1922  -1.000000   UPBROW31420 1.000000
    SI2022   PRI2022  -1.000000   UPBROW31421 1.000000
    SLACK42827 UPBROW30608 1.000000
    SLACK42828 UPBROW30609 1.000000
    SLACK42829 UPBROW30610 1.000000
    SLACK42830 UPBROW30611 1.000000
    SLACK42831 UPBROW30612 1.000000
    SLACK42832 UPBROW30613 1.000000
    SLACK42833 UPBROW30614 1.000000
    SLACK42834 UPBROW30615 1.000000
    SLACK42835 UPBROW30616 1.000000
    SLACK42836 UPBROW30617 1.000000
    SLACK42837 UPBROW30618 1.000000
    SLACK42838 UPBROW30619 1.000000
    SLACK42839 UPBROW30620 1.000000
    SLACK42840 UPBROW30621 1.000000
    SLACK42841 UPBROW30622 1.000000
    SLACK42842 UPBROW30623 1.000000
    SLACK42843 UPBROW30624 1.000000
    SLACK42844 UPBROW30625 1.000000
    SLACK42845 UPBROW30626 1.000000
    SLACK42846 UPBROW30627 1.000000
    SLACK42847 UPBROW30628 1.000000
    SLACK42848 UPBROW30629 1.000000
    SLACK42849 UPBROW30630 1.000000
    SLACK42850 UPBROW30631 1.000000
    SLACK42851 UPBROW30632 1.000000
    SLACK42852 UPBROW30633 1.000000
    SLACK42853 UPBROW30634 1.000000
    SLACK42854 UPBROW30635 1.000000
    SLACK42855 UPBROW30636 1.000000
    SLACK42856 UPBROW30637 1.000000
    SLACK42857 UPBROW30638 1.000000
    SLACK42858 UPBROW30639 1.000000
    SLACK42859 UPBROW30640 1.000000
    SLACK42860 UPBROW30641 1.000000
    SLACK42861 UPBROW30642 1.000000
    SLACK42862 UPBROW30643 1.000000
    SLACK42863 UPBROW30644 1.000000
    SLACK42864 UPBROW30645 1.000000
    SLACK42865 UPBROW30646 1.000000
    SLACK42866 UPBROW30647 1.000000
    SLACK42867 UPBROW30648 1.000000
    SLACK42868 UPBROW30649 1.000000
    SLACK42869 UPBROW30650 1.000000
    SLACK42870 UPBROW30651 1.000000
    SLACK42871 UPBROW30652 1.000000
    SLACK42872 UPBROW30653 1.000000
    SLACK42873 UPBROW30654 1.000000
    SLACK42874 UPBROW30655 1.000000
    SLACK42875 UPBROW30656 1.000000
    SLACK42876 UPBROW30657 1.000000
    SLACK42877 UPBROW30658 1.000000
    SLACK42878 UPBROW30659 1.000000
    SLACK42879 UPBROW30660 1.000000
    SLACK42880 UPBROW30661 1.000000
    SLACK42881 UPBROW30662 1.000000
    SLACK42882 UPBROW30663 1.000000
    SLACK42883 UPBROW30664 1.000000
    SLACK42884 UPBROW30665 1.000000
    SLACK42885 UPBROW30666 1.000000
    SLACK42886 UPBROW30667 1.000000
    SLACK42887 UPBROW30668 1.000000
    SLACK42888 UPBROW30669 1.000000
    SLACK42889 UPBROW30670 1.000000
    SLACK42890 UPBROW30671 1.000000
    SLACK42891 UPBROW30672 1.000000
    SLACK42892 UPBROW30673 1.000000
    SLACK42893 UPBROW30674 1.000000
    SLACK42894 UPBROW30675 1.000000
    SLACK42895 UPBROW30676 1.000000
    SLACK42896 UPBROW30677 1.000000
    SLACK42897 UPBROW30678 1.000000
    SLACK42898 UPBROW30679 1.000000
    SLACK42899 UPBROW30680 1.000000
    SLACK42900 UPBROW30681 1.000000
    SLACK42901 UPBROW30682 1.000000
    SLACK42902 UPBROW30683 1.000000
    SLACK42903 UPBROW30684 1.000000
    SLACK42904 UPBROW30685 1.000000
    SLACK42905 UPBROW30686 1.000000
    SLACK42906 UPBROW30687 1.000000
    SLACK42907 UPBROW30688 1.000000
    SLACK42908 UPBROW30689 1.000000
    SLACK42909 UPBROW30690 1.000000
    SLACK42910 UPBROW30691 1.000000
    SLACK42911 UPBROW30692 1.000000
    SLACK42912 UPBROW30693 1.000000
    SLACK42913 UPBROW30694 1.000000
    SLACK42914 UPBROW30695 1.000000
    SLACK42915 UPBROW30696 1.000000
    SLACK42916 UPBROW30697 1.000000
    SLACK42917 UPBROW30698 1.000000
    SLACK42918 UPBROW30699 1.000000
    SLACK42919 UPBROW30700 1.000000
    SLACK42920 UPBROW30701 1.000000
    SLACK42921 UPBROW30702 1.000000
    SLACK42922 UPBROW30703 1.000000
    SLACK42923 UPBROW30704 1.000000
    SLACK42924 UPBROW30705 1.000000
    SLACK42925 UPBROW30706 1.000000
    SLACK42926 UPBROW30707 1.000000
    SLACK42927 UPBROW30708 1.000000
    SLACK42928 UPBROW30709 1.000000
    SLACK42929 UPBROW30710 1.000000
    SLACK42930 UPBROW30711 1.000000
    SLACK42931 UPBROW30712 1.000000
    SLACK42932 UPBROW30713 1.000000
    SLACK42933 UPBROW30714 1.000000
    SLACK42934 UPBROW30715 1.000000
    SLACK42935 UPBROW30716 1.000000
    SLACK42936 UPBROW30717 1.000000
    SLACK42937 UPBROW30718 1.000000
    SLACK42938 UPBROW30719 1.000000
    SLACK42939 UPBROW30720 1.000000
    SLACK42940 UPBROW30721 1.000000
    SLACK42941 UPBROW30722 1.000000
    SLACK42942 UPBROW30723 1.000000
    SLACK42943 UPBROW30724 1.000000
    SLACK42944 UPBROW30725 1.000000
    SLACK42945 UPBROW30726 1.000000
    SLACK42946 UPBROW30727 1.000000
    SLACK42947 UPBROW30728 1.000000
    SLACK42948 UPBROW30729 1.000000
    SLACK42949 UPBROW30730 1.000000
    SLACK42950 UPBROW30731 1.000000
    SLACK42951 UPBROW30732 1.000000
    SLACK42952 UPBROW30733 1.000000
    SLACK42953 UPBROW30734 1.000000
    SLACK42954 UPBROW30735 1.000000
    SLACK42955 UPBROW30736 1.000000
    SLACK42956 UPBROW30737 1.000000
    SLACK42957 UPBROW30738 1.000000
    SLACK42958 UPBROW30739 1.000000
    SLACK42959 UPBROW30740 1.000000
    SLACK42960 UPBROW30741 1.000000
    SLACK42961 UPBROW30742 1.000000
    SLACK42962 UPBROW30743 1.000000
    SLACK42963 UPBROW30744 1.000000
    SLACK42964 UPBROW30745 1.000000
    SLACK42965 UPBROW30746 1.000000
    SLACK42966 UPBROW30747 1.000000
    SLACK42967 UPBROW30748 1.000000
    SLACK42968 UPBROW30749 1.000000
    SLACK42969 UPBROW30750 1.000000
    SLACK42970 UPBROW30751 1.000000
    SLACK42971 UPBROW30752 1.000000
    SLACK42972 UPBROW30753 1.000000
    SLACK42973 UPBROW30754 1.000000
    SLACK42974 UPBROW30755 1.000000
    SLACK42975 UPBROW30756 1.000000
    SLACK42976 UPBROW30757 1.000000
    SLACK42977 UPBROW30758 1.000000
    SLACK42978 UPBROW30759 1.000000
    SLACK42979 UPBROW30760 1.000000
    SLACK42980 UPBROW30761 1.000000
    SLACK42981 UPBROW30762 1.000000
    SLACK42982 UPBROW30763 1.000000
    SLACK42983 UPBROW30764 1.000000
    SLACK42984 UPBROW30765 1.000000
    SLACK42985 UPBROW30766 1.000000
    SLACK42986 UPBROW30767 1.000000
    SLACK42987 UPBROW30768 1.000000
    SLACK42988 UPBROW30769 1.000000
    SLACK42989 UPBROW30770 1.000000
    SLACK42990 UPBROW30771 1.000000
    SLACK42991 UPBROW30772 1.000000
    SLACK42992 UPBROW30773 1.000000
    SLACK42993 UPBROW30774 1.000000
    SLACK42994 UPBROW30775 1.000000
    SLACK42995 UPBROW30776 1.000000
    SLACK42996 UPBROW30777 1.000000
    SLACK42997 UPBROW30778 1.000000
    SLACK42998 UPBROW30779 1.000000
    SLACK42999 UPBROW30780 1.000000
    SLACK43000 UPBROW30781 1.000000
    SLACK43001 UPBROW30782 1.000000
    SLACK43002 UPBROW30783 1.000000
    SLACK43003 UPBROW30784 1.000000
    SLACK43004 UPBROW30785 1.000000
    SLACK43005 UPBROW30786 1.000000
    SLACK43006 UPBROW30787 1.000000
    SLACK43007 UPBROW30788 1.000000
    SLACK43008 UPBROW30789 1.000000
    SLACK43009 UPBROW30790 1.000000
    SLACK43010 UPBROW30791 1.000000
    SLACK43011 UPBROW30792 1.000000
    SLACK43012 UPBROW30793 1.000000
    SLACK43013 UPBROW30794 1.000000
    SLACK43014 UPBROW30795 1.000000
    SLACK43015 UPBROW30796 1.000000
    SLACK43016 UPBROW30797 1.000000
    SLACK43017 UPBROW30798 1.000000
    SLACK43018 UPBROW30799 1.000000
    SLACK43019 UPBROW30800 1.000000
    SLACK43020 UPBROW30801 1.000000
    SLACK43021 UPBROW30802 1.000000
    SLACK43022 UPBROW30803 1.000000
    SLACK43023 UPBROW30804 1.000000
    SLACK43024 UPBROW30805 1.000000
    SLACK43025 UPBROW30806 1.000000
    SLACK43026 UPBROW30807 1.000000
    SLACK43027 UPBROW30808 1.000000
    SLACK43028 UPBROW30809 1.000000
    SLACK43029 UPBROW30810 1.000000
    SLACK43030 UPBROW30811 1.000000
    SLACK43031 UPBROW30812 1.000000
    SLACK43032 UPBROW30813 1.000000
    SLACK43033 UPBROW30814 1.000000
    SLACK43034 UPBROW30815 1.000000
    SLACK43035 UPBROW30816 1.000000
    SLACK43036 UPBROW30817 1.000000
    SLACK43037 UPBROW30818 1.000000
    SLACK43038 UPBROW30819 1.000000
    SLACK43039 UPBROW30820 1.000000
    SLACK43040 UPBROW30821 1.000000
    SLACK43041 UPBROW30822 1.000000
    SLACK43042 UPBROW30823 1.000000
    SLACK43043 UPBROW30824 1.000000
    SLACK43044 UPBROW30825 1.000000
    SLACK43045 UPBROW30826 1.000000
    SLACK43046 UPBROW30827 1.000000
    SLACK43047 UPBROW30828 1.000000
    SLACK43048 UPBROW30829 1.000000
    SLACK43049 UPBROW30830 1.000000
    SLACK43050 UPBROW30831 1.000000
    SLACK43051 UPBROW30832 1.000000
    SLACK43052 UPBROW30833 1.000000
    SLACK43053 UPBROW30834 1.000000
    SLACK43054 UPBROW30835 1.000000
    SLACK43055 UPBROW30836 1.000000
    SLACK43056 UPBROW30837 1.000000
    SLACK43057 UPBROW30838 1.000000
    SLACK43058 UPBROW30839 1.000000
    SLACK43059 UPBROW30840 1.000000
    SLACK43060 UPBROW30841 1.000000
    SLACK43061 UPBROW30842 1.000000
    SLACK43062 UPBROW30843 1.000000
    SLACK43063 UPBROW30844 1.000000
    SLACK43064 UPBROW30845 1.000000
    SLACK43065 UPBROW30846 1.000000
    SLACK43066 UPBROW30847 1.000000
    SLACK43067 UPBROW30848 1.000000
    SLACK43068 UPBROW30849 1.000000
    SLACK43069 UPBROW30850 1.000000
    SLACK43070 UPBROW30851 1.000000
    SLACK43071 UPBROW30852 1.000000
    SLACK43072 UPBROW30853 1.000000
    SLACK43073 UPBROW30854 1.000000
    SLACK43074 UPBROW30855 1.000000
    SLACK43075 UPBROW30856 1.000000
    SLACK43076 UPBROW30857 1.000000
    SLACK43077 UPBROW30858 1.000000
    SLACK43078 UPBROW30859 1.000000
    SLACK43079 UPBROW30860 1.000000
    SLACK43080 UPBROW30861 1.000000
    SLACK43081 UPBROW30862 1.000000
    SLACK43082 UPBROW30863 1.000000
    SLACK43083 UPBROW30864 1.000000
    SLACK43084 UPBROW30865 1.000000
    SLACK43085 UPBROW30866 1.000000
    SLACK43086 UPBROW30867 1.000000
    SLACK43087 UPBROW30868 1.000000
    SLACK43088 UPBROW30869 1.000000
    SLACK43089 UPBROW30870 1.000000
    SLACK43090 UPBROW30871 1.000000
    SLACK43091 UPBROW30872 1.000000
    SLACK43092 UPBROW30873 1.000000
    SLACK43093 UPBROW30874 1.000000
    SLACK43094 UPBROW30875 1.000000
    SLACK43095 UPBROW30876 1.000000
    SLACK43096 UPBROW30877 1.000000
    SLACK43097 UPBROW30878 1.000000
    SLACK43098 UPBROW30879 1.000000
    SLACK43099 UPBROW30880 1.000000
    SLACK43100 UPBROW30881 1.000000
    SLACK43101 UPBROW30882 1.000000
    SLACK43102 UPBROW30883 1.000000
    SLACK43103 UPBROW30884 1.000000
    SLACK43104 UPBROW30885 1.000000
    SLACK43105 UPBROW30886 1.000000
    SLACK43106 UPBROW30887 1.000000
    SLACK43107 UPBROW30888 1.000000
    SLACK43108 UPBROW30889 1.000000
    SLACK43109 UPBROW30890 1.000000
    SLACK43110 UPBROW30891 1.000000
    SLACK43111 UPBROW30892 1.000000
    SLACK43112 UPBROW30893 1.000000
    SLACK43113 UPBROW30894 1.000000
    SLACK43114 UPBROW30895 1.000000
    SLACK43115 UPBROW30896 1.000000
    SLACK43116 UPBROW30897 1.000000
    SLACK43117 UPBROW30898 1.000000
    SLACK43118 UPBROW30899 1.000000
    SLACK43119 UPBROW30900 1.000000
    SLACK43120 UPBROW30901 1.000000
    SLACK43121 UPBROW30902 1.000000
    SLACK43122 UPBROW30903 1.000000
    SLACK43123 UPBROW30904 1.000000
    SLACK43124 UPBROW30905 1.000000
    SLACK43125 UPBROW30906 1.000000
    SLACK43126 UPBROW30907 1.000000
    SLACK43127 UPBROW30908 1.000000
    SLACK43128 UPBROW30909 1.000000
    SLACK43129 UPBROW30910 1.000000
    SLACK43130 UPBROW30911 1.000000
    SLACK43131 UPBROW30912 1.000000
    SLACK43132 UPBROW30913 1.000000
    SLACK43133 UPBROW30914 1.000000
    SLACK43134 UPBROW30915 1.000000
    SLACK43135 UPBROW30916 1.000000
    SLACK43136 UPBROW30917 1.000000
    SLACK43137 UPBROW30918 1.000000
    SLACK43138 UPBROW30919 1.000000
    SLACK43139 UPBROW30920 1.000000
    SLACK43140 UPBROW30921 1.000000
    SLACK43141 UPBROW30922 1.000000
    SLACK43142 UPBROW30923 1.000000
    SLACK43143 UPBROW30924 1.000000
    SLACK43144 UPBROW30925 1.000000
    SLACK43145 UPBROW30926 1.000000
    SLACK43146 UPBROW30927 1.000000
    SLACK43147 UPBROW30928 1.000000
    SLACK43148 UPBROW30929 1.000000
    SLACK43149 UPBROW30930 1.000000
    SLACK43150 UPBROW30931 1.000000
    SLACK43151 UPBROW30932 1.000000
    SLACK43152 UPBROW30933 1.000000
    SLACK43153 UPBROW30934 1.000000
    SLACK43154 UPBROW30935 1.000000
    SLACK43155 UPBROW30936 1.000000
    SLACK43156 UPBROW30937 1.000000
    SLACK43157 UPBROW30938 1.000000
    SLACK43158 UPBROW30939 1.000000
    SLACK43159 UPBROW30940 1.000000
    SLACK43160 UPBROW30941 1.000000
    SLACK43161 UPBROW30942 1.000000
    SLACK43162 UPBROW30943 1.000000
    SLACK43163 UPBROW30944 1.000000
    SLACK43164 UPBROW30945 1.000000
    SLACK43165 UPBROW30946 1.000000
    SLACK43166 UPBROW30947 1.000000
    SLACK43167 UPBROW30948 1.000000
    SLACK43168 UPBROW30949 1.000000
    SLACK43169 UPBROW30950 1.000000
    SLACK43170 UPBROW30951 1.000000
    SLACK43171 UPBROW30952 1.000000
    SLACK43172 UPBROW30953 1.000000
    SLACK43173 UPBROW30954 1.000000
    SLACK43174 UPBROW30955 1.000000
    SLACK43175 UPBROW30956 1.000000
    SLACK43176 UPBROW30957 1.000000
    SLACK43177 UPBROW30958 1.000000
    SLACK43178 UPBROW30959 1.000000
    SLACK43179 UPBROW30960 1.000000
    SLACK43180 UPBROW30961 1.000000
    SLACK43181 UPBROW30962 1.000000
    SLACK43182 UPBROW30963 1.000000
    SLACK43183 UPBROW30964 1.000000
    SLACK43184 UPBROW30965 1.000000
    SLACK43185 UPBROW30966 1.000000
    SLACK43186 UPBROW30967 1.000000
    SLACK43187 UPBROW30968 1.000000
    SLACK43188 UPBROW30969 1.000000
    SLACK43189 UPBROW30970 1.000000
    SLACK43190 UPBROW30971 1.000000
    SLACK43191 UPBROW30972 1.000000
    SLACK43192 UPBROW30973 1.000000
    SLACK43193 UPBROW30974 1.000000
    SLACK43194 UPBROW30975 1.000000
    SLACK43195 UPBROW30976 1.000000
    SLACK43196 UPBROW30977 1.000000
    SLACK43197 UPBROW30978 1.000000
    SLACK43198 UPBROW30979 1.000000
    SLACK43199 UPBROW30980 1.000000
    SLACK43200 UPBROW30981 1.000000
    SLACK43201 UPBROW30982 1.000000
    SLACK43202 UPBROW30983 1.000000
    SLACK43203 UPBROW30984 1.000000
    SLACK43204 UPBROW30985 1.000000
    SLACK43205 UPBROW30986 1.000000
    SLACK43206 UPBROW30987 1.000000
    SLACK43207 UPBROW30988 1.000000
    SLACK43208 UPBROW30989 1.000000
    SLACK43209 UPBROW30990 1.000000
    SLACK43210 UPBROW30991 1.000000
    SLACK43211 UPBROW30992 1.000000
    SLACK43212 UPBROW30993 1.000000
    SLACK43213 UPBROW30994 1.000000
    SLACK43214 UPBROW30995 1.000000
    SLACK43215 UPBROW30996 1.000000
    SLACK43216 UPBROW30997 1.000000
    SLACK43217 UPBROW30998 1.000000
    SLACK43218 UPBROW30999 1.000000
    SLACK43219 UPBROW31000 1.000000
    SLACK43220 UPBROW31001 1.000000
    SLACK43221 UPBROW31002 1.000000
    SLACK43222 UPBROW31003 1.000000
    SLACK43223 UPBROW31004 1.000000
    SLACK43224 UPBROW31005 1.000000
    SLACK43225 UPBROW31006 1.000000
    SLACK43226 UPBROW31007 1.000000
    SLACK43227 UPBROW31008 1.000000
    SLACK43228 UPBROW31009 1.000000
    SLACK43229 UPBROW31010 1.000000
    SLACK43230 UPBROW31011 1.000000
    SLACK43231 UPBROW31012 1.000000
    SLACK43232 UPBROW31013 1.000000
    SLACK43233 UPBROW31014 1.000000
    SLACK43234 UPBROW31015 1.000000
    SLACK43235 UPBROW31016 1.000000
    SLACK43236 UPBROW31017 1.000000
    SLACK43237 UPBROW31018 1.000000
    SLACK43238 UPBROW31019 1.000000
    SLACK43239 UPBROW31020 1.000000
    SLACK43240 UPBROW31021 1.000000
    SLACK43241 UPBROW31022 1.000000
    SLACK43242 UPBROW31023 1.000000
    SLACK43243 UPBROW31024 1.000000
    SLACK43244 UPBROW31025 1.000000
    SLACK43245 UPBROW31026 1.000000
    SLACK43246 UPBROW31027 1.000000
    SLACK43247 UPBROW31028 1.000000
    SLACK43248 UPBROW31029 1.000000
    SLACK43249 UPBROW31030 1.000000
    SLACK43250 UPBROW31031 1.000000
    SLACK43251 UPBROW31032 1.000000
    SLACK43252 UPBROW31033 1.000000
    SLACK43253 UPBROW31034 1.000000
    SLACK43254 UPBROW31035 1.000000
    SLACK43255 UPBROW31036 1.000000
    SLACK43256 UPBROW31037 1.000000
    SLACK43257 UPBROW31038 1.000000
    SLACK43258 UPBROW31039 1.000000
    SLACK43259 UPBROW31040 1.000000
    SLACK43260 UPBROW31041 1.000000
    SLACK43261 UPBROW31042 1.000000
    SLACK43262 UPBROW31043 1.000000
    SLACK43263 UPBROW31044 1.000000
    SLACK43264 UPBROW31045 1.000000
    SLACK43265 UPBROW31046 1.000000
    SLACK43266 UPBROW31047 1.000000
    SLACK43267 UPBROW31048 1.000000
    SLACK43268 UPBROW31049 1.000000
    SLACK43269 UPBROW31050 1.000000
    SLACK43270 UPBROW31051 1.000000
    SLACK43271 UPBROW31052 1.000000
    SLACK43272 UPBROW31053 1.000000
    SLACK43273 UPBROW31054 1.000000
    SLACK43274 UPBROW31055 1.000000
    SLACK43275 UPBROW31056 1.000000
    SLACK43276 UPBROW31057 1.000000
    SLACK43277 UPBROW31058 1.000000
    SLACK43278 UPBROW31059 1.000000
    SLACK43279 UPBROW31060 1.000000
    SLACK43280 UPBROW31061 1.000000
    SLACK43281 UPBROW31062 1.000000
    SLACK43282 UPBROW31063 1.000000
    SLACK43283 UPBROW31064 1.000000
    SLACK43284 UPBROW31065 1.000000
    SLACK43285 UPBROW31066 1.000000
    SLACK43286 UPBROW31067 1.000000
    SLACK43287 UPBROW31068 1.000000
    SLACK43288 UPBROW31069 1.000000
    SLACK43289 UPBROW31070 1.000000
    SLACK43290 UPBROW31071 1.000000
    SLACK43291 UPBROW31072 1.000000
    SLACK43292 UPBROW31073 1.000000
    SLACK43293 UPBROW31074 1.000000
    SLACK43294 UPBROW31075 1.000000
    SLACK43295 UPBROW31076 1.000000
    SLACK43296 UPBROW31077 1.000000
    SLACK43297 UPBROW31078 1.000000
    SLACK43298 UPBROW31079 1.000000
    SLACK43299 UPBROW31080 1.000000
    SLACK43300 UPBROW31081 1.000000
    SLACK43301 UPBROW31082 1.000000
    SLACK43302 UPBROW31083 1.000000
    SLACK43303 UPBROW31084 1.000000
    SLACK43304 UPBROW31085 1.000000
    SLACK43305 UPBROW31086 1.000000
    SLACK43306 UPBROW31087 1.000000
    SLACK43307 UPBROW31088 1.000000
    SLACK43308 UPBROW31089 1.000000
    SLACK43309 UPBROW31090 1.000000
    SLACK43310 UPBROW31091 1.000000
    SLACK43311 UPBROW31092 1.000000
    SLACK43312 UPBROW31093 1.000000
    SLACK43313 UPBROW31094 1.000000
    SLACK43314 UPBROW31095 1.000000
    SLACK43315 UPBROW31096 1.000000
    SLACK43316 UPBROW31097 1.000000
    SLACK43317 UPBROW31098 1.000000
    SLACK43318 UPBROW31099 1.000000
    SLACK43319 UPBROW31100 1.000000
    SLACK43320 UPBROW31101 1.000000
    SLACK43321 UPBROW31102 1.000000
    SLACK43322 UPBROW31103 1.000000
    SLACK43323 UPBROW31104 1.000000
    SLACK43324 UPBROW31105 1.000000
    SLACK43325 UPBROW31106 1.000000
    SLACK43326 UPBROW31107 1.000000
    SLACK43327 UPBROW31108 1.000000
    SLACK43328 UPBROW31109 1.000000
    SLACK43329 UPBROW31110 1.000000
    SLACK43330 UPBROW31111 1.000000
    SLACK43331 UPBROW31112 1.000000
    SLACK43332 UPBROW31113 1.000000
    SLACK43333 UPBROW31114 1.000000
    SLACK43334 UPBROW31115 1.000000
    SLACK43335 UPBROW31116 1.000000
    SLACK43336 UPBROW31117 1.000000
    SLACK43337 UPBROW31118 1.000000
    SLACK43338 UPBROW31119 1.000000
    SLACK43339 UPBROW31120 1.000000
    SLACK43340 UPBROW31121 1.000000
    SLACK43341 UPBROW31122 1.000000
    SLACK43342 UPBROW31123 1.000000
    SLACK43343 UPBROW31124 1.000000
    SLACK43344 UPBROW31125 1.000000
    SLACK43345 UPBROW31126 1.000000
    SLACK43346 UPBROW31127 1.000000
    SLACK43347 UPBROW31128 1.000000
    SLACK43348 UPBROW31129 1.000000
    SLACK43349 UPBROW31130 1.000000
    SLACK43350 UPBROW31131 1.000000
    SLACK43351 UPBROW31132 1.000000
    SLACK43352 UPBROW31133 1.000000
    SLACK43353 UPBROW31134 1.000000
    SLACK43354 UPBROW31135 1.000000
    SLACK43355 UPBROW31136 1.000000
    SLACK43356 UPBROW31137 1.000000
    SLACK43357 UPBROW31138 1.000000
    SLACK43358 UPBROW31139 1.000000
    SLACK43359 UPBROW31140 1.000000
    SLACK43360 UPBROW31141 1.000000
    SLACK43361 UPBROW31142 1.000000
    SLACK43362 UPBROW31143 1.000000
    SLACK43363 UPBROW31144 1.000000
    SLACK43364 UPBROW31145 1.000000
    SLACK43365 UPBROW31146 1.000000
    SLACK43366 UPBROW31147 1.000000
    SLACK43367 UPBROW31148 1.000000
    SLACK43368 UPBROW31149 1.000000
    SLACK43369 UPBROW31150 1.000000
    SLACK43370 UPBROW31151 1.000000
    SLACK43371 UPBROW31152 1.000000
    SLACK43372 UPBROW31153 1.000000
    SLACK43373 UPBROW31154 1.000000
    SLACK43374 UPBROW31155 1.000000
    SLACK43375 UPBROW31156 1.000000
    SLACK43376 UPBROW31157 1.000000
    SLACK43377 UPBROW31158 1.000000
    SLACK43378 UPBROW31159 1.000000
    SLACK43379 UPBROW31160 1.000000
    SLACK43380 UPBROW31161 1.000000
    SLACK43381 UPBROW31162 1.000000
    SLACK43382 UPBROW31163 1.000000
    SLACK43383 UPBROW31164 1.000000
    SLACK43384 UPBROW31165 1.000000
    SLACK43385 UPBROW31166 1.000000
    SLACK43386 UPBROW31167 1.000000
    SLACK43387 UPBROW31168 1.000000
    SLACK43388 UPBROW31169 1.000000
    SLACK43389 UPBROW31170 1.000000
    SLACK43390 UPBROW31171 1.000000
    SLACK43391 UPBROW31172 1.000000
    SLACK43392 UPBROW31173 1.000000
    SLACK43393 UPBROW31174 1.000000
    SLACK43394 UPBROW31175 1.000000
    SLACK43395 UPBROW31176 1.000000
    SLACK43396 UPBROW31177 1.000000
    SLACK43397 UPBROW31178 1.000000
    SLACK43398 UPBROW31179 1.000000
    SLACK43399 UPBROW31180 1.000000
    SLACK43400 UPBROW31181 1.000000
    SLACK43401 UPBROW31182 1.000000
    SLACK43402 UPBROW31183 1.000000
    SLACK43403 UPBROW31184 1.000000
    SLACK43404 UPBROW31185 1.000000
    SLACK43405 UPBROW31186 1.000000
    SLACK43406 UPBROW31187 1.000000
    SLACK43407 UPBROW31188 1.000000
    SLACK43408 UPBROW31189 1.000000
    SLACK43409 UPBROW31190 1.000000
    SLACK43410 UPBROW31191 1.000000
    SLACK43411 UPBROW31192 1.000000
    SLACK43412 UPBROW31193 1.000000
    SLACK43413 UPBROW31194 1.000000
    SLACK43414 UPBROW31195 1.000000
    SLACK43415 UPBROW31196 1.000000
    SLACK43416 UPBROW31197 1.000000
    SLACK43417 UPBROW31198 1.000000
    SLACK43418 UPBROW31199 1.000000
    SLACK43419 UPBROW31200 1.000000
    SLACK43420 UPBROW31201 1.000000
    SLACK43421 UPBROW31202 1.000000
    SLACK43422 UPBROW31203 1.000000
    SLACK43423 UPBROW31204 1.000000
    SLACK43424 UPBROW31205 1.000000
    SLACK43425 UPBROW31206 1.000000
    SLACK43426 UPBROW31207 1.000000
    SLACK43427 UPBROW31208 1.000000
    SLACK43428 UPBROW31209 1.000000
    SLACK43429 UPBROW31210 1.000000
    SLACK43430 UPBROW31211 1.000000
    SLACK43431 UPBROW31212 1.000000
    SLACK43432 UPBROW31213 1.000000
    SLACK43433 UPBROW31214 1.000000
    SLACK43434 UPBROW31215 1.000000
    SLACK43435 UPBROW31216 1.000000
    SLACK43436 UPBROW31217 1.000000
    SLACK43437 UPBROW31218 1.000000
    SLACK43438 UPBROW31219 1.000000
    SLACK43439 UPBROW31220 1.000000
    SLACK43440 UPBROW31221 1.000000
    SLACK43441 UPBROW31222 1.000000
    SLACK43442 UPBROW31223 1.000000
    SLACK43443 UPBROW31224 1.000000
    SLACK43444 UPBROW31225 1.000000
    SLACK43445 UPBROW31226 1.000000
    SLACK43446 UPBROW31227 1.000000
    SLACK43447 UPBROW31228 1.000000
    SLACK43448 UPBROW31229 1.000000
    SLACK43449 UPBROW31230 1.000000
    SLACK43450 UPBROW31231 1.000000
    SLACK43451 UPBROW31232 1.000000
    SLACK43452 UPBROW31233 1.000000
    SLACK43453 UPBROW31234 1.000000
    SLACK43454 UPBROW31235 1.000000
    SLACK43455 UPBROW31236 1.000000
    SLACK43456 UPBROW31237 1.000000
    SLACK43457 UPBROW31238 1.000000
    SLACK43458 UPBROW31239 1.000000
    SLACK43459 UPBROW31240 1.000000
    SLACK43460 UPBROW31241 1.000000
    SLACK43461 UPBROW31242 1.000000
    SLACK43462 UPBROW31243 1.000000
    SLACK43463 UPBROW31244 1.000000
    SLACK43464 UPBROW31245 1.000000
    SLACK43465 UPBROW31246 1.000000
    SLACK43466 UPBROW31247 1.000000
    SLACK43467 UPBROW31248 1.000000
    SLACK43468 UPBROW31249 1.000000
    SLACK43469 UPBROW31250 1.000000
    SLACK43470 UPBROW31251 1.000000
    SLACK43471 UPBROW31252 1.000000
    SLACK43472 UPBROW31253 1.000000
    SLACK43473 UPBROW31254 1.000000
    SLACK43474 UPBROW31255 1.000000
    SLACK43475 UPBROW31256 1.000000
    SLACK43476 UPBROW31257 1.000000
    SLACK43477 UPBROW31258 1.000000
    SLACK43478 UPBROW31259 1.000000
    SLACK43479 UPBROW31260 1.000000
    SLACK43480 UPBROW31261 1.000000
    SLACK43481 UPBROW31262 1.000000
    SLACK43482 UPBROW31263 1.000000
    SLACK43483 UPBROW31264 1.000000
    SLACK43484 UPBROW31265 1.000000
    SLACK43485 UPBROW31266 1.000000
    SLACK43486 UPBROW31267 1.000000
    SLACK43487 UPBROW31268 1.000000
    SLACK43488 UPBROW31269 1.000000
    SLACK43489 UPBROW31270 1.000000
    SLACK43490 UPBROW31271 1.000000
    SLACK43491 UPBROW31272 1.000000
    SLACK43492 UPBROW31273 1.000000
    SLACK43493 UPBROW31274 1.000000
    SLACK43494 UPBROW31275 1.000000
    SLACK43495 UPBROW31276 1.000000
    SLACK43496 UPBROW31277 1.000000
    SLACK43497 UPBROW31278 1.000000
    SLACK43498 UPBROW31279 1.000000
    SLACK43499 UPBROW31280 1.000000
    SLACK43500 UPBROW31281 1.000000
    SLACK43501 UPBROW31282 1.000000
    SLACK43502 UPBROW31283 1.000000
    SLACK43503 UPBROW31284 1.000000
    SLACK43504 UPBROW31285 1.000000
    SLACK43505 UPBROW31286 1.000000
    SLACK43506 UPBROW31287 1.000000
    SLACK43507 UPBROW31288 1.000000
    SLACK43508 UPBROW31289 1.000000
    SLACK43509 UPBROW31290 1.000000
    SLACK43510 UPBROW31291 1.000000
    SLACK43511 UPBROW31292 1.000000
    SLACK43512 UPBROW31293 1.000000
    SLACK43513 UPBROW31294 1.000000
    SLACK43514 UPBROW31295 1.000000
    SLACK43515 UPBROW31296 1.000000
    SLACK43516 UPBROW31297 1.000000
    SLACK43517 UPBROW31298 1.000000
    SLACK43518 UPBROW31299 1.000000
    SLACK43519 UPBROW31300 1.000000
    SLACK43520 UPBROW31301 1.000000
    SLACK43521 UPBROW31302 1.000000
    SLACK43522 UPBROW31303 1.000000
    SLACK43523 UPBROW31304 1.000000
    SLACK43524 UPBROW31305 1.000000
    SLACK43525 UPBROW31306 1.000000
    SLACK43526 UPBROW31307 1.000000
    SLACK43527 UPBROW31308 1.000000
    SLACK43528 UPBROW31309 1.000000
    SLACK43529 UPBROW31310 1.000000
    SLACK43530 UPBROW31311 1.000000
    SLACK43531 UPBROW31312 1.000000
    SLACK43532 UPBROW31313 1.000000
    SLACK43533 UPBROW31314 1.000000
    SLACK43534 UPBROW31315 1.000000
    SLACK43535 UPBROW31316 1.000000
    SLACK43536 UPBROW31317 1.000000
    SLACK43537 UPBROW31318 1.000000
    SLACK43538 UPBROW31319 1.000000
    SLACK43539 UPBROW31320 1.000000
    SLACK43540 UPBROW31321 1.000000
    SLACK43541 UPBROW31322 1.000000
    SLACK43542 UPBROW31323 1.000000
    SLACK43543 UPBROW31324 1.000000
    SLACK43544 UPBROW31325 1.000000
    SLACK43545 UPBROW31326 1.000000
    SLACK43546 UPBROW31327 1.000000
    SLACK43547 UPBROW31328 1.000000
    SLACK43548 UPBROW31329 1.000000
    SLACK43549 UPBROW31330 1.000000
    SLACK43550 UPBROW31331 1.000000
    SLACK43551 UPBROW31332 1.000000
    SLACK43552 UPBROW31333 1.000000
    SLACK43553 UPBROW31334 1.000000
    SLACK43554 UPBROW31335 1.000000
    SLACK43555 UPBROW31336 1.000000
    SLACK43556 UPBROW31337 1.000000
    SLACK43557 UPBROW31338 1.000000
    SLACK43558 UPBROW31339 1.000000
    SLACK43559 UPBROW31340 1.000000
    SLACK43560 UPBROW31341 1.000000
    SLACK43561 UPBROW31342 1.000000
    SLACK43562 UPBROW31343 1.000000
    SLACK43563 UPBROW31344 1.000000
    SLACK43564 UPBROW31345 1.000000
    SLACK43565 UPBROW31346 1.000000
    SLACK43566 UPBROW31347 1.000000
    SLACK43567 UPBROW31348 1.000000
    SLACK43568 UPBROW31349 1.000000
    SLACK43569 UPBROW31350 1.000000
    SLACK43570 UPBROW31351 1.000000
    SLACK43571 UPBROW31352 1.000000
    SLACK43572 UPBROW31353 1.000000
    SLACK43573 UPBROW31354 1.000000
    SLACK43574 UPBROW31355 1.000000
    SLACK43575 UPBROW31356 1.000000
    SLACK43576 UPBROW31357 1.000000
    SLACK43577 UPBROW31358 1.000000
    SLACK43578 UPBROW31359 1.000000
    SLACK43579 UPBROW31360 1.000000
    SLACK43580 UPBROW31361 1.000000
    SLACK43581 UPBROW31362 1.000000
    SLACK43582 UPBROW31363 1.000000
    SLACK43583 UPBROW31364 1.000000
    SLACK43584 UPBROW31365 1.000000
    SLACK43585 UPBROW31366 1.000000
    SLACK43586 UPBROW31367 1.000000
    SLACK43587 UPBROW31368 1.000000
    SLACK43588 UPBROW31369 1.000000
    SLACK43589 UPBROW31370 1.000000
    SLACK43590 UPBROW31371 1.000000
    SLACK43591 UPBROW31372 1.000000
    SLACK43592 UPBROW31373 1.000000
    SLACK43593 UPBROW31374 1.000000
    SLACK43594 UPBROW31375 1.000000
    SLACK43595 UPBROW31376 1.000000
    SLACK43596 UPBROW31377 1.000000
    SLACK43597 UPBROW31378 1.000000
    SLACK43598 UPBROW31379 1.000000
    SLACK43599 UPBROW31380 1.000000
    SLACK43600 UPBROW31381 1.000000
    SLACK43601 UPBROW31382 1.000000
    SLACK43602 UPBROW31383 1.000000
    SLACK43603 UPBROW31384 1.000000
    SLACK43604 UPBROW31385 1.000000
    SLACK43605 UPBROW31386 1.000000
    SLACK43606 UPBROW31387 1.000000
    SLACK43607 UPBROW31388 1.000000
    SLACK43608 UPBROW31389 1.000000
    SLACK43609 UPBROW31390 1.000000
    SLACK43610 UPBROW31391 1.000000
    SLACK43611 UPBROW31392 1.000000
    SLACK43612 UPBROW31393 1.000000
    SLACK43613 UPBROW31394 1.000000
    SLACK43614 UPBROW31395 1.000000
    SLACK43615 UPBROW31396 1.000000
    SLACK43616 UPBROW31397 1.000000
    SLACK43617 UPBROW31398 1.000000
    SLACK43618 UPBROW31399 1.000000
    SLACK43619 UPBROW31400 1.000000
    SLACK43620 UPBROW31401 1.000000
    SLACK43621 UPBROW31402 1.000000
    SLACK43622 UPBROW31403 1.000000
    SLACK43623 UPBROW31404 1.000000
    SLACK43624 UPBROW31405 1.000000
    SLACK43625 UPBROW31406 1.000000
    SLACK43626 UPBROW31407 1.000000
    SLACK43627 UPBROW31408 1.000000
    SLACK43628 UPBROW31409 1.000000
    SLACK43629 UPBROW31410 1.000000
    SLACK43630 UPBROW31411 1.000000
    SLACK43631 UPBROW31412 1.000000
    SLACK43632 UPBROW31413 1.000000
    SLACK43633 UPBROW31414 1.000000
    SLACK43634 UPBROW31415 1.000000
    SLACK43635 UPBROW31416 1.000000
    SLACK43636 UPBROW31417 1.000000
    SLACK43637 UPBROW31418 1.000000
    SLACK43638 UPBROW31419 1.000000
    SLACK43639 UPBROW31420 1.000000
    SLACK43640 UPBROW31421 1.000000
    SLACK43641 UPBROW31422 1.000000
    SLACK43642 UPBROW31423 1.000000
    SLACK43643 UPBROW31424 1.000000
    SLACK43644 UPBROW31425 1.000000
    SLACK43645 UPBROW31426 1.000000
    SLACK43646 UPBROW31427 1.000000
    SLACK43647 UPBROW31428 1.000000
    SLACK43648 UPBROW31429 1.000000
    SLACK43649 UPBROW31430 1.000000
    SLACK43650 UPBROW31431 1.000000
    SLACK43651 UPBROW31432 1.000000
    SLACK43652 UPBROW31433 1.000000
    SLACK43653 UPBROW31434 1.000000
    SLACK43654 UPBROW31435 1.000000
    SLACK43655 UPBROW31436 1.000000
    SLACK43656 UPBROW31437 1.000000
    SLACK43657 UPBROW31438 1.000000
    SLACK43658 UPBROW31439 1.000000
    SLACK43659 UPBROW31440 1.000000
    SLACK43660 UPBROW31441 1.000000
    SLACK43661 UPBROW31442 1.000000
    SLACK43662 UPBROW31443 1.000000
    SLACK43663 UPBROW31444 1.000000
    SLACK43664 UPBROW31445 1.000000
    SLACK43665 UPBROW31446 1.000000
    SLACK43666 UPBROW31447 1.000000
    SLACK43667 UPBROW31448 1.000000
    SLACK43668 UPBROW31449 1.000000
    SLACK43669 UPBROW31450 1.000000
    SLACK43670 UPBROW31451 1.000000
    SLACK43671 UPBROW31452 1.000000
    SLACK43672 UPBROW31453 1.000000
    SLACK43673 UPBROW31454 1.000000
    SLACK43674 UPBROW31455 1.000000
    SLACK43675 UPBROW31456 1.000000
    SLACK43676 UPBROW31457 1.000000
    SLACK43677 UPBROW31458 1.000000
    SLACK43678 UPBROW31459 1.000000
    SLACK43679 UPBROW31460 1.000000
    SLACK43680 UPBROW31461 1.000000
    SLACK43681 UPBROW31462 1.000000
    SLACK43682 UPBROW31463 1.000000
    SLACK43683 UPBROW31464 1.000000
    SLACK43684 UPBROW31465 1.000000
    SLACK43685 UPBROW31466 1.000000
    SLACK43686 UPBROW31467 1.000000
    SLACK43687 UPBROW31468 1.000000
    SLACK43688 UPBROW31469 1.000000
    SLACK43689 UPBROW31470 1.000000
    SLACK43690 UPBROW31471 1.000000
    SLACK43691 UPBROW31472 1.000000
    SLACK43692 UPBROW31473 1.000000
    SLACK43693 UPBROW31474 1.000000
    SLACK43694 UPBROW31475 1.000000
    SLACK43695 UPBROW31476 1.000000
    SLACK43696 UPBROW31477 1.000000
    SLACK43697 UPBROW31478 1.000000
    SLACK43698 UPBROW31479 1.000000
    SLACK43699 UPBROW31480 1.000000
    SLACK43700 UPBROW31481 1.000000
    SLACK43701 UPBROW31482 1.000000
    SLACK43702 UPBROW31483 1.000000
    SLACK43703 UPBROW31484 1.000000
    SLACK43704 UPBROW31485 1.000000
    SLACK43705 UPBROW31486 1.000000
    SLACK43706 UPBROW31487 1.000000
RHS
    RHS      REVENUE  0.000000
    BOUNDRHS UPBROW30608 9092.000000
    BOUNDRHS UPBROW30609 170945.000000
    BOUNDRHS UPBROW30610 118929.000000
    BOUNDRHS UPBROW30611 66657.000000
    BOUNDRHS UPBROW30612 30725.000000
    BOUNDRHS UPBROW30613 62908.000000
    BOUNDRHS UPBROW30614 34040.000000
    BOUNDRHS UPBROW30615 41181.000000
    BOUNDRHS UPBROW30616 29482.000000
    BOUNDRHS UPBROW30617 147545.000000
    BOUNDRHS UPBROW30618 381262.000000
    BOUNDRHS UPBROW30619 5921.000000
    BOUNDRHS UPBROW30620 17331.000000
    BOUNDRHS UPBROW30621 61931.000000
    BOUNDRHS UPBROW30622 33159.000000
    BOUNDRHS UPBROW30623 22639.000000
    BOUNDRHS UPBROW30624 1104726.000000
    BOUNDRHS UPBROW30625 9092.000000
    BOUNDRHS UPBROW30626 170945.000000
    BOUNDRHS UPBROW30627 118929.000000
    BOUNDRHS UPBROW30628 66657.000000
    BOUNDRHS UPBROW30629 30725.000000
    BOUNDRHS UPBROW30630 62908.000000
    BOUNDRHS UPBROW30631 34040.000000
    BOUNDRHS UPBROW30632 41181.000000
    BOUNDRHS UPBROW30633 29482.000000
    BOUNDRHS UPBROW30634 147545.000000
    BOUNDRHS UPBROW30635 381262.000000
    BOUNDRHS UPBROW30636 5921.000000
    BOUNDRHS UPBROW30637 17331.000000
    BOUNDRHS UPBROW30638 61931.000000
    BOUNDRHS UPBROW30639 33159.000000
    BOUNDRHS UPBROW30640 22639.000000
    BOUNDRHS UPBROW30641 1104726.000000
    BOUNDRHS UPBROW30642 9092.000000
    BOUNDRHS UPBROW30643 170945.000000
    BOUNDRHS UPBROW30644 118929.000000
    BOUNDRHS UPBROW30645 66657.000000
    BOUNDRHS UPBROW30646 30725.000000
    BOUNDRHS UPBROW30647 62908.000000
    BOUNDRHS UPBROW30648 34040.000000
    BOUNDRHS UPBROW30649 41181.000000
    BOUNDRHS UPBROW30650 29482.000000
    BOUNDRHS UPBROW30651 147545.000000
    BOUNDRHS UPBROW30652 381262.000000
    BOUNDRHS UPBROW30653 5921.000000
    BOUNDRHS UPBROW30654 17331.000000
    BOUNDRHS UPBROW30655 61931.000000
    BOUNDRHS UPBROW30656 33159.000000
    BOUNDRHS UPBROW30657 22639.000000
    BOUNDRHS UPBROW30658 1104726.000000
    BOUNDRHS UPBROW30659 9092.000000
    BOUNDRHS UPBROW30660 170945.000000
    BOUNDRHS UPBROW30661 118929.000000
    BOUNDRHS UPBROW30662 66657.000000
    BOUNDRHS UPBROW30663 30725.000000
    BOUNDRHS UPBROW30664 62908.000000
    BOUNDRHS UPBROW30665 34040.000000
    BOUNDRHS UPBROW30666 41181.000000
    BOUNDRHS UPBROW30667 29482.000000
    BOUNDRHS UPBROW30668 147545.000000
    BOUNDRHS UPBROW30669 381262.000000
    BOUNDRHS UPBROW30670 5921.000000
    BOUNDRHS UPBROW30671 17331.000000
    BOUNDRHS UPBROW30672 61931.000000
    BOUNDRHS UPBROW30673 33159.000000
    BOUNDRHS UPBROW30674 22639.000000
    BOUNDRHS UPBROW30675 1104726.000000
    BOUNDRHS UPBROW30676 9092.000000
    BOUNDRHS UPBROW30677 170945.000000
    BOUNDRHS UPBROW30678 118929.000000
    BOUNDRHS UPBROW30679 66657.000000
    BOUNDRHS UPBROW30680 30725.000000
    BOUNDRHS UPBROW30681 62908.000000
    BOUNDRHS UPBROW30682 34040.000000
    BOUNDRHS UPBROW30683 41181.000000
    BOUNDRHS UPBROW30684 29482.000000
    BOUNDRHS UPBROW30685 147545.000000
    BOUNDRHS UPBROW30686 381262.000000
    BOUNDRHS UPBROW30687 5921.000000
    BOUNDRHS UPBROW30688 17331.000000
    BOUNDRHS UPBROW30689 61931.000000
    BOUNDRHS UPBROW30690 33159.000000
    BOUNDRHS UPBROW30691 22639.000000
    BOUNDRHS UPBROW30692 1104726.000000
    BOUNDRHS UPBROW30693 9092.000000
    BOUNDRHS UPBROW30694 170945.000000
    BOUNDRHS UPBROW30695 118929.000000
    BOUNDRHS UPBROW30696 66657.000000
    BOUNDRHS UPBROW30697 30725.000000
    BOUNDRHS UPBROW30698 62908.000000
    BOUNDRHS UPBROW30699 34040.000000
    BOUNDRHS UPBROW30700 41181.000000
    BOUNDRHS UPBROW30701 29482.000000
    BOUNDRHS UPBROW30702 147545.000000
    BOUNDRHS UPBROW30703 381262.000000
    BOUNDRHS UPBROW30704 5921.000000
    BOUNDRHS UPBROW30705 17331.000000
    BOUNDRHS UPBROW30706 61931.000000
    BOUNDRHS UPBROW30707 33159.000000
    BOUNDRHS UPBROW30708 22639.000000
    BOUNDRHS UPBROW30709 1104726.000000
    BOUNDRHS UPBROW30710 9092.000000
    BOUNDRHS UPBROW30711 170945.000000
    BOUNDRHS UPBROW30712 118929.000000
    BOUNDRHS UPBROW30713 66657.000000
    BOUNDRHS UPBROW30714 30725.000000
    BOUNDRHS UPBROW30715 62908.000000
    BOUNDRHS UPBROW30716 34040.000000
    BOUNDRHS UPBROW30717 41181.000000
    BOUNDRHS UPBROW30718 29482.000000
    BOUNDRHS UPBROW30719 147545.000000
    BOUNDRHS UPBROW30720 381262.000000
    BOUNDRHS UPBROW30721 5921.000000
    BOUNDRHS UPBROW30722 17331.000000
    BOUNDRHS UPBROW30723 61931.000000
    BOUNDRHS UPBROW30724 33159.000000
    BOUNDRHS UPBROW30725 22639.000000
    BOUNDRHS UPBROW30726 1104726.000000
    BOUNDRHS UPBROW30727 9092.000000
    BOUNDRHS UPBROW30728 170945.000000
    BOUNDRHS UPBROW30729 118929.000000
    BOUNDRHS UPBROW30730 66657.000000
    BOUNDRHS UPBROW30731 30725.000000
    BOUNDRHS UPBROW30732 62908.000000
    BOUNDRHS UPBROW30733 34040.000000
    BOUNDRHS UPBROW30734 41181.000000
    BOUNDRHS UPBROW30735 29482.000000
    BOUNDRHS UPBROW30736 147545.000000
    BOUNDRHS UPBROW30737 381262.000000
    BOUNDRHS UPBROW30738 5921.000000
    BOUNDRHS UPBROW30739 17331.000000
    BOUNDRHS UPBROW30740 61931.000000
    BOUNDRHS UPBROW30741 33159.000000
    BOUNDRHS UPBROW30742 22639.000000
    BOUNDRHS UPBROW30743 1104726.000000
    BOUNDRHS UPBROW30744 9092.000000
    BOUNDRHS UPBROW30745 170945.000000
    BOUNDRHS UPBROW30746 118929.000000
    BOUNDRHS UPBROW30747 66657.000000
    BOUNDRHS UPBROW30748 30725.000000
    BOUNDRHS UPBROW30749 62908.000000
    BOUNDRHS UPBROW30750 34040.000000
    BOUNDRHS UPBROW30751 41181.000000
    BOUNDRHS UPBROW30752 29482.000000
    BOUNDRHS UPBROW30753 147545.000000
    BOUNDRHS UPBROW30754 381262.000000
    BOUNDRHS UPBROW30755 5921.000000
    BOUNDRHS UPBROW30756 17331.000000
    BOUNDRHS UPBROW30757 61931.000000
    BOUNDRHS UPBROW30758 33159.000000
    BOUNDRHS UPBROW30759 22639.000000
    BOUNDRHS UPBROW30760 1104726.000000
    BOUNDRHS UPBROW30761 9092.000000
    BOUNDRHS UPBROW30762 170945.000000
    BOUNDRHS UPBROW30763 118929.000000
    BOUNDRHS UPBROW30764 66657.000000
    BOUNDRHS UPBROW30765 30725.000000
    BOUNDRHS UPBROW30766 62908.000000
    BOUNDRHS UPBROW30767 34040.000000
    BOUNDRHS UPBROW30768 41181.000000
    BOUNDRHS UPBROW30769 29482.000000
    BOUNDRHS UPBROW30770 147545.000000
    BOUNDRHS UPBROW30771 381262.000000
    BOUNDRHS UPBROW30772 5921.000000
    BOUNDRHS UPBROW30773 17331.000000
    BOUNDRHS UPBROW30774 61931.000000
    BOUNDRHS UPBROW30775 33159.000000
    BOUNDRHS UPBROW30776 22639.000000
    BOUNDRHS UPBROW30777 1104726.000000
    BOUNDRHS UPBROW30778 9092.000000
    BOUNDRHS UPBROW30779 170945.000000
    BOUNDRHS UPBROW30780 118929.000000
    BOUNDRHS UPBROW30781 66657.000000
    BOUNDRHS UPBROW30782 30725.000000
    BOUNDRHS UPBROW30783 62908.000000
    BOUNDRHS UPBROW30784 34040.000000
    BOUNDRHS UPBROW30785 41181.000000
    BOUNDRHS UPBROW30786 29482.000000
    BOUNDRHS UPBROW30787 147545.000000
    BOUNDRHS UPBROW30788 381262.000000
    BOUNDRHS UPBROW30789 5921.000000
    BOUNDRHS UPBROW30790 17331.000000
    BOUNDRHS UPBROW30791 61931.000000
    BOUNDRHS UPBROW30792 33159.000000
    BOUNDRHS UPBROW30793 22639.000000
    BOUNDRHS UPBROW30794 1104726.000000
    BOUNDRHS UPBROW30795 9092.000000
    BOUNDRHS UPBROW30796 170945.000000
    BOUNDRHS UPBROW30797 118929.000000
    BOUNDRHS UPBROW30798 66657.000000
    BOUNDRHS UPBROW30799 30725.000000
    BOUNDRHS UPBROW30800 62908.000000
    BOUNDRHS UPBROW30801 34040.000000
    BOUNDRHS UPBROW30802 41181.000000
    BOUNDRHS UPBROW30803 29482.000000
    BOUNDRHS UPBROW30804 147545.000000
    BOUNDRHS UPBROW30805 381262.000000
    BOUNDRHS UPBROW30806 5921.000000
    BOUNDRHS UPBROW30807 17331.000000
    BOUNDRHS UPBROW30808 61931.000000
    BOUNDRHS UPBROW30809 33159.000000
    BOUNDRHS UPBROW30810 22639.000000
    BOUNDRHS UPBROW30811 1104726.000000
    BOUNDRHS UPBROW30812 9092.000000
    BOUNDRHS UPBROW30813 170945.000000
    BOUNDRHS UPBROW30814 118929.000000
    BOUNDRHS UPBROW30815 66657.000000
    BOUNDRHS UPBROW30816 30725.000000
    BOUNDRHS UPBROW30817 62908.000000
    BOUNDRHS UPBROW30818 34040.000000
    BOUNDRHS UPBROW30819 41181.000000
    BOUNDRHS UPBROW30820 29482.000000
    BOUNDRHS UPBROW30821 147545.000000
    BOUNDRHS UPBROW30822 381262.000000
    BOUNDRHS UPBROW30823 5921.000000
    BOUNDRHS UPBROW30824 17331.000000
    BOUNDRHS UPBROW30825 61931.000000
    BOUNDRHS UPBROW30826 33159.000000
    BOUNDRHS UPBROW30827 22639.000000
    BOUNDRHS UPBROW30828 1104726.000000
    BOUNDRHS UPBROW30829 9092.000000
    BOUNDRHS UPBROW30830 170945.000000
    BOUNDRHS UPBROW30831 118929.000000
    BOUNDRHS UPBROW30832 66657.000000
    BOUNDRHS UPBROW30833 30725.000000
    BOUNDRHS UPBROW30834 62908.000000
    BOUNDRHS UPBROW30835 34040.000000
    BOUNDRHS UPBROW30836 41181.000000
    BOUNDRHS UPBROW30837 29482.000000
    BOUNDRHS UPBROW30838 147545.000000
    BOUNDRHS UPBROW30839 381262.000000
    BOUNDRHS UPBROW30840 5921.000000
    BOUNDRHS UPBROW30841 17331.000000
    BOUNDRHS UPBROW30842 61931.000000
    BOUNDRHS UPBROW30843 33159.000000
    BOUNDRHS UPBROW30844 22639.000000
    BOUNDRHS UPBROW30845 1104726.000000
    BOUNDRHS UPBROW30846 9092.000000
    BOUNDRHS UPBROW30847 170945.000000
    BOUNDRHS UPBROW30848 118929.000000
    BOUNDRHS UPBROW30849 66657.000000
    BOUNDRHS UPBROW30850 30725.000000
    BOUNDRHS UPBROW30851 62908.000000
    BOUNDRHS UPBROW30852 34040.000000
    BOUNDRHS UPBROW30853 41181.000000
    BOUNDRHS UPBROW30854 29482.000000
    BOUNDRHS UPBROW30855 147545.000000
    BOUNDRHS UPBROW30856 381262.000000
    BOUNDRHS UPBROW30857 5921.000000
    BOUNDRHS UPBROW30858 17331.000000
    BOUNDRHS UPBROW30859 61931.000000
    BOUNDRHS UPBROW30860 33159.000000
    BOUNDRHS UPBROW30861 22639.000000
    BOUNDRHS UPBROW30862 1104726.000000
    BOUNDRHS UPBROW30863 9092.000000
    BOUNDRHS UPBROW30864 170945.000000
    BOUNDRHS UPBROW30865 118929.000000
    BOUNDRHS UPBROW30866 66657.000000
    BOUNDRHS UPBROW30867 30725.000000
    BOUNDRHS UPBROW30868 62908.000000
    BOUNDRHS UPBROW30869 34040.000000
    BOUNDRHS UPBROW30870 41181.000000
    BOUNDRHS UPBROW30871 29482.000000
    BOUNDRHS UPBROW30872 147545.000000
    BOUNDRHS UPBROW30873 381262.000000
    BOUNDRHS UPBROW30874 5921.000000
    BOUNDRHS UPBROW30875 17331.000000
    BOUNDRHS UPBROW30876 61931.000000
    BOUNDRHS UPBROW30877 33159.000000
    BOUNDRHS UPBROW30878 22639.000000
    BOUNDRHS UPBROW30879 1104726.000000
    BOUNDRHS UPBROW30880 9092.000000
    BOUNDRHS UPBROW30881 170945.000000
    BOUNDRHS UPBROW30882 118929.000000
    BOUNDRHS UPBROW30883 66657.000000
    BOUNDRHS UPBROW30884 30725.000000
    BOUNDRHS UPBROW30885 62908.000000
    BOUNDRHS UPBROW30886 34040.000000
    BOUNDRHS UPBROW30887 41181.000000
    BOUNDRHS UPBROW30888 29482.000000
    BOUNDRHS UPBROW30889 147545.000000
    BOUNDRHS UPBROW30890 381262.000000
    BOUNDRHS UPBROW30891 5921.000000
    BOUNDRHS UPBROW30892 17331.000000
    BOUNDRHS UPBROW30893 61931.000000
    BOUNDRHS UPBROW30894 33159.000000
    BOUNDRHS UPBROW30895 22639.000000
    BOUNDRHS UPBROW30896 1104726.000000
    BOUNDRHS UPBROW30897 9092.000000
    BOUNDRHS UPBROW30898 170945.000000
    BOUNDRHS UPBROW30899 118929.000000
    BOUNDRHS UPBROW30900 66657.000000
    BOUNDRHS UPBROW30901 30725.000000
    BOUNDRHS UPBROW30902 62908.000000
    BOUNDRHS UPBROW30903 34040.000000
    BOUNDRHS UPBROW30904 41181.000000
    BOUNDRHS UPBROW30905 29482.000000
    BOUNDRHS UPBROW30906 147545.000000
    BOUNDRHS UPBROW30907 381262.000000
    BOUNDRHS UPBROW30908 5921.000000
    BOUNDRHS UPBROW30909 17331.000000
    BOUNDRHS UPBROW30910 61931.000000
    BOUNDRHS UPBROW30911 33159.000000
    BOUNDRHS UPBROW30912 22639.000000
    BOUNDRHS UPBROW30913 1104726.000000
    BOUNDRHS UPBROW30914 9092.000000
    BOUNDRHS UPBROW30915 170945.000000
    BOUNDRHS UPBROW30916 118929.000000
    BOUNDRHS UPBROW30917 66657.000000
    BOUNDRHS UPBROW30918 30725.000000
    BOUNDRHS UPBROW30919 62908.000000
    BOUNDRHS UPBROW30920 34040.000000
    BOUNDRHS UPBROW30921 41181.000000
    BOUNDRHS UPBROW30922 29482.000000
    BOUNDRHS UPBROW30923 147545.000000
    BOUNDRHS UPBROW30924 381262.000000
    BOUNDRHS UPBROW30925 5921.000000
    BOUNDRHS UPBROW30926 17331.000000
    BOUNDRHS UPBROW30927 61931.000000
    BOUNDRHS UPBROW30928 33159.000000
    BOUNDRHS UPBROW30929 22639.000000
    BOUNDRHS UPBROW30930 1104726.000000
    BOUNDRHS UPBROW30931 9092.000000
    BOUNDRHS UPBROW30932 170945.000000
    BOUNDRHS UPBROW30933 118929.000000
    BOUNDRHS UPBROW30934 66657.000000
    BOUNDRHS UPBROW30935 30725.000000
    BOUNDRHS UPBROW30936 62908.000000
    BOUNDRHS UPBROW30937 34040.000000
    BOUNDRHS UPBROW30938 41181.000000
    BOUNDRHS UPBROW30939 29482.000000
    BOUNDRHS UPBROW30940 147545.000000
    BOUNDRHS UPBROW30941 381262.000000
    BOUNDRHS UPBROW30942 5921.000000
    BOUNDRHS UPBROW30943 17331.000000
    BOUNDRHS UPBROW30944 61931.000000
    BOUNDRHS UPBROW30945 33159.000000
    BOUNDRHS UPBROW30946 22639.000000
    BOUNDRHS UPBROW30947 1104726.000000
    BOUNDRHS UPBROW30948 9092.000000
    BOUNDRHS UPBROW30949 170945.000000
    BOUNDRHS UPBROW30950 118929.000000
    BOUNDRHS UPBROW30951 66657.000000
    BOUNDRHS UPBROW30952 30725.000000
    BOUNDRHS UPBROW30953 62908.000000
    BOUNDRHS UPBROW30954 34040.000000
    BOUNDRHS UPBROW30955 41181.000000
    BOUNDRHS UPBROW30956 29482.000000
    BOUNDRHS UPBROW30957 147545.000000
    BOUNDRHS UPBROW30958 381262.000000
    BOUNDRHS UPBROW30959 5921.000000
    BOUNDRHS UPBROW30960 17331.000000
    BOUNDRHS UPBROW30961 61931.000000
    BOUNDRHS UPBROW30962 33159.000000
    BOUNDRHS UPBROW30963 22639.000000
    BOUNDRHS UPBROW30964 1104726.000000
    BOUNDRHS UPBROW30965 9092.000000
    BOUNDRHS UPBROW30966 170945.000000
    BOUNDRHS UPBROW30967 118929.000000
    BOUNDRHS UPBROW30968 66657.000000
    BOUNDRHS UPBROW30969 30725.000000
    BOUNDRHS UPBROW30970 62908.000000
    BOUNDRHS UPBROW30971 34040.000000
    BOUNDRHS UPBROW30972 41181.000000
    BOUNDRHS UPBROW30973 29482.000000
    BOUNDRHS UPBROW30974 147545.000000
    BOUNDRHS UPBROW30975 381262.000000
    BOUNDRHS UPBROW30976 5921.000000
    BOUNDRHS UPBROW30977 17331.000000
    BOUNDRHS UPBROW30978 61931.000000
    BOUNDRHS UPBROW30979 33159.000000
    BOUNDRHS UPBROW30980 22639.000000
    BOUNDRHS UPBROW30981 1104726.000000
    BOUNDRHS UPBROW30982 750000.000000
    BOUNDRHS UPBROW30983 500000.000000
    BOUNDRHS UPBROW30984 1000000.000000
    BOUNDRHS UPBROW30985 750000.000000
    BOUNDRHS UPBROW30986 500000.000000
    BOUNDRHS UPBROW30987 1000000.000000
    BOUNDRHS UPBROW30988 750000.000000
    BOUNDRHS UPBROW30989 500000.000000
    BOUNDRHS UPBROW30990 1000000.000000
    BOUNDRHS UPBROW30991 750000.000000
    BOUNDRHS UPBROW30992 500000.000000
    BOUNDRHS UPBROW30993 1000000.000000
    BOUNDRHS UPBROW30994 750000.000000
    BOUNDRHS UPBROW30995 500000.000000
    BOUNDRHS UPBROW30996 1000000.000000
    BOUNDRHS UPBROW30997 750000.000000
    BOUNDRHS UPBROW30998 500000.000000
    BOUNDRHS UPBROW30999 1000000.000000
    BOUNDRHS UPBROW31000 750000.000000
    BOUNDRHS UPBROW31001 500000.000000
    BOUNDRHS UPBROW31002 1000000.000000
    BOUNDRHS UPBROW31003 750000.000000
    BOUNDRHS UPBROW31004 500000.000000
    BOUNDRHS UPBROW31005 1000000.000000
    BOUNDRHS UPBROW31006 750000.000000
    BOUNDRHS UPBROW31007 500000.000000
    BOUNDRHS UPBROW31008 1000000.000000
    BOUNDRHS UPBROW31009 750000.000000
    BOUNDRHS UPBROW31010 500000.000000
    BOUNDRHS UPBROW31011 1000000.000000
    BOUNDRHS UPBROW31012 750000.000000
    BOUNDRHS UPBROW31013 500000.000000
    BOUNDRHS UPBROW31014 1000000.000000
    BOUNDRHS UPBROW31015 750000.000000
    BOUNDRHS UPBROW31016 500000.000000
    BOUNDRHS UPBROW31017 1000000.000000
    BOUNDRHS UPBROW31018 750000.000000
    BOUNDRHS UPBROW31019 500000.000000
    BOUNDRHS UPBROW31020 1000000.000000
    BOUNDRHS UPBROW31021 750000.000000
    BOUNDRHS UPBROW31022 500000.000000
    BOUNDRHS UPBROW31023 1000000.000000
    BOUNDRHS UPBROW31024 750000.000000
    BOUNDRHS UPBROW31025 500000.000000
    BOUNDRHS UPBROW31026 1000000.000000
    BOUNDRHS UPBROW31027 750000.000000
    BOUNDRHS UPBROW31028 500000.000000
    BOUNDRHS UPBROW31029 1000000.000000
    BOUNDRHS UPBROW31030 750000.000000
    BOUNDRHS UPBROW31031 500000.000000
    BOUNDRHS UPBROW31032 1000000.000000
    BOUNDRHS UPBROW31033 750000.000000
    BOUNDRHS UPBROW31034 500000.000000
    BOUNDRHS UPBROW31035 1000000.000000
    BOUNDRHS UPBROW31036 750000.000000
    BOUNDRHS UPBROW31037 500000.000000
    BOUNDRHS UPBROW31038 1000000.000000
    BOUNDRHS UPBROW31039 750000.000000
    BOUNDRHS UPBROW31040 500000.000000
    BOUNDRHS UPBROW31041 1000000.000000
    BOUNDRHS UPBROW31042 750000.000000
    BOUNDRHS UPBROW31043 500000.000000
    BOUNDRHS UPBROW31044 1000000.000000
    BOUNDRHS UPBROW31045 750000.000000
    BOUNDRHS UPBROW31046 500000.000000
    BOUNDRHS UPBROW31047 1000000.000000
    BOUNDRHS UPBROW31048 4546.000000
    BOUNDRHS UPBROW31049 85472.500000
    BOUNDRHS UPBROW31050 59464.500000
    BOUNDRHS UPBROW31051 33328.500000
    BOUNDRHS UPBROW31052 15362.500000
    BOUNDRHS UPBROW31053 31454.000000
    BOUNDRHS UPBROW31054 17020.000000
    BOUNDRHS UPBROW31055 20590.500000
    BOUNDRHS UPBROW31056 14741.000000
    BOUNDRHS UPBROW31057 73772.500000
    BOUNDRHS UPBROW31058 190631.000000
    BOUNDRHS UPBROW31059 2960.500000
    BOUNDRHS UPBROW31060 8665.500000
    BOUNDRHS UPBROW31061 30965.500000
    BOUNDRHS UPBROW31062 16579.500000
    BOUNDRHS UPBROW31063 11319.500000
    BOUNDRHS UPBROW31064 552363.000000
    BOUNDRHS UPBROW31065 4546.000000
    BOUNDRHS UPBROW31066 85472.500000
    BOUNDRHS UPBROW31067 59464.500000
    BOUNDRHS UPBROW31068 33328.500000
    BOUNDRHS UPBROW31069 15362.500000
    BOUNDRHS UPBROW31070 31454.000000
    BOUNDRHS UPBROW31071 17020.000000
    BOUNDRHS UPBROW31072 20590.500000
    BOUNDRHS UPBROW31073 14741.000000
    BOUNDRHS UPBROW31074 73772.500000
    BOUNDRHS UPBROW31075 190631.000000
    BOUNDRHS UPBROW31076 2960.500000
    BOUNDRHS UPBROW31077 8665.500000
    BOUNDRHS UPBROW31078 30965.500000
    BOUNDRHS UPBROW31079 16579.500000
    BOUNDRHS UPBROW31080 11319.500000
    BOUNDRHS UPBROW31081 552363.000000
    BOUNDRHS UPBROW31082 4546.000000
    BOUNDRHS UPBROW31083 85472.500000
    BOUNDRHS UPBROW31084 59464.500000
    BOUNDRHS UPBROW31085 33328.500000
    BOUNDRHS UPBROW31086 15362.500000
    BOUNDRHS UPBROW31087 31454.000000
    BOUNDRHS UPBROW31088 17020.000000
    BOUNDRHS UPBROW31089 20590.500000
    BOUNDRHS UPBROW31090 14741.000000
    BOUNDRHS UPBROW31091 73772.500000
    BOUNDRHS UPBROW31092 190631.000000
    BOUNDRHS UPBROW31093 2960.500000
    BOUNDRHS UPBROW31094 8665.500000
    BOUNDRHS UPBROW31095 30965.500000
    BOUNDRHS UPBROW31096 16579.500000
    BOUNDRHS UPBROW31097 11319.500000
    BOUNDRHS UPBROW31098 552363.000000
    BOUNDRHS UPBROW31099 4546.000000
    BOUNDRHS UPBROW31100 85472.500000
    BOUNDRHS UPBROW31101 59464.500000
    BOUNDRHS UPBROW31102 33328.500000
    BOUNDRHS UPBROW31103 15362.500000
    BOUNDRHS UPBROW31104 31454.000000
    BOUNDRHS UPBROW31105 17020.000000
    BOUNDRHS UPBROW31106 20590.500000
    BOUNDRHS UPBROW31107 14741.000000
    BOUNDRHS UPBROW31108 73772.500000
    BOUNDRHS UPBROW31109 190631.000000
    BOUNDRHS UPBROW31110 2960.500000
    BOUNDRHS UPBROW31111 8665.500000
    BOUNDRHS UPBROW31112 30965.500000
    BOUNDRHS UPBROW31113 16579.500000
    BOUNDRHS UPBROW31114 11319.500000
    BOUNDRHS UPBROW31115 552363.000000
    BOUNDRHS UPBROW31116 4546.000000
    BOUNDRHS UPBROW31117 85472.500000
    BOUNDRHS UPBROW31118 59464.500000
    BOUNDRHS UPBROW31119 33328.500000
    BOUNDRHS UPBROW31120 15362.500000
    BOUNDRHS UPBROW31121 31454.000000
    BOUNDRHS UPBROW31122 17020.000000
    BOUNDRHS UPBROW31123 20590.500000
    BOUNDRHS UPBROW31124 14741.000000
    BOUNDRHS UPBROW31125 73772.500000
    BOUNDRHS UPBROW31126 190631.000000
    BOUNDRHS UPBROW31127 2960.500000
    BOUNDRHS UPBROW31128 8665.500000
    BOUNDRHS UPBROW31129 30965.500000
    BOUNDRHS UPBROW31130 16579.500000
    BOUNDRHS UPBROW31131 11319.500000
    BOUNDRHS UPBROW31132 552363.000000
    BOUNDRHS UPBROW31133 4546.000000
    BOUNDRHS UPBROW31134 85472.500000
    BOUNDRHS UPBROW31135 59464.500000
    BOUNDRHS UPBROW31136 33328.500000
    BOUNDRHS UPBROW31137 15362.500000
    BOUNDRHS UPBROW31138 31454.000000
    BOUNDRHS UPBROW31139 17020.000000
    BOUNDRHS UPBROW31140 20590.500000
    BOUNDRHS UPBROW31141 14741.000000
    BOUNDRHS UPBROW31142 73772.500000
    BOUNDRHS UPBROW31143 190631.000000
    BOUNDRHS UPBROW31144 2960.500000
    BOUNDRHS UPBROW31145 8665.500000
    BOUNDRHS UPBROW31146 30965.500000
    BOUNDRHS UPBROW31147 16579.500000
    BOUNDRHS UPBROW31148 11319.500000
    BOUNDRHS UPBROW31149 552363.000000
    BOUNDRHS UPBROW31150 4546.000000
    BOUNDRHS UPBROW31151 85472.500000
    BOUNDRHS UPBROW31152 59464.500000
    BOUNDRHS UPBROW31153 33328.500000
    BOUNDRHS UPBROW31154 15362.500000
    BOUNDRHS UPBROW31155 31454.000000
    BOUNDRHS UPBROW31156 17020.000000
    BOUNDRHS UPBROW31157 20590.500000
    BOUNDRHS UPBROW31158 14741.000000
    BOUNDRHS UPBROW31159 73772.500000
    BOUNDRHS UPBROW31160 190631.000000
    BOUNDRHS UPBROW31161 2960.500000
    BOUNDRHS UPBROW31162 8665.500000
    BOUNDRHS UPBROW31163 30965.500000
    BOUNDRHS UPBROW31164 16579.500000
    BOUNDRHS UPBROW31165 11319.500000
    BOUNDRHS UPBROW31166 552363.000000
    BOUNDRHS UPBROW31167 4546.000000
    BOUNDRHS UPBROW31168 85472.500000
    BOUNDRHS UPBROW31169 59464.500000
    BOUNDRHS UPBROW31170 33328.500000
    BOUNDRHS UPBROW31171 15362.500000
    BOUNDRHS UPBROW31172 31454.000000
    BOUNDRHS UPBROW31173 17020.000000
    BOUNDRHS UPBROW31174 20590.500000
    BOUNDRHS UPBROW31175 14741.000000
    BOUNDRHS UPBROW31176 73772.500000
    BOUNDRHS UPBROW31177 190631.000000
    BOUNDRHS UPBROW31178 2960.500000
    BOUNDRHS UPBROW31179 8665.500000
    BOUNDRHS UPBROW31180 30965.500000
    BOUNDRHS UPBROW31181 16579.500000
    BOUNDRHS UPBROW31182 11319.500000
    BOUNDRHS UPBROW31183 552363.000000
    BOUNDRHS UPBROW31184 4546.000000
    BOUNDRHS UPBROW31185 85472.500000
    BOUNDRHS UPBROW31186 59464.500000
    BOUNDRHS UPBROW31187 33328.500000
    BOUNDRHS UPBROW31188 15362.500000
    BOUNDRHS UPBROW31189 31454.000000
    BOUNDRHS UPBROW31190 17020.000000
    BOUNDRHS UPBROW31191 20590.500000
    BOUNDRHS UPBROW31192 14741.000000
    BOUNDRHS UPBROW31193 73772.500000
    BOUNDRHS UPBROW31194 190631.000000
    BOUNDRHS UPBROW31195 2960.500000
    BOUNDRHS UPBROW31196 8665.500000
    BOUNDRHS UPBROW31197 30965.500000
    BOUNDRHS UPBROW31198 16579.500000
    BOUNDRHS UPBROW31199 11319.500000
    BOUNDRHS UPBROW31200 552363.000000
    BOUNDRHS UPBROW31201 4546.000000
    BOUNDRHS UPBROW31202 85472.500000
    BOUNDRHS UPBROW31203 59464.500000
    BOUNDRHS UPBROW31204 33328.500000
    BOUNDRHS UPBROW31205 15362.500000
    BOUNDRHS UPBROW31206 31454.000000
    BOUNDRHS UPBROW31207 17020.000000
    BOUNDRHS UPBROW31208 20590.500000
    BOUNDRHS UPBROW31209 14741.000000
    BOUNDRHS UPBROW31210 73772.500000
    BOUNDRHS UPBROW31211 190631.000000
    BOUNDRHS UPBROW31212 2960.500000
    BOUNDRHS UPBROW31213 8665.500000
    BOUNDRHS UPBROW31214 30965.500000
    BOUNDRHS UPBROW31215 16579.500000
    BOUNDRHS UPBROW31216 11319.500000
    BOUNDRHS UPBROW31217 552363.000000
    BOUNDRHS UPBROW31218 4546.000000
    BOUNDRHS UPBROW31219 85472.500000
    BOUNDRHS UPBROW31220 59464.500000
    BOUNDRHS UPBROW31221 33328.500000
    BOUNDRHS UPBROW31222 15362.500000
    BOUNDRHS UPBROW31223 31454.000000
    BOUNDRHS UPBROW31224 17020.000000
    BOUNDRHS UPBROW31225 20590.500000
    BOUNDRHS UPBROW31226 14741.000000
    BOUNDRHS UPBROW31227 73772.500000
    BOUNDRHS UPBROW31228 190631.000000
    BOUNDRHS UPBROW31229 2960.500000
    BOUNDRHS UPBROW31230 8665.500000
    BOUNDRHS UPBROW31231 30965.500000
    BOUNDRHS UPBROW31232 16579.500000
    BOUNDRHS UPBROW31233 11319.500000
    BOUNDRHS UPBROW31234 552363.000000
    BOUNDRHS UPBROW31235 4546.000000
    BOUNDRHS UPBROW31236 85472.500000
    BOUNDRHS UPBROW31237 59464.500000
    BOUNDRHS UPBROW31238 33328.500000
    BOUNDRHS UPBROW31239 15362.500000
    BOUNDRHS UPBROW31240 31454.000000
    BOUNDRHS UPBROW31241 17020.000000
    BOUNDRHS UPBROW31242 20590.500000
    BOUNDRHS UPBROW31243 14741.000000
    BOUNDRHS UPBROW31244 73772.500000
    BOUNDRHS UPBROW31245 190631.000000
    BOUNDRHS UPBROW31246 2960.500000
    BOUNDRHS UPBROW31247 8665.500000
    BOUNDRHS UPBROW31248 30965.500000
    BOUNDRHS UPBROW31249 16579.500000
    BOUNDRHS UPBROW31250 11319.500000
    BOUNDRHS UPBROW31251 552363.000000
    BOUNDRHS UPBROW31252 4546.000000
    BOUNDRHS UPBROW31253 85472.500000
    BOUNDRHS UPBROW31254 59464.500000
    BOUNDRHS UPBROW31255 33328.500000
    BOUNDRHS UPBROW31256 15362.500000
    BOUNDRHS UPBROW31257 31454.000000
    BOUNDRHS UPBROW31258 17020.000000
    BOUNDRHS UPBROW31259 20590.500000
    BOUNDRHS UPBROW31260 14741.000000
    BOUNDRHS UPBROW31261 73772.500000
    BOUNDRHS UPBROW31262 190631.000000
    BOUNDRHS UPBROW31263 2960.500000
    BOUNDRHS UPBROW31264 8665.500000
    BOUNDRHS UPBROW31265 30965.500000
    BOUNDRHS UPBROW31266 16579.500000
    BOUNDRHS UPBROW31267 11319.500000
    BOUNDRHS UPBROW31268 552363.000000
    BOUNDRHS UPBROW31269 4546.000000
    BOUNDRHS UPBROW31270 85472.500000
    BOUNDRHS UPBROW31271 59464.500000
    BOUNDRHS UPBROW31272 33328.500000
    BOUNDRHS UPBROW31273 15362.500000
    BOUNDRHS UPBROW31274 31454.000000
    BOUNDRHS UPBROW31275 17020.000000
    BOUNDRHS UPBROW31276 20590.500000
    BOUNDRHS UPBROW31277 14741.000000
    BOUNDRHS UPBROW31278 73772.500000
    BOUNDRHS UPBROW31279 190631.000000
    BOUNDRHS UPBROW31280 2960.500000
    BOUNDRHS UPBROW31281 8665.500000
    BOUNDRHS UPBROW31282 30965.500000
    BOUNDRHS UPBROW31283 16579.500000
    BOUNDRHS UPBROW31284 11319.500000
    BOUNDRHS UPBROW31285 552363.000000
    BOUNDRHS UPBROW31286 4546.000000
    BOUNDRHS UPBROW31287 85472.500000
    BOUNDRHS UPBROW31288 59464.500000
    BOUNDRHS UPBROW31289 33328.500000
    BOUNDRHS UPBROW31290 15362.500000
    BOUNDRHS UPBROW31291 31454.000000
    BOUNDRHS UPBROW31292 17020.000000
    BOUNDRHS UPBROW31293 20590.500000
    BOUNDRHS UPBROW31294 14741.000000
    BOUNDRHS UPBROW31295 73772.500000
    BOUNDRHS UPBROW31296 190631.000000
    BOUNDRHS UPBROW31297 2960.500000
    BOUNDRHS UPBROW31298 8665.500000
    BOUNDRHS UPBROW31299 30965.500000
    BOUNDRHS UPBROW31300 16579.500000
    BOUNDRHS UPBROW31301 11319.500000
    BOUNDRHS UPBROW31302 552363.000000
    BOUNDRHS UPBROW31303 4546.000000
    BOUNDRHS UPBROW31304 85472.500000
    BOUNDRHS UPBROW31305 59464.500000
    BOUNDRHS UPBROW31306 33328.500000
    BOUNDRHS UPBROW31307 15362.500000
    BOUNDRHS UPBROW31308 31454.000000
    BOUNDRHS UPBROW31309 17020.000000
    BOUNDRHS UPBROW31310 20590.500000
    BOUNDRHS UPBROW31311 14741.000000
    BOUNDRHS UPBROW31312 73772.500000
    BOUNDRHS UPBROW31313 190631.000000
    BOUNDRHS UPBROW31314 2960.500000
    BOUNDRHS UPBROW31315 8665.500000
    BOUNDRHS UPBROW31316 30965.500000
    BOUNDRHS UPBROW31317 16579.500000
    BOUNDRHS UPBROW31318 11319.500000
    BOUNDRHS UPBROW31319 552363.000000
    BOUNDRHS UPBROW31320 4546.000000
    BOUNDRHS UPBROW31321 85472.500000
    BOUNDRHS UPBROW31322 59464.500000
    BOUNDRHS UPBROW31323 33328.500000
    BOUNDRHS UPBROW31324 15362.500000
    BOUNDRHS UPBROW31325 31454.000000
    BOUNDRHS UPBROW31326 17020.000000
    BOUNDRHS UPBROW31327 20590.500000
    BOUNDRHS UPBROW31328 14741.000000
    BOUNDRHS UPBROW31329 73772.500000
    BOUNDRHS UPBROW31330 190631.000000
    BOUNDRHS UPBROW31331 2960.500000
    BOUNDRHS UPBROW31332 8665.500000
    BOUNDRHS UPBROW31333 30965.500000
    BOUNDRHS UPBROW31334 16579.500000
    BOUNDRHS UPBROW31335 11319.500000
    BOUNDRHS UPBROW31336 552363.000000
    BOUNDRHS UPBROW31337 4546.000000
    BOUNDRHS UPBROW31338 85472.500000
    BOUNDRHS UPBROW31339 59464.500000
    BOUNDRHS UPBROW31340 33328.500000
    BOUNDRHS UPBROW31341 15362.500000
    BOUNDRHS UPBROW31342 31454.000000
    BOUNDRHS UPBROW31343 17020.000000
    BOUNDRHS UPBROW31344 20590.500000
    BOUNDRHS UPBROW31345 14741.000000
    BOUNDRHS UPBROW31346 73772.500000
    BOUNDRHS UPBROW31347 190631.000000
    BOUNDRHS UPBROW31348 2960.500000
    BOUNDRHS UPBROW31349 8665.500000
    BOUNDRHS UPBROW31350 30965.500000
    BOUNDRHS UPBROW31351 16579.500000
    BOUNDRHS UPBROW31352 11319.500000
    BOUNDRHS UPBROW31353 552363.000000
    BOUNDRHS UPBROW31354 4546.000000
    BOUNDRHS UPBROW31355 85472.500000
    BOUNDRHS UPBROW31356 59464.500000
    BOUNDRHS UPBROW31357 33328.500000
    BOUNDRHS UPBROW31358 15362.500000
    BOUNDRHS UPBROW31359 31454.000000
    BOUNDRHS UPBROW31360 17020.000000
    BOUNDRHS UPBROW31361 20590.500000
    BOUNDRHS UPBROW31362 14741.000000
    BOUNDRHS UPBROW31363 73772.500000
    BOUNDRHS UPBROW31364 190631.000000
    BOUNDRHS UPBROW31365 2960.500000
    BOUNDRHS UPBROW31366 8665.500000
    BOUNDRHS UPBROW31367 30965.500000
    BOUNDRHS UPBROW31368 16579.500000
    BOUNDRHS UPBROW31369 11319.500000
    BOUNDRHS UPBROW31370 552363.000000
    BOUNDRHS UPBROW31371 4546.000000
    BOUNDRHS UPBROW31372 85472.500000
    BOUNDRHS UPBROW31373 59464.500000
    BOUNDRHS UPBROW31374 33328.500000
    BOUNDRHS UPBROW31375 15362.500000
    BOUNDRHS UPBROW31376 31454.000000
    BOUNDRHS UPBROW31377 17020.000000
    BOUNDRHS UPBROW31378 20590.500000
    BOUNDRHS UPBROW31379 14741.000000
    BOUNDRHS UPBROW31380 73772.500000
    BOUNDRHS UPBROW31381 190631.000000
    BOUNDRHS UPBROW31382 2960.500000
    BOUNDRHS UPBROW31383 8665.500000
    BOUNDRHS UPBROW31384 30965.500000
    BOUNDRHS UPBROW31385 16579.500000
    BOUNDRHS UPBROW31386 11319.500000
    BOUNDRHS UPBROW31387 552363.000000
    BOUNDRHS UPBROW31388 4546.000000
    BOUNDRHS UPBROW31389 85472.500000
    BOUNDRHS UPBROW31390 59464.500000
    BOUNDRHS UPBROW31391 33328.500000
    BOUNDRHS UPBROW31392 15362.500000
    BOUNDRHS UPBROW31393 31454.000000
    BOUNDRHS UPBROW31394 17020.000000
    BOUNDRHS UPBROW31395 20590.500000
    BOUNDRHS UPBROW31396 14741.000000
    BOUNDRHS UPBROW31397 73772.500000
    BOUNDRHS UPBROW31398 190631.000000
    BOUNDRHS UPBROW31399 2960.500000
    BOUNDRHS UPBROW31400 8665.500000
    BOUNDRHS UPBROW31401 30965.500000
    BOUNDRHS UPBROW31402 16579.500000
    BOUNDRHS UPBROW31403 11319.500000
    BOUNDRHS UPBROW31404 552363.000000
    BOUNDRHS UPBROW31405 4546.000000
    BOUNDRHS UPBROW31406 85472.500000
    BOUNDRHS UPBROW31407 59464.500000
    BOUNDRHS UPBROW31408 33328.500000
    BOUNDRHS UPBROW31409 15362.500000
    BOUNDRHS UPBROW31410 31454.000000
    BOUNDRHS UPBROW31411 17020.000000
    BOUNDRHS UPBROW31412 20590.500000
    BOUNDRHS UPBROW31413 14741.000000
    BOUNDRHS UPBROW31414 73772.500000
    BOUNDRHS UPBROW31415 190631.000000
    BOUNDRHS UPBROW31416 2960.500000
    BOUNDRHS UPBROW31417 8665.500000
    BOUNDRHS UPBROW31418 30965.500000
    BOUNDRHS UPBROW31419 16579.500000
    BOUNDRHS UPBROW31420 11319.500000
    BOUNDRHS UPBROW31421 552363.000000
    BOUNDRHS UPBROW31422 375000.000000
    BOUNDRHS UPBROW31423 250000.000000
    BOUNDRHS UPBROW31424 500000.000000
    BOUNDRHS UPBROW31425 375000.000000
    BOUNDRHS UPBROW31426 250000.000000
    BOUNDRHS UPBROW31427 500000.000000
    BOUNDRHS UPBROW31428 375000.000000
    BOUNDRHS UPBROW31429 250000.000000
    BOUNDRHS UPBROW31430 500000.000000
    BOUNDRHS UPBROW31431 375000.000000
    BOUNDRHS UPBROW31432 250000.000000
    BOUNDRHS UPBROW31433 500000.000000
    BOUNDRHS UPBROW31434 375000.000000
    BOUNDRHS UPBROW31435 250000.000000
    BOUNDRHS UPBROW31436 500000.000000
    BOUNDRHS UPBROW31437 375000.000000
    BOUNDRHS UPBROW31438 250000.000000
    BOUNDRHS UPBROW31439 500000.000000
    BOUNDRHS UPBROW31440 375000.000000
    BOUNDRHS UPBROW31441 250000.000000
    BOUNDRHS UPBROW31442 500000.000000
    BOUNDRHS UPBROW31443 375000.000000
    BOUNDRHS UPBROW31444 250000.000000
    BOUNDRHS UPBROW31445 500000.000000
    BOUNDRHS UPBROW31446 375000.000000
    BOUNDRHS UPBROW31447 250000.000000
    BOUNDRHS UPBROW31448 500000.000000
    BOUNDRHS UPBROW31449 375000.000000
    BOUNDRHS UPBROW31450 250000.000000
    BOUNDRHS UPBROW31451 500000.000000
    BOUNDRHS UPBROW31452 375000.000000
    BOUNDRHS UPBROW31453 250000.000000
    BOUNDRHS UPBROW31454 500000.000000
    BOUNDRHS UPBROW31455 375000.000000
    BOUNDRHS UPBROW31456 250000.000000
    BOUNDRHS UPBROW31457 500000.000000
    BOUNDRHS UPBROW31458 375000.000000
    BOUNDRHS UPBROW31459 250000.000000
    BOUNDRHS UPBROW31460 500000.000000
    BOUNDRHS UPBROW31461 375000.000000
    BOUNDRHS UPBROW31462 250000.000000
    BOUNDRHS UPBROW31463 500000.000000
    BOUNDRHS UPBROW31464 375000.000000
    BOUNDRHS UPBROW31465 250000.000000
    BOUNDRHS UPBROW31466 500000.000000
    BOUNDRHS UPBROW31467 375000.000000
    BOUNDRHS UPBROW31468 250000.000000
    BOUNDRHS UPBROW31469 500000.000000
    BOUNDRHS UPBROW31470 375000.000000
    BOUNDRHS UPBROW31471 250000.000000
    BOUNDRHS UPBROW31472 500000.000000
    BOUNDRHS UPBROW31473 375000.000000
    BOUNDRHS UPBROW31474 250000.000000
    BOUNDRHS UPBROW31475 500000.000000
    BOUNDRHS UPBROW31476 375000.000000
    BOUNDRHS UPBROW31477 250000.000000
    BOUNDRHS UPBROW31478 500000.000000
    BOUNDRHS UPBROW31479 375000.000000
    BOUNDRHS UPBROW31480 250000.000000
    BOUNDRHS UPBROW31481 500000.000000
    BOUNDRHS UPBROW31482 375000.000000
    BOUNDRHS UPBROW31483 250000.000000
    BOUNDRHS UPBROW31484 500000.000000
    BOUNDRHS UPBROW31485 375000.000000
    BOUNDRHS UPBROW31486 250000.000000
    BOUNDRHS UPBROW31487 500000.000000
BOUNDS
ENDATA
