NAME          ISRAEL
ROWS
 N  COST    
 E  B1      
 E  B2      
 E  B3      
 E  B4      
 E  B5      
 E  B6      
 E  B7      
 E  B8      
 E  B9      
 E  B10     
 E  B11     
 E  B12     
 E  B13     
 E  B14     
 E  B15     
 E  B16     
 E  B17     
 E  B18     
 E  B19     
 E  B20     
 E  B21     
 E  B22     
 E  B23     
 E  B24     
 E  B25     
 E  B26     
 E  B27     
 E  B28     
 E  B29     
 E  B30     
 E  B31     
 E  B32     
 E  B33     
 E  B34     
 E  B35     
 E  B36     
 E  B37     
 E  B38     
 E  B39     
 E  B40     
 E  B41     
 E  B42     
 E  B43     
 E  B44     
 E  B45     
 E  B46     
 E  B47     
 E  B48     
 E  B49     
 E  B50     
 E  B51     
 E  B52     
 E  B53     
 E  B54     
 E  B55     
 E  B56     
 E  B57     
 E  B58     
 E  B59     
 E  B60     
 E  B61     
 E  B62     
 E  B63     
 E  B64     
 E  B65     
 E  B66     
 E  B67     
 E  B68     
 E  B69     
 E  B70     
 E  B71     
 E  B72     
 E  B73     
 E  B74     
 E  B75     
 E  B76     
 E  B77     
 E  B78     
 E  B79     
 E  B80     
 E  B81     
 E  B82     
 E  B83     
 E  B84     
 E  B85     
 E  B86     
 E  B87     
 E  B88     
 E  B89     
 E  B90     
 E  B91     
 E  B92     
 E  B93     
 E  B94     
 E  B95     
 E  B96     
 E  B97     
 E  B98     
 E  B99     
 E  B100    
 E  B101    
 E  B102    
 E  B103    
 E  B104    
 E  B105    
 E  B106    
 E  B107    
 E  B108    
 E  B109    
 E  B110    
 E  B111    
 E  B112    
 E  B113    
 E  B114    
 E  B115    
 E  B116    
 E  B117    
 E  B118    
 E  B119    
 E  B120    
 E  B121    
 E  B122    
 E  B123    
 E  B124    
 E  B125    
 E  B126    
 E  B127    
 E  B128    
 E  B129    
 E  B130    
 E  B131    
 E  B132    
 E  B133    
 E  B134    
 E  B135    
 E  B136    
 E  B137    
 E  B138    
 E  B139    
 E  B140    
 E  B141    
 E  B142    
 E  B143    
 E  B144    
 E  B145    
 E  B146    
 E  B147    
 E  B148    
 E  B149    
 E  B150    
 E  B151    
 E  B152    
 E  B153    
 E  B154    
 E  B155    
 E  B156    
 E  B157    
 E  B158    
 E  B159    
 E  B160    
 E  B161    
 E  B162    
 E  B163    
 E  B164    
 E  B165    
 E  B166    
 E  B167    
 E  B168    
 E  B169    
 E  B170    
 E  B171    
 E  B172    
 E  B173    
 E  B174    
COLUMNS
    A301     COST     -1247.000000   B21      1.000000
    A301     B22      0.750000   B28      12.396000
    A301     B29      1.033000   B30      1.033000
    A301     B31      1.033000   B32      1.033000
    A301     B33      1.033000   B34      1.033000
    A301     B35      1.033000   B36      1.033000
    A301     B37      1.033000   B38      1.033000
    A301     B39      1.033000   B40      1.033000
    A301     B41      12.396000   B42      1.033000
    A301     B43      1.033000   B44      1.033000
    A301     B45      1.033000   B46      1.033000
    A301     B47      1.033000   B48      1.033000
    A301     B49      1.032000   B50      1.033000
    A301     B51      1.033000   B52      1.033000
    A301     B53      1.033000   B63      120.000000
    A301     B64      120.000000   B65      120.000000
    A301     B66      127.500000   B67      127.500000
    A301     B68      135.000000   B69      135.000000
    A301     B70      135.000000   B71      135.000000
    A301     B72      135.000000   B73      135.000000
    A301     B74      120.000000   B75      60.000000
    A301     B76      60.000000   B77      60.000000
    A301     B78      67.500000   B79      67.500000
    A301     B80      75.000000   B81      75.000000
    A301     B82      75.000000   B83      75.000000
    A301     B84      75.000000   B85      75.000000
    A301     B86      60.000000   B87      -15.000000
    A301     B88      -15.000000   B89      -15.000000
    A301     B90      -22.500000   B91      -22.500000
    A301     B92      -30.000000   B93      -22.500000
    A301     B94      -15.000000   B95      -15.000000
    A301     B96      -15.000000   B97      -15.000000
    A301     B98      -15.000000   B99      -45.000000
    A301     B100     -45.000000   B101     -15.000000
    A301     B102     -15.000000   B103     -15.000000
    A301     B104     -15.000000   B105     -15.000000
    A301     B106     -30.000000   B107     -30.000000
    A301     B108     -30.000000   B109     -37.500000
    A301     B110     -45.000000   B111     45.000000
    A301     B112     45.000000   B113     45.000000
    A301     B114     45.000000   B115     22.500000
    A301     B116     -90.000000   B117     -90.000000
    A301     B118     -90.000000   B119     -90.000000
    A301     B120     -45.000000   B121     -30.000000
    A301     B122     -30.000000   B123     -30.000000
    A301     B124     -30.000000   B125     -30.000000
    A301     B126     -30.000000   B127     -30.000000
    A301     B128     -30.000000   B129     -30.000000
    A301     B130     -30.000000   B131     -30.000000
    A301     B132     -30.000000   B133     -60.000000
    A301     B134     -60.000000   B135     -45.000000
    A301     B136     -45.000000   B137     -45.000000
    A301     B138     -45.000000   B139     -45.000000
    A301     B140     -45.000000   B141     -45.000000
    A301     B142     -45.000000   B143     -60.000000
    A301     B144     -60.000000   B145     15.000000
    A301     B146     15.000000   B147     15.000000
    A301     B148     15.000000   B149     15.000000
    A301     B150     15.000000   B151     -60.000000
    A301     B152     -60.000000   B153     -60.000000
    A301     B154     -60.000000   B155     -75.000000
    A301     B156     -75.000000   B157     -75.000000
    A301     B158     -75.000000   B159     -75.000000
    A301     B160     -60.000000   B161     -60.000000
    A301     B162     -60.000000   B163     -60.000000
    A301     B164     30.000000   B165     45.000000
    A301     B166     45.000000   B167     45.000000
    A301     B168     45.000000   B169     45.000000
    A301     B174     -1247.000000
    A302     COST     -288.000000   B22      -1.000000
    A302     B23      1.000000   B28      1.596000
    A302     B29      0.133000   B30      0.133000
    A302     B31      0.133000   B32      0.133000
    A302     B33      0.133000   B34      0.133000
    A302     B35      0.133000   B36      0.133000
    A302     B37      0.133000   B38      0.133000
    A302     B39      0.133000   B40      0.133000
    A302     B41      1.596000   B42      0.133000
    A302     B43      0.133000   B44      0.133000
    A302     B45      0.133000   B46      0.133000
    A302     B47      0.133000   B48      0.133000
    A302     B49      0.133000   B50      0.133000
    A302     B51      0.133000   B52      0.133000
    A302     B53      0.133000   B63      63.000000
    A302     B64      63.000000   B65      63.000000
    A302     B66      63.000000   B67      63.000000
    A302     B68      63.000000   B69      63.000000
    A302     B70      63.000000   B71      63.000000
    A302     B72      63.000000   B73      63.000000
    A302     B74      63.000000   B87      -34.000000
    A302     B88      -30.000000   B89      -30.000000
    A302     B90      -30.000000   B91      -30.000000
    A302     B92      -30.000000   B93      -30.000000
    A302     B94      -30.000000   B95      -30.000000
    A302     B96      -30.000000   B97      -30.000000
    A302     B98      -30.000000   B99      -0.010000
    A302     B100     -0.010000   B101     -0.010000
    A302     B102     -0.010000   B103     -0.010000
    A302     B104     -0.010000   B105     -0.010000
    A302     B106     -0.010000   B107     -0.010000
    A302     B108     -0.010000   B109     -0.010000
    A302     B110     -0.010000   B116     -15.000000
    A302     B117     -15.000000   B118     -15.000000
    A302     B119     -15.000000   B120     -15.000000
    A302     B121     -30.000000   B122     -22.500000
    A302     B123     -22.500000   B124     -22.500000
    A302     B125     -22.500000   B126     -22.500000
    A302     B127     -22.500000   B128     -22.500000
    A302     B129     -22.500000   B130     -22.500000
    A302     B131     -22.500000   B132     -22.500000
    A302     B133     -30.000000   B134     -22.500000
    A302     B135     -22.500000   B136     -22.500000
    A302     B137     -22.500000   B138     -22.500000
    A302     B139     -22.500000   B140     -22.500000
    A302     B141     -22.500000   B142     -22.500000
    A302     B143     -22.500000   B144     -22.500000
    A302     B151     -22.500000   B152     -22.500000
    A302     B153     -22.500000   B154     -22.500000
    A302     B155     -30.000000   B156     -30.000000
    A302     B157     -30.000000   B158     -30.000000
    A302     B159     -30.000000   B160     -45.000000
    A302     B161     -63.000000   B162     -63.000000
    A302     B163     -63.000000   B174     -288.000000
    A303     COST     -418.000000   B24      1.000000
    A303     B28      1.596000   B29      0.133000
    A303     B30      0.133000   B31      0.133000
    A303     B32      0.133000   B33      0.133000
    A303     B34      0.133000   B35      0.133000
    A303     B36      0.133000   B37      0.133000
    A303     B38      0.133000   B39      0.133000
    A303     B40      0.133000   B41      1.596000
    A303     B42      0.133000   B43      0.133000
    A303     B44      0.133000   B45      0.133000
    A303     B46      0.133000   B47      0.133000
    A303     B48      0.133000   B49      0.133000
    A303     B50      0.133000   B51      0.133000
    A303     B52      0.133000   B53      0.133000
    A303     B63      22.500000   B64      22.500000
    A303     B65      22.500000   B66      22.500000
    A303     B67      22.500000   B68      22.500000
    A303     B69      22.500000   B70      22.500000
    A303     B71      22.500000   B72      22.500000
    A303     B73      22.500000   B74      22.500000
    A303     B87      -22.500000   B88      -22.500000
    A303     B89      -22.500000   B90      -22.500000
    A303     B91      -22.500000   B92      -22.500000
    A303     B93      -22.500000   B94      -22.500000
    A303     B95      -22.500000   B96      -22.500000
    A303     B97      -22.500000   B98      -22.500000
    A303     B99      -0.010000   B100     -0.010000
    A303     B101     -0.010000   B102     -0.010000
    A303     B103     -0.010000   B104     -0.010000
    A303     B105     -0.010000   B106     -0.010000
    A303     B107     -0.010000   B108     -0.010000
    A303     B109     -0.010000   B110     -0.010000
    A303     B121     -22.500000   B122     -22.500000
    A303     B123     -22.500000   B124     -22.500000
    A303     B125     -22.500000   B126     -22.500000
    A303     B127     -22.500000   B128     -22.500000
    A303     B129     -22.500000   B130     -22.500000
    A303     B131     -22.500000   B132     -22.500000
    A303     B133     -22.500000   B134     -22.500000
    A303     B135     -22.500000   B136     -22.500000
    A303     B137     -22.500000   B138     -22.500000
    A303     B139     -22.500000   B140     -22.500000
    A303     B141     -22.500000   B142     -22.500000
    A303     B143     -22.500000   B144     -22.500000
    A303     B155     -22.500000   B156     -22.500000
    A303     B157     -22.500000   B158     -22.500000
    A303     B159     -22.500000   B160     -22.500000
    A303     B161     -22.500000   B162     -22.500000
    A303     B163     -22.500000   B174     -418.000000
    A304     COST     3004.000000   B22      -1.000000
    A304     B25      1.000000
    A305     COST     3005.000000   B21      -1.000000
    A305     B26      1.000000
    A306     COST     3006.000000   B23      -1.000000
    A307     COST     3007.000000   B24      -1.000000
    A307     B27      1.000000
    A308     COST     159.000000   B1       1.000000
    A308     B2       1.000000   B3       1.000000
    A308     B28      2.390000   B29      0.255000
    A308     B30      0.216000   B32      0.050000
    A308     B33      0.063000   B34      0.065000
    A308     B35      0.104000   B36      0.210000
    A308     B37      0.365000   B38      0.395000
    A308     B39      0.429000   B40      0.238000
    A308     B41      2.390000   B42      0.255000
    A308     B43      0.216000   B45      0.050000
    A308     B46      0.063000   B47      0.065000
    A308     B48      0.104000   B49      0.210000
    A308     B50      0.365000   B51      0.395000
    A308     B52      0.429000   B53      0.238000
    A308     B54      366.000000   B55      15.000000
    A308     B56      20.000000   B58      23.000000
    A308     B59      75.000000   B60      88.000000
    A308     B61      100.000000   B62      45.000000
    A308     B63      -70.000000   B66      -50.000000
    A308     B67      -60.000000   B68      -80.000000
    A308     B69      -95.000000   B70      -130.000000
    A308     B71      -190.000000   B72      -250.000000
    A308     B73      -205.000000   B74      -170.000000
    A308     B75      -70.000000   B78      -50.000000
    A308     B79      -60.000000   B80      -80.000000
    A308     B81      -95.000000   B82      -130.000000
    A308     B83      -190.000000   B84      -250.000000
    A308     B85      -205.000000   B86      -170.000000
    A308     B156     50.000000   B157     60.000000
    A308     B158     80.000000   B159     95.000000
    A308     B160     130.000000   B161     190.000000
    A308     B162     250.000000   B163     205.000000
    A308     B164     -80.000000   B165     -95.000000
    A308     B166     -130.000000   B167     -190.000000
    A308     B168     -250.000000   B169     -205.000000
    A308     B174     159.000000
    A309     COST     200.000000   B1       1.000000
    A309     B2       1.000000   B28      2.390000
    A309     B29      0.255000   B30      0.216000
    A309     B32      0.050000   B33      0.063000
    A309     B34      0.065000   B35      0.104000
    A309     B36      0.210000   B37      0.365000
    A309     B38      0.395000   B39      0.429000
    A309     B40      0.238000   B41      2.390000
    A309     B42      0.255000   B43      0.216000
    A309     B45      0.050000   B46      0.063000
    A309     B47      0.065000   B48      0.104000
    A309     B49      0.210000   B50      0.365000
    A309     B51      0.395000   B52      0.429000
    A309     B53      0.238000   B54      980.000000
    A309     B55      40.000000   B56      80.000000
    A309     B58      110.000000   B59      210.000000
    A309     B60      200.000000   B61      200.000000
    A309     B62      140.000000   B63      -70.000000
    A309     B66      -50.000000   B67      -60.000000
    A309     B68      -80.000000   B69      -95.000000
    A309     B70      -130.000000   B71      -190.000000
    A309     B72      -250.000000   B73      -205.000000
    A309     B74      -170.000000   B75      -70.000000
    A309     B78      -50.000000   B79      -60.000000
    A309     B80      -80.000000   B81      -95.000000
    A309     B82      -130.000000   B83      -190.000000
    A309     B84      -250.000000   B85      -205.000000
    A309     B86      -170.000000   B156     50.000000
    A309     B157     60.000000   B158     80.000000
    A309     B159     95.000000   B160     130.000000
    A309     B161     190.000000   B162     250.000000
    A309     B163     205.000000   B164     -80.000000
    A309     B165     -95.000000   B166     -130.000000
    A309     B167     -190.000000   B168     -250.000000
    A309     B169     -205.000000   B174     200.000000
    A310     COST     42.000000   B1       1.000000
    A310     B2       1.000000   B28      0.815000
    A310     B29      0.049000   B30      0.026000
    A310     B33      0.195000   B34      0.132000
    A310     B35      0.146000   B36      0.245000
    A310     B37      0.022000   B41      0.815000
    A310     B42      0.049000   B43      0.026000
    A310     B46      0.195000   B47      0.132000
    A310     B48      0.146000   B49      0.245000
    A310     B50      0.022000   B58      70.000000
    A310     B59      30.000000   B67      -95.000000
    A310     B68      -94.000000   B69      -90.000000
    A310     B70      -160.000000   B71      -26.000000
    A310     B79      -95.000000   B80      -94.000000
    A310     B81      -90.000000   B82      -160.000000
    A310     B83      -26.000000   B157     95.000000
    A310     B158     94.000000   B159     90.000000
    A310     B160     160.000000   B161     26.000000
    A310     B164     -94.000000   B165     -90.000000
    A310     B166     -160.000000   B167     -26.000000
    A310     B174     42.000000
    A311     COST     72.000000   B1       1.000000
    A311     B2       1.000000   B28      1.577000
    A311     B29      0.147000   B30      0.170000
    A311     B31      0.050000   B32      0.630000
    A311     B33      0.150000   B34      0.022000
    A311     B35      0.106000   B36      0.147000
    A311     B37      0.035000   B38      0.040000
    A311     B40      0.050000   B41      1.577000
    A311     B42      0.147000   B43      0.170000
    A311     B44      0.050000   B45      0.630000
    A311     B46      0.150000   B47      0.022000
    A311     B48      0.106000   B49      0.147000
    A311     B50      0.035000   B51      0.040000
    A311     B53      0.050000   B54      295.000000
    A311     B55      65.000000   B56      50.000000
    A311     B58      50.000000   B59      40.000000
    A311     B62      90.000000   B64      -100.000000
    A311     B65      -50.000000   B66      -45.000000
    A311     B67      -35.000000   B68      -110.000000
    A311     B69      -115.000000   B70      -110.000000
    A311     B71      -35.000000   B76      -100.000000
    A311     B77      -50.000000   B78      -45.000000
    A311     B79      -35.000000   B80      -110.000000
    A311     B81      -115.000000   B82      -110.000000
    A311     B83      -35.000000   B155     50.000000
    A311     B156     45.000000   B157     35.000000
    A311     B158     110.000000   B159     115.000000
    A311     B160     110.000000   B161     35.000000
    A311     B164     -110.000000   B165     -115.000000
    A311     B166     -110.000000   B167     -35.000000
    A311     B174     72.000000
    A312     COST     78.000000   B1       1.000000
    A312     B2       1.000000   B28      1.607000
    A312     B29      0.188000   B30      0.090000
    A312     B31      0.560000   B32      0.190000
    A312     B33      0.105000   B34      0.056000
    A312     B35      0.060000   B36      0.060000
    A312     B39      0.075000   B40      0.217000
    A312     B41      1.607000   B42      0.188000
    A312     B43      0.090000   B44      0.560000
    A312     B45      0.196000   B46      0.105000
    A312     B47      0.056000   B48      0.060000
    A312     B49      0.060000   B52      0.075000
    A312     B53      0.217000   B54      260.000000
    A312     B55      170.000000   B56      90.000000
    A312     B65      -230.000000   B66      -25.000000
    A312     B67      -105.000000   B68      -30.000000
    A312     B69      -55.000000   B70      -55.000000
    A312     B77      -230.000000   B78      -25.000000
    A312     B79      -105.000000   B80      -30.000000
    A312     B81      -55.000000   B82      -55.000000
    A312     B155     230.000000   B156     25.000000
    A312     B157     105.000000   B158     30.000000
    A312     B159     55.000000   B160     55.000000
    A312     B164     -30.000000   B165     -55.000000
    A312     B166     -55.000000   B174     78.000000
    A313     COST     170.000000   B1       1.000000
    A313     B2       1.000000   B28      4.740000
    A313     B29      1.960000   B30      0.560000
    A313     B31      0.200000   B32      0.230000
    A313     B33      0.160000   B34      0.350000
    A313     B35      0.330000   B37      0.320000
    A313     B38      0.050000   B39      0.210000
    A313     B40      0.370000   B41      2.136000
    A313     B42      0.500000   B43      0.160000
    A313     B44      0.120000   B45      0.020000
    A313     B46      0.010000   B47      0.040000
    A313     B48      0.330000   B50      0.320000
    A313     B51      0.050000   B52      0.210000
    A313     B53      0.370000   B54      330.000000
    A313     B55      50.000000   B56      50.000000
    A313     B61      180.000000   B62      50.000000
    A313     B69      -1000.000000   B111     -1000.000000
    A313     B116     1000.000000   B174     170.000000
    A314     COST     185.000000   B1       1.000000
    A314     B2       1.000000   B28      4.780000
    A314     B29      1.960000   B30      0.560000
    A314     B31      0.200000   B32      0.230000
    A314     B33      0.160000   B34      0.350000
    A314     B35      0.030000   B36      0.340000
    A314     B37      0.320000   B38      0.050000
    A314     B39      0.210000   B40      0.370000
    A314     B41      2.170000   B42      0.500000
    A314     B43      0.160000   B44      0.120000
    A314     B45      0.020000   B46      0.010000
    A314     B47      0.040000   B48      0.030000
    A314     B49      0.340000   B50      0.320000
    A314     B51      0.050000   B52      0.210000
    A314     B53      0.370000   B54      400.000000
    A314     B55      50.000000   B56      50.000000
    A314     B58      70.000000   B61      180.000000
    A314     B62      50.000000   B70      -1600.000000
    A314     B112     -1600.000000   B117     1600.000000
    A314     B174     185.000000
    A315     COST     200.000000   B1       1.000000
    A315     B2       1.000000   B28      4.780000
    A315     B29      1.960000   B30      0.560000
    A315     B31      0.200000   B32      0.230000
    A315     B33      0.160000   B34      0.350000
    A315     B35      0.030000   B36      0.130000
    A315     B37      0.530000   B38      0.050000
    A315     B39      0.210000   B40      0.370000
    A315     B41      2.170000   B42      0.500000
    A315     B43      0.160000   B44      0.120000
    A315     B45      0.020000   B46      0.010000
    A315     B47      0.040000   B48      0.030000
    A315     B49      0.130000   B50      0.530000
    A315     B51      0.050000   B52      0.210000
    A315     B53      0.370000   B54      490.000000
    A315     B55      50.000000   B56      50.000000
    A315     B58      90.000000   B59      70.000000
    A315     B61      180.000000   B62      50.000000
    A315     B71      -1300.000000   B113     -1300.000000
    A315     B118     1300.000000   B174     200.000000
    A316     COST     215.000000   B1       1.000000
    A316     B2       1.000000   B28      5.030000
    A316     B29      1.960000   B30      0.560000
    A316     B31      0.200000   B32      0.230000
    A316     B33      0.160000   B34      0.350000
    A316     B35      0.030000   B36      0.130000
    A316     B37      0.440000   B38      0.390000
    A316     B39      0.210000   B40      0.370000
    A316     B41      2.420000   B42      0.500000
    A316     B43      0.160000   B44      0.120000
    A316     B45      0.020000   B46      0.010000
    A316     B47      0.040000   B48      0.030000
    A316     B49      0.130000   B50      0.440000
    A316     B51      0.390000   B52      0.210000
    A316     B53      0.370000   B54      600.000000
    A316     B55      50.000000   B56      50.000000
    A316     B58      90.000000   B59      120.000000
    A316     B60      60.000000   B61      180.000000
    A316     B62      50.000000   B72      -1370.000000
    A316     B114     -1370.000000   B119     1370.000000
    A316     B174     215.000000
    A317     COST     230.000000   B1       1.000000
    A317     B2       1.000000   B28      5.130000
    A317     B29      1.960000   B30      0.560000
    A317     B31      0.200000   B32      0.230000
    A317     B33      0.160000   B34      0.350000
    A317     B35      0.030000   B36      0.130000
    A317     B37      0.440000   B38      0.390000
    A317     B39      0.310000   B40      0.370000
    A317     B41      2.520000   B42      0.500000
    A317     B43      0.160000   B44      0.160000
    A317     B45      0.020000   B46      0.010000
    A317     B47      0.040000   B48      0.030000
    A317     B49      0.130000   B50      0.440000
    A317     B51      0.390000   B52      0.310000
    A317     B53      0.370000   B54      670.000000
    A317     B55      50.000000   B56      50.000000
    A317     B58      90.000000   B59      120.000000
    A317     B60      120.000000   B61      180.000000
    A317     B62      50.000000   B73      -1200.000000
    A317     B115     -1200.000000   B120     1200.000000
    A317     B174     230.000000
    A318     COST     75.000000   B1       1.000000
    A318     B2       1.000000   B28      0.373000
    A318     B29      0.002000   B32      0.001000
    A318     B35      0.150000   B36      0.060000
    A318     B37      0.010000   B38      0.150000
    A318     B41      0.373000   B42      0.002000
    A318     B45      0.001000   B48      0.150000
    A318     B49      0.060000   B50      0.010000
    A318     B51      0.150000   B54      170.000000
    A318     B59      170.000000   B170     -480.000000
    A318     B174     75.000000
    A319     COST     85.000000   B1       1.000000
    A319     B2       1.000000   B28      0.453000
    A319     B29      0.002000   B32      0.001000
    A319     B36      0.200000   B37      0.070000
    A319     B38      0.020000   B39      0.160000
    A319     B41      0.453000   B42      0.002000
    A319     B45      0.001000   B49      0.200000
    A319     B50      0.070000   B51      0.020000
    A319     B52      0.160000   B54      260.000000
    A319     B58      60.000000   B59      100.000000
    A319     B60      100.000000   B170     -480.000000
    A319     B174     85.000000
    A320     COST     85.000000   B1       1.000000
    A320     B2       1.000000   B28      0.520000
    A320     B29      0.002000   B32      0.001000
    A320     B37      0.020000   B38      0.250000
    A320     B39      0.070000   B40      0.200000
    A320     B41      0.520000   B42      0.002000
    A320     B45      0.001000   B50      0.020000
    A320     B51      0.250000   B52      0.070000
    A320     B53      0.200000   B54      260.000000
    A320     B60      100.000000   B61      100.000000
    A320     B62      60.000000   B170     -480.000000
    A320     B174     85.000000
    A321     COST     85.000000   B4       1.000000
    A321     B28      0.470000   B35      0.020000
    A321     B36      0.200000   B37      0.070000
    A321     B38      0.020000   B39      0.160000
    A321     B41      0.470000   B48      0.020000
    A321     B49      0.200000   B50      0.070000
    A321     B51      0.020000   B52      0.160000
    A321     B54      260.000000   B58      60.000000
    A321     B59      100.000000   B60      100.000000
    A321     B170     -480.000000   B174     85.000000
    A322     COST     85.000000   B4       1.000000
    A322     B28      0.560000   B36      0.020000
    A322     B37      0.020000   B38      0.250000
    A322     B39      0.070000   B40      0.200000
    A322     B41      0.560000   B49      0.020000
    A322     B50      0.020000   B51      0.250000
    A322     B52      0.070000   B53      0.200000
    A322     B54      260.000000   B60      100.000000
    A322     B61      100.000000   B62      60.000000
    A322     B170     -480.000000   B174     85.000000
    A323     COST     85.000000   B5       1.000000
    A323     B28      0.620000   B37      0.100000
    A323     B38      0.250000   B39      0.070000
    A323     B40      0.200000   B41      0.620000
    A323     B50      0.100000   B51      0.250000
    A323     B52      0.070000   B53      0.200000
    A323     B54      260.000000   B60      100.000000
    A323     B61      100.000000   B62      60.000000
    A323     B170     -480.000000   B174     85.000000
    A324     COST     36.000000   B1       1.000000
    A324     B2       1.000000   B4       -1.000000
    A324     B6       -0.800000   B28      0.209000
    A324     B29      0.010000   B30      0.030000
    A324     B31      0.026000   B35      0.088000
    A324     B38      0.025000   B39      0.025000
    A324     B40      0.005000   B41      0.209000
    A324     B42      0.010000   B43      0.030000
    A324     B44      0.026000   B48      0.088000
    A324     B51      0.025000   B52      0.025000
    A324     B53      0.005000   B171     -220.000000
    A324     B174     36.000000
    A325     COST     36.000000   B1       1.000000
    A325     B2       1.000000   B5       -1.000000
    A325     B28      0.209000   B29      0.010000
    A325     B30      0.030000   B31      0.026000
    A325     B35      0.088000   B38      0.025000
    A325     B39      0.025000   B40      0.005000
    A325     B41      0.209000   B42      0.010000
    A325     B43      0.030000   B44      0.026000
    A325     B48      0.088000   B51      0.025000
    A325     B52      0.025000   B53      0.005000
    A325     B171     -220.000000   B174     36.000000
    A326     COST     36.000000   B1       1.000000
    A326     B7       -1.000000   B28      0.209000
    A326     B29      0.010000   B30      0.030000
    A326     B31      0.026000   B35      0.088000
    A326     B38      0.025000   B39      0.025000
    A326     B40      0.005000   B41      0.209000
    A326     B42      0.010000   B43      0.030000
    A326     B44      0.026000   B48      0.088000
    A326     B51      0.025000   B52      0.025000
    A326     B53      0.005000   B171     -220.000000
    A326     B174     36.000000
    A327     COST     -140.000000   B1       1.000000
    A327     B2       1.000000   B5       -0.600000
    A327     B12      1.000000   B28      3.214000
    A327     B29      1.200000   B30      0.220000
    A327     B31      0.378000   B32      0.012000
    A327     B33      0.200000   B34      0.252000
    A327     B35      0.207000   B36      0.201000
    A327     B37      0.083000   B38      0.185000
    A327     B39      0.142000   B40      0.134000
    A327     B41      1.547000   B42      0.400000
    A327     B43      0.110000   B44      0.120000
    A327     B45      0.012000   B46      0.050000
    A327     B47      0.060000   B48      0.050000
    A327     B49      0.201000   B50      0.083000
    A327     B51      0.185000   B52      0.142000
    A327     B53      0.134000   B54      380.000000
    A327     B55      90.000000   B56      20.000000
    A327     B58      110.000000   B59      20.000000
    A327     B61      40.000000   B62      100.000000
    A327     B172     -100.000000   B174     -140.000000
    A328     COST     -34.000000   B1       1.000000
    A328     B2       1.000000   B28      0.679000
    A328     B29      0.031000   B30      0.016000
    A328     B31      0.015000   B32      0.010000
    A328     B33      0.015000   B34      0.017000
    A328     B35      0.056000   B36      0.049000
    A328     B37      0.150000   B38      0.007000
    A328     B39      0.003000   B40      0.310000
    A328     B41      0.679000   B42      0.031000
    A328     B43      0.016000   B44      0.015000
    A328     B45      0.010000   B46      0.015000
    A328     B47      0.017000   B48      0.056000
    A328     B49      0.049000   B50      0.150000
    A328     B51      0.007000   B52      0.003000
    A328     B53      0.031000   B54      160.000000
    A328     B58      10.000000   B59      150.000000
    A328     B173     -100.000000   B174     -34.000000
    A329     COST     -34.000000   B4       1.000000
    A329     B6       1.000000   B28      1.575000
    A329     B35      0.056000   B36      0.049000
    A329     B37      0.150000   B38      0.007000
    A329     B39      0.003000   B40      0.310000
    A329     B41      0.575000   B48      0.056000
    A329     B49      0.049000   B50      0.150000
    A329     B51      0.007000   B52      0.003000
    A329     B53      0.310000   B54      160.000000
    A329     B58      10.000000   B59      150.000000
    A329     B173     -100.000000   B174     -34.000000
    A330     COST     -60.000000   B1       1.000000
    A330     B2       1.000000   B28      0.426000
    A330     B29      0.031000   B30      0.016000
    A330     B31      0.015000   B32      0.010000
    A330     B33      0.015000   B34      0.017000
    A330     B35      0.056000   B36      0.049000
    A330     B37      0.150000   B38      0.007000
    A330     B39      0.003000   B40      0.057000
    A330     B41      0.426000   B42      0.031000
    A330     B43      0.016000   B44      0.015000
    A330     B45      0.010000   B46      0.015000
    A330     B47      0.017000   B48      0.056000
    A330     B49      0.049000   B50      0.150000
    A330     B51      0.007000   B52      0.003000
    A330     B53      0.057000   B54      160.000000
    A330     B58      10.000000   B59      150.000000
    A330     B174     -60.000000
    A331     COST     -60.000000   B4       1.000000
    A331     B6       1.000000   B28      0.426000
    A331     B29      0.031000   B30      0.016000
    A331     B31      0.015000   B32      0.010000
    A331     B33      0.015000   B34      0.017000
    A331     B35      0.056000   B36      0.049000
    A331     B37      0.150000   B38      0.007000
    A331     B39      0.003000   B40      0.057000
    A331     B41      0.420000   B42      0.031000
    A331     B43      0.016000   B44      0.015000
    A331     B45      0.010000   B46      0.015000
    A331     B47      0.017000   B48      0.056000
    A331     B49      0.049000   B50      0.150000
    A331     B51      0.007000   B52      0.003000
    A331     B53      0.057000   B54      160.000000
    A331     B58      10.000000   B59      150.000000
    A331     B174     -60.000000
    A332     COST     -70.000000   B1       1.000000
    A332     B28      0.785000   B29      0.019000
    A332     B30      0.007000   B31      0.025000
    A332     B33      0.015000   B34      0.020000
    A332     B35      0.160000   B36      0.130000
    A332     B37      0.200000   B38      0.060000
    A332     B39      0.046000   B40      0.103000
    A332     B41      0.565000   B42      0.019000
    A332     B43      0.007000   B44      0.025000
    A332     B46      0.015000   B47      0.020000
    A332     B48      0.160000   B49      0.020000
    A332     B50      0.090000   B51      0.060000
    A332     B52      0.046000   B53      0.103000
    A332     B174     -70.000000
    A333     COST     -118.000000   B1       1.000000
    A333     B2       1.000000   B13      1.000000
    A333     B28      1.152000   B29      0.033000
    A333     B30      0.065000   B33      0.016000
    A333     B34      0.067000   B35      0.120000
    A333     B36      0.315000   B37      0.020000
    A333     B38      0.330000   B39      0.035000
    A333     B40      0.151000   B41      0.627000
    A333     B42      0.033000   B43      0.065000
    A333     B46      0.016000   B47      0.067000
    A333     B48      0.064000   B49      0.015000
    A333     B50      0.011000   B51      0.170000
    A333     B52      0.035000   B53      0.151000
    A333     B54      150.000000   B60      150.000000
    A333     B174     -118.000000
    A334     COST     -137.000000   B1       1.000000
    A334     B2       1.000000   B13      1.000000
    A334     B14      1.000000   B28      1.428000
    A334     B29      0.015000   B30      0.120000
    A334     B31      0.003000   B33      0.025000
    A334     B34      0.012000   B35      0.083000
    A334     B36      0.410000   B37      0.310000
    A334     B38      0.195000   B39      0.105000
    A334     B40      0.150000   B41      0.893000
    A334     B42      0.015000   B43      0.120000
    A334     B44      0.003000   B46      0.025000
    A334     B47      0.012000   B48      0.083000
    A334     B49      0.080000   B50      0.150000
    A334     B51      0.150000   B52      0.105000
    A334     B53      0.150000   B54      300.000000
    A334     B57      70.000000   B59      90.000000
    A334     B60      140.000000   B174     -137.000000
    A335     COST     -162.000000   B1       1.000000
    A335     B2       1.000000   B13      1.000000
    A335     B14      1.000000   B28      1.487000
    A335     B29      0.210000   B30      0.140000
    A335     B32      0.010000   B33      0.012000
    A335     B34      0.050000   B35      0.080000
    A335     B36      0.035000   B37      0.330000
    A335     B38      0.330000   B39      0.200000
    A335     B40      0.090000   B41      1.192000
    A335     B42      0.210000   B43      0.140000
    A335     B45      0.010000   B46      0.012000
    A335     B47      0.050000   B48      0.080000
    A335     B49      0.010000   B50      0.130000
    A335     B51      0.260000   B52      0.200000
    A335     B53      0.090000   B54      420.000000
    A335     B57      70.000000   B59      60.000000
    A335     B60      160.000000   B61      130.000000
    A335     B174     -162.000000
    A336     COST     -188.000000   B1       1.000000
    A336     B2       1.000000   B13      1.000000
    A336     B14      1.000000   B28      1.577000
    A336     B29      0.210000   B30      0.140000
    A336     B32      0.010000   B33      0.012000
    A336     B34      0.050000   B35      0.080000
    A336     B36      0.035000   B37      0.400000
    A336     B38      0.350000   B39      0.200000
    A336     B40      0.090000   B41      1.207000
    A336     B42      0.210000   B43      0.140000
    A336     B45      0.010000   B46      0.012000
    A336     B47      0.050000   B48      0.080000
    A336     B49      0.035000   B50      0.140000
    A336     B51      0.240000   B52      0.200000
    A336     B53      0.090000   B54      555.000000
    A336     B57      70.000000   B59      115.000000
    A336     B60      232.000000   B61      138.000000
    A336     B174     -188.000000
    A337     COST     -200.000000   B1       1.000000
    A337     B2       1.000000   B15      -1.000000
    A337     B28      7.895000   B29      0.218000
    A337     B30      0.500000   B31      1.300000
    A337     B32      1.600000   B33      1.400000
    A337     B34      1.100000   B35      0.400000
    A337     B36      0.248000   B37      0.202000
    A337     B38      0.329000   B39      0.319000
    A337     B40      0.279000   B41      3.495000
    A337     B42      0.218000   B43      0.200000
    A337     B44      0.600000   B45      0.300000
    A337     B46      0.300000   B47      0.300000
    A337     B48      0.200000   B49      0.248000
    A337     B50      0.202000   B51      0.329000
    A337     B52      0.319000   B53      0.279000
    A337     B54      740.000000   B55      100.000000
    A337     B58      50.000000   B59      160.000000
    A337     B60      150.000000   B61      160.000000
    A337     B62      120.000000   B174     -200.000000
    A338     COST     -114.000000   B1       1.000000
    A338     B2       1.000000   B17      1.000000
    A338     B28      0.344000   B29      0.027000
    A338     B30      0.040000   B31      0.047000
    A338     B32      0.008000   B33      0.009000
    A338     B34      0.010000   B35      0.045000
    A338     B36      0.025000   B37      0.050000
    A338     B38      0.040000   B39      0.027000
    A338     B40      0.016000   B41      0.344000
    A338     B42      0.027000   B43      0.040000
    A338     B44      0.047000   B45      0.008000
    A338     B46      0.009000   B47      0.010000
    A338     B48      0.045000   B49      0.025000
    A338     B50      0.050000   B51      0.040000
    A338     B52      0.027000   B53      0.016000
    A338     B54      130.000000   B57      130.000000
    A338     B174     -114.000000
    A339     COST     -61.000000   B1       1.000000
    A339     B16      1.000000   B17      1.000000
    A339     B28      0.298000   B29      0.027000
    A339     B30      0.040000   B31      0.047000
    A339     B32      0.008000   B33      0.009000
    A339     B34      0.010000   B35      0.004000
    A339     B36      0.020000   B37      0.050000
    A339     B38      0.040000   B39      0.027000
    A339     B40      0.016000   B41      0.298000
    A339     B42      0.027000   B43      0.040000
    A339     B44      0.047000   B45      0.008000
    A339     B46      0.009000   B47      0.010000
    A339     B48      0.004000   B49      0.020000
    A339     B50      0.050000   B51      0.040000
    A339     B52      0.027000   B53      0.016000
    A339     B174     -61.000000
    A340     COST     -49.000000   B1       1.000000
    A340     B16      1.000000   B17      -0.200000
    A340     B28      0.298000   B29      0.027000
    A340     B30      0.040000   B31      0.047000
    A340     B32      0.008000   B33      0.009000
    A340     B34      0.010000   B35      0.004000
    A340     B36      0.020000   B37      0.050000
    A340     B38      0.040000   B39      0.027000
    A340     B40      0.016000   B41      0.298000
    A340     B42      0.027000   B43      0.040000
    A340     B44      0.047000   B45      0.008000
    A340     B46      0.009000   B47      0.010000
    A340     B48      0.004000   B49      0.020000
    A340     B50      0.050000   B51      0.040000
    A340     B52      0.027000   B53      0.016000
    A340     B174     -49.000000
    A341     COST     -41.000000   B1       1.000000
    A341     B16      1.000000   B18      -1.000000
    A341     B28      0.232000   B29      0.018000
    A341     B30      0.017000   B32      0.025000
    A341     B33      0.005000   B34      0.004000
    A341     B35      0.005000   B36      0.034000
    A341     B37      0.052000   B38      0.035000
    A341     B39      0.027000   B40      0.010000
    A341     B41      0.232000   B42      0.018000
    A341     B43      0.017000   B45      0.025000
    A341     B46      0.005000   B47      0.004000
    A341     B48      0.005000   B49      0.034000
    A341     B50      0.052000   B51      0.035000
    A341     B52      0.027000   B53      0.010000
    A341     B174     -41.000000
    A342     COST     -15.000000   B1       1.000000
    A342     B7       -1.000000   B8       -1.000000
    A342     B28      0.368000   B29      0.030000
    A342     B30      0.017000   B31      0.042000
    A342     B33      0.018000   B34      0.014000
    A342     B35      0.044000   B36      0.135000
    A342     B37      0.024000   B38      0.014000
    A342     B39      0.020000   B40      0.010000
    A342     B41      0.368000   B42      0.030000
    A342     B43      0.017000   B44      0.042000
    A342     B46      0.018000   B47      0.014000
    A342     B48      0.044000   B49      0.135000
    A342     B50      0.024000   B51      0.014000
    A342     B52      0.020000   B53      0.010000
    A342     B174     -15.000000
    A343     COST     -35.000000   B1       1.000000
    A343     B7       -1.000000   B28      0.368000
    A343     B29      0.030000   B30      0.017000
    A343     B31      0.042000   B33      0.018000
    A343     B34      0.014000   B35      0.044000
    A343     B36      0.135000   B37      0.024000
    A343     B38      0.014000   B39      0.020000
    A343     B40      0.010000   B41      0.368000
    A343     B42      0.030000   B43      0.017000
    A343     B44      0.042000   B46      0.018000
    A343     B47      0.014000   B48      0.044000
    A343     B49      0.135000   B50      0.024000
    A343     B51      0.014000   B52      0.020000
    A343     B53      0.010000   B174     -35.000000
    A344     COST     -26.000000   B1       1.000000
    A344     B7       -1.000000   B9       -1.000000
    A344     B28      0.258000   B29      0.030000
    A344     B30      0.017000   B31      0.042000
    A344     B32      0.015000   B33      0.009000
    A344     B34      0.010000   B35      0.004000
    A344     B36      0.010000   B37      0.055000
    A344     B38      0.030000   B39      0.020000
    A344     B40      0.016000   B41      0.258000
    A344     B42      0.030000   B43      0.017000
    A344     B44      0.042000   B45      0.015000
    A344     B46      0.009000   B47      0.010000
    A344     B48      0.004000   B49      0.010000
    A344     B50      0.055000   B51      0.030000
    A344     B52      0.020000   B53      0.016000
    A344     B174     -26.000000
    A345     COST     -40.000000   B1       1.000000
    A345     B7       -1.000000   B10      -1.000000
    A345     B28      0.240000   B29      0.030000
    A345     B30      0.017000   B31      0.042000
    A345     B32      0.008000   B33      0.009000
    A345     B34      0.010000   B35      0.004000
    A345     B36      0.010000   B37      0.050000
    A345     B38      0.024000   B39      0.020000
    A345     B40      0.016000   B41      0.240000
    A345     B42      0.030000   B43      0.017000
    A345     B44      0.042000   B45      0.008000
    A345     B46      0.009000   B47      0.010000
    A345     B48      0.004000   B49      0.010000
    A345     B50      0.050000   B51      0.024000
    A345     B52      0.020000   B53      0.016000
    A345     B174     -40.000000
    A346     COST     -15.000000   B1       1.000000
    A346     B7       -1.000000   B11      -1.000000
    A346     B28      0.330000   B29      0.012000
    A346     B30      0.019000   B31      0.003000
    A346     B33      0.045000   B34      0.056000
    A346     B35      0.046000   B36      0.020000
    A346     B37      0.030000   B38      0.030000
    A346     B39      0.030000   B40      0.039000
    A346     B41      0.330000   B42      0.012000
    A346     B43      0.019000   B44      0.003000
    A346     B46      0.045000   B47      0.056000
    A346     B48      0.046000   B49      0.020000
    A346     B50      0.030000   B51      0.030000
    A346     B52      0.030000   B53      0.039000
    A346     B174     -15.000000
    A347     COST     -41.000000   B1       1.000000
    A347     B28      0.292000   B29      0.015000
    A347     B30      0.007000   B31      0.025000
    A347     B32      0.008000   B33      0.015000
    A347     B34      0.020000   B35      0.040000
    A347     B36      0.020000   B37      0.030000
    A347     B38      0.030000   B39      0.030000
    A347     B40      0.052000   B41      0.292000
    A347     B42      0.015000   B43      0.007000
    A347     B44      0.025000   B45      0.008000
    A347     B46      0.015000   B47      0.020000
    A347     B48      0.040000   B49      0.020000
    A347     B50      0.030000   B51      0.030000
    A347     B52      0.030000   B53      0.052000
    A347     B174     -41.000000
    A348     COST     30.000000   B2       -1.000000
    A348     B12      -0.200000   B13      -1.500000
    A348     B14      -1.000000   B19      -1.000000
    A348     B20      1.000000   B174     30.000000
    A349     COST     11.000000   B28      -1.000000
    A349     B29      -1.000000   B174     11.000000
    A350     COST     11.000000   B28      -1.000000
    A350     B30      -1.000000   B174     11.000000
    A351     COST     11.000000   B28      -1.000000
    A351     B31      -1.000000   B174     11.000000
    A352     COST     11.000000   B28      -1.000000
    A352     B32      -1.000000   B174     11.000000
    A353     COST     11.000000   B28      -1.000000
    A353     B33      -1.000000   B174     11.000000
    A354     COST     11.000000   B28      -1.000000
    A354     B34      -1.000000   B174     11.000000
    A355     COST     11.000000   B28      -1.000000
    A355     B35      -1.000000   B174     11.000000
    A356     COST     11.000000   B28      -1.000000
    A356     B36      -1.000000   B174     11.000000
    A357     COST     11.000000   B28      -1.000000
    A357     B37      -1.000000   B174     11.000000
    A358     COST     11.000000   B28      -1.000000
    A358     B38      -1.000000   B174     11.000000
    A359     COST     11.000000   B28      -1.000000
    A359     B39      -1.000000   B174     11.000000
    A360     COST     11.000000   B28      -1.000000
    A360     B40      -1.000000   B174     11.000000
    A361     COST     0.242000   B63      -1.000000
    A361     B99      1.000000   B174     0.242000
    A362     COST     0.242000   B64      -1.000000
    A362     B100     1.000000   B174     0.242000
    A363     COST     0.242000   B65      -1.000000
    A363     B101     1.000000   B174     0.242000
    A364     COST     0.242000   B66      -1.000000
    A364     B102     1.000000   B174     0.242000
    A365     COST     0.242000   B67      -1.000000
    A365     B103     1.000000   B174     0.242000
    A366     COST     0.242000   B68      -1.000000
    A366     B104     1.000000   B174     0.242000
    A367     COST     0.242000   B69      -1.000000
    A367     B105     1.000000   B174     0.242000
    A368     COST     0.242000   B70      -1.000000
    A368     B106     1.000000   B174     0.242000
    A369     COST     0.242000   B71      -1.000000
    A369     B107     1.000000   B174     0.242000
    A370     COST     0.242000   B72      -1.000000
    A370     B108     1.000000   B174     0.242000
    A371     COST     0.242000   B73      -1.000000
    A371     B109     1.000000   B174     0.242000
    A372     COST     0.242000   B74      -1.000000
    A372     B110     1.000000   B174     0.242000
    A373     COST     0.300000   B28      0.001000
    A373     B29      0.001000   B41      0.001000
    A373     B42      0.001000   B63      -1.000000
    A373     B75      -1.000000   B87      1.000000
    A373     B174     0.300000
    A374     COST     0.300000   B28      0.001000
    A374     B30      0.001000   B41      0.001000
    A374     B43      0.001000   B64      -1.000000
    A374     B76      -1.000000   B88      1.000000
    A374     B174     0.300000
    A375     COST     0.300000   B28      0.001000
    A375     B31      0.001000   B41      0.001000
    A375     B44      0.001000   B65      -1.000000
    A375     B77      -1.000000   B89      1.000000
    A375     B174     0.300000
    A376     COST     0.300000   B28      0.001000
    A376     B32      0.001000   B41      0.001000
    A376     B45      0.001000   B66      -1.000000
    A376     B78      -1.000000   B90      1.000000
    A376     B174     0.300000
    A377     COST     0.300000   B28      0.001000
    A377     B33      0.001000   B41      0.001000
    A377     B46      0.001000   B67      -1.000000
    A377     B79      -1.000000   B91      1.000000
    A377     B174     0.300000
    A378     COST     0.300000   B28      0.001000
    A378     B34      0.001000   B41      0.001000
    A378     B47      0.001000   B68      -1.000000
    A378     B80      -1.000000   B92      1.000000
    A378     B174     0.300000
    A379     COST     0.300000   B28      0.001000
    A379     B35      0.001000   B41      0.001000
    A379     B48      0.001000   B69      -1.000000
    A379     B81      -1.000000   B93      1.000000
    A379     B174     0.300000
    A380     COST     0.300000   B28      0.001000
    A380     B36      0.001000   B41      0.001000
    A380     B49      0.001000   B70      -1.000000
    A380     B82      -1.000000   B94      1.000000
    A380     B174     0.300000
    A381     COST     0.300000   B28      0.001000
    A381     B37      0.001000   B41      0.001000
    A381     B50      0.001000   B71      -1.000000
    A381     B83      -1.000000   B95      1.000000
    A381     B174     0.300000
    A382     COST     0.300000   B28      0.001000
    A382     B38      0.001000   B41      0.001000
    A382     B51      0.001000   B72      -1.000000
    A382     B84      -1.000000   B96      1.000000
    A382     B174     0.300000
    A383     COST     0.300000   B28      0.001000
    A383     B39      0.001000   B41      0.001000
    A383     B52      0.001000   B73      -1.000000
    A383     B85      -1.000000   B97      1.000000
    A383     B174     0.300000
    A384     COST     0.300000   B28      0.001000
    A384     B40      0.001000   B41      0.001000
    A384     B53      0.001000   B74      -1.000000
    A384     B86      -1.000000   B98      1.000000
    A384     B147     0.300000
    A385     B28      0.880000   B29      0.880000
    A385     B41      0.880000   B42      0.880000
    A385     B63      -1000.000000   B75      -1000.000000
    A385     B133     1000.000000   B145     -1000.000000
    A385     B170     1000.000000
    A386     B28      0.880000   B30      0.880000
    A386     B41      0.880000   B43      0.880000
    A386     B64      -1000.000000   B76      -1000.000000
    A386     B134     1000.000000   B146     -1000.000000
    A386     B170     1000.000000
    A387     B28      0.880000   B31      0.880000
    A387     B41      0.880000   B44      0.880000
    A387     B65      -1000.000000   B77      -1000.000000
    A387     B135     1000.000000   B147     -1000.000000
    A387     B170     1000.000000
    A388     B28      0.880000   B32      0.880000
    A388     B41      0.880000   B45      0.880000
    A388     B66      -1000.000000   B78      -1000.000000
    A388     B136     1000.000000   B148     -1000.000000
    A388     B170     1000.000000
    A389     B28      0.880000   B33      0.880000
    A389     B41      0.880000   B46      0.880000
    A389     B67      -1000.000000   B79      -1000.000000
    A389     B137     1000.000000   B149     -1000.000000
    A389     B170     1000.000000
    A390     B28      0.880000   B34      0.880000
    A390     B41      0.880000   B47      0.880000
    A390     B68      -1000.000000   B80      -1000.000000
    A390     B138     1000.000000   B164     -1000.000000
    A390     B170     1000.000000
    A391     B28      0.880000   B35      0.880000
    A391     B41      0.880000   B48      0.880000
    A391     B69      -1000.000000   B81      -1000.000000
    A391     B139     1000.000000   B165     -1000.000000
    A391     B170     1000.000000
    A392     B28      0.880000   B36      0.880000
    A392     B41      0.880000   B49      0.880000
    A392     B70      -1000.000000   B82      -1000.000000
    A392     B140     1000.000000   B166     -1000.000000
    A392     B170     1000.000000
    A393     B28      0.880000   B37      0.880000
    A393     B41      0.880000   B50      0.880000
    A393     B71      -1000.000000   B83      -1000.000000
    A393     B141     1000.000000   B167     -1000.000000
    A393     B170     1000.000000
    A394     B28      0.880000   B38      0.880000
    A394     B41      0.880000   B51      0.880000
    A394     B72      -1000.000000   B84      -1000.000000
    A394     B142     1000.000000   B168     -1000.000000
    A394     B170     1000.000000
    A395     B28      0.880000   B39      0.880000
    A395     B41      0.880000   B52      0.880000
    A395     B73      -1000.000000   B85      -1000.000000
    A395     B143     1000.000000   B169     -1000.000000
    A395     B170     1000.000000
    A396     B28      0.880000   B40      0.880000
    A396     B41      0.880000   B53      0.880000
    A396     B74      -1000.000000   B86      -1000.000000
    A396     B144     1000.000000   B150     -1000.000000
    A396     B170     1000.000000
    A397     B28      0.880000   B29      0.880000
    A397     B41      0.880000   B42      0.880000
    A397     B63      -1000.000000   B75      -1000.000000
    A397     B121     1000.000000   B133     1000.000000
    A397     B171     1000.000000
    A398     B28      0.880000   B30      0.880000
    A398     B41      0.880000   B43      0.880000
    A398     B64      -1000.000000   B76      -1000.000000
    A398     B122     1000.000000   B134     1000.000000
    A398     B171     1000.000000
    A399     B28      0.880000   B31      0.880000
    A399     B41      0.880000   B44      0.880000
    A399     B65      -1000.000000   B77      -1000.000000
    A399     B123     1000.000000   B135     1000.000000
    A399     B171     1000.000000
    A400     B28      0.880000   B32      0.880000
    A400     B41      0.880000   B45      0.880000
    A400     B66      -1000.000000   B78      -1000.000000
    A400     B124     1000.000000   B136     1000.000000
    A400     B171     1000.000000
    A401     B28      0.880000   B33      0.880000
    A401     B41      0.880000   B46      0.880000
    A401     B67      -1000.000000   B79      -1000.000000
    A401     B125     1000.000000   B137     1000.000000
    A401     B171     1000.000000
    A402     B28      0.880000   B34      0.880000
    A402     B41      0.880000   B47      0.880000
    A402     B68      -1000.000000   B80      -1000.000000
    A402     B126     1000.000000   B138     1000.000000
    A402     B171     1000.000000
    A403     B28      0.880000   B35      0.880000
    A403     B41      0.880000   B48      0.880000
    A403     B69      -1000.000000   B81      -1000.000000
    A403     B127     1000.000000   B139     1000.000000
    A403     B171     1000.000000
    A404     B28      0.880000   B36      0.880000
    A404     B41      0.880000   B49      0.880000
    A404     B70      -1000.000000   B82      -1000.000000
    A404     B128     1000.000000   B140     1000.000000
    A404     B171     1000.000000
    A405     B28      0.880000   B37      0.880000
    A405     B41      0.880000   B50      0.880000
    A405     B71      -1000.000000   B83      -1000.000000
    A405     B129     1000.000000   B141     1000.000000
    A405     B171     1000.000000
    A406     B28      0.880000   B38      0.880000
    A406     B41      0.880000   B51      0.880000
    A406     B72      -1000.000000   B84      -1000.000000
    A406     B130     1000.000000   B142     1000.000000
    A406     B171     1000.000000
    A407     B28      0.880000   B39      0.880000
    A407     B41      0.880000   B52      0.880000
    A407     B73      -1000.000000   B85      -1000.000000
    A407     B131     1000.000000   B143     1000.000000
    A407     B171     1000.000000
    A408     B28      0.880000   B40      0.880000
    A408     B41      0.880000   B53      0.880000
    A408     B74      -1000.000000   B86      -1000.000000
    A408     B132     1000.000000   B144     1000.000000
    A408     B171     1000.000000
    A409     B28      0.880000   B29      0.880000
    A409     B41      0.880000   B42      0.880000
    A409     B63      -1000.000000   B133     1000.000000
    A409     B172     1000.000000
    A410     B28      0.880000   B30      0.880000
    A410     B41      0.880000   B43      0.880000
    A410     B64      -1000.000000   B134     1000.000000
    A410     B172     1000.000000
    A411     B28      0.880000   B31      0.880000
    A411     B41      0.880000   B44      0.880000
    A411     B65      -1000.000000   B135     1000.000000
    A411     B172     1000.000000
    A412     B28      0.880000   B32      0.880000
    A412     B41      0.880000   B45      0.880000
    A412     B66      -1000.000000   B136     1000.000000
    A412     B172     1000.000000
    A413     B28      0.880000   B33      0.880000
    A413     B41      0.880000   B46      0.880000
    A413     B67      -1000.000000   B137     1000.000000
    A413     B172     1000.000000
    A414     B28      0.880000   B34      0.880000
    A414     B41      0.880000   B47      0.880000
    A414     B68      -1000.000000   B138     1000.000000
    A414     B172     1000.000000
    A415     B28      0.880000   B35      0.880000
    A415     B41      0.880000   B48      0.880000
    A415     B69      -1000.000000   B111     -1000.000000
    A415     B116     1000.000000   B139     1000.000000
    A415     B172     1000.000000
    A416     B28      0.880000   B36      0.880000
    A416     B41      0.880000   B49      0.880000
    A416     B70      -1000.000000   B112     -1000.000000
    A416     B117     1000.000000   B140     1000.000000
    A416     B172     1000.000000
    A417     B28      0.880000   B37      0.880000
    A417     B41      0.880000   B50      0.880000
    A417     B71      -1000.000000   B113     -1000.000000
    A417     B118     1000.000000   B141     1000.000000
    A417     B172     1000.000000
    A418     B28      0.880000   B38      0.880000
    A418     B41      0.880000   B51      0.880000
    A418     B72      -1000.000000   B114     -1000.000000
    A418     B119     1000.000000   B142     1000.000000
    A418     B172     1000.000000
    A419     B28      0.880000   B39      0.880000
    A419     B41      0.880000   B52      0.880000
    A419     B73      -1000.000000   B115     -1000.000000
    A419     B120     1000.000000   B143     1000.000000
    A419     B172     1000.000000
    A420     B28      0.880000   B40      0.880000
    A420     B41      0.880000   B53      0.880000
    A420     B74      -1000.000000   B144     1000.000000
    A420     B172     1000.000000
    A421     B28      0.880000   B29      0.880000
    A421     B41      0.880000   B42      0.880000
    A421     B63      -1000.000000   B133     1000.000000
    A421     B173     1000.000000
    A422     B28      0.880000   B30      0.880000
    A422     B41      0.880000   B43      0.880000
    A422     B64      -1000.000000   B134     1000.000000
    A422     B173     1000.000000
    A423     B31      0.880000   B41      0.880000
    A423     B44      0.880000   B65      -1000.000000
    A423     B135     1000.000000   B173     1000.000000
    A424     B28      0.880000   B32      0.880000
    A424     B41      0.880000   B45      0.880000
    A424     B66      -1000.000000   B136     1000.000000
    A424     B173     1000.000000
    A425     B28      0.880000   B33      0.880000
    A425     B41      0.880000   B46      0.880000
    A425     B67      -1000.000000   B137     1000.000000
    A425     B173     1000.000000
    A426     B28      0.880000   B34      0.880000
    A426     B41      0.880000   B47      0.880000
    A426     B68      -1000.000000   B138     1000.000000
    A426     B173     1000.000000
    A427     B28      0.880000   B35      0.880000
    A427     B41      0.880000   B48      0.880000
    A427     B69      -1000.000000   B139     1000.000000
    A427     B173     1000.000000
    A428     B28      0.880000   B36      0.880000
    A428     B41      0.880000   B49      0.880000
    A428     B70      -1000.000000   B140     1000.000000
    A428     B173     1000.000000
    A429     B28      0.880000   B37      0.880000
    A429     B41      0.880000   B50      0.880000
    A429     B71      -1000.000000   B141     1000.000000
    A429     B173     1000.000000
    A430     B28      0.880000   B38      0.880000
    A430     B41      0.880000   B51      0.880000
    A430     B72      -1000.000000   B142     1000.000000
    A430     B173     1000.000000
    A431     B28      0.880000   B39      0.880000
    A431     B41      0.880000   B52      0.880000
    A431     B73      -1000.000000   B143     1000.000000
    A431     B173     1000.000000
    A432     B28      0.880000   B40      0.880000
    A432     B41      0.880000   B53      0.880000
    A432     B74      -1000.000000   B144     1000.000000
    A432     B173     1000.000000
    A433     COST     120.000000   B28      0.220000
    A433     B31      0.220000   B41      0.220000
    A433     B44      0.220000   B65      -1000.000000
    A433     B151     1000.000000   B174     120.000000
    A434     COST     120.000000   B28      0.220000
    A434     B32      0.220000   B41      0.220000
    A434     B45      0.220000   B66      -1000.000000
    A434     B152     1000.000000   B174     120.000000
    A435     COST     120.000000   B28      0.220000
    A435     B33      0.220000   B41      0.220000
    A435     B46      0.220000   B67      -1000.000000
    A435     B153     1000.000000   B174     120.000000
    A436     COST     120.000000   B28      0.220000
    A436     B34      0.220000   B41      0.220000
    A436     B47      0.220000   B68      -1000.000000
    A436     B154     1000.000000   B174     120.000000
    A437     COST     20.000000   B2       -1.000000
    A437     B12      -0.200000   B13      -0.330000
    A437     B14      -1.000000   B20      1.000000
    A437     B174     20.000000
    A438     B70      1.000000   B82      1.000000
    A438     B160     -1.000000   B166     1.000000
    A439     B71      1.000000   B83      1.000000
    A439     B161     -1.000000   B167     1.000000
    A440     B72      1.000000   B84      1.000000
    A440     B162     -1.000000   B168     1.000000
    A441     B73      1.000000   B85      1.000000
    A441     B163     -1.000000   B169     1.000000
    A442     B74      1.000000   B86      1.000000
    SLACK54497 B1       1.000000
    SLACK54498 B2       1.000000
    SLACK54499 B3       1.000000
    SLACK54500 B4       1.000000
    SLACK54501 B5       1.000000
    SLACK54502 B6       1.000000
    SLACK54503 B7       1.000000
    SLACK54504 B8       1.000000
    SLACK54505 B9       1.000000
    SLACK54506 B10      1.000000
    SLACK54507 B11      1.000000
    SLACK54508 B12      1.000000
    SLACK54509 B13      1.000000
    SLACK54510 B14      1.000000
    SLACK54511 B15      1.000000
    SLACK54512 B16      1.000000
    SLACK54513 B17      1.000000
    SLACK54514 B18      1.000000
    SLACK54515 B19      1.000000
    SLACK54516 B20      1.000000
    SLACK54517 B21      1.000000
    SLACK54518 B22      1.000000
    SLACK54519 B23      1.000000
    SLACK54520 B24      1.000000
    SLACK54521 B25      1.000000
    SLACK54522 B26      1.000000
    SLACK54523 B27      1.000000
    SLACK54524 B28      1.000000
    SLACK54525 B29      1.000000
    SLACK54526 B30      1.000000
    SLACK54527 B31      1.000000
    SLACK54528 B32      1.000000
    SLACK54529 B33      1.000000
    SLACK54530 B34      1.000000
    SLACK54531 B35      1.000000
    SLACK54532 B36      1.000000
    SLACK54533 B37      1.000000
    SLACK54534 B38      1.000000
    SLACK54535 B39      1.000000
    SLACK54536 B40      1.000000
    SLACK54537 B41      1.000000
    SLACK54538 B42      1.000000
    SLACK54539 B43      1.000000
    SLACK54540 B44      1.000000
    SLACK54541 B45      1.000000
    SLACK54542 B46      1.000000
    SLACK54543 B47      1.000000
    SLACK54544 B48      1.000000
    SLACK54545 B49      1.000000
    SLACK54546 B50      1.000000
    SLACK54547 B51      1.000000
    SLACK54548 B52      1.000000
    SLACK54549 B53      1.000000
    SLACK54550 B54      1.000000
    SLACK54551 B55      1.000000
    SLACK54552 B56      1.000000
    SLACK54553 B57      1.000000
    SLACK54554 B58      1.000000
    SLACK54555 B59      1.000000
    SLACK54556 B60      1.000000
    SLACK54557 B61      1.000000
    SLACK54558 B62      1.000000
    SLACK54559 B63      1.000000
    SLACK54560 B64      1.000000
    SLACK54561 B65      1.000000
    SLACK54562 B66      1.000000
    SLACK54563 B67      1.000000
    SLACK54564 B68      1.000000
    SLACK54565 B69      1.000000
    SLACK54566 B70      1.000000
    SLACK54567 B71      1.000000
    SLACK54568 B72      1.000000
    SLACK54569 B73      1.000000
    SLACK54570 B74      1.000000
    SLACK54571 B75      1.000000
    SLACK54572 B76      1.000000
    SLACK54573 B77      1.000000
    SLACK54574 B78      1.000000
    SLACK54575 B79      1.000000
    SLACK54576 B80      1.000000
    SLACK54577 B81      1.000000
    SLACK54578 B82      1.000000
    SLACK54579 B83      1.000000
    SLACK54580 B84      1.000000
    SLACK54581 B85      1.000000
    SLACK54582 B86      1.000000
    SLACK54583 B87      1.000000
    SLACK54584 B88      1.000000
    SLACK54585 B89      1.000000
    SLACK54586 B90      1.000000
    SLACK54587 B91      1.000000
    SLACK54588 B92      1.000000
    SLACK54589 B93      1.000000
    SLACK54590 B94      1.000000
    SLACK54591 B95      1.000000
    SLACK54592 B96      1.000000
    SLACK54593 B97      1.000000
    SLACK54594 B98      1.000000
    SLACK54595 B99      1.000000
    SLACK54596 B100     1.000000
    SLACK54597 B101     1.000000
    SLACK54598 B102     1.000000
    SLACK54599 B103     1.000000
    SLACK54600 B104     1.000000
    SLACK54601 B105     1.000000
    SLACK54602 B106     1.000000
    SLACK54603 B107     1.000000
    SLACK54604 B108     1.000000
    SLACK54605 B109     1.000000
    SLACK54606 B110     1.000000
    SLACK54607 B111     1.000000
    SLACK54608 B112     1.000000
    SLACK54609 B113     1.000000
    SLACK54610 B114     1.000000
    SLACK54611 B115     1.000000
    SLACK54612 B116     1.000000
    SLACK54613 B117     1.000000
    SLACK54614 B118     1.000000
    SLACK54615 B119     1.000000
    SLACK54616 B120     1.000000
    SLACK54617 B121     1.000000
    SLACK54618 B122     1.000000
    SLACK54619 B123     1.000000
    SLACK54620 B124     1.000000
    SLACK54621 B125     1.000000
    SLACK54622 B126     1.000000
    SLACK54623 B127     1.000000
    SLACK54624 B128     1.000000
    SLACK54625 B129     1.000000
    SLACK54626 B130     1.000000
    SLACK54627 B131     1.000000
    SLACK54628 B132     1.000000
    SLACK54629 B133     1.000000
    SLACK54630 B134     1.000000
    SLACK54631 B135     1.000000
    SLACK54632 B136     1.000000
    SLACK54633 B137     1.000000
    SLACK54634 B138     1.000000
    SLACK54635 B139     1.000000
    SLACK54636 B140     1.000000
    SLACK54637 B141     1.000000
    SLACK54638 B142     1.000000
    SLACK54639 B143     1.000000
    SLACK54640 B144     1.000000
    SLACK54641 B145     1.000000
    SLACK54642 B146     1.000000
    SLACK54643 B147     1.000000
    SLACK54644 B148     1.000000
    SLACK54645 B149     1.000000
    SLACK54646 B150     1.000000
    SLACK54647 B151     1.000000
    SLACK54648 B152     1.000000
    SLACK54649 B153     1.000000
    SLACK54650 B154     1.000000
    SLACK54651 B155     1.000000
    SLACK54652 B156     1.000000
    SLACK54653 B157     1.000000
    SLACK54654 B158     1.000000
    SLACK54655 B159     1.000000
    SLACK54656 B160     1.000000
    SLACK54657 B161     1.000000
    SLACK54658 B162     1.000000
    SLACK54659 B163     1.000000
    SLACK54660 B164     1.000000
    SLACK54661 B165     1.000000
    SLACK54662 B166     1.000000
    SLACK54663 B167     1.000000
    SLACK54664 B168     1.000000
    SLACK54665 B169     1.000000
    SLACK54666 B170     1.000000
    SLACK54667 B171     1.000000
    SLACK54668 B172     1.000000
    SLACK54669 B173     1.000000
    SLACK54670 B174     1.000000
RHS
    RHS1     B1       8950.000000
    RHS1     B2       3300.000000
    RHS1     B3       110.000000
    RHS1     B7       -2000.000000
    RHS1     B8       -1100.000000
    RHS1     B9       -200.000000
    RHS1     B10      -100.000000
    RHS1     B11      -400.000000
    RHS1     B12      350.000000
    RHS1     B13      1300.000000
    RHS1     B14      1120.000000
    RHS1     B15      -220.000000
    RHS1     B16      3300.000000
    RHS1     B17      1.010000
    RHS1     B18      -300.000000
    RHS1     B19      -200.000000
    RHS1     B20      500.000000
    RHS1     B21      255.000000
    RHS1     B22      0.500000
    RHS1     B23      240.000000
    RHS1     B24      170.000000
    RHS1     B25      30.000000
    RHS1     B26      50.000000
    RHS1     B27      30.000000
    RHS1     B28      9775.000000
    RHS1     B29      1030.000000
    RHS1     B30      895.000000
    RHS1     B31      840.000000
    RHS1     B32      845.000000
    RHS1     B33      835.000000
    RHS1     B34      900.000000
    RHS1     B35      915.000000
    RHS1     B36      990.000000
    RHS1     B37      950.000000
    RHS1     B38      980.000000
    RHS1     B39      965.000000
    RHS1     B40      945.000000
    RHS1     B41      9125.000000
    RHS1     B42      930.000000
    RHS1     B43      795.000000
    RHS1     B44      740.000000
    RHS1     B45      745.000000
    RHS1     B46      735.000000
    RHS1     B47      800.000000
    RHS1     B48      815.000000
    RHS1     B49      930.000000
    RHS1     B50      930.000000
    RHS1     B51      930.000000
    RHS1     B52      930.000000
    RHS1     B53      930.000000
    RHS1     B54      917000.000000
    RHS1     B55      150000.000000
    RHS1     B56      100000.000000
    RHS1     B57      150000.000000
    RHS1     B58      124000.000000
    RHS1     B59      186000.000000
    RHS1     B60      200000.000000
    RHS1     B61      208000.000000
    RHS1     B62      125000.000000
    RHS1     B63      1.010000
    RHS1     B64      1.020000
    RHS1     B65      1.030000
    RHS1     B66      1.040000
    RHS1     B67      1.050000
    RHS1     B68      1.060000
    RHS1     B69      1.070000
    RHS1     B70      1.080000
    RHS1     B71      1.090000
    RHS1     B72      1.100000
    RHS1     B73      1.110000
    RHS1     B74      1.120000
    RHS1     B75      1.130000
    RHS1     B76      1.140000
    RHS1     B77      1.150000
    RHS1     B78      1.160000
    RHS1     B79      1.170000
    RHS1     B80      1.180000
    RHS1     B81      1.190000
    RHS1     B82      1.200000
    RHS1     B83      1.210000
    RHS1     B84      1.220000
    RHS1     B85      1.230000
    RHS1     B86      1.240000
    RHS1     B87      1.250000
    RHS1     B88      1.260000
    RHS1     B89      1.270000
    RHS1     B90      1.280000
    RHS1     B91      1.290000
    RHS1     B92      1.300000
    RHS1     B93      1.310000
    RHS1     B94      1.320000
    RHS1     B95      1.330000
    RHS1     B96      1.340000
    RHS1     B97      1.350000
    RHS1     B98      1.360000
    RHS1     B99      1.370000
    RHS1     B100     1.380000
    RHS1     B101     1.390000
    RHS1     B102     1.400000
    RHS1     B103     1.410000
    RHS1     B104     1.420000
    RHS1     B105     1.430000
    RHS1     B106     1.440000
    RHS1     B107     1.450000
    RHS1     B108     1.460000
    RHS1     B109     1.470000
    RHS1     B110     1.480000
    RHS1     B111     1.490000
    RHS1     B112     1.500000
    RHS1     B113     1.510000
    RHS1     B114     1.520000
    RHS1     B115     1.530000
    RHS1     B116     1.540000
    RHS1     B117     1.550000
    RHS1     B118     1.560000
    RHS1     B119     1.570000
    RHS1     B120     1.580000
    RHS1     B121     1.590000
    RHS1     B122     1.600000
    RHS1     B123     1.610000
    RHS1     B124     1.620000
    RHS1     B125     1.630000
    RHS1     B126     1.640000
    RHS1     B127     1.650000
    RHS1     B128     1.660000
    RHS1     B129     1.670000
    RHS1     B130     1.680000
    RHS1     B131     1.690000
    RHS1     B132     1.700000
    RHS1     B133     1.710000
    RHS1     B134     1.720000
    RHS1     B135     1.730000
    RHS1     B136     1.740000
    RHS1     B137     1.750000
    RHS1     B138     1.760000
    RHS1     B139     1.770000
    RHS1     B140     1.780000
    RHS1     B141     1.790000
    RHS1     B142     1.800000
    RHS1     B143     1.810000
    RHS1     B144     1.820000
    RHS1     B145     1.830000
    RHS1     B146     1.840000
    RHS1     B147     1.850000
    RHS1     B148     1.860000
    RHS1     B149     1.870000
    RHS1     B150     1.880000
    RHS1     B151     1.890000
    RHS1     B152     1.900000
    RHS1     B153     1.910000
    RHS1     B154     1.920000
    RHS1     B155     1.930000
    RHS1     B156     1.940000
    RHS1     B157     1.950000
    RHS1     B158     1.960000
    RHS1     B159     1.970000
    RHS1     B160     1.980000
    RHS1     B161     1.990000
    RHS1     B162     1.010000
    RHS1     B163     1.020000
    RHS1     B164     1.030000
    RHS1     B165     1.040000
    RHS1     B166     1.050000
    RHS1     B167     1.060000
    RHS1     B168     1.070000
    RHS1     B169     1.080000
    RHS1     B170     1.090000
    RHS1     B171     1.100000
    RHS1     B172     1.110000
    RHS1     B173     1.120000
    RHS1     B174     1.130000
BOUNDS
ENDATA
