NAME          KB2
ROWS
 N  FAT7..J.
 E  BAL...BW
 E  BHC...BW
 E  BLC...BW
 E  BLV...BW
 E  BN4...BW
 E  BP8...BW
 E  BTO...BW
 E  B3E...BW
 E  B3P...BW
 E  B3R...BW
 E  B3T...BW
 E  B3E.VOBW
 E  B3P.VOBW
 E  B3R.VOBW
 E  HMH.3EBW
 E  HML.3EBW
 E  HMM.3EBW
 E  HRH.3EBW
 E  HRL.3EBW
 E  HRM.3EBW
 E  HMH.3RBW
 E  HML.3RBW
 E  HMM.3RBW
 E  HRH.3RBW
 E  HRL.3RBW
 E  HRM.3RBW
 E  NOI.3EBW
 E  NOI.3PBW
 E  NOI.3RBW
 E  WMO.3PBW
 E  WRO.3PBW
 E  XPB.3ABW
 E  XCV.3EBW
 E  XPB.3EBW
 E  XRV.3EBW
 E  X12.3EBW
 E  XCV.3PBW
 E  XRV.3PBW
 E  X12.3PBW
 E  XCV.3RBW
 E  XPB.3RBW
 E  XRV.3RBW
 E  X12.3RBW
 E  UPBROW33163
 E  UPBROW33164
 E  UPBROW33165
 E  UPBROW33166
 E  UPBROW33167
 E  UPBROW33168
 E  UPBROW33169
 E  UPBROW33170
 E  UPBROW33171
COLUMNS
    BAL.3EBW BAL...BW -1.000000   B3E.VOBW 1.000000
    BAL.3EBW XCV.3EBW 6.000000   XRV.3EBW 4.000000
    BAL.3EBW X12.3EBW 50.300000   HRL.3EBW 98.702770
    BAL.3EBW HML.3EBW 94.635680   HRM.3EBW 102.021910
    BAL.3EBW HMM.3EBW 98.089760   HRH.3EBW 103.058100
    BAL.3EBW HMH.3EBW 99.185590
    BHC.3EBW BHC...BW -1.000000   B3E.VOBW 1.000000
    BHC.3EBW XCV.3EBW -2.000000   XRV.3EBW 0.500000
    BHC.3EBW X12.3EBW -15.600000   HRL.3EBW 92.895350
    BHC.3EBW HML.3EBW 79.405340   HRM.3EBW 94.570940
    BHC.3EBW HMM.3EBW 81.470090   HRH.3EBW 95.021630
    BHC.3EBW HMH.3EBW 82.043080   UPBROW33163 1.000000
    BLC.3EBW BLC...BW -1.000000   B3E.VOBW 1.000000
    BLC.3EBW XCV.3EBW 7.000000   XRV.3EBW 4.500000
    BLC.3EBW X12.3EBW 57.900000   HRL.3EBW 95.383450
    BLC.3EBW HML.3EBW 80.378730   HRM.3EBW 97.979650
    BLC.3EBW HMM.3EBW 83.220260   HRH.3EBW 98.646340
    BLC.3EBW HMH.3EBW 83.993700
    BLV.3EBW BLV...BW -1.000000   B3E.VOBW 1.000000
    BLV.3EBW XCV.3EBW 14.000000   XRV.3EBW 7.200000
    BLV.3EBW X12.3EBW 102.300000   HRL.3EBW 82.879700
    BLV.3EBW HML.3EBW 80.367890   HRM.3EBW 87.332980
    BLV.3EBW HMM.3EBW 84.519100   HRH.3EBW 88.466120
    BLV.3EBW HMH.3EBW 85.613850
    BN4.3EBW BN4...BW -1.000000   B3E.VOBW 1.000000
    BN4.3EBW XCV.3EBW 80.000000   XRV.3EBW 70.000000
    BN4.3EBW X12.3EBW 113.000000   HRL.3EBW 97.329960
    BN4.3EBW HML.3EBW 92.715940   HRM.3EBW 100.650000
    BN4.3EBW HMM.3EBW 96.866280   HRH.3EBW 101.663210
    BN4.3EBW HMH.3EBW 98.064330
    BP8.3EBW BP8...BW -1.000000   B3E.VOBW 1.000000
    BP8.3EBW XCV.3EBW 4.000000   XRV.3EBW 3.600000
    BP8.3EBW X12.3EBW 28.900000   HRL.3EBW 101.173090
    BP8.3EBW HML.3EBW 90.038440   HRM.3EBW 102.213630
    BP8.3EBW HMM.3EBW 91.266110   HRH.3EBW 102.518180
    BP8.3EBW HMH.3EBW 91.626420
    BTO.3EBW BTO...BW -1.000000   B3E.VOBW 1.000000
    BTO.3EBW XCV.3EBW -1.000000   XRV.3EBW 1.200000
    BTO.3EBW X12.3EBW 5.000000   HRL.3EBW 105.476660
    BTO.3EBW HML.3EBW 89.104320   HRM.3EBW 106.219180
    BTO.3EBW HMM.3EBW 90.148870   HRH.3EBW 106.467190
    BTO.3EBW HMH.3EBW 90.496290
    BAL.3PBW BAL...BW -1.000000   B3P.VOBW 1.000000
    BAL.3PBW XCV.3PBW 6.000000   XRV.3PBW 4.000000
    BAL.3PBW X12.3PBW 50.300000   WRO.3PBW 96.135560
    BAL.3PBW WMO.3PBW 91.963130
    BHC.3PBW BHC...BW -1.000000   B3P.VOBW 1.000000
    BHC.3PBW XCV.3PBW -2.000000   XRV.3PBW 0.500000
    BHC.3PBW X12.3PBW -15.600000   WRO.3PBW 90.996370
    BHC.3PBW WMO.3PBW 78.090950
    BLC.3PBW BLC...BW -1.000000   B3P.VOBW 1.000000
    BLC.3PBW XCV.3PBW 7.000000   XRV.3PBW 4.500000
    BLC.3PBW X12.3PBW 57.900000   WRO.3PBW 93.956650
    BLC.3PBW WMO.3PBW 80.746350
    BLV.3PBW BLV...BW -1.000000   B3P.VOBW 1.000000
    BLV.3PBW XCV.3PBW 14.000000   XRV.3PBW 7.200000
    BLV.3PBW X12.3PBW 102.300000   WRO.3PBW 79.780020
    BLV.3PBW WMO.3PBW 77.374410
    BN4.3PBW BN4...BW -1.000000   B3P.VOBW 1.000000
    BN4.3PBW XCV.3PBW 80.000000   XRV.3PBW 70.000000
    BN4.3PBW X12.3PBW 113.000000   WRO.3PBW 94.110620
    BN4.3PBW WMO.3PBW 88.354360
    BP8.3PBW BP8...BW -1.000000   B3P.VOBW 1.000000
    BP8.3PBW XCV.3PBW 4.000000   XRV.3PBW 3.600000
    BP8.3PBW X12.3PBW 28.900000   WRO.3PBW 99.831780
    BP8.3PBW WMO.3PBW 88.580290
    BTO.3PBW BTO...BW -1.000000   B3P.VOBW 1.000000
    BTO.3PBW XCV.3PBW -1.000000   XRV.3PBW 1.200000
    BTO.3PBW X12.3PBW 5.000000   WRO.3PBW 105.075580
    BTO.3PBW WMO.3PBW 88.181880
    BAL.3RBW BAL...BW -1.000000   B3R.VOBW 1.000000
    BAL.3RBW XCV.3RBW 6.000000   XRV.3RBW 4.000000
    BAL.3RBW X12.3RBW 50.300000   HRL.3RBW 99.190390
    BAL.3RBW HML.3RBW 95.170730   HRM.3RBW 101.088500
    BAL.3RBW HMM.3RBW 97.110160   HRH.3RBW 103.058100
    BAL.3RBW HMH.3RBW 99.185590
    BHC.3RBW BHC...BW -1.000000   B3R.VOBW 1.000000
    BHC.3RBW XCV.3RBW -2.000000   XRV.3RBW 0.500000
    BHC.3RBW X12.3RBW -15.600000   HRL.3RBW 93.161240
    BHC.3RBW HML.3RBW 79.728670   HRM.3RBW 94.147690
    BHC.3RBW HMM.3RBW 80.940470   HRH.3RBW 95.021630
    BHC.3RBW HMH.3RBW 82.043080
    BLC.3RBW BLC...BW -1.000000   B3R.VOBW 1.000000
    BLC.3RBW XCV.3RBW 7.000000   XRV.3RBW 4.500000
    BLC.3RBW X12.3RBW 57.900000   HRL.3RBW 95.808610
    BLC.3RBW HML.3RBW 80.828880   HRM.3RBW 97.341830
    BLC.3RBW HMM.3RBW 82.499260   HRH.3RBW 98.646340
    BLC.3RBW HMH.3RBW 83.993700
    BLV.3RBW BLV...BW -1.000000   B3R.VOBW 1.000000
    BLV.3RBW XCV.3RBW 14.000000   XRV.3RBW 7.200000
    BLV.3RBW X12.3RBW 102.300000   HRL.3RBW 83.613750
    BLV.3RBW HML.3RBW 81.038250   HRM.3RBW 86.245150
    BLV.3RBW HMM.3RBW 83.484580   HRH.3RBW 88.466120
    BLV.3RBW HMH.3RBW 85.613850
    BN4.3RBW BN4...BW -1.000000   B3R.VOBW 1.000000
    BN4.3RBW XCV.3RBW 80.000000   XRV.3RBW 70.000000
    BN4.3RBW X12.3RBW 113.000000   HRL.3RBW 97.868760
    BN4.3RBW HML.3RBW 93.417490   HRM.3RBW 99.777650
    BN4.3RBW HMM.3RBW 95.866350   HRH.3RBW 101.663210
    BN4.3RBW HMH.3RBW 98.064330
    BP8.3RBW BP8...BW -1.000000   B3R.VOBW 1.000000
    BP8.3RBW XCV.3RBW 4.000000   XRV.3RBW 3.600000
    BP8.3RBW X12.3RBW 28.900000   HRL.3RBW 101.329050
    BP8.3RBW HML.3RBW 90.224110   HRM.3RBW 101.937540
    BP8.3RBW HMM.3RBW 90.941120   HRH.3RBW 102.518180
    BP8.3RBW HMH.3RBW 91.626420
    BTO.3RBW BTO...BW -1.000000   B3R.VOBW 1.000000
    BTO.3RBW XCV.3RBW -1.000000   XRV.3RBW 1.200000
    BTO.3RBW X12.3RBW 5.000000   HRL.3RBW 105.583920
    BTO.3RBW HML.3RBW 89.255870   HRM.3RBW 106.001900
    BTO.3RBW HMM.3RBW 89.845840   HRH.3RBW 106.467190
    BTO.3RBW HMH.3RBW 90.496290
    D3T...BW B3T...BW -1.000000   FAT7..J. -16.500000
    D3T...BW UPBROW33164 1.000000
    EAL...BW BAL...BW 1.000000   UPBROW33165 1.000000
    EHC...BW BHC...BW 1.000000   UPBROW33166 1.000000
    ELC...BW BLC...BW 1.000000   UPBROW33167 1.000000
    ELV...BW BLV...BW 1.000000   UPBROW33168 1.000000
    EN4...BW BN4...BW 1.000000   FAT7..J. 12.000000
    EN4...BW UPBROW33169 1.000000
    EP8...BW BP8...BW 1.000000   UPBROW33170 1.000000
    ETO...BW BTO...BW 1.000000   FAT7..J. 16.000000
    ETO...BW UPBROW33171 1.000000
    M3..3TBW B3T...BW 1.000000   B3E...BW -0.290000
    M3..3TBW B3P...BW -0.170000   B3R...BW -0.540000
    QPB73EBW FAT7..J. 0.087570   XPB.3EBW 1.000000
    QPB73EBW HRL.3EBW 2.521430   HML.3EBW 3.429180
    QPB73EBW HRM.3EBW 1.549540   HMM.3EBW 1.557510
    QPB73EBW HRH.3EBW 1.271410   HMH.3EBW 1.238420
    QPB73EBW XPB.3ABW 1.000000
    QVO73EBW B3E...BW 1.000000   B3E.VOBW -1.000000
    QVO73EBW XCV.3EBW -16.000000   XRV.3EBW -12.000000
    QVO73EBW X12.3EBW -61.000000   NOI.3EBW -107.520000
    QVO73EBW XPB.3EBW -1.700000   HRL.3EBW -1.008570
    QVO73EBW HML.3EBW -1.371670   HRM.3EBW -2.014400
    QVO73EBW HMM.3EBW -2.024770   HRH.3EBW -2.161390
    QVO73EBW HMH.3EBW -2.105310   XPB.3ABW -1.500000
    QVO73PBW B3P...BW 1.000000   B3P.VOBW -1.000000
    QVO73PBW XCV.3PBW -16.000000   XRV.3PBW -12.000000
    QVO73PBW X12.3PBW -61.000000   NOI.3PBW -97.410000
    QVO73PBW XPB.3ABW -1.500000
    QPB73RBW FAT7..J. 0.087570   XPB.3RBW 1.000000
    QPB73RBW HRL.3RBW 4.319490   HML.3RBW 4.418730
    QPB73RBW HRM.3RBW 2.626960   HMM.3RBW 2.745310
    QPB73RBW HRH.3RBW 1.643910   HMH.3RBW 1.750280
    QPB73RBW XPB.3ABW 1.000000
    QVO73RBW B3R...BW 1.000000   B3R.VOBW -1.000000
    QVO73RBW XCV.3RBW -16.000000   XRV.3RBW -12.000000
    QVO73RBW X12.3RBW -61.000000   NOI.3RBW -98.500000
    QVO73RBW XPB.3RBW -1.700000   HRL.3RBW -2.159750
    QVO73RBW HML.3RBW -2.209370   HRM.3RBW -2.626960
    QVO73RBW HMM.3RBW -2.745310   HRH.3RBW -2.794640
    QVO73RBW HMH.3RBW -2.975480   XPB.3ABW -1.500000
    WMO73EBW NOI.3EBW 0.730000   HML.3EBW -1.000000
    WMO73EBW HMM.3EBW -1.000000   HMH.3EBW -1.000000
    WRO73EBW NOI.3EBW 0.410000   HRL.3EBW -1.000000
    WRO73EBW HRM.3EBW -1.000000   HRH.3EBW -1.000000
    WMO73PBW WMO.3PBW -1.000000   NOI.3PBW 0.840000
    WRO73PBW WRO.3PBW -1.000000   NOI.3PBW 0.270000
    WMO73RBW NOI.3RBW 0.810000   HML.3RBW -1.000000
    WMO73RBW HMM.3RBW -1.000000   HMH.3RBW -1.000000
    WRO73RBW NOI.3RBW 0.310000   HRL.3RBW -1.000000
    WRO73RBW HRM.3RBW -1.000000   HRH.3RBW -1.000000
    SLACK49193 HMH.3EBW -1.000000
    SLACK49194 HML.3EBW -1.000000
    SLACK49195 HMM.3EBW -1.000000
    SLACK49196 HRH.3EBW -1.000000
    SLACK49197 HRL.3EBW -1.000000
    SLACK49198 HRM.3EBW -1.000000
    SLACK49199 HMH.3RBW -1.000000
    SLACK49200 HML.3RBW -1.000000
    SLACK49201 HMM.3RBW -1.000000
    SLACK49202 HRH.3RBW -1.000000
    SLACK49203 HRL.3RBW -1.000000
    SLACK49204 HRM.3RBW -1.000000
    SLACK49205 NOI.3EBW -1.000000
    SLACK49206 NOI.3PBW -1.000000
    SLACK49207 NOI.3RBW -1.000000
    SLACK49208 XPB.3ABW 1.000000
    SLACK49209 XCV.3EBW 1.000000
    SLACK49210 XPB.3EBW 1.000000
    SLACK49211 XRV.3EBW 1.000000
    SLACK49212 X12.3EBW 1.000000
    SLACK49213 XCV.3PBW 1.000000
    SLACK49214 XRV.3PBW 1.000000
    SLACK49215 X12.3PBW 1.000000
    SLACK49216 XCV.3RBW 1.000000
    SLACK49217 XPB.3RBW 1.000000
    SLACK49218 XRV.3RBW 1.000000
    SLACK49219 X12.3RBW 1.000000
    SLACK49220 UPBROW33163 1.000000
    SLACK49221 UPBROW33164 1.000000
    SLACK49222 UPBROW33165 1.000000
    SLACK49223 UPBROW33166 1.000000
    SLACK49224 UPBROW33167 1.000000
    SLACK49225 UPBROW33168 1.000000
    SLACK49226 UPBROW33169 1.000000
    SLACK49227 UPBROW33170 1.000000
    SLACK49228 UPBROW33171 1.000000
RHS
    BOUNDRHS UPBROW33163 10.000000
    BOUNDRHS UPBROW33164 200.000000
    BOUNDRHS UPBROW33165 10.000000
    BOUNDRHS UPBROW33166 20.000000
    BOUNDRHS UPBROW33167 25.000000
    BOUNDRHS UPBROW33168 12.000000
    BOUNDRHS UPBROW33169 100.000000
    BOUNDRHS UPBROW33170 35.000000
    BOUNDRHS UPBROW33171 5.000000
BOUNDS
ENDATA
