NAME          LOTFI
ROWS
 N  1       
 E  2       
 E  3       
 E  4       
 E  5       
 E  6       
 E  7       
 E  8       
 E  9       
 E  10      
 E  11      
 E  12      
 E  13      
 E  14      
 E  15      
 E  16      
 E  17      
 E  18      
 E  19      
 E  20      
 E  21      
 E  22      
 E  23      
 E  24      
 E  25      
 E  26      
 E  27      
 E  28      
 E  29      
 E  30      
 E  31      
 E  32      
 E  33      
 E  34      
 E  35      
 E  36      
 E  37      
 E  38      
 E  39      
 E  40      
 E  41      
 E  42      
 E  43      
 E  44      
 E  45      
 E  46      
 E  47      
 E  48      
 E  49      
 E  50      
 E  51      
 E  52      
 E  53      
 E  54      
 E  55      
 E  56      
 E  57      
 E  58      
 E  59      
 E  60      
 E  61      
 E  62      
 E  63      
 E  64      
 E  65      
 E  66      
 E  67      
 E  68      
 E  69      
 E  70      
 E  71      
 E  72      
 E  73      
 E  74      
 E  75      
 E  76      
 E  77      
 E  78      
 E  79      
 E  80      
 E  81      
 E  82      
 E  83      
 E  84      
 E  85      
 E  86      
 E  87      
 E  88      
 E  89      
 E  90      
 E  91      
 E  92      
 E  93      
 E  94      
 E  95      
 E  96      
 E  97      
 E  98      
 E  99      
 E  100     
 E  101     
 E  102     
 E  103     
 E  104     
 E  105     
 E  106     
 E  107     
 E  108     
 E  109     
 E  110     
 E  111     
 E  112     
 E  113     
 E  114     
 E  115     
 E  116     
 E  117     
 E  118     
 E  119     
 E  120     
 E  121     
 E  122     
 E  123     
 E  124     
 E  125     
 E  126     
 E  127     
 E  128     
 E  129     
 E  130     
 E  131     
 E  132     
 E  133     
 E  134     
 E  135     
 E  136     
 E  137     
 E  138     
 E  139     
 E  140     
 E  141     
 E  142     
 E  143     
 E  144     
 E  145     
 E  146     
 E  147     
 E  148     
 E  149     
 E  150     
 E  151     
 E  152     
 E  153     
 E  154     
COLUMNS
    ZP1      1        -1.000000   142      100.000000
    ZM1      1        1.000000   142      -100.000000
    Z2       1        1.000000   144      1.000000
    Z3       1        1.000000   146      1.000000
    Z4       1        1.000000   148      1.000000
    Z5       1        1.000000   150      1.000000
    Z6       1        1.000000   152      1.000000
    Z7       1        1.000000   154      1.000000
    X1111    2        1.000000   56       1.000000
    X1111    138      -135.000000
    X1121    2        1.000000   62       1.000000
    X1121    138      -135.000000   143      -1.000000
    X1131    2        1.000000   68       1.000000
    X1131    138      -135.000000   143      -1.000000
    SB11     2        1.000000   145      -1.000000
    X2111    3        1.000000   56       1.000000
    X2111    138      -90.000000   151      -1.000000
    X2211    3        1.000000   57       1.000000
    X2211    138      -90.000000
    X2121    3        1.000000   62       1.000000
    X2121    138      -90.000000   143      -1.000000
    X2121    151      -1.000000
    X2221    3        1.000000   63       1.000000
    X2221    138      -90.000000   143      -1.000000
    X2131    3        1.000000   68       1.000000
    X2131    138      -90.000000   143      -1.000000
    X2131    151      -1.000000
    X2231    3        1.000000   69       1.000000
    X2231    138      -90.000000   143      -1.000000
    SB12     3        1.000000   145      -1.000000
    X3211    4        1.000000   57       1.000000
    X3211    138      -66.000000   151      -1.000000
    X3311    4        1.000000   58       1.000000
    X3311    138      -66.000000
    X3221    4        1.000000   63       1.000000
    X3221    138      -66.000000   143      -1.000000
    X3221    151      -1.000000
    X3321    4        1.000000   64       1.000000
    X3321    138      -66.000000   143      -1.000000
    X3231    4        1.000000   69       1.000000
    X3231    138      -66.000000   143      -1.000000
    X3231    151      -1.000000
    X3331    4        1.000000   70       1.000000
    X3331    138      -66.000000   143      -1.000000
    SB13     4        1.000000   145      -1.000000
    X4311    5        1.000000   58       1.000000
    X4311    138      -48.000000   151      -1.000000
    X4411    5        1.000000   59       1.000000
    X4411    138      -48.000000
    X4321    5        1.000000   64       1.000000
    X4321    138      -48.000000   143      -1.000000
    X4321    151      -1.000000
    X4421    5        1.000000   65       1.000000
    X4421    138      -48.000000   143      -1.000000
    X4331    5        1.000000   70       1.000000
    X4331    138      -48.000000   143      -1.000000
    X4331    151      -1.000000
    X4431    5        1.000000   71       1.000000
    X4431    138      -48.000000   143      -1.000000
    SB14     5        1.000000   145      -1.000000
    X5411    6        1.000000   59       1.000000
    X5411    138      -36.000000   151      -1.000000
    X5511    6        1.000000   60       1.000000
    X5511    138      -36.000000
    X5421    6        1.000000   65       1.000000
    X5421    138      -36.000000   143      -1.000000
    X5421    151      -1.000000
    X5521    6        1.000000   66       1.000000
    X5521    138      -36.000000   143      -1.000000
    X5431    6        1.000000   71       1.000000
    X5431    138      -36.000000   143      -1.000000
    X5431    151      -1.000000
    X5531    6        1.000000   72       1.000000
    X5531    138      -36.000000   143      -1.000000
    SB15     6        1.000000   145      -1.000000
    X6511    7        1.000000   60       1.000000
    X6511    138      -30.000000   151      -1.000000
    X6611    7        1.000000   61       1.000000
    X6611    138      -30.000000
    X6521    7        1.000000   66       1.000000
    X6521    138      -30.000000   143      -1.000000
    X6521    151      -1.000000
    X6621    7        1.000000   67       1.000000
    X6621    138      -30.000000   143      -1.000000
    X6531    7        1.000000   72       1.000000
    X6531    138      -30.000000   143      -1.000000
    X6531    151      -1.000000
    X6631    7        1.000000   73       1.000000
    X6631    138      -30.000000   143      -1.000000
    SB16     7        1.000000   145      -1.000000
    X1112    8        1.000000   56       1.000000
    X1112    120      1.000000   138      -135.000000
    X1122    8        1.000000   62       1.000000
    X1122    138      -135.000000
    X1132    8        1.000000   68       1.000000
    X1132    138      -135.000000   143      -1.000000
    X1142    8        1.000000   74       1.000000
    X1142    138      -135.000000   143      -1.000000
    SB21     8        1.000000   145      -1.000000
    X2112    9        1.000000   56       1.000000
    X2112    121      1.000000   138      -90.000000
    X2112    151      -1.000000
    X2212    9        1.000000   57       1.000000
    X2212    121      1.000000   138      -90.000000
    X2122    9        1.000000   62       1.000000
    X2122    138      -90.000000   151      -1.000000
    X2222    9        1.000000   63       1.000000
    X2222    138      -90.000000
    X2132    9        1.000000   68       1.000000
    X2132    138      -90.000000   143      -1.000000
    X2132    151      -1.000000
    X2232    9        1.000000   69       1.000000
    X2232    138      -90.000000   143      -1.000000
    X2142    9        1.000000   74       1.000000
    X2142    138      -90.000000   143      -1.000000
    X2142    151      -1.000000
    X2242    9        1.000000   75       1.000000
    X2242    138      -90.000000   143      -1.000000
    SB22     9        1.000000   145      -1.000000
    X3212    10       1.000000   57       1.000000
    X3212    122      1.000000   138      -66.000000
    X3212    151      -1.000000
    X3312    10       1.000000   58       1.000000
    X3312    122      1.000000   138      -66.000000
    X3222    10       1.000000   63       1.000000
    X3222    138      -66.000000   151      -1.000000
    X3322    10       1.000000   64       1.000000
    X3322    138      -66.000000
    X3232    10       1.000000   69       1.000000
    X3232    138      -66.000000   143      -1.000000
    X3232    151      -1.000000
    X3332    10       1.000000   70       1.000000
    X3332    138      -66.000000   143      -1.000000
    X3242    10       1.000000   75       1.000000
    X3242    138      -66.000000   143      -1.000000
    X3242    151      -1.000000
    X3342    10       1.000000   76       1.000000
    X3342    138      -66.000000   143      -1.000000
    SB23     10       1.000000   145      -1.000000
    X4312    11       1.000000   58       1.000000
    X4312    123      1.000000   138      -48.000000
    X4312    151      -1.000000
    X4412    11       1.000000   59       1.000000
    X4412    123      1.000000   138      -48.000000
    X4322    11       1.000000   64       1.000000
    X4322    138      -48.000000   151      -1.000000
    X4422    11       1.000000   65       1.000000
    X4422    138      -48.000000
    X4332    11       1.000000   70       1.000000
    X4332    138      -48.000000   143      -1.000000
    X4332    151      -1.000000
    X4432    11       1.000000   71       1.000000
    X4432    138      -48.000000   143      -1.000000
    X4342    11       1.000000   76       1.000000
    X4342    138      -48.000000   143      -1.000000
    X4342    151      -1.000000
    X4442    11       1.000000   77       1.000000
    X4442    138      -48.000000   143      -1.000000
    SB24     11       1.000000   145      -1.000000
    X5412    12       1.000000   59       1.000000
    X5412    124      1.000000   138      -36.000000
    X5412    151      -1.000000
    X5512    12       1.000000   60       1.000000
    X5512    124      1.000000   138      -36.000000
    X5422    12       1.000000   65       1.000000
    X5422    138      -36.000000   151      -1.000000
    X5522    12       1.000000   66       1.000000
    X5522    138      -36.000000
    X5432    12       1.000000   71       1.000000
    X5432    138      -36.000000   143      -1.000000
    X5432    151      -1.000000
    X5532    12       1.000000   72       1.000000
    X5532    138      -36.000000   143      -1.000000
    X5442    12       1.000000   77       1.000000
    X5442    138      -36.000000   143      -1.000000
    X5442    151      -1.000000
    X5542    12       1.000000   78       1.000000
    X5542    138      -36.000000   143      -1.000000
    SB25     12       1.000000   145      -1.000000
    X6512    13       1.000000   60       1.000000
    X6512    125      1.000000   138      -30.000000
    X6512    151      -1.000000
    X6612    13       1.000000   61       1.000000
    X6612    125      1.000000   138      -30.000000
    X6522    13       1.000000   66       1.000000
    X6522    138      -30.000000   151      -1.000000
    X6622    13       1.000000   67       1.000000
    X6622    138      -30.000000
    X6532    13       1.000000   72       1.000000
    X6532    138      -30.000000   143      -1.000000
    X6532    151      -1.000000
    X6632    13       1.000000   73       1.000000
    X6632    138      -30.000000   143      -1.000000
    X6542    13       1.000000   78       1.000000
    X6542    138      -30.000000   143      -1.000000
    X6542    151      -1.000000
    X6642    13       1.000000   79       1.000000
    X6642    138      -30.000000   143      -1.000000
    SB26     13       1.000000   145      -1.000000
    X1123    14       1.000000   62       1.000000
    X1123    126      1.000000   138      -135.000000
    X1133    14       1.000000   68       1.000000
    X1133    138      -135.000000
    X1143    14       1.000000   74       1.000000
    X1143    138      -135.000000   143      -1.000000
    SB31     14       1.000000   145      -1.000000
    X2123    15       1.000000   62       1.000000
    X2123    127      1.000000   138      -90.000000
    X2123    151      -1.000000
    X2223    15       1.000000   63       1.000000
    X2223    127      1.000000   138      -90.000000
    X2133    15       1.000000   68       1.000000
    X2133    138      -90.000000   151      -1.000000
    X2233    15       1.000000   69       1.000000
    X2233    138      -90.000000
    X2143    15       1.000000   74       1.000000
    X2143    138      -90.000000   143      -1.000000
    X2143    151      -1.000000
    X2243    15       1.000000   75       1.000000
    X2243    138      -90.000000   143      -1.000000
    SB32     15       1.000000   145      -1.000000
    X3223    16       1.000000   63       1.000000
    X3223    128      1.000000   138      -66.000000
    X3223    151      -1.000000
    X3323    16       1.000000   64       1.000000
    X3323    128      1.000000   138      -66.000000
    X3233    16       1.000000   69       1.000000
    X3233    138      -66.000000   151      -1.000000
    X3333    16       1.000000   70       1.000000
    X3333    138      -66.000000
    X3243    16       1.000000   75       1.000000
    X3243    138      -66.000000   143      -1.000000
    X3243    151      -1.000000
    X3343    16       1.000000   76       1.000000
    X3343    138      -66.000000   143      -1.000000
    SB33     16       1.000000   145      -1.000000
    X4323    17       1.000000   64       1.000000
    X4323    129      1.000000   138      -48.000000
    X4323    151      -1.000000
    X4423    17       1.000000   65       1.000000
    X4423    129      1.000000   138      -48.000000
    X4333    17       1.000000   70       1.000000
    X4333    138      -48.000000   151      -1.000000
    X4433    17       1.000000   71       1.000000
    X4433    138      -48.000000
    X4343    17       1.000000   76       1.000000
    X4343    138      -48.000000   143      -1.000000
    X4343    151      -1.000000
    X4443    17       1.000000   77       1.000000
    X4443    138      -48.000000   143      -1.000000
    SB34     17       1.000000   145      -1.000000
    X5423    18       1.000000   65       1.000000
    X5423    130      1.000000   138      -36.000000
    X5423    151      -1.000000
    X5523    18       1.000000   66       1.000000
    X5523    130      1.000000   138      -36.000000
    X5433    18       1.000000   71       1.000000
    X5433    138      -36.000000   151      -1.000000
    X5533    18       1.000000   72       1.000000
    X5533    138      -36.000000
    X5443    18       1.000000   77       1.000000
    X5443    138      -36.000000   143      -1.000000
    X5443    151      -1.000000
    X5543    18       1.000000   78       1.000000
    X5543    138      -36.000000   143      -1.000000
    SB35     18       1.000000   145      -1.000000
    X6523    19       1.000000   66       1.000000
    X6523    131      1.000000   138      -30.000000
    X6523    151      -1.000000
    X6623    19       1.000000   67       1.000000
    X6623    131      1.000000   138      -30.000000
    X6533    19       1.000000   72       1.000000
    X6533    138      -30.000000   151      -1.000000
    X6633    19       1.000000   73       1.000000
    X6633    138      -30.000000
    X6543    19       1.000000   78       1.000000
    X6543    138      -30.000000   143      -1.000000
    X6543    151      -1.000000
    X6643    19       1.000000   79       1.000000
    X6643    138      -30.000000   143      -1.000000
    SB36     19       1.000000   145      -1.000000
    X1134    20       1.000000   68       1.000000
    X1134    132      1.000000   138      -135.000000
    X1144    20       1.000000   74       1.000000
    X1144    138      -135.000000
    SB41     20       1.000000   145      -1.000000
    X2134    21       1.000000   68       1.000000
    X2134    133      1.000000   138      -90.000000
    X2134    151      -1.000000
    X2234    21       1.000000   69       1.000000
    X2234    133      1.000000   138      -90.000000
    X2144    21       1.000000   74       1.000000
    X2144    138      -90.000000   151      -1.000000
    X2244    21       1.000000   75       1.000000
    X2244    138      -90.000000
    SB42     21       1.000000   145      -1.000000
    X3234    22       1.000000   69       1.000000
    X3234    134      1.000000   138      -66.000000
    X3234    151      -1.000000
    X3334    22       1.000000   70       1.000000
    X3334    134      1.000000   138      -66.000000
    X3244    22       1.000000   75       1.000000
    X3244    138      -66.000000   151      -1.000000
    X3344    22       1.000000   76       1.000000
    X3344    138      -66.000000
    SB43     22       1.000000   145      -1.000000
    X4334    23       1.000000   70       1.000000
    X4334    135      1.000000   138      -48.000000
    X4334    151      -1.000000
    X4434    23       1.000000   71       1.000000
    X4434    135      1.000000   138      -48.000000
    X4344    23       1.000000   76       1.000000
    X4344    138      -48.000000   151      -1.000000
    X4444    23       1.000000   77       1.000000
    X4444    138      -48.000000
    SB44     23       1.000000   145      -1.000000
    X5434    24       1.000000   71       1.000000
    X5434    136      1.000000   138      -36.000000
    X5434    151      -1.000000
    X5534    24       1.000000   72       1.000000
    X5534    136      1.000000   138      -36.000000
    X5444    24       1.000000   77       1.000000
    X5444    138      -36.000000   151      -1.000000
    X5544    24       1.000000   78       1.000000
    X5544    138      -36.000000
    SB45     24       1.000000   145      -1.000000
    X6534    25       1.000000   72       1.000000
    X6534    137      1.000000   138      -30.000000
    X6534    151      -1.000000
    X6634    25       1.000000   73       1.000000
    X6634    137      1.000000   138      -30.000000
    X6544    25       1.000000   78       1.000000
    X6544    138      -30.000000   151      -1.000000
    X6644    25       1.000000   79       1.000000
    X6644    138      -30.000000
    SB46     25       1.000000   145      -1.000000
    E11      26       1.000000   32       -1.000000
    E11      50       -10.000000   56       -210.000000
    E11      96       -100.000000   139      -37.500000
    E12      27       1.000000   33       -1.000000
    E12      51       -10.000000   57       -235.000000
    E12      80       1.000000   97       -112.500000
    E12      139      -25.500000
    E13      28       1.000000   34       -1.000000
    E13      52       -18.750000   58       -368.750000
    E13      80       -0.019200   84       1.000000
    E13      98       -70.000000   139      -12.000000
    AP13     28       -1.000000   141      -20.000000
    AP13     147      -1.000000
    AM13     28       1.000000   141      -60.000000
    AM13     149      -1.000000
    E14      29       1.000000   35       -1.000000
    E14      53       -25.000000   59       -475.000000
    E14      80       -0.019200   84       -0.083300
    E14      88       1.000000   99       -90.000000
    E14      139      -8.099999
    AP14     29       -1.000000   141      -10.000000
    AP14     147      -1.000000
    AM14     29       1.000000   141      -30.000000
    AM14     149      -1.000000
    E15      30       1.000000   36       -1.000000
    E15      54       -20.000000   60       -470.000000
    E15      80       -0.019200   84       -0.083300
    E15      88       -0.333300   92       1.000000
    E15      100      -90.000000   139      -6.599999
    AP15     30       -1.000000   141      -5.000000
    AP15     147      -1.000000
    AM15     30       1.000000   141      -15.000000
    AM15     149      -1.000000
    E16      31       1.000000   37       -1.000000
    E16      55       -20.000000   61       -470.000000
    E16      80       -0.019200   84       -0.083300
    E16      88       -0.333300   92       -0.500000
    E16      101      -45.000000   139      -5.400000
    AP16     31       -1.000000   141      -2.000000
    AP16     147      -1.000000
    AM16     31       1.000000   141      -6.000000
    AM16     149      -1.000000
    E21      32       1.000000   38       -1.000000
    E21      50       -10.000000   62       -210.000000
    E21      102      -100.000000   139      -37.500000
    E22      33       1.000000   39       -1.000000
    E22      51       -10.000000   63       -235.000000
    E22      81       1.000000   103      -112.500000
    E22      139      -25.500000
    E23      34       1.000000   40       -1.000000
    E23      52       -18.750000   64       -368.750000
    E23      81       -0.019200   85       1.000000
    E23      104      -70.000000   139      -12.000000
    AP23     34       -1.000000   141      -20.000000
    AP23     147      -1.000000
    AM23     34       1.000000   141      -60.000000
    AM23     149      -1.000000
    E24      35       1.000000   41       -1.000000
    E24      53       -25.000000   65       -475.000000
    E24      81       -0.019200   85       -0.083300
    E24      89       1.000000   105      -90.000000
    E24      139      -8.099999
    AP24     35       -1.000000   141      -10.000000
    AP24     147      -1.000000
    AM24     35       1.000000   141      -30.000000
    AM24     149      -1.000000
    E25      36       1.000000   42       -1.000000
    E25      54       -20.000000   66       -470.000000
    E25      81       -0.019200   85       -0.083300
    E25      89       -0.333300   93       1.000000
    E25      106      -90.000000   139      -6.599999
    AP25     36       -1.000000   141      -5.000000
    AP25     147      -1.000000
    AM25     36       1.000000   141      -15.000000
    AM25     149      -1.000000
    E26      37       1.000000   43       -1.000000
    E26      55       -20.000000   67       -470.000000
    E26      81       -0.019200   85       -0.083300
    E26      89       -0.333300   93       -0.500000
    E26      107      -45.000000   139      -5.400000
    AP26     37       -1.000000   141      -2.000000
    AP26     147      -1.000000
    AM26     37       1.000000   141      -6.000000
    AM26     149      -1.000000
    E31      38       1.000000   44       -1.000000
    E31      50       -10.000000   68       -210.000000
    E31      108      -100.000000   139      -37.500000
    E32      39       1.000000   45       -1.000000
    E32      51       -10.000000   69       -235.000000
    E32      82       1.000000   109      -112.500000
    E32      139      -25.500000
    E33      40       1.000000   46       -1.000000
    E33      52       -18.750000   70       -368.750000
    E33      82       -0.019200   86       1.000000
    E33      110      -70.000000   139      -12.000000
    AP33     40       -1.000000   141      -20.000000
    AP33     147      -1.000000
    AM33     40       1.000000   141      -60.000000
    AM33     149      -1.000000
    E34      41       1.000000   47       -1.000000
    E34      53       -25.000000   71       -475.000000
    E34      82       -0.019200   86       -0.083300
    E34      90       1.000000   111      -90.000000
    E34      139      -8.099999
    AP34     41       -1.000000   141      -10.000000
    AP34     147      -1.000000
    AM34     41       1.000000   141      -30.000000
    AM34     149      -1.000000
    E35      42       1.000000   48       -1.000000
    E35      54       -20.000000   72       -470.000000
    E35      82       -0.019200   86       -0.083300
    E35      90       -0.333300   94       1.000000
    E35      112      -90.000000   139      -6.599999
    AP35     42       -1.000000   141      -5.000000
    AP35     147      -1.000000
    AM35     42       1.000000   141      -15.000000
    AM35     149      -1.000000
    E36      43       1.000000   49       -1.000000
    E36      55       -20.000000   73       -470.000000
    E36      82       -0.019200   86       -0.083300
    E36      90       -0.333300   94       -0.500000
    E36      113      -45.000000   139      -5.400000
    AP36     43       -1.000000   141      -2.000000
    AP36     147      -1.000000
    AM36     43       1.000000   141      -6.000000
    AM36     149      -1.000000
    E41      44       1.000000   50       -10.000000
    E41      74       -210.000000   114      -100.000000
    E41      139      -37.500000
    E42      45       1.000000   51       -10.000000
    E42      75       -235.000000   83       1.000000
    E42      115      -112.500000   139      -25.500000
    E43      46       1.000000   52       -18.750000
    E43      76       -368.750000   83       -0.019200
    E43      87       1.000000   116      -70.000000
    E43      139      -12.000000
    AP43     46       -1.000000   141      -20.000000
    AP43     147      -1.000000
    AM43     46       1.000000   141      -60.000000
    AM43     149      -1.000000
    E44      47       1.000000   53       -25.000000
    E44      77       -475.000000   83       -0.019200
    E44      87       -0.083300   91       1.000000
    E44      117      -90.000000   139      -8.099999
    AP44     47       -1.000000   141      -10.000000
    AP44     147      -1.000000
    AM44     47       1.000000   141      -30.000000
    AM44     149      -1.000000
    E45      48       1.000000   54       -20.000000
    E45      78       -470.000000   83       -0.019200
    E45      87       -0.083300   91       -0.333300
    E45      95       1.000000   118      -90.000000
    E45      139      -6.599999
    AP45     48       -1.000000   141      -5.000000
    AP45     147      -1.000000
    AM45     48       1.000000   141      -15.000000
    AM45     149      -1.000000
    E46      49       1.000000   55       -20.000000
    E46      79       -470.000000   83       -0.019200
    E46      87       -0.083300   91       -0.333300
    E46      95       -0.500000   119      -45.000000
    E46      139      -5.400000
    AP46     49       -1.000000   141      -2.000000
    AP46     147      -1.000000
    AM46     49       1.000000   141      -6.000000
    AM46     149      -1.000000
    D11      50       1.000000   56       1.000000
    D21      50       1.000000   62       1.000000
    D31      50       1.000000   68       1.000000
    D41      50       1.000000   74       1.000000
    SP1      50       1.000000   153      -1.000000
    D12      51       1.000000   57       1.000000
    D22      51       1.000000   63       1.000000
    D32      51       1.000000   69       1.000000
    D42      51       1.000000   75       1.000000
    SP2      51       1.000000   153      -1.000000
    D13      52       1.000000   58       1.000000
    D23      52       1.000000   64       1.000000
    D33      52       1.000000   70       1.000000
    D43      52       1.000000   76       1.000000
    SP3      52       1.000000   153      -1.000000
    D14      53       1.000000   59       1.000000
    D24      53       1.000000   65       1.000000
    D34      53       1.000000   71       1.000000
    D44      53       1.000000   77       1.000000
    SP4      53       1.000000   153      -1.000000
    D15      54       1.000000   60       1.000000
    D25      54       1.000000   66       1.000000
    D35      54       1.000000   72       1.000000
    D45      54       1.000000   78       1.000000
    SP5      54       1.000000   153      -1.000000
    D16      55       1.000000   61       1.000000
    D26      55       1.000000   67       1.000000
    D36      55       1.000000   73       1.000000
    D46      55       1.000000   79       1.000000
    SP6      55       1.000000   153      -1.000000
    O11      56       -1.000000   96       1.000000
    I11      56       1.000000   151      -1.000000
    O12      57       -1.000000   97       1.000000
    I12      57       1.000000   151      -1.000000
    O13      58       -1.000000   98       1.000000
    I13      58       1.000000   151      -1.000000
    O14      59       -1.000000   99       1.000000
    O14      140      -22.279999
    I14      59       1.000000   151      -1.000000
    O15      60       -1.000000   100      1.000000
    O15      140      -18.149994
    I15      60       1.000000   151      -1.000000
    O16      61       -1.000000   101      1.000000
    O16      140      -14.849999
    I16      61       1.000000   151      -1.000000
    O21      62       -1.000000   102      1.000000
    I21      62       1.000000   151      -1.000000
    O22      63       -1.000000   103      1.000000
    I22      63       1.000000   151      -1.000000
    O23      64       -1.000000   104      1.000000
    I23      64       1.000000   151      -1.000000
    O24      65       -1.000000   105      1.000000
    O24      140      -22.279999
    I24      65       1.000000   151      -1.000000
    O25      66       -1.000000   106      1.000000
    O25      140      -18.149994
    I25      66       1.000000   151      -1.000000
    O26      67       -1.000000   107      1.000000
    O26      140      -14.849999
    I26      67       1.000000   151      -1.000000
    O31      68       -1.000000   108      1.000000
    I31      68       1.000000   151      -1.000000
    O32      69       -1.000000   109      1.000000
    I32      69       1.000000   151      -1.000000
    O33      70       -1.000000   110      1.000000
    I33      70       1.000000   151      -1.000000
    O34      71       -1.000000   111      1.000000
    O34      140      -22.279999
    I34      71       1.000000   151      -1.000000
    O35      72       -1.000000   112      1.000000
    O35      140      -18.149994
    I35      72       1.000000   151      -1.000000
    O36      73       -1.000000   113      1.000000
    O36      140      -14.849999
    I36      73       1.000000   151      -1.000000
    O41      74       -1.000000   114      1.000000
    I41      74       1.000000   151      -1.000000
    O42      75       -1.000000   115      1.000000
    I42      75       1.000000   151      -1.000000
    O43      76       -1.000000   116      1.000000
    I43      76       1.000000   151      -1.000000
    O44      77       -1.000000   117      1.000000
    O44      140      -22.279999
    I44      77       1.000000   151      -1.000000
    O45      78       -1.000000   118      1.000000
    O45      140      -18.149994
    I45      78       1.000000   151      -1.000000
    O46      79       -1.000000   119      1.000000
    O46      140      -14.849999
    I46      79       1.000000   151      -1.000000
    SUM11    138      1000.000000   142      -1.000000
    SUM12    139      1.000000   142      1.000000
    SUM13    140      1000.000000   142      1.000000
    SUM14    141      1.000000   142      1.000000
    SUM21    143      1000.000000   144      -1.000000
    SUM31    145      1000.000000   146      -1.000000
    SUM41    147      1.000000   148      -1.000000
    SUM51    149      1.000000   150      -1.000000
    SUM61    151      1000.000000   152      -1.000000
    SUM71    153      100.000000   154      -1.000000
    SLACK24953 80       -1.000000
    SLACK24954 81       -1.000000
    SLACK24955 82       -1.000000
    SLACK24956 83       -1.000000
    SLACK24957 84       -1.000000
    SLACK24958 85       -1.000000
    SLACK24959 86       -1.000000
    SLACK24960 87       -1.000000
    SLACK24961 88       -1.000000
    SLACK24962 89       -1.000000
    SLACK24963 90       -1.000000
    SLACK24964 91       -1.000000
    SLACK24965 92       -1.000000
    SLACK24966 93       -1.000000
    SLACK24967 94       -1.000000
    SLACK24968 95       -1.000000
    SLACK24969 96       1.000000
    SLACK24970 97       1.000000
    SLACK24971 98       1.000000
    SLACK24972 99       1.000000
    SLACK24973 100      1.000000
    SLACK24974 101      1.000000
    SLACK24975 102      1.000000
    SLACK24976 103      1.000000
    SLACK24977 104      1.000000
    SLACK24978 105      1.000000
    SLACK24979 106      1.000000
    SLACK24980 107      1.000000
    SLACK24981 108      1.000000
    SLACK24982 109      1.000000
    SLACK24983 110      1.000000
    SLACK24984 111      1.000000
    SLACK24985 112      1.000000
    SLACK24986 113      1.000000
    SLACK24987 114      1.000000
    SLACK24988 115      1.000000
    SLACK24989 116      1.000000
    SLACK24990 117      1.000000
    SLACK24991 118      1.000000
    SLACK24992 119      1.000000
    SLACK24993 120      1.000000
    SLACK24994 121      1.000000
    SLACK24995 122      1.000000
    SLACK24996 123      1.000000
    SLACK24997 124      1.000000
    SLACK24998 125      1.000000
    SLACK24999 126      1.000000
    SLACK25000 127      1.000000
    SLACK25001 128      1.000000
    SLACK25002 129      1.000000
    SLACK25003 130      1.000000
    SLACK25004 131      1.000000
    SLACK25005 132      1.000000
    SLACK25006 133      1.000000
    SLACK25007 134      1.000000
    SLACK25008 135      1.000000
    SLACK25009 136      1.000000
    SLACK25010 137      1.000000
RHS
    RHS      2        132.000000
    RHS      3        446.000000
    RHS      4        2079.000000
    RHS      5        5346.000000
    RHS      6        5346.000000
    RHS      7        8019.000000
    RHS      8        352.000000
    RHS      9        1188.000000
    RHS      10       5544.000000
    RHS      11       14256.000000
    RHS      12       14256.000000
    RHS      13       21384.000000
    RHS      14       220.000000
    RHS      15       743.000000
    RHS      16       3465.000000
    RHS      17       8910.000000
    RHS      18       8910.000000
    RHS      19       13365.000000
    RHS      20       176.000000
    RHS      21       594.000000
    RHS      22       2772.000000
    RHS      23       7128.000000
    RHS      24       7128.000000
    RHS      25       10692.000000
    RHS      26       1.000000
    RHS      27       3.000000
    RHS      28       9.000000
    RHS      29       18.000000
    RHS      30       18.000000
    RHS      31       27.000000
    RHS      120      70.399994
    RHS      121      237.599991
    RHS      122      1108.799800
    RHS      123      2851.199950
    RHS      124      2851.199950
    RHS      125      4276.796870
    RHS      126      44.000000
    RHS      127      148.599991
    RHS      128      693.000000
    RHS      129      1782.000000
    RHS      130      1782.000000
    RHS      131      2673.000000
    RHS      132      35.199997
    RHS      133      118.799988
    RHS      134      554.399902
    RHS      135      1425.599850
    RHS      136      1425.599850
    RHS      137      2138.399900
    RHS      142      -13.049999
BOUNDS
ENDATA
