NAME          MAROS
ROWS
 N  REVENUE1
 E  S0100110
 E  S0100210
 E  S0100260
 E  S0100330
 E  S0100400
 E  S0100810
 E  S0100820
 E  S0101051
 E  S0101061
 E  S0101071
 E  S0101137
 E  S0101106
 E  S0101133
 E  S0101173
 E  S0101251
 E  S0101295
 E  S0101297
 E  S0101356
 E  S0101381
 E  S0101476
 E  S0102021
 E  S0102031
 E  S0104122
 E  S0104123
 E  S0104200
 E  S0104353
 E  S0104481
 E  S0104719
 E  S0104722
 E  S0104741
 E  S0104621
 E  S0104631
 E  S0104633
 E  S0104641
 E  S0104643
 E  S0104655
 E  S0104711
 E  S0104729
 E  S0104874
 E  S0105001
 E  S0105131
 E  S0105141
 E  S0105113
 E  S0105112
 E  S0105161
 E  S0105211
 E  S0105214
 E  S0105300
 E  S0105421
 E  S0105431
 E  S0105456
 E  S0105471
 E  S0105515
 E  S0105520
 E  S0105541
 E  S0105545
 E  S0105549
 E  S0106018
 E  S0106218
 E  S0106310
 E  S0106387
 E  S0106633
 E  S0106794
 E  S0106865
 E  S0106910
 E  S0106951
 E  S0106990
 E  S0107010
 E  S0107020
 E  S0107151
 E  S0107215
 E  S0107225
 E  S0107275
 E  S0107504
 E  S0107507
 E  S0107535
 E  S0107537
 E  S0107539
 E  S0108341
 E  S0109421
 E  S0110111
 E  S0110112
 E  S0110131
 E  S0110204
 E  S0110211
 E  S0110214
 E  S0110221
 E  S0110222
 E  S0110271
 E  S0110273
 E  S0110295
 E  S0110311
 E  S0111000
 E  S0111100
 E  S0111118
 E  S0111211
 E  S0111215
 E  S0111216
 E  S0111217
 E  S0111300
 E  S0111318
 E  S0111401
 E  S0111404
 E  S0111411
 E  S0111412
 E  S0111413
 E  S0111414
 E  S0111421
 E  S0111431
 E  S0111441
 E  S0111442
 E  S0111445
 E  S0111455
 E  S0111454
 E  S0111461
 E  S0111469
 E  S0111471
 E  S0111479
 E  S0111483
 E  S0111493
 E  S0111489
 E  S0111500
 E  S0111561
 E  S0111681
 E  S0111691
 E  S0111711
 E  S0111716
 E  S0111718
 E  S0111751
 E  S0111755
 E  S0111761
 E  S0111766
 E  S0111781
 E  S0111801
 E  S0111802
 E  S0111803
 E  S0111811
 E  S0111821
 E  S0111822
 E  S0111831
 E  S0111841
 E  S0111861
 E  S0111851
 E  S0111881
 E  S0111891
 E  S0111900
 E  S0111941
 E  S0112110
 E  S0112184
 E  S0112181
 E  S0112221
 E  S0112400
 E  S0112425
 E  S0112661
 E  S0112681
 E  S0112858
 E  S0112869
 E  S0112883
 E  S0112888
 E  S0112889
 E  S0112902
 E  S0112911
 E  S0112915
 E  S0112951
 E  S0112952
 E  S0112861
 E  S0113112
 E  S0113125
 E  S0113212
 E  S0113225
 E  S0113312
 E  S0113325
 E  S0113342
 E  S0113343
 E  S0113344
 E  S0113345
 E  S0113346
 E  S0113379
 E  S0113512
 E  S0113525
 E  S0113561
 E  S0114112
 E  S0114125
 E  S0114151
 E  S0114197
 E  S0114242
 E  S0114245
 E  S0114262
 E  S0114265
 E  S0114282
 E  S0114285
 E  S0114297
 E  S0114302
 E  S0114305
 E  S0114312
 E  S0114322
 E  S0114336
 E  S0114442
 E  S0114445
 E  S0114462
 E  S0114465
 E  S0114482
 E  S0114485
 E  S0114497
 E  S0114702
 E  S0114705
 E  S0114712
 E  S0114722
 E  S0114742
 E  S0114745
 E  S0114762
 E  S0114765
 E  S0114782
 E  S0114785
 E  S0114797
 E  S0115111
 E  S0115121
 E  S0115131
 E  S0116110
 E  S0116310
 E  S0116800
 E  S0116821
 E  S0116831
 E  S0116841
 E  S0117111
 E  S0117114
 E  S0117115
 E  S0117214
 E  S0117215
 E  S0117251
 E  S0117271
 E  S0117314
 E  S0117324
 E  S0117331
 E  S0117400
 E  S0117411
 E  S0117502
 E  S0117503
 E  S0117505
 E  S0117918
 E  S0117921
 E  S0117500
 E  S0117511
 E  S0117513
 E  S0117528
 E  S0117531
 E  S0117541
 E  S0117551
 E  S0117600
 E  S0117601
 E  S0117825
 E  S0117831
 E  S0117836
 E  S0117858
 E  S0117871
 E  S0117872
 E  S0117800
 E  S0118100
 E  S0118111
 E  S0118311
 E  S0118321
 E  S0118511
 E  S0118513
 E  S0119411
 E  S0119611
 E  S0109999
 E  J0100820
 E  J0104481
 E  J0104621
 E  J0104631
 E  J0104633
 E  J0104641
 E  J0104643
 E  J0104655
 E  J0104741
 E  J0104874
 E  J0105131
 E  J0105113
 E  J0105112
 E  J0105161
 E  J0105141
 E  J0105211
 E  J0105214
 E  J0105421
 E  J0105431
 E  J0105456
 E  J0105471
 E  J0106018
 E  J0106218
 E  J0106310
 E  J0106794
 E  J0107020
 E  J0108341
 E  J0111000
 E  J0111404
 E  J0111500
 E  J0116800
 E  J0117400
 E  J0117500
 E  J0117502
 E  J0117503
 E  J0117505
 E  J0117831
 E  J0117871
 E  J0117872
 E  M01VSVI1
 E  M01VSVI2
 E  M0186TF0
 E  M0186DK1
 E  M0186RN0
 E  M0186FN0
 E  M0186P19
 E  M0186P29
 E  M0186EF0
 E  M0186PM9
 E  M0186MF0
 E  M0186PLE
 E  M0186MN0
 E  M0186RP0
 E  M0186RP1
 E  M0186AR1
 E  M0186KR1
 E  M0186ME1
 E  M0186OX1
 E  M0195TF2
 E  M0195TF3
 E  M0195DK2
 E  M0195RN2
 E  M0195MN2
 E  M0195FN2
 E  M0195RP2
 E  M0195RP3
 E  M0195AR2
 E  M0195KR2
 E  M0195FC2
 E  M0195DK3
 E  M0195DK4
 E  M0195DP3
 E  M0195DP4
 E  M0195ME2
 E  M0195OX2
 E  M0195SB2
 E  M0192TF0
 E  M0192DK0
 E  M0192DK1
 E  M0192RN0
 E  M0192FN0
 E  M0192RP0
 E  M0192RP1
 E  M0192MF0
 E  M0192PM9
 E  M0192P19
 E  M0192P29
 E  M0192EF0
 E  M0192PLE
 E  M0192MN0
 E  M0192AR1
 E  M0192KR1
 E  M0192ME1
 E  M0192OX1
 E  M0192TF2
 E  M0192TF3
 E  M0192DK2
 E  M0192DK3
 E  M0192DK4
 E  M0192DP3
 E  M0192DP4
 E  M0192RN2
 E  M0192FN2
 E  M0192RP2
 E  M0192RP3
 E  M0192AR2
 E  M0192KR2
 E  M0192MN2
 E  M0192EF2
 E  M0192MF2
 E  M0192P39
 E  M0192ME2
 E  M0192FC2
 E  M0192OX2
 E  M0192SB2
 E  M0191TF0
 E  M0191TF1
 E  M0191DK0
 E  M0191DK1
 E  M0191DK4
 E  M0191DP3
 E  M0191DP4
 E  M0191RN2
 E  M0191MN2
 E  M0191FN0
 E  M0191RP0
 E  M0191RP1
 E  M0191AR1
 E  M0191KR1
 E  M0191FC1
 E  M0191ME1
 E  M0191OX1
 E  M0191SB0
 E  M0198TF0
 E  M0198DK0
 E  M0198DK1
 E  M0198RN0
 E  M0198MN0
 E  M0198FN0
 E  M0198RP0
 E  M0198RP1
 E  M0198EF0
 E  M0198MF0
 E  M0198P19
 E  M0198P29
 E  M0198PM9
 E  M0198PLE
 E  M0198AR1
 E  M0198KR1
 E  M0198ME1
 E  M0198OX1
 E  M0198TF2
 E  M0198TF3
 E  M0198DK2
 E  M0198DK3
 E  M0198DK4
 E  M0198DP3
 E  M0198DP4
 E  M0198RN2
 E  M0198FN2
 E  M0198RP2
 E  M0198RP3
 E  M0198AR2
 E  M0198KR2
 E  M0198MN2
 E  M0198EF2
 E  M0198MF2
 E  M0198P39
 E  M0198ME2
 E  M0198FC2
 E  M0198OX2
 E  M0198SB2
 E  M01VBTF0
 E  M01VBDE0
 E  M01FKVI1
 E  M01FKST1
 E  M01FMST1
 E  M01FMVI1
 E  M01FMVI2
 E  M01FSVI1
 E  M01FSST1
 E  M01FEVI1
 E  M01BFKB1
 E  M01BFKB2
 E  M01RFKB1
 E  M01HKCS1
 E  M01HKCS2
 E  M01PBSR1
 E  M01PBSR2
 E  M01PBHE1
 E  M01PBHE2
 E  M01GNZP1
 E  M01GNTF0
 E  M01GNVI1
 E  M01GNVI2
 E  M01GN350
 E  M01GN370
 E  M01GNST1
 E  M01GNCT1
 E  M01GOTF0
 E  M01GO350
 E  M01GO370
 E  M01GOZP1
 E  M01GOVI1
 E  M01GOVI2
 E  M01GOST1
 E  M01GOCT1
 E  M01GTTF0
 E  M01GT350
 E  M01GT370
 E  M01GTZP1
 E  M01GTST1
 E  M01GTVI1
 E  M01GTVI2
 E  M01GTPT1
 E  M01GTCT1
 E  M01GAPT1
 E  M01GATF0
 E  M01GA350
 E  M01GA370
 E  M01GASB1
 E  M01GACT1
 E  M01GAZP1
 E  M01GAVI1
 E  M01GAVI2
 E  M01GAST1
 E  M01GTSB1
 E  M01GEZP1
 E  M01GETF0
 E  M01GE350
 E  M01GE370
 E  M01GEVI1
 E  M01GEVI2
 E  M01GEPT1
 E  M01GEST1
 E  M01GECT1
 E  M01GESB1
 E  M01TTZP1
 E  M01TTZP2
 E  M01TTVI1
 E  M01TTKG1
 E  M01TTST1
 E  M01TNST1
 E  M01TNZP1
 E  M01TNZP2
 E  M01TNVI1
 E  M01TNKG1
 E  M01KAFM1
 E  M01KACS1
 E  M01KAST1
 E  M01HDST2
 E  M01HDCS2
 E  M01HDFM2
 E  V0101000
 E  V0102000
 E  V0103000
 E  V0106000
 E  V0105000
 E  V0108000
 E  V0109000
 E  V0111000
 E  V0112000
 E  V0113000
 E  V0114000
 E  V0114001
 E  V0115000
 E  V0118000
 E  V0121000
 E  V0122000
 E  V0123000
 E  V0124000
 E  V0126000
 E  V0128000
 E  V0129000
 E  V0131000
 E  V0132000
 E  V0134000
 E  V0141000
 E  V0144000
 E  V0147000
 E  V0147001
 E  V0148000
 E  V0151000
 E  V0152000
 E  V0154000
 E  V0155000
 E  V0157000
 E  V0160000
 E  V0161000
 E  V0162000
 E  V0172000
 E  V0174000
 E  V0175000
 E  V0178000
 E  V0179000
 E  V0183000
 E  V0184000
 E  V0186000
 E  V0187000
 E  V0189000
 E  H0175000
 E  H0175001
 E  R0100500
 E  R0100600
 E  R0100700
 E  R0100800
 E  S0300110
 E  S0301051
 E  S0301061
 E  S0301103
 E  S0301106
 E  S0301137
 E  S0301173
 E  S0301251
 E  S0301253
 E  S0301295
 E  S0301297
 E  S0301356
 E  S0301361
 E  S0302021
 E  S0302031
 E  S0302949
 E  S0304353
 E  S0304557
 E  S0304601
 E  S0304621
 E  S0304631
 E  S0304641
 E  S0304668
 E  S0304682
 E  S0304741
 E  S0305113
 E  S0305112
 E  S0305131
 E  S0305141
 E  S0305162
 E  S0305211
 E  S0305214
 E  S0305300
 E  S0305431
 E  S0305515
 E  S0309999
 E  S0330111
 E  S0330211
 E  S0330311
 E  S0330251
 E  S0331111
 E  S0331157
 E  S0331291
 E  S0331412
 E  S0331479
 E  S0332111
 E  S0332411
 E  S0332511
 E  S0332541
 E  S0332851
 E  S0332876
 E  S0332880
 E  S0332882
 E  S0332887
 E  S0332888
 E  S0332889
 E  S0332890
 E  S0332891
 E  S0332981
 E  S0332893
 E  S0333112
 E  S0333512
 E  S0333522
 E  S0333523
 E  S0333312
 E  S0339411
 E  S0338511
 E  S0337800
 E  S0338111
 E  S0339611
 E  J0304621
 E  J0304631
 E  J0304641
 E  J0305431
 E  J0305113
 E  J0305112
 E  J0305131
 E  J0305141
 E  J0305162
 E  J0305211
 E  J0305214
 E  M0386TF0
 E  M0386DK1
 E  M0386RN0
 E  M0386FN0
 E  M0386P19
 E  M0386P29
 E  M0386PM9
 E  M0386EF0
 E  M0386MF0
 E  M0386PLE
 E  M0386MN0
 E  M0386RP0
 E  M0386RP1
 E  M0386AR1
 E  M0386KR1
 E  M0386ME1
 E  M0386OX1
 E  M0392TF0
 E  M0392DK0
 E  M0392DK1
 E  M0392RN0
 E  M0392MN0
 E  M0392FN0
 E  M0392RP0
 E  M0392RP1
 E  M0392KR1
 E  M0392ME1
 E  M0392OX1
 E  M0392AR1
 E  M0392MF0
 E  M0392P19
 E  M0392P29
 E  M0392PM9
 E  M0392EF0
 E  M0392PLE
 E  M0398TF0
 E  M0398DK0
 E  M0398DK1
 E  M0398RN0
 E  M0398MN0
 E  M0398FN0
 E  M0398RP0
 E  M0398RP1
 E  M0398AR1
 E  M0398KR1
 E  M0398OX1
 E  M0398ME1
 E  M0398MF0
 E  M0398P19
 E  M0398P29
 E  M0398PM9
 E  M0398EF0
 E  M0398PLE
 E  M03FKVI1
 E  M03GNZP1
 E  M03GNVI1
 E  M03GNVI2
 E  M03GNST1
 E  M03GNTF0
 E  M03GN350
 E  M03GN370
 E  M03GOZP1
 E  M03GOVI1
 E  M03GOVI2
 E  M03GOST1
 E  M03GOTF0
 E  M03GO350
 E  M03GO370
 E  M03GTZP1
 E  M03GTVI1
 E  M03GTVI2
 E  M03GTPT1
 E  M03GTST1
 E  M03GTTF0
 E  M03GT350
 E  M03GT370
 E  M03GAZP1
 E  M03GAVI1
 E  M03GAVI2
 E  M03GAPT1
 E  M03GAST1
 E  M03GATF0
 E  M03GA350
 E  M03GA370
 E  M03GEZP1
 E  M03GETF0
 E  M03GE350
 E  M03GE370
 E  M03GEVI1
 E  M03GEVI2
 E  M03GEPT1
 E  M03GEST1
 E  M03GESB0
 E  M03TTZP1
 E  M03TTZP2
 E  M03TTVI1
 E  M03TTST1
 E  M03TNZP1
 E  M03TNZP2
 E  M03TNVI1
 E  M03TNST1
 E  V0301000
 E  V0306000
 E  V0368000
 E  V0379000
 E  V0383000
 E  V0386000
 E  R0300500
 E  R0300600
 E  R0300700
 E  R0300800
 E  S0500275
 E  S0500280
 E  S0500400
 E  S0501051
 E  S0501061
 E  S0501106
 E  S0501137
 E  S0502021
 E  S0502031
 E  S0504601
 E  S0504621
 E  S0504668
 E  S0504682
 E  S0505300
 E  S0505421
 E  S0505431
 E  S0505511
 E  S0505515
 E  S0505530
 E  S0509999
 E  S0551391
 E  S0552751
 E  S0557611
 E  S0557711
 E  S0558211
 E  S0558561
 E  J0504621
 E  M0586TF0
 E  M0586DK0
 E  M0586DK1
 E  M0586RN0
 E  M0586MN0
 E  M0586FN0
 E  M0586RP0
 E  M0586RP1
 E  M0586KR1
 E  M0586AR1
 E  M0586EF0
 E  M0586MF0
 E  M0586P19
 E  M0586P29
 E  M0586PM9
 E  M0586PLE
 E  V0501000
 E  V0502000
 E  V0568000
 E  R0500800
 E  S0800811
 E  S0801298
 E  S0804741
 E  S0900110
 E  S0900330
 E  S0901051
 E  S0901061
 E  S0901071
 E  S0901106
 E  S0901131
 E  S0901137
 E  S0901141
 E  S0901173
 E  S0901251
 E  S0901297
 E  S0901356
 E  X0904121
 E  X0904300
 E  X0904621
 E  X0904631
 E  X0904641
 E  X0904728
 E  X0904741
 E  X0904874
 E  X0905131
 E  X0905141
 E  X0905214
 E  X0905211
 E  X0905421
 E  X0905431
 E  X0905499
 E  X0905515
 E  X0905530
 E  X0905570
 E  X0907899
 E  LOBROW4642
 E  LOBROW4643
 E  LOBROW4644
 E  LOBROW4645
 E  LOBROW4646
 E  LOBROW4647
COLUMNS
    B0100110 S0100110 -1.000000   S0900110 1.000000
    B0100110 REVENUE1 5.250000
    Q080811A S0800811 1.000000   X0905431 -1.000000
    Q080811A X0905499 -1.000000   REVENUE1 -6.470000
    Q084741A S0804741 1.000000   X0904741 -1.000000
    Q084741A REVENUE1 -7.430000
    B0100330 S0100330 -1.000000   S0900330 1.000000
    B0100330 REVENUE1 3.150000
    Q081298A S0801298 1.000000   X0905431 -1.000000
    Q081298A X0905499 -1.000000   REVENUE1 -5.720000
    B0101051 S0101051 -1.000000   S0901051 1.000000
    B0101051 REVENUE1 5.910000
    B0101061 S0101061 -1.000000   S0901061 1.000000
    B0101061 REVENUE1 5.710000
    B0101071 S0101071 -1.000000   REVENUE1 5.310000
    B0101071 S0901071 1.000000
    U0904121 X0904121 1.000000   LOBROW4642 1.000000
    B0101106 REVENUE1 7.820000   S0901106 1.000000
    B0101106 S0101106 -1.000000
    B0101131 S0901131 1.000000   S0111300 -1.000000
    U0905499 X0905499 1.000000
    B0101137 S0101137 -1.000000   S0901137 1.000000
    B0101137 REVENUE1 9.250000
    B0101173 S0101173 -1.000000   S0901173 1.000000
    B0101173 REVENUE1 3.870000
    B0101251 S0901251 1.000000   S0101251 -1.000000
    B0101251 REVENUE1 7.400000
    B0101297 S0101297 -1.000000   S0901297 1.000000
    B0101297 REVENUE1 4.100000
    B0101356 S0101356 -1.000000   REVENUE1 15.680000
    B0101356 S0901356 1.000000
    B0101381 S0101381 -1.000000   REVENUE1 10.460000
    B0101476 S0101476 -1.000000   REVENUE1 76.500000
    B0102021 S0102021 -1.000000   REVENUE1 121.600000
    B0102031 S0102031 -1.000000   REVENUE1 123.000000
    A0101012 REVENUE1 0.001360   S0100210 1.000000
    A0101012 S0110211 -0.002000   S0110222 -0.007000
    A0101012 S0111100 -0.112000   S0111216 -0.056000
    A0101012 S0111217 -0.125000   S0112425 -0.109000
    A0101012 S0112681 -0.226000   S0113125 -0.040000
    A0101012 S0113225 -0.061000   S0113325 -0.089000
    A0101012 S0117825 -0.167000   S0109999 -0.006000
    A0101012 V0101000 0.232500   R0100500 0.046000
    A0101012 R0100600 4.300000   R0100700 4.400000
    A0101012 R0100800 0.014000
    A0101022 REVENUE1 0.001360   S0101071 1.000000
    A0101022 S0111300 -0.077000   S0112425 -0.550000
    A0101022 S0111217 -0.367000   S0109999 -0.006000
    A0101022 V0101000 0.232500   R0100500 0.046000
    A0101022 R0100600 4.300000   R0100700 4.400000
    A0101022 R0100800 0.014000
    A0101042 S0101061 1.000000   S0109999 -0.007000
    A0101042 S0111100 -0.295000   S0111300 -0.698000
    A0101042 REVENUE1 0.001360   V0101000 0.232500
    A0101042 R0100500 0.046000   R0100600 4.300000
    A0101042 R0100700 4.400000   R0100800 0.014000
    A0102011 REVENUE1 0.001260   S0100110 1.000000
    A0102011 S0110211 -0.003000   S0110222 -0.012000
    A0102011 S0111100 -0.060000   S0111211 -0.045000
    A0102011 S0111300 -0.085000   S0112110 -0.105000
    A0102011 S0112400 -0.130000   S0112661 -0.120000
    A0102011 S0113112 -0.045000   S0113212 -0.053000
    A0102011 S0113312 -0.065000   S0113342 -0.040000
    A0102011 S0117800 -0.230000   S0109999 -0.007000
    A0102011 V0102000 0.113600   R0100500 0.040500
    A0102011 R0100600 4.100000   R0100700 4.400000
    A0102011 R0100800 0.014200
    A0102023 REVENUE1 0.001260   S0100330 1.000000
    A0102023 S0110211 -0.003000   S0110222 -0.015000
    A0102023 S0111100 -0.070000   S0111300 -0.130000
    A0102023 S0112110 -0.030000   S0112400 -0.155000
    A0102023 S0112661 -0.210000   S0113112 -0.045000
    A0102023 S0113344 -0.045000   S0113212 -0.054000
    A0102023 S0113312 -0.066000   S0118111 -0.170000
    A0102023 S0109999 -0.007000   V0102000 0.113600
    A0102023 R0100500 0.040500   R0100600 4.100000
    A0102023 R0100700 4.400000   R0100800 0.014200
    A0102033 REVENUE1 0.001260   S0100330 1.000000
    A0102033 S0110211 -0.001000   S0110222 -0.012000
    A0102033 S0111100 -0.057000   S0111300 -0.120000
    A0102033 S0112110 -0.030000   S0112400 -0.140000
    A0102033 S0112661 -0.186000   S0113112 -0.047000
    A0102033 S0113212 -0.053000   S0113312 -0.071000
    A0102033 S0113342 -0.040000   S0117800 -0.236000
    A0102033 S0109999 -0.007000   V0102000 0.113600
    A0102033 R0100500 0.040500   R0100600 4.100000
    A0102033 R0100700 4.400000   R0100800 0.014200
    A0102052 REVENUE1 0.001260   S0100210 1.000000
    A0102052 S0109999 -0.007000   S0110211 -0.002000
    A0102052 S0110222 -0.007000   S0111100 -0.081000
    A0102052 S0111215 -0.050000   S0111300 -0.162000
    A0102052 S0112110 -0.099000   S0112425 -0.064000
    A0102052 S0112681 -0.186000   S0113125 -0.040000
    A0102052 S0113225 -0.058000   S0113325 -0.087000
    A0102052 S0113345 -0.027000   S0117825 -0.130000
    A0102052 V0102000 0.153800   R0100500 0.040500
    A0102052 R0100600 4.100000   R0100700 4.400000
    A0102052 R0100800 0.014200
    A0102062 REVENUE1 0.001260   S0101061 1.000000
    A0102062 S0109999 -0.007000   S0111100 -0.295000
    A0102062 S0111300 -0.698000   V0102000 0.153800
    A0102062 R0100500 0.040500   R0100600 4.100000
    A0102062 R0100700 4.400000   R0100800 0.014200
    A0102072 REVENUE1 0.001260   S0101071 1.000000
    A0102072 S0109999 -0.007000   S0111215 -0.090000
    A0102072 S0111300 -0.353000   S0112425 -0.550000
    A0102072 V0102000 0.153800   R0100500 0.040500
    A0102072 R0100600 4.100000   R0100700 4.400000
    A0102072 R0100800 0.014200
    A0102081 REVENUE1 0.001260   S0100110 1.000000
    A0102081 S0109999 -0.007000   S0110211 -0.003000
    A0102081 S0110222 -0.012000   S0111100 -0.060000
    A0102081 S0111211 -0.045000   S0111300 -0.085000
    A0102081 S0112110 -0.105000   S0112400 -0.130000
    A0102081 S0112661 -0.120000   S0113112 -0.043000
    A0102081 S0113212 -0.050000   S0113312 -0.090000
    A0102081 S0113344 -0.080000   S0118111 -0.170000
    A0102081 V0102000 0.113600   R0100500 0.040500
    A0102081 R0100600 4.100000   R0100700 4.400000
    A0102081 R0100800 0.014200
    A0102091 REVENUE1 0.001260   S0100110 1.000000
    A0102091 S0109999 -0.007000   S0110211 -0.003000
    A0102091 S0110222 -0.012000   S0111100 -0.060000
    A0102091 S0111211 -0.045000   S0111300 -0.070000
    A0102091 S0112184 -0.080000   S0112400 -0.150000
    A0102091 S0112661 -0.140000   S0113112 -0.045000
    A0102091 S0113212 -0.053000   S0113312 -0.065000
    A0102091 S0113342 -0.040000   S0117800 -0.230000
    A0102091 V0102000 0.113600   R0100500 0.040500
    A0102091 R0100600 4.100000   R0100700 4.400000
    A0102091 R0100800 0.014200
    A0102101 REVENUE1 0.001260   S0100110 1.000000
    A0102101 S0109999 -0.007000   S0110211 -0.003000
    A0102101 S0110222 -0.012000   S0111100 -0.060000
    A0102101 S0111211 -0.045000   S0111300 -0.070000
    A0102101 S0112184 -0.080000   S0112400 -0.150000
    A0102101 S0112661 -0.140000   S0113112 -0.043000
    A0102101 S0113212 -0.050000   S0113312 -0.090000
    A0102101 S0113344 -0.080000   S0118111 -0.170000
    A0102101 V0102000 0.113600   R0100500 0.040500
    A0102101 R0100600 4.100000   R0100700 4.400000
    A0102101 R0100800 0.014200
    A0103011 REVENUE1 0.001160   S0100110 1.000000
    A0103011 S0109999 -0.006000   S0110211 -0.003000
    A0103011 S0111100 -0.060000   S0111211 -0.045000
    A0103011 S0110222 -0.012000   S0111300 -0.085000
    A0103011 S0112110 -0.105000   S0112400 -0.135000
    A0103011 S0112661 -0.106000   S0117411 -0.443000
    A0103011 V0103000 0.090900   R0100500 0.037000
    A0103011 R0100600 3.400000   R0100700 4.500000
    A0103011 R0100800 0.014000
    A0103021 S0100110 1.000000   S0109999 -0.006000
    A0103021 S0110211 -0.003000   S0110222 -0.012000
    A0103021 S0111100 -0.060000   S0111211 -0.045000
    A0103021 S0111300 -0.085000   S0112110 -0.105000
    A0103021 S0112400 -0.135000   S0112661 -0.106000
    A0103021 S0113343 -0.030000   S0113512 -0.180000
    A0103021 S0117800 -0.233000   V0103000 0.090900
    A0103021 R0100500 0.037000   R0100600 3.400000
    A0103021 R0100700 4.500000   R0100800 0.014000
    A0103021 REVENUE1 0.001160
    A0103031 REVENUE1 0.001160   S0100110 1.000000
    A0103031 S0110211 -0.003000   S0110222 -0.012000
    A0103031 S0111100 -0.060000   S0111211 -0.045000
    A0103031 S0111300 -0.070000   S0112184 -0.080000
    A0103031 S0112400 -0.160000   S0112661 -0.121000
    A0103031 S0117411 -0.443000   S0109999 -0.006000
    A0103031 V0103000 0.090900   R0100500 0.037000
    A0103031 R0100600 3.400000   R0100700 4.500000
    A0103031 R0100800 0.014000
    A0103041 S0100110 1.000000   S0109999 -0.006000
    A0103041 S0110211 -0.003000   S0110222 -0.012000
    A0103041 S0111100 -0.060000   S0111211 -0.045000
    A0103041 S0111300 -0.085000   S0112110 -0.105000
    A0103041 S0112400 -0.135000   S0112661 -0.106000
    A0103041 S0113343 -0.060000   S0113512 -0.180000
    A0103041 S0118111 -0.203000   R0100500 0.037000
    A0103041 R0100600 3.400000   R0100700 4.500000
    A0103041 R0100800 0.014000   V0103000 0.090900
    A0103041 REVENUE1 0.001160
    A0103052 REVENUE1 0.001160   S0100260 1.000000
    A0103052 S0109999 -0.006000   S0110211 -0.001000
    A0103052 S0110222 -0.003000   S0111100 -0.056000
    A0103052 S0111300 -0.100000   S0112425 -0.100000
    A0103052 S0112681 -0.180000   S0113345 -0.010000
    A0103052 S0113512 -0.250000   S0117825 -0.294000
    A0103052 V0103000 0.111100   R0100500 0.037000
    A0103052 R0100600 3.400000   R0100700 4.500000
    A0103052 R0100800 0.014000
    A0103061 S0100110 1.000000   S0109999 -0.006000
    A0103061 S0110211 -0.003000   S0110222 -0.012000
    A0103061 S0111100 -0.060000   S0111211 -0.045000
    A0103061 S0111300 -0.070000   S0112184 -0.080000
    A0103061 S0112400 -0.160000   S0112661 -0.121000
    A0103061 S0113343 -0.030000   S0113512 -0.180000
    A0103061 S0117800 -0.233000   V0103000 0.090900
    A0103061 R0100500 0.037000   R0100600 3.400000
    A0103061 R0100700 4.500000   R0100800 0.014000
    A0103061 REVENUE1 0.001160
    A0103071 S0100110 1.000000   S0109999 -0.006000
    A0103071 S0110211 -0.003000   S0110222 -0.012000
    A0103071 S0111100 -0.060000   S0111211 -0.045000
    A0103071 S0111300 -0.070000   S0112184 -0.080000
    A0103071 S0112400 -0.160000   S0112661 -0.121000
    A0103071 S0113343 -0.060000   S0113512 -0.180000
    A0103071 S0118111 -0.203000   V0103000 0.090900
    A0103071 R0100500 0.037000   R0100600 3.400000
    A0103071 R0100700 4.500000   R0100800 0.014000
    A0103071 REVENUE1 0.001160
    A0105011 S0117411 1.000000   S0109999 -0.006000
    A0105011 S0113512 -0.406000   S0113343 -0.068000
    A0105011 S0117800 -0.520000   V0105000 0.555000
    A0105011 R0100500 0.056000   R0100600 4.500000
    A0105011 R0100700 4.800000   R0100800 0.015000
    A0105011 REVENUE1 0.000360
    A0105021 S0101297 1.000000   S0109999 -0.005000
    A0105021 S0113512 -0.355000   S0118111 -0.440000
    A0105021 S0112661 -0.200000   V0105000 0.555000
    A0105021 R0100500 0.056000   R0100600 4.500000
    A0105021 R0100700 4.800000   R0100800 0.015000
    A0105021 REVENUE1 0.000360
    A0105031 S0117411 1.000000   S0109999 -0.006000
    A0105031 S0113512 -0.406000   S0113343 -0.135000
    A0105031 S0118111 -0.453000   V0105000 0.555000
    A0105031 R0100500 0.056000   R0100600 4.500000
    A0105031 R0100700 4.800000   R0100800 0.015000
    A0105031 REVENUE1 0.000360
    A0105042 S0117825 1.000000   S0109999 -0.006000
    A0105042 S0113346 -0.080000   S0113525 -0.300000
    A0105042 S0117836 -0.614000   V0105000 0.555000
    A0105042 R0100500 0.056000   R0100600 4.500000
    A0105042 R0100700 4.800000   R0100800 0.015000
    A0105042 REVENUE1 0.000360
    A0105051 S0117400 1.000000   S0109999 -0.006000
    A0105051 S0113379 -0.300000   S0117800 -0.694000
    A0105051 V0105000 0.555000   R0100500 0.056000
    A0105051 R0100600 4.500000   R0100700 4.800000
    A0105051 R0100800 0.015000   REVENUE1 0.000360
    A0105066 S0117528 1.000000   S0109999 -0.005000
    A0105066 S0113125 -0.163000   S0113225 -0.243000
    A0105066 S0113325 -0.370000   S0117825 -0.219000
    A0105066 V0105000 0.555000   R0100500 0.056000
    A0105066 R0100600 4.500000   R0100700 4.800000
    A0105066 R0100800 0.015000   REVENUE1 0.000360
    A0106016 REVENUE1 0.001190   S0111000 1.000000
    A0106016 S0111421 -0.150000   S0111431 -0.228000
    A0106016 S0111441 -0.230000   S0111445 -0.080000
    A0106016 S0111454 -0.170000   S0111455 -0.085000
    A0106016 S0112181 -0.050000   S0109999 -0.007000
    A0106016 V0106000 0.192300   R0100500 0.008500
    A0106016 R0100600 1.200000   R0100700 5.500000
    A0106016 R0100800 0.020000
    A0108016 S0111469 1.000000   S0109999 -0.001000
    A0108016 S0111716 -0.331000   S0111718 -0.668000
    A0108016 R0100500 0.017500   R0100600 9.000000
    A0108016 R0100700 5.400000   R0100800 0.021000
    A0108016 V0108000 1.052000   REVENUE1 0.000510
    A0108026 S0111469 1.000000   S0109999 -0.003000
    A0108026 S0111716 -0.487000   S0111781 -0.510000
    A0108026 V0108000 1.052000   R0100500 0.017500
    A0108026 R0100600 9.000000   R0100700 5.400000
    A0108026 R0100800 0.021000   REVENUE1 0.000510
    A0108036 S0111469 1.000000   S0109999 -0.001000
    A0108036 S0111711 -0.151000   S0111718 -0.668000
    A0108036 S0111851 -0.180000   V0108000 1.052000
    A0108036 R0100500 0.017500   R0100600 9.000000
    A0108036 R0100700 5.400000   R0100800 0.021000
    A0108036 REVENUE1 0.000510
    A0108056 S0111100 1.000000   S0109999 -0.005000
    A0108056 S0111461 -0.445000   S0111401 -0.550000
    A0108056 R0100500 0.017500   R0100600 9.000000
    A0108056 R0100700 5.400000   R0100800 0.021000
    A0108056 REVENUE1 0.000510   V0108000 1.052000
    A0108066 S0101061 1.000000   S0109999 -0.007000
    A0108066 S0111100 -0.295000   S0111300 -0.698000
    A0108066 R0100500 0.017500   R0100600 9.000000
    A0108066 R0100700 5.400000   R0100800 0.021000
    A0108066 V0108000 1.052000   REVENUE1 0.000510
    A0108046 S0111469 1.000000   S0109999 -0.003000
    A0108046 S0111711 -0.338000   S0111781 -0.510000
    A0108046 S0111851 -0.149000   V0108000 1.052000
    A0108046 R0100500 0.017500   R0100600 9.000000
    A0108046 R0100700 5.400000   R0100800 0.021000
    A0108046 REVENUE1 0.000510
    A0109016 S0110211 0.670000   S0110222 0.330000
    A0109016 S0109999 -0.539000   S0110131 -0.461000
    A0109016 V0109000 11.800000   REVENUE1 6.723000
    A0109016 R0100500 -5.040000   R0100600 329.800000
    A0109016 R0100700 154.300000   R0100800 0.210000
    A0109026 S0110112 1.000000   S0110211 -0.630000
    A0109026 S0110131 -0.365000   S0109999 -0.005000
    A0109026 V0109000 11.800000
    A0111016 REVENUE1 0.001430   S0111401 1.000000
    A0111016 S0109999 -0.008000   S0110111 -0.060000
    A0111016 S0110211 -0.033000   S0110221 -0.025000
    A0111016 S0110222 -0.076000   S0111801 -0.795000
    A0111016 S0111471 -0.003000   V0111000 0.970800
    A0111016 R0100500 0.025000   R0100600 14.000000
    A0111016 R0100700 33.000000   R0100800 0.042000
    A0111026 REVENUE1 0.001430   S0111431 1.000000
    A0111026 S0110111 -0.060000   S0110211 -0.033000
    A0111026 S0110221 -0.025000   S0110222 -0.076000
    A0111026 S0111471 -0.003000   S0111801 -0.795000
    A0111026 S0109999 -0.008000   V0111000 0.970800
    A0111026 R0100500 0.025000   R0100600 14.000000
    A0111026 R0100700 33.000000   R0100800 0.042000
    A0111036 REVENUE1 0.001430   S0111441 1.000000
    A0111036 S0110111 -0.072000   S0110211 -0.042000
    A0111036 S0110221 -0.010000   S0110222 -0.018000
    A0111036 S0111471 -0.009000   S0111802 -0.841000
    A0111036 S0109999 -0.008000   V0111000 0.970800
    A0111036 R0100500 0.025000   R0100600 14.000000
    A0111036 R0100700 33.000000   R0100800 0.042000
    A0112016 REVENUE1 0.001260   S0111431 1.000000
    A0112016 V0112000 0.952300   R0100500 0.024500
    A0112016 R0100600 14.500000   R0100700 47.500000
    A0112016 R0100800 0.038000   S0109999 -0.008000
    A0112016 S0110111 -0.060000   S0110211 -0.033000
    A0112016 S0110221 -0.025000   S0110222 -0.076000
    A0112016 S0111471 -0.003000   S0111801 -0.795000
    A0112026 REVENUE1 0.001260   S0111441 1.000000
    A0112026 S0109999 -0.008000   S0110111 -0.072000
    A0112026 S0110211 -0.042000   S0110221 -0.010000
    A0112026 S0110222 -0.018000   S0111471 -0.009000
    A0112026 S0111802 -0.841000   R0100500 0.024500
    A0112026 R0100600 14.500000   R0100700 47.500000
    A0112026 R0100800 0.038000   V0112000 0.952300
    A0112036 S0111217 1.000000   S0109999 -0.008000
    A0112036 S0110111 -0.072000   S0110211 -0.042000
    A0112036 S0110221 -0.010000   S0110222 -0.018000
    A0112036 S0111471 -0.009000   S0111802 -0.841000
    A0112036 V0112000 0.952300   R0100500 0.024500
    A0112036 R0100600 14.500000   R0100700 47.500000
    A0112036 R0100800 0.038000   REVENUE1 0.001260
    A0113016 REVENUE1 0.046290   V0113000 0.952300
    A0113016 S0111300 1.000000   S0109999 -0.008000
    A0113016 S0110111 -0.065000   S0110211 -0.043000
    A0113016 S0110221 -0.020000   S0110222 -0.004000
    A0113016 S0111471 -0.010000   S0111751 -0.850000
    A0113016 R0100500 0.028000   R0100600 19.000000
    A0113016 R0100700 47.500000   R0100800 0.038500
    A0113026 REVENUE1 0.046290   S0111454 0.720000
    A0113026 S0111445 0.280000   S0109999 -0.008000
    A0113026 S0110111 -0.050000   S0110211 -0.040000
    A0113026 S0110221 -0.021000   S0110222 -0.006000
    A0113026 S0111471 -0.020000   S0111751 -0.855000
    A0113026 R0100500 0.028000   R0100600 19.000000
    A0113026 R0100700 47.500000   R0100800 0.038500
    A0113026 V0113000 0.952300
    A0113036 V0113000 0.963200   S0111445 0.430000
    A0113036 S0111454 0.530000   S0111431 0.040000
    A0113036 S0109999 -0.008000   S0110111 -0.065000
    A0113036 S0110211 -0.045000   S0110221 -0.039000
    A0113036 S0110222 -0.010000   S0111471 -0.023000
    A0113036 S0111755 -0.810000   R0100500 0.027000
    A0113036 R0100600 18.620000   R0100700 49.980000
    A0113036 R0100800 0.040000   REVENUE1 0.083230
    A0113046 S0111318 1.000000   S0110111 -0.042000
    A0113046 S0110211 -0.056000   S0110222 -0.024000
    A0113046 S0111471 -0.010000   S0111751 -0.860000
    A0113046 S0109999 -0.008000   R0100500 0.028000
    A0113046 R0100600 19.000000   R0100700 47.500000
    A0113046 R0100800 0.038500   V0113000 0.952300
    A0113046 REVENUE1 0.046290
    A0113056 S0111454 1.000000   S0109999 -0.008000
    A0113056 S0110111 -0.063000   S0110211 -0.042000
    A0113056 S0110221 -0.010000   S0110222 -0.018000
    A0113056 S0111471 -0.009000   S0111751 -0.850000
    A0113056 R0100500 0.028000   R0100600 19.000000
    A0113056 R0100700 47.500000   R0100800 0.038500
    A0113056 V0113000 0.952300   REVENUE1 0.046290
    A0113066 S0111300 1.000000   S0109999 -0.008000
    A0113066 S0110111 -0.065000   S0110211 -0.056000
    A0113066 S0110221 -0.036000   S0110222 -0.010000
    A0113066 S0111471 -0.010000   S0111761 -0.815000
    A0113066 V0113000 0.974000   R0100500 0.026130
    A0113066 R0100600 18.240000   R0100700 52.464000
    A0113066 R0100800 0.042250   REVENUE1 0.100500
    A0113076 S0111454 1.000000   S0109999 -0.008000
    A0113076 S0110111 -0.072000   S0110211 -0.050000
    A0113076 S0110221 -0.016000   S0110222 -0.010000
    A0113076 S0111471 -0.029000   S0111761 -0.815000
    A0113076 V0113000 0.974000   R0100500 0.026130
    A0113076 R0100600 18.240000   R0100700 52.464000
    A0113076 R0100800 0.042250   REVENUE1 0.100500
    A0113086 S0111431 0.030000   S0111445 0.310000
    A0113086 S0111454 0.660000   S0109999 -0.008000
    A0113086 S0110111 -0.050000   S0110211 -0.040000
    A0113086 S0110221 -0.021000   S0110222 -0.006000
    A0113086 S0111471 -0.025000   S0111469 -0.850000
    A0113086 V0113000 0.952300   R0100500 0.028000
    A0113086 R0100600 19.000000   R0100700 47.500000
    A0113086 R0100800 0.038500   REVENUE1 0.046290
    A0113096 S0111300 1.000000   S0109999 -0.008000
    A0113096 S0110111 -0.065000   S0110211 -0.045000
    A0113096 S0110221 -0.039000   S0110222 -0.010000
    A0113096 S0111471 -0.023000   S0111755 -0.810000
    A0113096 V0113000 0.963200   R0100500 0.027000
    A0113096 R0100600 18.620000   R0100700 49.980000
    A0113096 R0100800 0.040000   REVENUE1 0.083230
    A0113106 S0111216 0.100000   S0111211 0.250000
    A0113106 S0111300 0.650000   S0109999 -0.008000
    A0113106 S0110111 -0.065000   S0110211 -0.043000
    A0113106 S0110221 -0.020000   S0110222 -0.004000
    A0113106 S0111471 -0.010000   S0111751 -0.850000
    A0113106 V0113000 0.952300   R0100500 0.028000
    A0113106 R0100600 19.000000   R0100700 47.500000
    A0113106 R0100800 0.038500   REVENUE1 0.045150
    A0113116 S0111479 1.000000   S0109999 -0.008000
    A0113116 S0110111 -0.042000   S0110211 -0.056000
    A0113116 S0110222 -0.024000   S0111761 -0.870000
    A0113116 R0100500 0.026130   R0100600 18.240000
    A0113116 R0100700 52.464000   R0100800 0.042250
    A0113116 V0113000 0.974000   REVENUE1 0.100500
    A0113126 S0111431 1.000000   S0109999 -0.008000
    A0113126 S0110111 -0.060000   S0110211 -0.033000
    A0113126 S0110221 -0.025000   S0110222 -0.076000
    A0113126 S0111471 -0.003000   S0111801 -0.795000
    A0113126 V0113000 0.952300   R0100500 0.028000
    A0113126 R0100600 19.000000   R0100700 47.500000
    A0113126 R0100800 0.038500   REVENUE1 0.045150
    A0113136 S0111401 1.000000   S0109999 -0.008000
    A0113136 S0110111 -0.060000   S0110211 -0.033000
    A0113136 S0110221 -0.025000   S0110222 -0.076000
    A0113136 S0111471 -0.003000   S0111801 -0.795000
    A0113136 V0113000 0.952300   R0100500 0.028000
    A0113136 R0100600 19.000000   R0100700 47.500000
    A0113136 R0100800 0.038500   REVENUE1 0.045150
    A0113146 S0111441 1.000000   S0109999 -0.008000
    A0113146 S0110111 -0.072000   S0110211 -0.042000
    A0113146 S0110221 -0.010000   S0110222 -0.018000
    A0113146 S0111471 -0.009000   S0111802 -0.841000
    A0113146 V0113000 0.952300   R0100500 0.028000
    A0113146 R0100600 19.000000   R0100700 47.500000
    A0113146 R0100800 0.038500   REVENUE1 0.045150
    A0114016 S0111404 1.000000   S0109999 -0.006000
    A0114016 S0110112 -0.080000   S0110211 -0.013000
    A0114016 S0110221 -0.025000   S0110222 -0.025000
    A0114016 S0111766 -0.851000   R0100500 0.025000
    A0114016 R0100600 15.000000   R0100700 33.600000
    A0114016 R0100800 0.042000   V0114000 0.600000
    A0114016 REVENUE1 0.083230
    A0114026 S0111431 1.000000   S0109999 -0.008000
    A0114026 S0110112 -0.094000   S0110221 -0.020000
    A0114026 S0110211 -0.015000   S0110222 -0.035000
    A0114026 S0111801 -0.828000   R0100500 0.025000
    A0114026 R0100600 15.000000   R0100700 47.500000
    A0114026 R0100800 0.038000   V0114001 0.600000
    A0114026 REVENUE1 0.083230
    A0114046 S0111404 1.000000   S0109999 -0.008000
    A0114046 S0110112 -0.092000   S0110221 -0.032000
    A0114046 S0110222 -0.013000   S0111766 -0.855000
    A0114046 R0100500 0.025500   R0100600 15.000000
    A0114046 R0100700 47.500000   R0100800 0.038000
    A0114046 V0114001 0.600000   REVENUE1 0.083230
    A0115016 S0112869 1.000000   S0112902 -0.745000
    A0115016 S0116310 -0.250000   S0109999 -0.005000
    A0115016 R0100500 2.900000   R0100600 84.000000
    A0115016 R0100700 164.000000   V0115000 2.833300
    A0115016 REVENUE1 0.491300
    A0118016 S0110131 0.017500   S0117831 1.000000
    A0118016 S0109999 -0.023000   S0110211 -0.026500
    A0118016 S0110222 -0.013000   S0111118 -0.008000
    A0118016 S0111318 -0.042000   S0112858 -0.061000
    A0118016 S0117528 -0.310000   S0117858 -0.534000
    A0118016 V0118000 0.425000   R0100500 0.050000
    A0118016 R0100600 0.830000   R0100700 58.100000
    A0118016 R0100800 0.033000   REVENUE1 0.076300
    A0118026 S0117503 1.000000   S0110131 0.016000
    A0118026 S0109999 -0.020000   S0110211 -0.022000
    A0118026 S0110222 -0.030000   S0110311 -0.032000
    A0118026 S0111411 -0.010000   S0111118 -0.020000
    A0118026 S0111300 -0.153000   S0112858 -0.260000
    A0118026 S0117528 -0.382000   S0117858 -0.087000
    A0118026 V0118000 0.450000   R0100600 1.600000
    A0118026 R0100700 69.180000   R0100800 0.010400
    A0118036 S0117502 1.000000   S0110131 0.016000
    A0118036 S0109999 -0.020000   S0110211 -0.024000
    A0118036 S0110222 -0.032000   S0110311 -0.023000
    A0118036 S0111411 -0.011000   S0111118 -0.025000
    A0118036 S0111300 -0.173000   S0112858 -0.280000
    A0118036 S0117528 -0.388000   S0117858 -0.040000
    A0118036 V0118000 0.450000   R0100600 1.600000
    A0118036 R0100700 69.180000   R0100800 0.010400
    A0118046 S0117503 1.000000   S0110131 0.028000
    A0118046 S0109999 -0.020000   S0110211 -0.024000
    A0118046 S0110222 -0.035300   S0110311 -0.036000
    A0118046 S0111411 -0.012000   S0111118 -0.050000
    A0118046 S0111300 -0.203000   S0112858 -0.301000
    A0118046 S0117528 -0.276000   S0117858 -0.070700
    A0118046 V0118000 0.450000   R0100500 0.079000
    A0118046 R0100600 1.404000   R0100700 62.800000
    A0118046 R0100800 0.025000
    A0118056 S0117502 1.000000   S0110131 0.024000
    A0118056 S0109999 -0.020000   S0110211 -0.023000
    A0118056 S0110222 -0.036000   S0110311 -0.024000
    A0118056 S0111411 -0.022000   S0111118 -0.035000
    A0118056 S0111300 -0.189000   S0112858 -0.359000
    A0118056 S0117528 -0.277000   S0117858 -0.039000
    A0118056 V0118000 0.450000   R0100500 0.079000
    A0118056 R0100600 1.404000   R0100700 62.800000
    A0118056 R0100800 0.025000
    A0121016 REVENUE1 0.000600   S0110222 1.000000
    A0121016 S0109999 -0.009000   S0110214 -0.083000
    A0121016 S0110271 -0.127000   S0111411 -0.665000
    A0121016 S0111412 -0.116000   V0121000 1.666700
    A0121016 R0100500 0.375000   R0100600 17.000000
    A0121016 R0100700 25.000000   R0100800 0.004000
    A0121026 S0110221 1.000000   S0109999 -0.020000
    A0121026 S0110214 -0.310000   S0110271 -0.430000
    A0121026 S0111411 -0.141000   S0111412 -0.099000
    A0121026 V0121000 1.666700   REVENUE1 0.000600
    A0121026 R0100500 0.375000   R0100600 17.000000
    A0121026 R0100700 25.000000   R0100800 0.004000
    A0122016 S0110211 1.000000   S0109999 -0.012000
    A0122016 S0110311 -0.005000   S0110214 -0.466000
    A0122016 S0110271 -0.235000   S0111412 -0.133000
    A0122016 S0111411 -0.149000   V0122000 2.399900
    A0122016 REVENUE1 0.000600   R0100500 0.100000
    A0122016 R0100600 50.000000   R0100700 120.000000
    A0122016 R0100800 0.100000
    A0123016 S0110211 1.000000   S0109999 -0.005000
    A0123016 S0110214 -0.351000   S0110271 -0.136000
    A0123016 S0111411 -0.263000   S0111471 -0.245000
    A0123016 R0100500 0.006300   R0100600 21.300000
    A0123016 R0100700 48.000000   V0123000 14.280000
    A0124016 V0124000 2.222200   S0110111 0.010000
    A0124016 S0111500 1.000000   S0110211 -0.050000
    A0124016 S0110222 -0.055000   S0111483 -0.640000
    A0124016 S0111489 -0.255000   S0109999 -0.010000
    A0124016 R0100500 0.430000   R0100600 8.200000
    A0124016 R0100700 72.000000   R0100800 0.125000
    A0124026 S0111881 1.000000   S0110211 -0.005000
    A0124026 S0111493 -0.540000   S0111900 -0.240000
    A0124026 S0104123 -0.156000   S0111489 -0.050000
    A0124026 S0109999 -0.009000   R0100500 0.430000
    A0124026 R0100600 8.200000   R0100700 72.000000
    A0124026 R0100800 0.125000   V0124000 2.707000
    A0124036 S0111881 1.000000   S0111493 -0.500000
    A0124036 S0110211 -0.005000   S0104122 -0.240000
    A0124036 S0111900 -0.196000   S0111489 -0.050000
    A0124036 S0109999 -0.009000   R0100500 0.430000
    A0124036 R0100600 8.200000   R0100700 72.000000
    A0124036 R0100800 0.125000   V0124000 2.707000
    A0124046 S0111881 1.000000   S0109999 -0.009000
    A0124046 S0104123 -0.136000   S0110211 -0.005000
    A0124046 S0111489 -0.160000   S0111493 -0.530000
    A0124046 S0104711 -0.160000   V0124000 2.707000
    A0124046 R0100500 0.430000   R0100600 8.200000
    A0124046 R0100700 72.000000   R0100800 0.125000
    A0124056 S0111881 1.000000   S0109999 -0.009000
    A0124056 S0104122 -0.260000   S0104711 -0.176000
    A0124056 S0110211 -0.005000   S0111489 -0.150000
    A0124056 S0111493 -0.400000   R0100500 0.430000
    A0124056 R0100600 8.200000   R0100700 72.000000
    A0124056 R0100800 0.125000   V0124000 2.707000
    A0124066 S0111891 1.000000   S0109999 -0.009000
    A0124066 S0104719 -0.641000   S0111489 -0.350000
    A0124066 V0124000 2.857100   R0100500 0.430000
    A0124066 R0100600 8.200000   R0100700 72.000000
    A0124066 R0100800 0.125000
    A0126016 REVENUE1 0.000600   S0111411 1.000000
    A0126016 S0111412 -0.045000   S0111413 -0.588000
    A0126016 S0111414 -0.352000   S0109999 -0.015000
    A0126016 R0100800 0.010000   V0126000 3.340000
    A0128016 S0110204 1.000000   S0109999 -0.320000
    A0128016 S0110211 -0.680000   V0128000 14.285000
    A0128016 R0100500 0.200000   R0100600 46.000000
    A0128016 R0100700 50.000000
    A0129016 S0117513 1.000000   S0117511 -1.000000
    A0129016 V0129000 17.000000   R0100500 0.030000
    A0129016 R0100700 16.000000
    A0131016 REVENUE1 0.046290   S0111801 1.000000
    A0131016 S0111881 -0.638000   S0111811 -0.150000
    A0131016 S0111821 -0.162000   S0111803 -0.040000
    A0131016 S0109999 -0.010000   R0100500 1.039500
    A0131016 R0100600 22.500000   R0100700 19.550000
    A0131016 V0131000 0.862000
    A0131026 REVENUE1 0.013900   S0101133 1.000000
    A0131026 S0111811 -0.780000   S0111821 -0.015000
    A0131026 S0111881 -0.170000   S0111803 -0.025000
    A0131026 S0109999 -0.010000   R0100500 1.039500
    A0131026 R0100600 22.500000   R0100700 19.550000
    A0131026 V0131000 0.862000
    A0131036 S0101381 1.000000   S0111811 -0.680000
    A0131036 S0111821 -0.040000   S0111881 -0.270000
    A0131036 S0109999 -0.010000   REVENUE1 0.013900
    A0131036 R0100500 1.039500   R0100600 22.500000
    A0131036 R0100700 19.550000   V0131000 0.862000
    A0132016 REVENUE1 0.013900   S0111802 1.000000
    A0132016 S0109999 -0.018000   S0111803 -0.400000
    A0132016 S0111811 -0.015000   S0111821 -0.180000
    A0132016 S0111891 -0.387000   R0100500 1.039500
    A0132016 R0100600 22.500000   R0100700 19.550000
    A0132016 V0132000 1.041700
    A0132026 S0111801 0.185000   S0111802 0.815000
    A0132026 S0109999 -0.016000   S0111803 -0.328000
    A0132026 S0111811 -0.042000   S0111821 -0.180000
    A0132026 S0111881 -0.434000   R0100500 1.039500
    A0132026 R0100600 22.500000   R0100700 19.550000
    A0132026 V0132000 1.041700   REVENUE1 0.013900
    A0132036 S0111801 1.000000   S0111811 -0.160000
    A0132036 S0111821 -0.182000   S0111881 -0.638000
    A0132036 S0111803 -0.010000   S0109999 -0.010000
    A0132036 R0100500 1.039500   R0100600 22.500000
    A0132036 R0100700 19.550000   V0132000 1.041700
    A0132036 REVENUE1 0.013900
    A0132046 S0111766 1.000000   S0109999 -0.018000
    A0132046 S0111803 -0.420000   S0111811 -0.024000
    A0132046 S0111821 -0.150000   S0111891 -0.388000
    A0132046 R0100500 1.050000   R0100600 21.600000
    A0132046 R0100700 21.250000   V0132000 0.947300
    A0132046 REVENUE1 0.013130
    A0132066 S0111718 1.000000   S0109999 -0.008000
    A0132066 S0111803 -0.404000   S0111811 -0.050000
    A0132066 S0111821 -0.250000   S0111881 -0.288000
    A0132066 V0132000 1.041700   R0100500 1.039500
    A0132066 R0100600 22.500000   R0100700 19.550000
    A0132066 REVENUE1 0.013900
    A0132076 S0111781 1.000000   S0109999 -0.008000
    A0132076 S0111803 -0.338000   S0111811 -0.040000
    A0132076 S0111821 -0.294000   S0111881 -0.320000
    A0132076 V0132000 1.041700   R0100500 1.039500
    A0132076 R0100600 22.500000   R0100700 19.550000
    A0132076 REVENUE1 0.013900
    A0134016 REVENUE1 0.568800   S0111811 1.000000
    A0134016 S0109999 -0.250000   S0111861 -0.750000
    A0134016 R0100500 5.000000   R0100600 127.500000
    A0134016 R0100700 870.000000   V0134000 22.222000
    A0134026 S0111413 1.000000   S0111861 -0.789000
    A0134026 S0109999 -0.211000   R0100500 5.200000
    A0134026 R0100600 132.000000   R0100700 220.000000
    A0134026 R0100800 0.000500   V0134000 18.200000
    A0141016 S0111803 1.000000   S0111831 -0.630000
    A0141016 S0111841 -0.112000   S0111851 -0.250000
    A0141016 S0109999 -0.008000   V0141000 2.236000
    A0141016 R0100500 0.010500   R0100600 2.500000
    A0141016 R0100700 3.450000   R0100800 0.027000
    A0144016 S0111831 0.850000   S0110111 0.150000
    A0144016 REVENUE1 0.012204   R0100500 0.075000
    A0144016 R0100600 72.700000   R0100700 434.000000
    A0144016 R0100800 0.500000   V0144000 6.250000
    A0144016 S0109999 -0.020000   S0111841 -0.615000
    A0144016 S0111851 -0.066000   S0111881 -0.055000
    A0144016 S0111822 -0.088000   S0110211 -0.156000
    A0147016 S0111821 0.976900   S0110111 0.023100
    A0147016 S0109999 -0.082600   S0110211 -0.110100
    A0147016 S0111811 -0.802000   S0111851 -0.005300
    A0147016 V0147000 3.130400   R0100500 0.790000
    A0147016 R0100600 0.011000   R0100700 79.930000
    A0147016 R0100800 0.069300
    A0147026 S0111851 0.948800   S0110111 0.051200
    A0147026 S0109999 -0.033200   S0110211 -0.038900
    A0147026 S0110271 -0.089600   S0111411 -0.154900
    A0147026 S0111412 -0.037200   S0111811 -0.617800
    A0147026 S0111821 -0.014200   S0111803 -0.014200
    A0147026 V0147001 9.000000   R0100500 0.809000
    A0147026 R0100600 0.010500   R0100700 0.082000
    A0147026 R0100800 0.069300
    A0148016 S0111821 0.735300   S0111851 0.240600
    A0148016 S0110111 0.024100   S0111811 -0.305900
    A0148016 S0111831 -0.475500   S0111841 -0.111600
    A0148016 S0110211 -0.101000   S0109999 -0.006000
    A0148016 V0148000 2.406000   R0100500 1.325000
    A0148016 R0100600 81.000000   R0100700 37.240000
    A0148016 R0100800 0.123000
    A0148026 S0111821 1.000000   S0110111 0.010000
    A0148026 S0109999 -0.024000   S0110211 -0.027000
    A0148026 S0111811 -0.410000   S0111831 -0.135000
    A0148026 S0111841 -0.414000   R0100500 1.127000
    A0148026 R0100600 68.850000   R0100700 31.650000
    A0148026 R0100800 0.105000   V0148000 2.406000
    A0151016 S0117858 1.000000   S0109999 -0.010000
    A0151016 S0114112 -0.637000   S0118111 -0.353000
    A0151016 V0151000 0.790690   R0100500 0.485000
    A0151016 R0100600 24.000000   R0100700 6.500000
    A0151016 R0100800 0.010000   REVENUE1 0.027650
    A0151026 S0117825 1.000000   S0109999 -0.003000
    A0151026 S0114125 -0.400000   S0118321 -0.597000
    A0151026 V0151000 1.333300   R0100500 0.485000
    A0151026 R0100600 23.000000   R0100700 7.500000
    A0151026 R0100800 0.010000   REVENUE1 0.012536
    A0151036 S0117800 1.000000   S0109999 -0.003000
    A0151036 S0114112 -0.285000   S0118311 -0.712000
    A0151036 R0100500 0.485000   R0100600 23.000000
    A0151036 R0100700 7.500000   R0100800 0.010000
    A0151036 V0151000 0.952400   REVENUE1 0.012536
    A0151046 S0117800 1.000000   S0109999 -0.003000
    A0151046 S0114151 -0.330000   S0118311 -0.667000
    A0151046 V0151000 1.111000   REVENUE1 0.012536
    A0151046 R0100500 0.485000   R0100600 23.000000
    A0151046 R0100700 7.500000   R0100800 0.010000
    A0151056 S0117800 1.000000   S0109999 -0.003000
    A0151056 S0114197 -0.325000   S0118311 -0.672000
    A0151056 V0151000 1.177000   REVENUE1 0.012560
    A0151056 R0100500 0.485000   R0100600 23.000000
    A0151056 R0100700 7.500000   R0100800 0.010000
    A0152016 S0113212 1.000000   S0109999 -0.003000
    A0152016 S0114242 -0.615000   S0117111 -0.382000
    A0152016 V0152000 0.769200   R0100500 0.095000
    A0152016 R0100600 13.000000   R0100700 9.600000
    A0152016 R0100800 0.064500   REVENUE1 0.014310
    A0152026 S0113225 1.000000   S0109999 -0.003000
    A0152026 S0117115 -0.237000   S0114245 -0.760000
    A0152026 V0152000 0.800000   R0100500 0.095000
    A0152026 R0100600 13.000000   R0100700 9.600000
    A0152026 R0100800 0.064500   REVENUE1 0.014310
    A0152036 S0113312 1.000000   S0109999 -0.003000
    A0152036 S0114262 -0.530000   S0117111 -0.467000
    A0152036 V0152000 0.833000   R0100500 0.095000
    A0152036 R0100600 13.000000   R0100700 9.600000
    A0152036 R0100800 0.064500   REVENUE1 0.014310
    A0152046 S0113325 1.000000   S0109999 -0.003000
    A0152046 S0114265 -0.715000   S0117115 -0.282000
    A0152046 V0152000 0.833000   R0100500 0.095000
    A0152046 R0100600 13.000000   R0100700 9.600000
    A0152046 R0100800 0.064500   REVENUE1 0.014310
    A0152056 S0114112 1.000000   S0109999 -0.003000
    A0152056 S0114282 -0.645000   S0117114 -0.352000
    A0152056 V0152000 0.769200   R0100500 0.095000
    A0152056 R0100600 13.000000   R0100700 9.600000
    A0152056 R0100800 0.064500   REVENUE1 0.014310
    A0152066 S0114125 1.000000   S0109999 -0.003000
    A0152066 S0117114 -0.272000   S0114285 -0.725000
    A0152066 V0152000 0.833000   R0100500 0.095000
    A0152066 R0100600 13.000000   R0100700 9.600000
    A0152066 R0100800 0.064500   REVENUE1 0.014310
    A0152076 S0114197 1.000000   S0109999 -0.003000
    A0152076 S0117114 -0.388000   S0114297 -0.609000
    A0152076 V0152000 1.000000   R0100500 0.095000
    A0152076 R0100600 13.000000   R0100700 9.600000
    A0152076 R0100800 0.064500   REVENUE1 0.014310
    A0154016 S0113312 1.000000   S0109999 -0.003000
    A0154016 S0114322 -0.791000   S0117214 -0.206000
    A0154016 V0154000 1.538400   R0100500 1.325000
    A0154016 R0100600 48.000000   R0100700 97.000000
    A0154016 REVENUE1 0.160400
    A0154026 S0114151 1.000000   S0109999 -0.003000
    A0154026 S0114336 -0.800000   S0117214 -0.197000
    A0154026 V0154000 2.000000   R0100500 1.325000
    A0154026 R0100600 48.000000   R0100700 97.000000
    A0154026 REVENUE1 0.160400
    A0154036 S0114242 1.000000   S0109999 -0.003000
    A0154036 S0114442 -0.760000   S0117314 -0.237000
    A0154036 V0154000 1.428600   R0100500 1.325000
    A0154036 R0100600 48.000000   R0100700 97.000000
    A0154036 REVENUE1 0.160400
    A0154056 S0114265 1.000000   S0109999 -0.003000
    A0154056 S0117215 -0.467000   S0114465 -0.530000
    A0154056 V0154000 2.000000   R0100500 1.325000
    A0154056 R0100600 48.000000   R0100700 97.000000
    A0154056 REVENUE1 0.258100
    A0154066 S0114282 1.000000   S0109999 -0.003000
    A0154066 S0117918 -0.107000   S0117271 -0.135000
    A0154066 S0114482 -0.755000   V0154000 2.222000
    A0154066 R0100500 1.325000   R0100600 48.000000
    A0154066 R0100700 97.000000   REVENUE1 0.258100
    A0154076 S0114282 1.000000   S0109999 -0.003000
    A0154076 S0114482 -0.750000   S0117918 -0.159000
    A0154076 S0115131 -0.027000   S0115121 -0.061000
    A0154076 V0154000 2.222000   R0100500 1.325000
    A0154076 R0100600 48.000000   R0100700 97.000000
    A0154076 REVENUE1 0.258100
    A0154086 S0114285 1.000000   S0109999 -0.003000
    A0154086 S0114485 -0.440000   S0115121 -0.310000
    A0154086 S0117918 -0.247000   V0154000 2.500000
    A0154086 R0100500 1.325000   R0100600 48.000000
    A0154086 R0100700 97.000000   REVENUE1 0.258100
    A0154096 S0114297 1.000000   S0109999 -0.003000
    A0154096 S0114497 -0.820000   S0117214 -0.177000
    A0154096 V0154000 2.500000   R0100500 1.325000
    A0154096 R0100600 48.000000   R0100700 97.000000
    A0154096 REVENUE1 0.160400
    A0154106 S0114262 1.000000   S0109999 -0.003000
    A0154106 S0115111 -0.100000   S0117918 -0.142000
    A0154106 S0114462 -0.755000   V0154000 1.666600
    A0154106 R0100500 1.325000   R0100600 48.000000
    A0154106 R0100700 97.000000   REVENUE1 0.258100
    A0155016 S0113112 1.000000   S0109999 -0.003000
    A0155016 S0114302 -0.800000   S0117331 -0.197000
    A0155016 V0155000 1.333400   R0100500 1.325000
    A0155016 R0100600 48.000000   R0100700 97.000000
    A0155016 REVENUE1 0.160400
    A0155026 S0113125 1.000000   S0109999 -0.003000
    A0155026 S0114305 -0.630000   S0117331 -0.367000
    A0155026 V0155000 1.538400   R0100500 1.325000
    A0155026 R0100600 48.000000   R0100700 97.000000
    A0155026 REVENUE1 0.160400
    A0155036 S0113212 1.000000   S0109999 -0.003000
    A0155036 S0114312 -0.800000   S0117314 -0.197000
    A0155036 R0100500 1.325000   R0100600 48.000000
    A0155036 R0100700 97.000000   V0155000 1.250400
    A0155036 REVENUE1 0.160400
    A0155046 S0114245 1.000000   S0109999 -0.003000
    A0155046 S0114445 -0.580000   S0117324 -0.417000
    A0155046 V0155000 1.666600   R0100500 1.325000
    A0155046 R0100600 48.000000   R0100700 97.000000
    A0155046 REVENUE1 0.160400
    A0155056 S0114265 1.000000   S0109999 -0.003000
    A0155056 S0117215 -0.467000   S0114465 -0.530000
    A0155056 V0155000 2.000000   R0100500 1.325000
    A0155056 R0100600 48.000000   R0100700 97.000000
    A0155056 REVENUE1 0.160400
    A0157016 S0110111 0.010000   S0114302 1.000000
    A0157016 S0109999 -0.007000   S0110211 -0.009000
    A0157016 S0114702 -0.994000   V0157000 1.538500
    A0157016 R0100500 0.100000   R0100600 9.800000
    A0157016 R0100700 10.000000   R0100800 0.008500
    A0157016 REVENUE1 0.000360
    A0157026 S0110111 0.010000   S0114305 1.000000
    A0157026 S0109999 -0.007000   S0110211 -0.009000
    A0157026 S0114705 -0.994000   V0157000 1.538500
    A0157026 R0100500 0.100000   R0100600 9.800000
    A0157026 R0100700 10.000000   R0100800 0.008500
    A0157026 REVENUE1 0.000360
    A0157036 S0110111 0.010000   S0114312 1.000000
    A0157036 S0109999 -0.007000   S0110211 -0.009000
    A0157036 S0114712 -0.994000   V0157000 1.538500
    A0157036 R0100500 0.100000   R0100600 9.800000
    A0157036 R0100700 10.000000   R0100800 0.008500
    A0157036 REVENUE1 0.000360
    A0157046 S0110111 0.010000   S0114322 1.000000
    A0157046 S0109999 -0.007000   S0110211 -0.009000
    A0157046 S0114722 -0.994000   V0157000 1.538500
    A0157046 R0100500 0.100000   R0100600 9.800000
    A0157046 R0100700 10.000000   R0100800 0.008500
    A0157046 REVENUE1 0.000360
    A0157056 S0110111 0.010000   S0114442 1.000000
    A0157056 S0109999 -0.007000   S0110211 -0.009000
    A0157056 S0114742 -0.994000   V0157000 1.538500
    A0157056 R0100500 0.100000   R0100600 9.800000
    A0157056 R0100700 10.000000   R0100800 0.008500
    A0157056 REVENUE1 0.000360
    A0157066 S0110111 0.010000   S0114445 1.000000
    A0157066 S0109999 -0.007000   S0110211 -0.009000
    A0157066 S0114745 -0.994000   V0157000 1.538500
    A0157066 R0100500 0.100000   R0100600 9.800000
    A0157066 R0100700 10.000000   R0100800 0.008500
    A0157066 REVENUE1 0.000360
    A0157076 S0110111 0.010000   S0114462 1.000000
    A0157076 S0109999 -0.007000   S0110211 -0.009000
    A0157076 S0114762 -0.994000   V0157000 1.538500
    A0157076 R0100500 0.100000   R0100600 9.800000
    A0157076 R0100700 10.000000   R0100800 0.008500
    A0157076 REVENUE1 0.000360
    A0157086 S0110111 0.010000   S0114465 1.000000
    A0157086 S0109999 -0.007000   S0110211 -0.009000
    A0157086 S0114765 -0.994000   V0157000 1.538500
    A0157086 R0100500 0.100000   R0100600 9.800000
    A0157086 R0100700 10.000000   R0100800 0.008500
    A0157086 REVENUE1 0.000360
    A0157096 S0110111 0.010000   S0114482 1.000000
    A0157096 S0109999 -0.007000   S0110211 -0.009000
    A0157096 S0114782 -0.994000   V0157000 1.538500
    A0157096 R0100500 0.100000   R0100600 9.800000
    A0157096 R0100700 10.000000   R0100800 0.008500
    A0157096 REVENUE1 0.000360
    A0157106 S0110111 0.010000   S0114497 1.000000
    A0157106 S0109999 -0.007000   S0110211 -0.008200
    A0157106 S0114797 -0.994000   V0157000 1.538500
    A0157106 R0100500 0.100000   R0100600 9.800000
    A0157106 R0100700 10.000000   R0100800 0.008500
    A0157106 REVENUE1 0.000360
    A0157116 S0110111 0.010000   S0114485 1.000000
    A0157116 S0109999 -0.007000   S0110211 -0.009000
    A0157116 S0114785 -0.994000   V0157000 1.538500
    A0157116 R0100500 0.100000   R0100600 9.800000
    A0157116 R0100700 10.000000   R0100800 0.008500
    A0157116 REVENUE1 0.000360
    A0160016 S0116800 1.000000   S0109999 -0.003000
    A0160016 S0117251 -0.267000   S0116841 -0.200000
    A0160016 S0116831 -0.320000   S0116821 -0.190000
    A0160016 S0113561 -0.020000   V0160000 4.347800
    A0160016 R0100500 0.390000   R0100600 6.200000
    A0160016 R0100700 23.500000   R0100800 0.012000
    A0161026 S0116821 1.000000   S0109999 -0.003000
    A0161026 S0117921 -0.357000   S0116110 -0.640000
    A0161026 V0161000 5.263100   R0100500 2.500000
    A0161026 R0100600 84.000000   R0100700 164.000000
    A0161026 REVENUE1 0.528800
    A0161036 S0116831 1.000000   S0109999 -0.003000
    A0161036 S0117921 -0.317000   S0116110 -0.680000
    A0161036 V0161000 5.263100   R0100500 2.500000
    A0161036 R0100600 84.000000   R0100700 164.000000
    A0161036 REVENUE1 0.528800
    A0161046 S0116841 1.000000   S0109999 -0.003000
    A0161046 S0116110 -0.650000   S0117921 -0.347000
    A0161046 V0161000 5.263100   R0100500 2.500000
    A0161046 R0100600 84.000000   R0100700 164.000000
    A0161046 REVENUE1 0.528800
    A0162016 S0116110 1.000000   S0109999 -0.027000
    A0162016 S0116310 -0.973000   V0162000 8.333300
    A0162016 REVENUE1 0.302000
    A0172016 S0117871 1.000000   S0110214 -0.015100
    A0172016 S0110311 -0.002000   S0111561 -0.040800
    A0172016 S0112951 -0.117000   S0117541 -0.823000
    A0172016 S0109999 -0.002100   R0100500 0.060000
    A0172016 R0100600 10.500000   R0100700 10.000000
    A0172016 R0100800 0.016000   V0172000 0.454500
    A0172016 REVENUE1 0.002423
    A0172026 S0117872 1.000000   S0110311 -0.002000
    A0172026 S0110214 -0.018000   S0111561 -0.045000
    A0172026 S0112951 -0.100000   S0117551 -0.830000
    A0172026 S0109999 -0.005000   R0100500 0.060000
    A0172026 R0100600 10.500000   R0100700 10.000000
    A0172026 R0100800 0.016000   V0172000 0.454500
    A0172026 REVENUE1 0.002423
    A0174016 S0110112 0.020000   S0117505 1.000000
    A0174016 S0110211 -0.002500   S0110311 -0.026300
    A0174016 S0111479 -0.033800   S0112902 -0.252400
    A0174016 S0117600 -0.700000   S0109999 -0.005000
    A0174016 R0100500 0.025000   R0100600 1.600000
    A0174016 R0100700 40.000000   R0100800 0.030000
    A0174016 V0174000 0.240000
    A0174026 S0117505 1.000000   S0110112 0.020000
    A0174026 S0109999 -0.005000   S0110211 -0.001700
    A0174026 S0110311 -0.018000   S0111479 -0.023000
    A0174026 S0112902 -0.172300   S0117600 -0.800000
    A0174026 R0100500 0.025000   R0100600 1.600000
    A0174026 R0100700 40.000000   R0100800 0.030000
    A0174026 V0174000 0.240000
    A0174036 S0112661 1.000000   S0110112 0.020000
    A0174036 S0109999 -0.005000   S0110211 -0.012000
    A0174036 S0110271 -0.023000   S0110311 -0.023000
    A0174036 S0111411 -0.030000   S0111479 -0.232000
    A0174036 S0112889 -0.695000   V0174000 0.240000
    A0174036 R0100500 0.025000   R0100600 1.600000
    A0174036 R0100700 40.000000   R0100800 0.030000
    A0175016 REVENUE1 0.006461   S0117500 1.000000
    A0175016 S0109999 -0.061000   S0110214 -0.036300
    A0175016 S0110271 -0.014000   S0110273 -0.043200
    A0175016 S0110295 -0.086000   S0110311 -0.006000
    A0175016 S0111681 -0.495000   S0112911 -0.187500
    A0175016 S0117531 -0.071000   R0100500 0.220000
    A0175016 R0100600 9.500000   R0100700 43.000000
    A0175016 R0100800 0.008000   V0175000 0.303000
    A0175036 REVENUE1 0.006461   S0117528 0.477000
    A0175036 S0114112 0.523000   S0109999 -0.073000
    A0175036 S0110214 -0.055000   S0110273 -0.032000
    A0175036 S0110295 -0.110000   S0111681 -0.460000
    A0175036 S0112911 -0.190000   S0117531 -0.080000
    A0175036 R0100500 0.220000   R0100600 9.500000
    A0175036 R0100700 43.000000   R0100800 0.008000
    A0175036 V0175000 0.303000
    A0178016 S0110295 0.762000   S0111414 0.238000
    A0178016 S0111413 -0.065000   S0111691 -0.923000
    A0178016 S0110271 -0.007000   S0109999 -0.005000
    A0178016 R0100500 0.440000   R0100600 3.420000
    A0178016 R0100700 49.800000   R0100800 0.030000
    A0178016 V0178000 2.571000   REVENUE1 0.001510
    A0179016 S0112661 1.000000   S0110111 0.031500
    A0179016 S0109999 -0.010000   S0110211 -0.068500
    A0179016 S0110271 -0.011000   S0110311 -0.014000
    A0179016 S0111411 -0.023000   S0111479 -0.105000
    A0179016 S0112889 -0.800000   R0100500 0.055000
    A0179016 R0100600 2.900000   R0100700 19.000000
    A0179016 R0100800 0.005000   V0179000 1.028000
    A0179016 REVENUE1 0.000500
    A0179026 S0112681 1.000000   S0110111 0.011000
    A0179026 S0109999 -0.006000   S0110211 -0.010000
    A0179026 S0110271 -0.009000   S0111411 -0.017000
    A0179026 S0111479 -0.131000   S0112888 -0.838000
    A0179026 V0179000 1.028000   R0100500 0.055000
    A0179026 R0100600 2.900000   R0100700 19.000000
    A0179026 R0100800 0.005000   REVENUE1 0.000500
    A0183016 REVENUE1 0.001132   S0112661 1.000000
    A0183016 S0110111 0.007000   S0109999 -0.004000
    A0183016 S0110211 -0.014000   S0110311 -0.017000
    A0183016 S0111941 -0.010000   S0112861 -0.962000
    A0183016 R0100500 0.045000   R0100600 8.200000
    A0183016 R0100700 11.000000   R0100800 0.009500
    A0183016 V0183000 0.500000
    A0183026 S0112400 1.000000   S0110111 0.007000
    A0183026 S0109999 -0.004000   S0110211 -0.014000
    A0183026 S0110311 -0.007000   S0111941 -0.010000
    A0183026 S0112883 -0.972000   R0100500 0.045000
    A0183026 R0100600 8.200000   R0100700 11.000000
    A0183026 R0100800 0.009500   V0183000 0.500000
    A0183026 REVENUE1 0.001132
    A0183036 REVENUE1 0.001132   S0110111 0.012000
    A0183036 S0112184 1.000000   S0110211 -0.013000
    A0183036 S0110311 -0.002000   S0111941 -0.025000
    A0183036 S0112221 -0.966000   S0109999 -0.006000
    A0183036 R0100500 0.045000   R0100600 8.200000
    A0183036 R0100700 11.000000   R0100800 0.009500
    A0183036 V0183000 0.555000
    A0183046 REVENUE1 0.001132   S0112110 0.150000
    A0183046 S0112425 0.850000   S0110111 0.007000
    A0183046 S0109999 -0.004000   S0110211 -0.014000
    A0183046 S0110311 -0.006000   S0111941 -0.011000
    A0183046 S0112869 -0.972000   R0100500 0.045000
    A0183046 R0100600 8.200000   R0100700 11.000000
    A0183046 R0100800 0.009500   V0183000 0.500000
    A0183066 S0110111 0.007000   S0112184 0.800000
    A0183066 S0111455 0.200000   S0109999 -0.006000
    A0183066 S0110211 -0.010000   S0110311 -0.002000
    A0183066 S0111941 -0.022000   S0105001 -0.967000
    A0183066 R0100500 0.045000   R0100600 8.200000
    A0183066 R0100700 11.000000   R0100800 0.009500
    A0183066 V0183000 0.555000   REVENUE1 0.001132
    A0183076 S0111300 1.000000   S0110111 0.007000
    A0183076 S0109999 -0.006000   S0110211 -0.010000
    A0183076 S0110311 -0.004000   S0111941 -0.054000
    A0183076 S0104722 -0.933000   V0183000 0.555000
    A0183076 R0100500 0.045000   R0100600 8.200000
    A0183076 R0100700 11.000000   R0100800 0.009500
    A0183076 REVENUE1 0.001132
    A0184016 REVENUE1 0.000395   S0110111 0.015000
    A0184016 S0111561 1.000000   S0110211 -0.014000
    A0184016 S0110311 -0.004000   S0111941 -0.991000
    A0184016 S0109999 -0.006000   R0100500 0.039000
    A0184016 R0100600 2.600000   R0100700 18.000000
    A0184016 R0100800 0.004000   V0184000 0.277700
    A0184026 REVENUE1 0.000395   S0112661 1.000000
    A0184026 S0110111 0.015000   S0109999 -0.006000
    A0184026 S0110211 -0.015000   S0110311 -0.017000
    A0184026 S0111941 -0.015000   S0112861 -0.962000
    A0184026 R0100500 0.039000   R0100600 2.600000
    A0184026 R0100700 18.000000   R0100800 0.004000
    A0184026 V0184000 0.277700
    A0184036 S0112911 1.000000   S0110111 0.013000
    A0184036 S0109999 -0.005000   S0110211 -0.010000
    A0184036 S0110311 -0.017000   S0111941 -0.014000
    A0184036 S0112915 -0.967000   REVENUE1 0.000395
    A0184036 R0100500 0.039000   R0100600 2.600000
    A0184036 R0100700 18.000000   R0100800 0.004000
    A0184036 V0184000 0.277700
    A0184046 S0112400 1.000000   S0110111 0.015000
    A0184046 S0109999 -0.005000   S0110211 -0.010000
    A0184046 S0110311 -0.007000   S0111941 -0.016000
    A0184046 S0112883 -0.977000   R0100500 0.039000
    A0184046 R0100600 2.600000   R0100700 18.000000
    A0184046 R0100800 0.004000   V0184000 0.277700
    A0184046 REVENUE1 0.000395
    A0184056 S0112951 1.000000   S0110111 0.015000
    A0184056 S0109999 -0.006000   S0110211 -0.014000
    A0184056 S0110311 -0.019000   S0111941 -0.014000
    A0184056 S0112952 -0.962000   V0184000 0.277700
    A0184056 R0100500 0.039000   R0100600 2.600000
    A0184056 R0100700 18.000000   R0100800 0.004000
    A0184056 REVENUE1 0.000395
    A0186016 S0110311 1.000000   S0109999 -0.150000
    A0186016 S0119611 -0.850000   R0100500 0.790000
    A0186016 R0100700 152.000000   R0100600 15.000000
    A0186016 R0100800 0.020000   V0186000 18.180000
    A0187016 S0110311 1.000000   S0109999 -0.150000
    A0187016 S0119611 -0.850000   R0100500 1.000000
    A0187016 R0100600 8.000000   R0100700 240.000000
    A0187016 R0100800 0.030500   V0187000 33.330000
    A0189016 S0118100 1.000000   S0118511 -0.960000
    A0189016 S0119411 -0.030000   S0109999 -0.010000
    A0189016 R0100500 0.100000   R0100600 1.000000
    A0189016 R0100700 6.800000   R0100800 0.006000
    A0189016 V0189000 1.250000
    A0189026 S0118111 0.800000   S0117114 0.200000
    A0189026 S0118513 -0.960000   S0119411 -0.030000
    A0189026 S0109999 -0.010000   R0100500 0.100000
    A0189026 R0100600 1.000000   R0100700 6.800000
    A0189026 R0100800 0.006000   V0189000 1.851800
    C0100500 R0100500 -1.000000   REVENUE1 0.480200
    C0100600 R0100600 -1.000000   REVENUE1 0.000580
    C0100700 R0100700 -1.000000   REVENUE1 0.001390
    G0186031 S0111412 1.000000   J0104621 -1.000000
    G0186031 M0186TF0 -1.597000   M0186DK1 -159.700000
    G0186031 M0186RN0 -153.300000   M0186MN0 -150.100000
    G0186031 M0186FN0 -14053.600000   M0186RP0 -1558.000000
    G0186031 M0186RP1 -1558.000000   M0186KR1 -40.000000
    G0186041 S0111851 1.000000   J0104621 -1.000000
    G0186041 M0186TF0 -1.149000   M0186RN0 -131.000000
    G0186041 M0186MN0 -114.900000   M0186RP0 -34.500000
    G0186041 M0186RP1 -34.500000   M0186AR1 -0.980000
    G0186051 S0111100 1.000000   J0104621 -1.000000
    G0186051 M0186TF0 -1.515000   M0186DK1 -148.500000
    G0186051 M0186RN0 -121.200000   M0186MN0 -121.200000
    G0186051 M0186FN0 -9947.500000   M0186RP0 -928.700000
    G0186051 M0186RP1 -928.700000   M0186AR1 -0.020000
    G0186061 S0110295 1.000000   J0104621 -1.000000
    G0186061 M0186TF0 -1.695000   M0186DK1 -169.500000
    G0186061 M0186RN0 -172.000000   M0186MN0 -160.200000
    G0186061 M0186FN0 -16441.500000   M0186RP0 -4237.500000
    G0186061 M0186RP1 -4237.500000   M0186KR1 -160.000000
    G0186071 S0111300 1.000000   J0104621 -1.000000
    G0186071 M0186TF0 -1.391000   M0186DK1 -27.800000
    G0186071 M0186RN0 -83.500000   M0186MN0 -84.900000
    G0186071 M0186FN0 -1530.100000   M0186RP0 -278.200000
    G0186071 M0186RP1 -278.200000   M0186AR1 -0.100000
    G0186081 S0111881 1.000000   J0104621 -1.000000
    G0186081 M0186TF0 -1.479000   M0186DK1 -145.000000
    G0186081 M0186RN0 -114.600000   M0186MN0 -118.300000
    G0186081 M0186FN0 -9131.300000   M0186RP0 -495.500000
    G0186081 M0186RP1 -495.500000   M0186AR1 -0.050000
    G0186091 S0111891 1.000000   J0104621 -1.000000
    G0186091 M0186TF0 -1.431000   M0186DK1 -34.300000
    G0186091 M0186RN0 -95.900000   M0186MN0 -101.600000
    G0186091 M0186FN0 -1957.600000   M0186RP0 -214.650000
    G0186091 M0186RP1 -214.650000   M0186AR1 -0.020000
    G0186101 S0111215 1.000000   J0104621 -1.000000
    G0186101 M0186TF0 -1.351000   M0186DK1 -6.750000
    G0186101 M0186RN0 -83.800000   M0186MN0 -78.400000
    G0186101 M0186FN0 -378.300000   M0186RP0 -108.100000
    G0186101 M0186RP1 -108.100000   M0186AR1 -0.050000
    G0186131 S0111803 1.000000   J0104621 -1.000000
    G0186131 M0186TF0 -1.143000   M0186RN0 -136.000000
    G0186131 M0186MN0 -118.900000   M0186RP0 -34.300000
    G0186131 M0186RP1 -34.300000   M0186AR1 -0.950000
    G0186121 S0111831 1.000000   J0104621 -1.000000
    G0186121 M0186TF0 -1.143000   M0186RN0 -136.000000
    G0186121 M0186MN0 -118.900000   M0186RP0 -34.300000
    G0186121 M0186RP1 -34.300000   M0186AR1 -1.000000
    G0186161 S0111822 1.000000   J0104621 -1.000000
    G0186161 M0186TF0 -1.149000   M0186DK1 -45.960000
    G0186161 M0186RN0 -117.200000   M0186MN0 -105.700000
    G0186161 M0186FN0 -3956.500000   M0186RP0 -46.000000
    G0186161 M0186RP1 -46.000000   M0186AR1 -0.700000
    G0186171 S0111751 1.000000   J0104621 -1.000000
    G0186171 M0186TF0 -1.282000   M0186DK1 -44.900000
    G0186171 M0186RN0 -125.100000   M0186MN0 -113.200000
    G0186171 M0186FN0 -3455.000000   M0186RP0 -230.800000
    G0186171 M0186RP1 -230.800000   M0186AR1 -0.620000
    G0186201 S0111489 1.000000   J0104621 -1.000000
    G0186201 M0186TF0 -1.511000   M0186DK1 -151.100000
    G0186201 M0186RN0 -122.400000   M0186MN0 -113.300000
    G0186201 M0186FN0 -10123.700000   M0186RP0 -604.400000
    G0186201 M0186RP1 -604.400000   M0186AR1 -0.100000
    G0186211 S0111493 1.000000   J0104621 -1.000000
    G0186211 M0186TF0 -1.538000   M0186DK1 -153.800000
    G0186211 M0186RN0 -136.900000   M0186MN0 -133.800000
    G0186211 M0186FN0 -12304.000000   M0186RP0 -1153.500000
    G0186211 M0186RP1 -1153.500000   M0186KR1 -3.000000
    G0186221 S0111421 1.000000   J0104621 -1.000000
    G0186221 M0186TF0 -1.595000   M0186DK1 -159.500000
    G0186221 M0186RN0 -140.400000   M0186MN0 -135.600000
    G0186221 M0186FN0 -12122.000000   M0186RP0 -1754.500000
    G0186221 M0186RP1 -1754.500000   M0186KR1 -40.000000
    G0186231 S0111711 1.000000   J0104621 -1.000000
    G0186231 M0186TF0 -1.493000   M0186DK1 -146.300000
    G0186231 M0186RN0 -119.400000   M0186MN0 -115.000000
    G0186231 M0186FN0 -10242.000000   M0186RP0 -627.100000
    G0186231 M0186RP1 -627.100000   M0186AR1 -0.120000
    G0186241 S0111431 1.000000   J0104621 -1.000000
    G0186241 M0186TF0 -1.422000   M0186DK1 -135.100000
    G0186241 M0186RN0 -103.800000   M0186MN0 -102.400000
    G0186241 M0186FN0 -8105.400000   M0186RP0 -455.000000
    G0186241 M0186RP1 -455.000000   M0186AR1 -0.050000
    G0186251 S0111441 1.000000   J0104621 -1.000000
    G0186251 M0186TF0 -1.342000   M0186RN0 -84.500000
    G0186251 M0186MN0 -84.500000   M0186RP0 -93.900000
    G0186251 M0186RP1 -93.900000   M0186AR1 -0.050000
    G0186261 S0111455 1.000000   J0104621 -1.000000
    G0186261 M0186TF0 -1.342000   M0186RN0 -73.800000
    G0186261 M0186MN0 -76.500000   M0186RP0 -201.300000
    G0186261 M0186RP1 -201.300000   M0186AR1 -0.080000
    G0186271 S0111454 1.000000   J0104621 -1.000000
    G0186271 M0186TF0 -1.299000   M0186RN0 -66.200000
    G0186271 M0186MN0 -66.200000   M0186RP0 -39.500000
    G0186271 M0186RP1 -39.500000   M0186AR1 -0.100000
    G0186281 S0111716 1.000000   J0104621 -1.000000
    G0186281 M0186TF0 -1.346000   M0186DK1 -74.000000
    G0186281 M0186RN0 -123.800000   M0186MN0 -115.800000
    G0186281 M0186FN0 -5182.100000   M0186RP0 -363.400000
    G0186281 M0186RP1 -363.400000   M0186AR1 -0.520000
    G0186291 S0111461 1.000000   J0104621 -1.000000
    G0186291 M0186TF0 -1.595000   M0186DK1 -159.500000
    G0186291 M0186RN0 -140.400000   M0186MN0 -135.600000
    G0186291 M0186FN0 -12122.000000   M0186RP0 -1754.500000
    G0186291 M0186RP1 -1754.500000   M0186KR1 -40.000000
    G0186331 S0111681 1.000000   J0104621 -1.000000
    G0186331 M0186TF0 -1.342000   M0186DK1 -67.100000
    G0186331 M0186RN0 -127.600000   M0186MN0 -113.000000
    G0186331 M0186FN0 -6307.400000   M0186RP0 -518.000000
    G0186331 M0186RP1 -518.000000   M0186AR1 -0.650000
    G0186341 S0111118 1.000000   J0104621 -1.000000
    G0186341 M0186TF0 -1.497000   M0186DK1 -142.200000
    G0186341 M0186RN0 -123.700000   M0186MN0 -114.500000
    G0186341 M0186FN0 -10808.300000   M0186RP0 -929.600000
    G0186341 M0186RP1 -929.600000   M0186AR1 -0.500000
    G0186371 S0101137 1.000000   J0104621 -1.000000
    G0186371 M0186TF0 -1.136000   M0186RN0 -119.800000
    G0186371 M0186MN0 -103.900000   M0186RP0 -68.200000
    G0186371 M0186RP1 -68.200000   M0186AR1 -1.000000
    G0186411 S0101061 1.000000   J0104621 -1.000000
    G0186411 M0186TF0 -1.460000   M0186DK1 -106.600000
    G0186411 M0186RN0 -111.000000   M0186MN0 -113.200000
    G0186411 M0186FN0 -6927.700000   M0186RP0 -600.000000
    G0186411 M0186RP1 -600.000000   M0186AR1 -0.050000
    G0186431 S0104353 1.000000   J0104621 -1.000000
    G0186431 M0186TF0 -1.340000   M0186DK1 -134.000000
    G0186431 M0186RN0 -156.800000   M0186MN0 -135.300000
    G0186431 M0186FN0 -15678.000000   M0186RP0 -536.200000
    G0186431 M0186RP1 -536.200000   M0186KR1 -5.000000
    G0186431 M0186OX1 -1.000000
    G0186441 S0101356 1.000000   J0104621 -1.000000
    G0186441 M0186TF0 -1.250000   M0186DK1 -125.000000
    G0186441 M0186RN0 -140.625000   M0186MN0 -122.500000
    G0186441 M0186FN0 -14062.500000   M0186RP0 -1750.000000
    G0186441 M0186RP1 -1750.000000   M0186KR1 -10.000000
    G0186441 M0186OX1 -1.000000   M0186ME1 -1.000000
    G0186451 S0111766 1.000000   J0104621 -1.000000
    G0186451 M0186TF0 -1.219000   M0186DK1 -34.100000
    G0186451 M0186RN0 -124.300000   M0186MN0 -114.600000
    G0186451 M0186FN0 -2663.400000   M0186RP0 -439.000000
    G0186451 M0186RP1 -439.000000   M0186AR1 -0.650000
    G0186461 S0111479 1.000000   J0104621 -1.000000
    G0186461 M0186TF0 -1.388000   M0186DK1 -99.940000
    G0186461 M0186RN0 -130.500000   M0186MN0 -115.200000
    G0186461 M0186FN0 -8194.800000   M0186RP0 -485.800000
    G0186461 M0186RP1 -485.800000   M0186AR1 -0.500000
    G0186581 S0101051 1.000000   J0104621 -1.000000
    G0186581 M0186TF0 -1.499000   M0186DK1 -119.900000
    G0186581 M0186RN0 -122.500000   M0186MN0 -116.200000
    G0186581 M0186FN0 -8512.900000   M0186RP0 -1124.300000
    G0186581 M0186RP1 -1124.300000   M0186AR1 -0.050000
    G0186601 S0111445 1.000000   J0104621 -1.000000
    G0186601 M0186TF0 -1.351000   M0186RN0 -85.100000
    G0186601 M0186MN0 -85.100000   M0186RP0 -40.500000
    G0186601 M0186RP1 -40.500000   M0186AR1 -0.100000
    G0186711 S0101173 1.000000   J0104621 -1.000000
    G0186711 M0186TF0 -1.379000   M0186DK1 -82.700000
    G0186711 M0186RN0 -122.700000   M0186MN0 -117.200000
    G0186711 M0186FN0 -6202.500000   M0186RP0 -551.600000
    G0186711 M0186RP1 -551.600000   M0186AR1 -0.120000
    G0186771 S0102021 1.000000   J0104621 -1.000000
    G0186771 M0186EF0 -394.200000
    G0186781 S0102031 1.000000   J0104621 -1.000000
    G0186781 M0186MF0 -394.200000
    G0186811 M0186RN0 17.200000   M0186P29 4.000000
    G0186811 M0186PM9 2.500000   M0186EF0 -1.000000
    G0186811 M0186MN0 17.200000   M0186PLE -1.000000
    G0186821 M0186RN0 21.000000   M0186P19 6.666670
    G0186821 M0186PM9 2.500000   M0186EF0 -1.000000
    G0186821 M0186MN0 21.000000   M0186PLE -1.000000
    G0186831 M0186FN0 -629.000000   M0186PM9 2.500000
    G0186831 M0186EF0 -1.000000   M0186MF0 1.000000
    G0186971 M0186DK1 1.000000   M0186FN0 75.500000
    G0186981 M0186TF0 1.000000   M0186RN0 87.500000
    G0186981 M0186MN0 78.500000   M0186RP0 600.000000
    G0186981 M0186RP1 350.000000   M0186EF0 0.400000
    G0186981 M0186PM9 -1.000000   M0186P19 -1.000000
    G0186981 M0186P29 -1.000000
    G0186991 J0104621 1.000000   S0104621 -1.000000
    G0186991 M0186AR1 0.620000   M0186KR1 12.000000
    G0186991 M0186ME1 0.060000   M0186OX1 0.100000
    G0195022 S0111411 1.000000   J0104655 -1.000000
    G0195022 M0195TF2 -1.754000   M0195TF3 -1.754000
    G0195022 M0195DK2 -175.400000   M0195DK3 -175.400000
    G0195022 M0195DK4 -175.400000   M0195DP3 -175.400000
    G0195022 M0195DP4 -175.400000   M0195RN2 -168.400000
    G0195022 M0195MN2 -160.500000   M0195FN2 -16838.400000
    G0195022 M0195RP2 -5963.600000   M0195RP3 -5963.600000
    G0195022 M0195KR2 -160.000000   M0195SB2 -0.570000
    G0195042 S0111851 1.000000   J0104655 -1.000000
    G0195042 M0195TF2 -1.149000   M0195TF3 -1.149000
    G0195042 M0195RN2 -126.400000   M0195MN2 -110.300000
    G0195042 M0195RP2 -34.500000   M0195RP3 -34.500000
    G0195042 M0195AR2 -0.980000   M0195SB2 -0.870000
    G0195062 S0110295 1.000000   J0104655 -1.000000
    G0195062 M0195TF2 -1.695000   M0195TF3 -1.695000
    G0195062 M0195DK2 -169.500000   M0195DK3 -169.500000
    G0195062 M0195DK4 -169.500000   M0195DP3 -169.500000
    G0195062 M0195DP4 -169.500000   M0195RN2 -164.400000
    G0195062 M0195MN2 -152.600000   M0195FN2 -16441.500000
    G0195062 M0195RP2 -4237.500000   M0195RP3 -4237.500000
    G0195062 M0195KR2 -160.000000   M0195SB2 -0.590000
    G0195112 S0111821 1.000000   J0104655 -1.000000
    G0195112 M0195TF2 -1.149000   M0195TF3 -1.149000
    G0195112 M0195DK2 -39.100000   M0195DK3 -39.100000
    G0195112 M0195DK4 -39.100000   M0195RN2 -125.200000
    G0195112 M0195MN2 -111.500000   M0195FN2 -4258.200000
    G0195112 M0195RP2 -46.000000   M0195RP3 -46.000000
    G0195112 M0195AR2 -1.000000   M0195SB2 -0.870000
    G0195122 S0111831 1.000000   J0104655 -1.000000
    G0195122 M0195TF2 -1.143000   M0195TF3 -1.143000
    G0195122 M0195RN2 -132.600000   M0195MN2 -115.400000
    G0195122 M0195RP2 -34.300000   M0195RP3 -34.300000
    G0195122 M0195AR2 -1.000000   M0195SB2 -0.875000
    G0195132 S0111803 1.000000   J0104655 -1.000000
    G0195132 M0195TF2 -1.143000   M0195TF3 -1.143000
    G0195132 M0195RN2 -132.600000   M0195MN2 -115.400000
    G0195132 M0195RP2 -34.300000   M0195RP3 -34.300000
    G0195132 M0195AR2 -0.950000   M0195SB2 -0.875000
    G0195142 S0111413 1.000000   J0104655 -1.000000
    G0195142 M0195TF2 -1.754000   M0195TF3 -1.754000
    G0195142 M0195DK2 -175.400000   M0195DK3 -175.400000
    G0195142 M0195DK4 -175.400000   M0195DP3 -175.400000
    G0195142 M0195DP4 -175.400000   M0195RN2 -164.900000
    G0195142 M0195MN2 -156.100000   M0195FN2 -16487.600000
    G0195142 M0195RP2 -5963.600000   M0195RP3 -5963.600000
    G0195142 M0195KR2 -160.000000   M0195SB2 -0.570000
    G0195172 S0111751 1.000000   J0104655 -1.000000
    G0195172 M0195TF2 -1.282000   M0195TF3 -1.282000
    G0195172 M0195DK2 -44.900000   M0195DK3 -44.900000
    G0195172 M0195DK4 -44.900000   M0195DP3 -12.800000
    G0195172 M0195DP4 -12.800000   M0195RN2 -119.200000
    G0195172 M0195MN2 -107.400000   M0195FN2 -3455.000000
    G0195172 M0195RP2 -230.800000   M0195RP3 -230.800000
    G0195172 M0195AR2 -0.620000   M0195SB2 -0.780000
    G0195182 S0111761 1.000000   J0104655 -1.000000
    G0195182 M0195TF2 -1.282000   M0195TF3 -1.282000
    G0195182 M0195DK2 -44.900000   M0195DK3 -44.900000
    G0195182 M0195DK4 -44.900000   M0195DP3 -16.700000
    G0195182 M0195DP4 -16.700000   M0195RN2 -123.100000
    G0195182 M0195MN2 -110.300000   M0195FN2 -3455.000000
    G0195182 M0195RP2 -256.400000   M0195RP3 -256.400000
    G0195182 M0195AR2 -0.650000   M0195SB2 -0.780000
    G0195192 S0111483 1.000000   J0104655 -1.000000
    G0195192 M0195TF2 -1.600000   M0195TF3 -1.600000
    G0195192 M0195DK2 -160.000000   M0195DK3 -160.000000
    G0195192 M0195DK4 -160.000000   M0195DP3 -160.000000
    G0195192 M0195DP4 -160.000000   M0195RN2 -148.000000
    G0195192 M0195MN2 -144.000000   M0195FN2 -14800.000000
    G0195192 M0195RP2 -1696.000000   M0195RP3 -1696.000000
    G0195192 M0195KR2 -40.000000   M0195SB2 -0.625000
    G0195212 S0111493 1.000000   J0104655 -1.000000
    G0195212 M0195TF2 -1.538000   M0195TF3 -1.538000
    G0195212 M0195DK2 -153.800000   M0195DK3 -153.800000
    G0195212 M0195DK4 -153.800000   M0195DP3 -153.800000
    G0195212 M0195DP4 -153.800000   M0195RN2 -123.000000
    G0195212 M0195MN2 -120.000000   M0195FN2 -12304.000000
    G0195212 M0195RP2 -1153.500000   M0195RP3 -1153.500000
    G0195212 M0195KR2 -3.000000   M0195SB2 -0.650000
    G0195222 S0111421 1.000000   J0104655 -1.000000
    G0195222 M0195TF2 -1.595000   M0195TF3 -1.595000
    G0195222 M0195DK2 -159.500000   M0195DK3 -159.500000
    G0195222 M0195DK4 -159.500000   M0195DP3 -159.500000
    G0195222 M0195DP4 -159.500000   M0195RN2 -121.200000
    G0195222 M0195MN2 -116.400000   M0195FN2 -12122.000000
    G0195222 M0195RP2 -1754.500000   M0195RP3 -1754.500000
    G0195222 M0195KR2 -40.000000   M0195SB2 -0.627000
    G0195282 S0111716 1.000000   J0104655 -1.000000
    G0195282 M0195TF2 -1.346000   M0195TF3 -1.346000
    G0195282 M0195DK2 -74.000000   M0195DK3 -74.000000
    G0195282 M0195DK4 -74.000000   M0195DP3 -40.400000
    G0195282 M0195DP4 -40.400000   M0195RN2 -113.700000
    G0195282 M0195MN2 -107.700000   M0195FN2 -5182.100000
    G0195282 M0195RP2 -363.400000   M0195RP3 -363.400000
    G0195282 M0195AR2 -0.520000   M0195SB2 -0.743000
    G0195292 S0111461 1.000000   J0104655 -1.000000
    G0195292 M0195TF2 -1.595000   M0195TF3 -1.595000
    G0195292 M0195DK2 -159.500000   M0195DK3 -159.500000
    G0195292 M0195DK4 -159.500000   M0195DP3 -159.500000
    G0195292 M0195DP4 -159.500000   M0195RN2 -121.200000
    G0195292 M0195MN2 -116.400000   M0195FN2 -12122.000000
    G0195292 M0195RP2 -1754.500000   M0195RP3 -1754.500000
    G0195292 M0195KR2 -40.000000   M0195SB2 -0.627000
    G0195302 S0111755 1.000000   J0104655 -1.000000
    G0195302 M0195TF2 -1.282000   M0195TF3 -1.282000
    G0195302 M0195DK2 -44.900000   M0195DK3 -44.900000
    G0195302 M0195DK4 -44.900000   M0195DP3 -16.700000
    G0195302 M0195DP4 -16.700000   M0195RN2 -120.500000
    G0195302 M0195MN2 -107.700000   M0195FN2 -3455.000000
    G0195302 M0195RP2 -256.400000   M0195RP3 -256.400000
    G0195302 M0195AR2 -0.650000   M0195SB2 -0.780000
    G0195332 S0111681 1.000000   J0104655 -1.000000
    G0195332 M0195TF2 -1.342000   M0195TF3 -1.342000
    G0195332 M0195DK2 -67.100000   M0195DK3 -67.100000
    G0195332 M0195DK4 -67.100000   M0195DP3 -37.500000
    G0195332 M0195DP4 -37.500000   M0195RN2 -121.900000
    G0195332 M0195MN2 -108.000000   M0195FN2 -6307.400000
    G0195332 M0195RP2 -518.000000   M0195RP3 -518.000000
    G0195332 M0195AR2 -0.650000   M0195FC2 -1.000000
    G0195332 M0195SB2 -0.745000
    G0195352 S0111691 1.000000   J0104655 -1.000000
    G0195352 M0195TF2 -1.435000   M0195TF3 -1.435000
    G0195352 M0195DK2 -36.000000   M0195DK3 -36.000000
    G0195352 M0195DK4 -36.000000   M0195DP3 -14.350000
    G0195352 M0195DP4 -14.350000   M0195RN2 -137.000000
    G0195352 M0195MN2 -133.500000   M0195FN2 -3383.000000
    G0195352 M0195RP2 -416.000000   M0195RP3 -416.000000
    G0195352 M0195SB2 -0.697000
    G0195372 S0101137 1.000000   J0104655 -1.000000
    G0195372 M0195TF2 -1.136000   M0195TF3 -1.136000
    G0195372 M0195RN2 -117.000000   M0195MN2 -101.300000
    G0195372 M0195RP2 -68.200000   M0195RP3 -68.200000
    G0195372 M0195AR2 -1.000000   M0195SB2 -0.880000
    G0195432 S0104353 1.000000   J0104655 -1.000000
    G0195432 M0195TF2 -1.340000   M0195TF3 -1.340000
    G0195432 M0195RN2 -156.800000   M0195MN2 -135.300000
    G0195432 M0195FN2 -15678.000000   M0195DK2 -134.000000
    G0195432 M0195DK3 -134.000000   M0195DK4 -134.000000
    G0195432 M0195DP3 -134.000000   M0195DP4 -134.000000
    G0195432 M0195RP2 -536.200000   M0195RP3 -536.200000
    G0195432 M0195KR2 -5.000000   M0195OX2 -1.000000
    G0195432 M0195SB2 -0.746000
    G0195442 S0101356 1.000000   J0104655 -1.000000
    G0195442 M0195TF2 -1.250000   M0195TF3 -1.250000
    G0195442 M0195RN2 -140.625000   M0195MN2 -122.500000
    G0195442 M0195FN2 -14062.500000   M0195DK2 -125.000000
    G0195442 M0195DK3 -125.000000   M0195DK4 -125.000000
    G0195442 M0195DP3 -62.500000   M0195DP4 -62.500000
    G0195442 M0195RP2 -1750.000000   M0195RP3 -1750.000000
    G0195442 M0195KR2 -10.000000   M0195ME2 -1.000000
    G0195442 M0195OX2 -1.000000   M0195SB2 -0.800000
    G0195452 S0111766 1.000000   J0104655 -1.000000
    G0195452 M0195TF2 -1.219000   M0195TF3 -1.219000
    G0195452 M0195RN2 -120.700000   M0195MN2 -110.900000
    G0195452 M0195FN2 -2663.400000   M0195DK2 -34.100000
    G0195452 M0195DK3 -34.100000   M0195DK4 -34.100000
    G0195452 M0195DP3 -12.190000   M0195DP4 -12.190000
    G0195452 M0195RP2 -439.000000   M0195RP3 -439.000000
    G0195452 M0195AR2 -0.650000   M0195SB2 -0.820000
    G0195462 S0111479 1.000000   J0104655 -1.000000
    G0195462 M0195TF3 -1.388000   M0195TF2 -1.388000
    G0195462 M0195DK2 -99.940000   M0195DK3 -99.940000
    G0195462 M0195DK4 -99.940000   M0195DP3 -62.500000
    G0195462 M0195DP4 -62.500000   M0195RN2 -126.300000
    G0195462 M0195MN2 -112.400000   M0195FN2 -8194.800000
    G0195462 M0195RP2 -485.800000   M0195RP3 -485.800000
    G0195462 M0195AR2 -0.500000   M0195SB2 -0.720000
    G0195912 M0195SB2 -0.001000   REVENUE1 -0.037500
    G0195922 M0195SB2 0.001000   REVENUE1 0.037500
    G0195972 M0195DK2 1.000000   M0195FN2 86.000000
    G0195982 M0195TF2 1.000000   M0195DK3 40.000000
    G0195982 M0195DK4 70.000000   M0195DP3 20.000000
    G0195982 M0195DP4 40.000000   M0195RN2 96.000000
    G0195982 M0195MN2 86.000000   M0195RP2 600.000000
    G0195982 M0195RP3 390.000000
    G0195992 S0104655 -1.000000   J0104655 1.000000
    G0195992 M0195AR2 0.620000   M0195KR2 12.000000
    G0195992 M0195FC2 0.600000   M0195ME2 0.060000
    G0195992 M0195OX2 0.100000   M0195TF3 1.300000
    G0195992 M0195SB2 0.740000
    G0192021 S0111411 1.000000   J0104631 -1.000000
    G0192021 M0192TF0 -1.754000   M0192DK0 -175.400000
    G0192021 M0192DK1 -175.400000   M0192RN0 -177.200000
    G0192021 M0192MN0 -169.300000   M0192FN0 -16838.400000
    G0192021 M0192RP0 -5963.600000   M0192RP1 -5963.600000
    G0192021 M0192KR1 -160.000000
    G0192031 S0111412 1.000000   J0104631 -1.000000
    G0192031 M0192TF0 -1.597000   M0192DK0 -159.700000
    G0192031 M0192DK1 -159.700000   M0192RN0 -153.300000
    G0192031 M0192MN0 -150.100000   M0192FN0 -14053.600000
    G0192031 M0192RP0 -1558.000000   M0192RP1 -1558.000000
    G0192031 M0192KR1 -40.000000
    G0192041 S0111851 1.000000   J0104631 -1.000000
    G0192041 M0192TF0 -1.149000   M0192RN0 -131.000000
    G0192041 M0192MN0 -114.900000   M0192RP0 -34.500000
    G0192041 M0192RP1 -34.500000   M0192AR1 -0.980000
    G0192051 S0111100 1.000000   J0104631 -1.000000
    G0192051 M0192TF0 -1.515000   M0192DK0 -148.500000
    G0192051 M0192DK1 -148.500000   M0192RN0 -121.200000
    G0192051 M0192MN0 -121.200000   M0192FN0 -9947.500000
    G0192051 M0192RP0 -928.700000   M0192RP1 -928.700000
    G0192051 M0192AR1 -0.020000
    G0192061 S0110295 1.000000   J0104631 -1.000000
    G0192061 M0192TF0 -1.695000   M0192DK0 -169.500000
    G0192061 M0192DK1 -169.500000   M0192RN0 -172.000000
    G0192061 M0192MN0 -160.200000   M0192FN0 -16441.500000
    G0192061 M0192RP0 -4237.500000   M0192RP1 -4237.500000
    G0192061 M0192KR1 -160.000000
    G0192071 S0111300 1.000000   J0104631 -1.000000
    G0192071 M0192TF0 -1.391000   M0192DK0 -27.800000
    G0192071 M0192DK1 -27.800000   M0192RN0 -83.500000
    G0192071 M0192MN0 -84.900000   M0192FN0 -1530.100000
    G0192071 M0192RP0 -278.200000   M0192RP1 -278.200000
    G0192071 M0192AR1 -0.100000
    G0192081 S0111881 1.000000   J0104631 -1.000000
    G0192081 M0192TF0 -1.479000   M0192DK0 -145.000000
    G0192081 M0192DK1 -145.000000   M0192RN0 -114.600000
    G0192081 M0192MN0 -118.300000   M0192FN0 -9131.300000
    G0192081 M0192RP0 -495.500000   M0192RP1 -495.500000
    G0192081 M0192AR1 -0.050000
    G0192091 S0111891 1.000000   J0104631 -1.000000
    G0192091 M0192TF0 -1.431000   M0192DK0 -34.300000
    G0192091 M0192DK1 -34.300000   M0192RN0 -95.900000
    G0192091 M0192MN0 -101.600000   M0192FN0 -1957.600000
    G0192091 M0192RP0 -214.650000   M0192RP1 -214.650000
    G0192091 M0192AR1 -0.020000
    G0192101 S0111215 1.000000   J0104631 -1.000000
    G0192101 M0192TF0 -1.351000   M0192DK0 -6.750000
    G0192101 M0192DK1 -6.750000   M0192RN0 -83.800000
    G0192101 M0192MN0 -78.400000   M0192FN0 -378.300000
    G0192101 M0192RP0 -108.100000   M0192RP1 -108.100000
    G0192101 M0192AR1 -0.050000
    G0192111 S0111821 1.000000   J0104631 -1.000000
    G0192111 M0192TF0 -1.149000   M0192DK0 -39.100000
    G0192111 M0192DK1 -39.100000   M0192RN0 -128.700000
    G0192111 M0192MN0 -114.900000   M0192FN0 -4258.200000
    G0192111 M0192RP0 -46.000000   M0192RP1 -46.000000
    G0192111 M0192AR1 -1.000000
    G0192121 S0111831 1.000000   J0104631 -1.000000
    G0192121 M0192TF0 -1.143000   M0192RN0 -136.000000
    G0192121 M0192MN0 -118.900000   M0192RP0 -34.300000
    G0192121 M0192RP1 -34.300000   M0192AR1 -1.000000
    G0192131 S0111803 1.000000   J0104631 -1.000000
    G0192131 M0192TF0 -1.143000   M0192RN0 -136.000000
    G0192131 M0192MN0 -118.900000   M0192RP0 -34.300000
    G0192131 M0192RP1 -34.300000   M0192AR1 -0.950000
    G0192141 S0111413 1.000000   J0104631 -1.000000
    G0192141 M0192TF0 -1.754000   M0192DK0 -175.400000
    G0192141 M0192DK1 -175.400000   M0192RN0 -174.500000
    G0192141 M0192MN0 -165.800000   M0192FN0 -16487.600000
    G0192141 M0192RP0 -5963.600000   M0192RP1 -5963.600000
    G0192141 M0192KR1 -160.000000
    G0192161 S0111822 1.000000   J0104631 -1.000000
    G0192161 M0192TF0 -1.149000   M0192DK0 -45.960000
    G0192161 M0192DK1 -45.960000   M0192RN0 -117.200000
    G0192161 M0192MN0 -105.700000   M0192FN0 -3956.500000
    G0192161 M0192RP0 -46.000000   M0192RP1 -46.000000
    G0192161 M0192AR1 -0.700000
    G0192171 S0111751 1.000000   J0104631 -1.000000
    G0192171 M0192TF0 -1.282000   M0192DK0 -44.900000
    G0192171 M0192DK1 -44.900000   M0192RN0 -125.100000
    G0192171 M0192MN0 -113.200000   M0192FN0 -3455.000000
    G0192171 M0192RP0 -230.800000   M0192RP1 -230.800000
    G0192171 M0192AR1 -0.620000
    G0192181 S0111761 1.000000   J0104631 -1.000000
    G0192181 M0192TF0 -1.282000   M0192DK0 -44.900000
    G0192181 M0192DK1 -44.900000   M0192RN0 -128.300000
    G0192181 M0192MN0 -116.400000   M0192FN0 -3455.000000
    G0192181 M0192RP0 -256.400000   M0192RP1 -256.400000
    G0192181 M0192AR1 -0.650000
    G0192191 S0111483 1.000000   J0104631 -1.000000
    G0192191 M0192TF0 -1.600000   M0192DK0 -160.000000
    G0192191 M0192DK1 -160.000000   M0192RN0 -160.000000
    G0192191 M0192MN0 -156.000000   M0192FN0 -14800.000000
    G0192191 M0192RP0 -1696.000000   M0192RP1 -1696.000000
    G0192191 M0192KR1 -40.000000
    G0192201 S0111489 1.000000   J0104631 -1.000000
    G0192201 M0192TF0 -1.511000   M0192DK0 -151.100000
    G0192201 M0192DK1 -151.100000   M0192RN0 -122.400000
    G0192201 M0192MN0 -113.300000   M0192FN0 -10123.700000
    G0192201 M0192RP0 -604.400000   M0192RP1 -604.400000
    G0192201 M0192AR1 -0.100000
    G0192211 S0111493 1.000000   J0104631 -1.000000
    G0192211 M0192TF0 -1.538000   M0192DK0 -153.800000
    G0192211 M0192DK1 -153.800000   M0192RN0 -136.900000
    G0192211 M0192MN0 -133.800000   M0192FN0 -12304.000000
    G0192211 M0192RP0 -1153.500000   M0192RP1 -1153.500000
    G0192211 M0192KR1 -3.000000
    G0192221 S0111421 1.000000   J0104631 -1.000000
    G0192221 M0192TF0 -1.595000   M0192DK0 -159.500000
    G0192221 M0192DK1 -159.500000   M0192RN0 -140.400000
    G0192221 M0192MN0 -135.600000   M0192FN0 -12122.000000
    G0192221 M0192RP0 -1754.500000   M0192RP1 -1754.500000
    G0192221 M0192KR1 -40.000000
    G0192231 S0111711 1.000000   J0104631 -1.000000
    G0192231 M0192TF0 -1.493000   M0192DK0 -146.300000
    G0192231 M0192DK1 -146.300000   M0192RN0 -119.400000
    G0192231 M0192MN0 -115.000000   M0192FN0 -10242.000000
    G0192231 M0192RP0 -627.100000   M0192RP1 -627.100000
    G0192231 M0192AR1 -0.120000
    G0192241 S0111431 1.000000   J0104631 -1.000000
    G0192241 M0192TF0 -1.422000   M0192DK0 -135.100000
    G0192241 M0192DK1 -135.100000   M0192RN0 -103.800000
    G0192241 M0192MN0 -102.400000   M0192FN0 -8105.400000
    G0192241 M0192RP0 -455.000000   M0192RP1 -455.000000
    G0192241 M0192AR1 -0.050000
    G0192251 S0111441 1.000000   J0104631 -1.000000
    G0192251 M0192TF0 -1.342000   M0192RN0 -84.500000
    G0192251 M0192MN0 -84.500000   M0192RP0 -93.900000
    G0192251 M0192RP1 -93.900000   M0192AR1 -0.050000
    G0192281 S0111716 1.000000   J0104631 -1.000000
    G0192281 M0192TF0 -1.346000   M0192DK0 -74.000000
    G0192281 M0192DK1 -74.000000   M0192RN0 -123.800000
    G0192281 M0192MN0 -115.800000   M0192FN0 -5182.100000
    G0192281 M0192RP0 -363.400000   M0192RP1 -363.400000
    G0192281 M0192AR1 -0.520000
    G0192291 S0111461 1.000000   J0104631 -1.000000
    G0192291 M0192TF0 -1.595000   M0192DK0 -159.500000
    G0192291 M0192DK1 -159.500000   M0192RN0 -140.400000
    G0192291 M0192MN0 -135.600000   M0192FN0 -12122.000000
    G0192291 M0192RP0 -1754.500000   M0192RP1 -1754.500000
    G0192291 M0192KR1 -40.000000
    G0192301 S0111755 1.000000   J0104631 -1.000000
    G0192301 M0192TF0 -1.282000   M0192DK0 -44.900000
    G0192301 M0192DK1 -44.900000   M0192RN0 -125.800000
    G0192301 M0192MN0 -113.800000   M0192FN0 -3455.000000
    G0192301 M0192RP0 -256.400000   M0192RP1 -256.400000
    G0192301 M0192AR1 -0.650000
    G0192331 S0111681 1.000000   J0104631 -1.000000
    G0192331 M0192TF0 -1.342000   M0192DK0 -67.100000
    G0192331 M0192DK1 -67.100000   M0192RN0 -127.600000
    G0192331 M0192MN0 -113.000000   M0192FN0 -6307.400000
    G0192331 M0192RP0 -518.000000   M0192RP1 -518.000000
    G0192331 M0192AR1 -0.650000
    G0192341 S0111118 1.000000   J0104631 -1.000000
    G0192341 M0192TF0 -1.497000   M0192DK0 -142.200000
    G0192341 M0192DK1 -142.200000   M0192RN0 -123.700000
    G0192341 M0192MN0 -114.500000   M0192FN0 -10808.300000
    G0192341 M0192RP0 -929.600000   M0192RP1 -929.600000
    G0192341 M0192AR1 -0.500000
    G0192351 S0111691 1.000000   J0104631 -1.000000
    G0192351 M0192TF0 -1.435000   M0192DK0 -36.000000
    G0192351 M0192DK1 -36.000000   M0192RN0 -142.100000
    G0192351 M0192MN0 -139.200000   M0192RP0 -416.000000
    G0192351 M0192RP1 -416.000000   M0192FN0 -3383.000000
    G0192371 S0101137 1.000000   J0104631 -1.000000
    G0192371 M0192TF0 -1.136000   M0192RN0 -119.800000
    G0192371 M0192RP0 -68.200000   M0192RP1 -68.200000
    G0192371 M0192MN0 -103.900000   M0192AR1 -1.000000
    G0192411 S0101061 1.000000   J0104631 -1.000000
    G0192411 M0192TF0 -1.460000   M0192DK0 -106.600000
    G0192411 M0192DK1 -106.600000   M0192RN0 -111.000000
    G0192411 M0192MN0 -113.200000   M0192RP0 -600.000000
    G0192411 M0192RP1 -600.000000   M0192FN0 -6927.700000
    G0192411 M0192AR1 -0.050000
    G0192421 S0101106 1.000000   J0104631 -1.000000
    G0192421 M0192TF0 -1.600000   M0192DK0 -160.000000
    G0192421 M0192DK1 -160.000000   M0192RN0 -161.600000
    G0192421 M0192MN0 -155.200000   M0192FN0 -14880.000000
    G0192421 M0192RP0 -1696.000000   M0192RP1 -1696.000000
    G0192421 M0192KR1 -40.000000
    G0192431 S0104353 1.000000   J0104631 -1.000000
    G0192431 M0192TF0 -1.340000   M0192DK1 -134.000000
    G0192431 M0192DK0 -134.000000   M0192RN0 -156.800000
    G0192431 M0192MN0 -135.300000   M0192FN0 -15678.000000
    G0192431 M0192RP0 -536.200000   M0192RP1 -536.200000
    G0192431 M0192KR1 -5.000000   M0192OX1 -1.000000
    G0192441 S0101356 1.000000   J0104631 -1.000000
    G0192441 M0192TF0 -1.250000   M0192DK0 -125.000000
    G0192441 M0192DK1 -125.000000   M0192RN0 -140.625000
    G0192441 M0192MN0 -122.500000   M0192FN0 -14062.500000
    G0192441 M0192RP0 -1750.000000   M0192RP1 -1750.000000
    G0192441 M0192KR1 -10.000000   M0192ME1 -1.000000
    G0192441 M0192OX1 -1.000000
    G0192451 S0111766 1.000000   J0104631 -1.000000
    G0192451 M0192TF0 -1.219000   M0192DK0 -34.100000
    G0192451 M0192DK1 -34.100000   M0192RN0 -124.300000
    G0192451 M0192MN0 -114.600000   M0192FN0 -2663.400000
    G0192451 M0192RP0 -439.000000   M0192RP1 -439.000000
    G0192451 M0192AR1 -0.650000
    G0192461 S0111479 1.000000   J0104631 -1.000000
    G0192461 M0192TF0 -1.388000   M0192DK1 -99.900000
    G0192461 M0192DK0 -99.900000   M0192RN0 -130.500000
    G0192461 M0192MN0 -115.200000   M0192FN0 -8194.800000
    G0192461 M0192RP0 -485.800000   M0192RP1 -485.800000
    G0192461 M0192AR1 -0.500000
    G0192711 S0101173 1.000000   J0104631 -1.000000
    G0192711 M0192TF0 -1.379000   M0192DK1 -82.700000
    G0192711 M0192DK0 -82.700000   M0192RN0 -122.700000
    G0192711 M0192MN0 -117.200000   M0192FN0 -6202.500000
    G0192711 M0192RP0 -551.600000   M0192RP1 -551.600000
    G0192711 M0192AR1 -0.120000
    G0192771 S0102021 1.000000   J0104631 -1.000000
    G0192771 M0192EF0 -394.200000
    G0192781 S0102031 1.000000   J0104631 -1.000000
    G0192781 M0192MF0 -394.200000
    G0192811 M0192RN0 13.500000   M0192MN0 13.500000
    G0192811 M0192EF0 -1.000000   M0192P29 4.000000
    G0192811 M0192PM9 2.500000   M0192PLE -1.000000
    G0192821 M0192RN0 17.500000   M0192MN0 17.500000
    G0192821 M0192EF0 -1.000000   M0192P19 6.666670
    G0192821 M0192PM9 2.500000   M0192PLE -1.000000
    G0192831 M0192FN0 -629.000000   M0192EF0 -1.000000
    G0192831 M0192MF0 1.000000   M0192PM9 2.500000
    G0192991 J0104631 1.000000   S0104631 -1.000000
    G0192991 M0192AR1 0.620000   M0192KR1 12.000000
    G0192991 M0192ME1 0.060000   M0192OX1 0.100000
    G0192981 M0192TF0 1.000000   M0192RN0 93.500000
    G0192981 M0192MN0 84.500000   M0192RP0 600.000000
    G0192981 M0192RP1 350.000000   M0192DK0 45.000000
    G0192981 M0192P19 -1.000000   M0192P29 -1.000000
    G0192981 M0192PM9 -1.000000   M0192EF0 0.400000
    G0192971 M0192DK1 1.000000   M0192FN0 81.500000
    G0192022 S0111411 1.000000   J0104633 -1.000000
    G0192022 M0192TF2 -1.754000   M0192TF3 -1.754000
    G0192022 M0192DK2 -175.400000   M0192DK3 -175.400000
    G0192022 M0192DK4 -175.400000   M0192DP3 -175.400000
    G0192022 M0192DP4 -175.400000   M0192RN2 -168.400000
    G0192022 M0192MN2 -160.500000   M0192FN2 -16838.400000
    G0192022 M0192RP2 -5963.600000   M0192RP3 -5963.600000
    G0192022 M0192KR2 -160.000000   M0192SB2 -0.570000
    G0192032 S0111412 1.000000   J0104633 -1.000000
    G0192032 M0192TF2 -1.597000   M0192TF3 -1.597000
    G0192032 M0192DK2 -159.700000   M0192DK3 -159.700000
    G0192032 M0192DK4 -159.700000   M0192DP3 -159.700000
    G0192032 M0192DP4 -159.700000   M0192RN2 -140.500000
    G0192032 M0192MN2 -138.900000   M0192FN2 -14053.600000
    G0192032 M0192RP2 -1558.000000   M0192RP3 -1558.000000
    G0192032 M0192KR2 -40.000000   M0192SB2 -0.626000
    G0192042 S0111851 1.000000   J0104633 -1.000000
    G0192042 M0192TF2 -1.149000   M0192TF3 -1.149000
    G0192042 M0192RN2 -126.400000   M0192MN2 -110.300000
    G0192042 M0192AR2 -0.980000   M0192RP2 -34.500000
    G0192042 M0192RP3 -34.500000   M0192SB2 -0.870000
    G0192052 S0111100 1.000000   J0104633 -1.000000
    G0192052 M0192TF2 -1.515000   M0192TF3 -1.515000
    G0192052 M0192DK2 -148.500000   M0192DK3 -148.500000
    G0192052 M0192DK4 -148.500000   M0192DP3 -83.300000
    G0192052 M0192DP4 -83.300000   M0192RN2 -101.500000
    G0192052 M0192MN2 -98.500000   M0192FN2 -9947.500000
    G0192052 M0192RP2 -928.700000   M0192RP3 -928.700000
    G0192052 M0192AR2 -0.020000   M0192SB2 -0.660000
    G0192072 S0111300 1.000000   J0104633 -1.000000
    G0192072 M0192TF2 -1.391000   M0192TF3 -1.391000
    G0192072 M0192DK2 -27.800000   M0192DK3 -27.800000
    G0192072 M0192DK4 -27.800000   M0192DP3 -13.900000
    G0192072 M0192DP4 -13.900000   M0192RN2 -66.800000
    G0192072 M0192MN2 -68.200000   M0192FN2 -1530.100000
    G0192072 M0192RP2 -278.200000   M0192RP3 -278.200000
    G0192072 M0192AR2 -0.100000   M0192SB2 -0.719000
    G0192082 S0111881 1.000000   J0104633 -1.000000
    G0192082 M0192TF2 -1.479000   M0192TF3 -1.479000
    G0192082 M0192DK2 -145.000000   M0192DK3 -145.000000
    G0192082 M0192DK4 -145.000000   M0192DP3 -84.300000
    G0192082 M0192DP4 -84.300000   M0192RN2 -93.200000
    G0192082 M0192MN2 -92.400000   M0192FN2 -9131.300000
    G0192082 M0192RP2 -495.500000   M0192RP3 -495.500000
    G0192082 M0192AR2 -0.050000   M0192SB2 -0.676000
    G0192092 S0111891 1.000000   J0104633 -1.000000
    G0192092 M0192TF2 -1.431000   M0192TF3 -1.431000
    G0192092 M0192DK2 -34.300000   M0192DK3 -34.300000
    G0192092 M0192DK4 -34.300000   M0192DP3 -7.100000
    G0192092 M0192DP4 -7.100000   M0192RN2 -73.000000
    G0192092 M0192MN2 -73.700000   M0192FN2 -1957.600000
    G0192092 M0192RP2 -214.650000   M0192RP3 -214.650000
    G0192092 M0192AR2 -0.020000   M0192SB2 -0.699000
    G0192102 S0111215 1.000000   J0104633 -1.000000
    G0192102 M0192TF2 -1.351000   M0192TF3 -1.351000
    G0192102 M0192DK2 -6.750000   M0192DK3 -6.750000
    G0192102 M0192DK4 -6.750000   M0192RN2 -70.250000
    G0192102 M0192MN2 -64.800000   M0192FN2 -378.300000
    G0192102 M0192RP2 -108.100000   M0192RP3 -108.100000
    G0192102 M0192AR2 -0.050000   M0192SB2 -0.740000
    G0192112 S0111821 1.000000   J0104633 -1.000000
    G0192112 M0192TF2 -1.149000   M0192TF3 -1.149000
    G0192112 M0192DK2 -39.100000   M0192DK3 -39.100000
    G0192112 M0192DK4 -39.100000   M0192RN2 -125.200000
    G0192112 M0192MN2 -111.500000   M0192FN2 -4258.200000
    G0192112 M0192RP2 -46.000000   M0192RP3 -46.000000
    G0192112 M0192AR2 -1.000000   M0192SB2 -0.870000
    G0192122 S0111831 1.000000   J0104633 -1.000000
    G0192122 M0192TF2 -1.143000   M0192TF3 -1.143000
    G0192122 M0192RN2 -132.600000   M0192MN2 -115.400000
    G0192122 M0192RP2 -34.300000   M0192RP3 -34.300000
    G0192122 M0192AR2 -1.000000   M0192SB2 -0.875000
    G0192132 S0111803 1.000000   J0104633 -1.000000
    G0192132 M0192TF2 -1.143000   M0192TF3 -1.143000
    G0192132 M0192RN2 -132.600000   M0192MN2 -115.400000
    G0192132 M0192RP2 -34.300000   M0192RP3 -34.300000
    G0192132 M0192AR2 -0.950000   M0192SB2 -0.874000
    G0192162 S0111822 1.000000   J0104633 -1.000000
    G0192162 M0192TF2 -1.149000   M0192TF3 -1.149000
    G0192162 M0192DK2 -45.960000   M0192DK3 -45.960000
    G0192162 M0192DK4 -45.960000   M0192RN2 -111.400000
    G0192162 M0192MN2 -99.900000   M0192FN2 -3956.500000
    G0192162 M0192RP2 -46.000000   M0192RP3 -46.000000
    G0192162 M0192AR2 -0.700000   M0192SB2 -0.870000
    G0192172 S0111751 1.000000   J0104633 -1.000000
    G0192172 M0192TF2 -1.282000   M0192TF3 -1.282000
    G0192172 M0192DK2 -44.900000   M0192DK3 -44.900000
    G0192172 M0192DK4 -44.900000   M0192DP3 -12.800000
    G0192172 M0192DP4 -12.800000   M0192RN2 -119.200000
    G0192172 M0192MN2 -107.400000   M0192FN2 -3455.000000
    G0192172 M0192RP2 -230.800000   M0192RP3 -230.800000
    G0192172 M0192AR2 -0.620000   M0192SB2 -0.780000
    G0192182 S0111761 1.000000   J0104633 -1.000000
    G0192182 M0192TF2 -1.282000   M0192TF3 -1.282000
    G0192182 M0192DK2 -44.900000   M0192DK3 -44.900000
    G0192182 M0192DK4 -44.900000   M0192DP3 -16.700000
    G0192182 M0192DP4 -16.700000   M0192RN2 -123.100000
    G0192182 M0192MN2 -110.300000   M0192FN2 -3455.000000
    G0192182 M0192RP2 -256.400000   M0192RP3 -256.400000
    G0192182 M0192AR2 -0.650000   M0192SB2 -0.780000
    G0192192 S0111483 1.000000   J0104633 -1.000000
    G0192192 M0192TF2 -1.600000   M0192TF3 -1.600000
    G0192192 M0192DK2 -160.000000   M0192DK3 -160.000000
    G0192192 M0192DK4 -160.000000   M0192DP3 -160.000000
    G0192192 M0192DP4 -160.000000   M0192RN2 -148.000000
    G0192192 M0192MN2 -144.000000   M0192FN2 -14800.000000
    G0192192 M0192RP2 -1696.000000   M0192RP3 -1696.000000
    G0192192 M0192KR2 -40.000000   M0192SB2 -0.625000
    G0192202 S0111489 1.000000   J0104633 -1.000000
    G0192202 M0192TF2 -1.511000   M0192TF3 -1.511000
    G0192202 M0192DK2 -151.100000   M0192DK3 -151.100000
    G0192202 M0192DK4 -151.100000   M0192DP3 -120.800000
    G0192202 M0192DP4 -120.800000   M0192RN2 -101.200000
    G0192202 M0192MN2 -92.200000   M0192FN2 -10123.700000
    G0192202 M0192RP2 -604.400000   M0192RP3 -604.400000
    G0192202 M0192AR2 -0.100000   M0192SB2 -0.662000
    G0192212 S0111493 1.000000   J0104633 -1.000000
    G0192212 M0192TF2 -1.538000   M0192TF3 -1.538000
    G0192212 M0192DK2 -153.800000   M0192DK3 -153.800000
    G0192212 M0192DK4 -153.800000   M0192DP3 -153.800000
    G0192212 M0192DP4 -153.800000   M0192RN2 -123.000000
    G0192212 M0192MN2 -120.000000   M0192FN2 -12304.000000
    G0192212 M0192RP2 -1153.000000   M0192RP3 -1153.000000
    G0192212 M0192KR2 -3.000000   M0192SB2 -0.650000
    G0192222 S0111421 1.000000   J0104633 -1.000000
    G0192222 M0192TF2 -1.595000   M0192TF3 -1.595000
    G0192222 M0192DK2 -159.500000   M0192DK3 -159.500000
    G0192222 M0192DK4 -159.500000   M0192DP3 -159.500000
    G0192222 M0192DP4 -159.500000   M0192RN2 -121.200000
    G0192222 M0192MN2 -116.400000   M0192FN2 -12122.000000
    G0192222 M0192RP2 -1754.500000   M0192RP3 -1754.500000
    G0192222 M0192KR2 -40.000000   M0192SB2 -0.627000
    G0192232 S0111711 1.000000   J0104633 -1.000000
    G0192232 M0192TF2 -1.493000   M0192TF3 -1.493000
    G0192232 M0192DK2 -146.300000   M0192DK3 -146.300000
    G0192232 M0192DK4 -146.300000   M0192DP3 -89.600000
    G0192232 M0192DP4 -89.600000   M0192RN2 -104.500000
    G0192232 M0192MN2 -101.500000   M0192FN2 -10242.000000
    G0192232 M0192RP2 -627.100000   M0192RP3 -627.100000
    G0192232 M0192AR2 -0.120000   M0192SB2 -0.670000
    G0192242 S0111431 1.000000   J0104633 -1.000000
    G0192242 M0192TF2 -1.422000   M0192TF3 -1.422000
    G0192242 M0192DK2 -135.100000   M0192DK3 -135.100000
    G0192242 M0192DK4 -135.100000   M0192RN2 -85.300000
    G0192242 M0192MN2 -83.900000   M0192FN2 -8105.400000
    G0192242 M0192RP2 -455.000000   M0192RP3 -455.000000
    G0192242 M0192AR2 -0.050000   M0192SB2 -0.703000
    G0192252 S0111441 1.000000   J0104633 -1.000000
    G0192252 M0192TF2 -1.342000   M0192TF3 -1.342000
    G0192252 M0192MN2 -67.100000   M0192RN2 -67.100000
    G0192252 M0192RP2 -93.900000   M0192RP3 -93.900000
    G0192252 M0192AR2 -0.050000   M0192SB2 -0.745000
    G0192282 S0111716 1.000000   J0104633 -1.000000
    G0192282 M0192TF2 -1.346000   M0192TF3 -1.346000
    G0192282 M0192DK2 -74.000000   M0192DK3 -74.000000
    G0192282 M0192DK4 -74.000000   M0192DP3 -40.400000
    G0192282 M0192DP4 -40.400000   M0192RN2 -113.700000
    G0192282 M0192MN2 -107.700000   M0192FN2 -5182.100000
    G0192282 M0192RP2 -363.400000   M0192RP3 -363.400000
    G0192282 M0192SB2 -0.743000   M0192AR2 -0.520000
    G0192292 S0111461 1.000000   J0104633 -1.000000
    G0192292 M0192TF2 -1.595000   M0192TF3 -1.595000
    G0192292 M0192DK2 -159.500000   M0192DK3 -159.500000
    G0192292 M0192DK4 -159.500000   M0192DP3 -159.500000
    G0192292 M0192DP4 -159.500000   M0192RN2 -121.200000
    G0192292 M0192MN2 -116.400000   M0192FN2 -12122.000000
    G0192292 M0192RP2 -1754.500000   M0192RP3 -1754.500000
    G0192292 M0192SB2 -0.627000   M0192KR2 -40.000000
    G0192302 S0111755 1.000000   J0104633 -1.000000
    G0192302 M0192TF2 -1.282000   M0192TF3 -1.282000
    G0192302 M0192DK2 -44.900000   M0192DK3 -44.900000
    G0192302 M0192DK4 -44.900000   M0192DP3 -16.700000
    G0192302 M0192DP4 -16.700000   M0192RN2 -120.500000
    G0192302 M0192MN2 -107.700000   M0192FN2 -3455.000000
    G0192302 M0192RP2 -256.400000   M0192RP3 -256.400000
    G0192302 M0192SB2 -0.780000   M0192AR2 -0.650000
    G0192332 S0111681 1.000000   J0104633 -1.000000
    G0192332 M0192TF2 -1.342000   M0192TF3 -1.342000
    G0192332 M0192DK2 -67.100000   M0192DK3 -67.100000
    G0192332 M0192DK4 -67.100000   M0192DP3 -37.500000
    G0192332 M0192DP4 -37.500000   M0192RN2 -121.900000
    G0192332 M0192MN2 -108.000000   M0192FN2 -6307.400000
    G0192332 M0192RP2 -518.000000   M0192RP3 -518.000000
    G0192332 M0192AR2 -0.650000   M0192FC2 -1.000000
    G0192332 M0192SB2 -0.745000
    G0192352 S0111691 1.000000   J0104633 -1.000000
    G0192352 M0192TF2 -1.435000   M0192TF3 -1.435000
    G0192352 M0192DK2 -36.000000   M0192DK3 -36.000000
    G0192352 M0192DK4 -36.000000   M0192DP3 -14.300000
    G0192352 M0192DP4 -14.300000   M0192RN2 -137.000000
    G0192352 M0192MN2 -133.500000   M0192FN2 -3383.000000
    G0192352 M0192RP2 -416.000000   M0192RP3 -416.000000
    G0192352 M0192SB2 -0.697000
    G0192362 S0101133 1.000000   J0104633 -1.000000
    G0192362 M0192TF2 -1.200000   M0192TF3 -1.200000
    G0192362 M0192DK2 -120.000000   M0192DK3 -120.000000
    G0192362 M0192DK4 -120.000000   M0192DP3 -24.000000
    G0192362 M0192DP4 -24.000000   M0192RN2 -118.800000
    G0192362 M0192MN2 -104.400000   M0192FN2 -11880.000000
    G0192362 M0192RP2 -72.000000   M0192RP3 -72.000000
    G0192362 M0192AR2 -0.860000   M0192SB2 -0.833000
    G0192372 S0101137 1.000000   J0104633 -1.000000
    G0192372 M0192TF2 -1.136000   M0192TF3 -1.136000
    G0192372 M0192RN2 -117.000000   M0192MN2 -101.300000
    G0192372 M0192RP2 -68.200000   M0192RP3 -68.200000
    G0192372 M0192AR2 -1.000000   M0192SB2 -0.880000
    G0192422 S0101106 1.000000   J0104633 -1.000000
    G0192422 M0192TF3 -1.600000   M0192TF2 -1.600000
    G0192422 M0192DK2 -160.000000   M0192DK3 -160.000000
    G0192422 M0192DK4 -160.000000   M0192DP3 -160.000000
    G0192422 M0192DP4 -160.000000   M0192RN2 -148.800000
    G0192422 M0192MN2 -139.200000   M0192FN2 -14880.000000
    G0192422 M0192RP2 -1696.000000   M0192RP3 -1696.000000
    G0192422 M0192KR2 -40.000000   M0192SB2 -0.625000
    G0192432 S0104353 1.000000   J0104633 -1.000000
    G0192432 M0192TF2 -1.340000   M0192TF3 -1.340000
    G0192432 M0192DK2 -134.000000   M0192DK3 -134.000000
    G0192432 M0192DK4 -134.000000   M0192DP3 -134.000000
    G0192432 M0192DP4 -134.000000   M0192RN2 -156.800000
    G0192432 M0192MN2 -135.300000   M0192FN2 -15678.000000
    G0192432 M0192RP2 -536.200000   M0192RP3 -536.200000
    G0192432 M0192KR2 -5.000000   M0192OX2 -1.000000
    G0192432 M0192SB2 -0.746000
    G0192442 S0101356 1.000000   J0104633 -1.000000
    G0192442 M0192TF2 -1.250000   M0192TF3 -1.250000
    G0192442 M0192DK2 -125.000000   M0192DK3 -125.000000
    G0192442 M0192DK4 -125.000000   M0192DP3 -62.500000
    G0192442 M0192DP4 -62.500000   M0192RN2 -140.625000
    G0192442 M0192MN2 -122.500000   M0192FN2 -14062.500000
    G0192442 M0192RP2 -1750.000000   M0192RP3 -1750.000000
    G0192442 M0192KR2 -10.000000   M0192ME2 -1.000000
    G0192442 M0192OX2 -1.000000   M0192SB2 -0.800000
    G0192452 S0111766 1.000000   J0104633 -1.000000
    G0192452 M0192TF2 -1.219000   M0192TF3 -1.219000
    G0192452 M0192DK2 -34.100000   M0192DK3 -34.100000
    G0192452 M0192DK4 -34.100000   M0192DP3 -12.190000
    G0192452 M0192DP4 -12.190000   M0192RN2 -120.700000
    G0192452 M0192MN2 -110.900000   M0192FN2 -2663.400000
    G0192452 M0192RP2 -439.000000   M0192RP3 -439.000000
    G0192452 M0192AR2 -0.650000   M0192SB2 -0.794000
    G0192462 S0111479 1.000000   J0104633 -1.000000
    G0192462 M0192TF2 -1.388000   M0192TF3 -1.388000
    G0192462 M0192DK2 -99.940000   M0192DK3 -99.940000
    G0192462 M0192DK4 -99.940000   M0192DP3 -62.500000
    G0192462 M0192DP4 -62.500000   M0192RN2 -126.300000
    G0192462 M0192MN2 -112.400000   M0192FN2 -8194.800000
    G0192462 M0192RP2 -485.800000   M0192RP3 -485.800000
    G0192462 M0192AR2 -0.500000   M0192SB2 -0.720000
    G0192772 S0102021 1.000000   J0104633 -1.000000
    G0192772 M0192EF2 -394.200000
    G0192782 S0102031 1.000000   J0104633 -1.000000
    G0192782 M0192MF2 -394.200000
    G0192842 M0192EF2 1.000000   M0192RN2 -17.500000
    G0192842 M0192P39 1.000000   M0192MN2 -17.500000
    G0192852 M0192MF2 1.000000   M0192MN2 -17.500000
    G0192852 M0192P39 1.000000   M0192FN2 -629.000000
    G0192852 M0192RN2 -17.500000
    G0192912 M0192SB2 -0.001000   REVENUE1 -0.037500
    G0192922 M0192SB2 0.001000   REVENUE1 0.037500
    G0192972 M0192DK2 1.000000   M0192FN2 81.000000
    G0192982 M0192TF2 1.000000   M0192RN2 92.500000
    G0192982 M0192MN2 83.500000   M0192RP2 565.000000
    G0192982 M0192RP3 435.000000   M0192P39 -0.150000
    G0192982 M0192DK3 45.000000   M0192DK4 65.000000
    G0192982 M0192DP3 20.000000   M0192DP4 40.000000
    G0192992 S0104633 -1.000000   J0104633 1.000000
    G0192992 M0192AR2 0.620000   M0192KR2 12.000000
    G0192992 M0192ME2 0.060000   M0192FC2 0.600000
    G0192992 M0192OX2 0.100000   M0192TF3 1.300000
    G0192992 M0192SB2 0.750000
    G0191021 S0111411 1.000000   J0104874 -1.000000
    G0191021 M0191TF0 -1.754000   M0191TF1 -1.754000
    G0191021 M0191DK0 -175.400000   M0191DK1 -175.400000
    G0191021 M0191DK4 -175.400000   M0191DP3 -175.400000
    G0191021 M0191DP4 -175.400000   M0191RN2 -168.400000
    G0191021 M0191MN2 -160.500000   M0191FN0 -16838.400000
    G0191021 M0191RP0 -5963.600000   M0191RP1 -5963.600000
    G0191021 M0191KR1 -160.000000   M0191SB0 -0.570000
    G0191031 S0111412 1.000000   J0104874 -1.000000
    G0191031 M0191TF0 -1.597000   M0191TF1 -1.597000
    G0191031 M0191DK0 -159.700000   M0191DK1 -159.700000
    G0191031 M0191DK4 -159.700000   M0191DP3 -159.700000
    G0191031 M0191DP4 -159.700000   M0191RN2 -140.500000
    G0191031 M0191MN2 -138.900000   M0191FN0 -14053.600000
    G0191031 M0191RP0 -1558.000000   M0191RP1 -1558.000000
    G0191031 M0191KR1 -40.000000   M0191SB0 -0.626000
    G0191041 S0111851 1.000000   J0104874 -1.000000
    G0191041 M0191TF0 -1.149000   M0191TF1 -1.149000
    G0191041 M0191RN2 -126.400000   M0191MN2 -110.300000
    G0191041 M0191RP0 -34.500000   M0191RP1 -34.500000
    G0191041 M0191AR1 -0.980000   M0191SB0 -0.870000
    G0191051 S0111100 1.000000   J0104874 -1.000000
    G0191051 M0191TF0 -1.515000   M0191TF1 -1.515000
    G0191051 M0191DK0 -148.500000   M0191DK1 -148.500000
    G0191051 M0191DK4 -148.500000   M0191DP3 -83.300000
    G0191051 M0191DP4 -83.300000   M0191FN0 -9947.500000
    G0191051 M0191RN2 -101.500000   M0191MN2 -98.500000
    G0191051 M0191RP0 -928.700000   M0191RP1 -928.700000
    G0191051 M0191AR1 -0.020000   M0191SB0 -0.660000
    G0191061 S0110295 1.000000   J0104874 -1.000000
    G0191061 M0191TF0 -1.695000   M0191TF1 -1.695000
    G0191061 M0191DK0 -169.500000   M0191DK1 -169.500000
    G0191061 M0191DK4 -169.500000   M0191DP3 -169.500000
    G0191061 M0191DP4 -169.500000   M0191RN2 -164.400000
    G0191061 M0191MN2 -152.600000   M0191FN0 -16441.500000
    G0191061 M0191RP0 -4237.500000   M0191RP1 -4237.500000
    G0191061 M0191KR1 -160.000000   M0191SB0 -0.590000
    G0191101 S0111215 1.000000   J0104874 -1.000000
    G0191101 M0191TF0 -1.351000   M0191TF1 -1.351000
    G0191101 M0191DK0 -6.750000   M0191DK1 -6.750000
    G0191101 M0191DK4 -6.750000   M0191RN2 -70.250000
    G0191101 M0191MN2 -64.800000   M0191FN0 -378.300000
    G0191101 M0191RP0 -108.100000   M0191RP1 -108.100000
    G0191101 M0191AR1 -0.050000   M0191SB0 -0.740000
    G0191111 S0111821 1.000000   J0104874 -1.000000
    G0191111 M0191TF0 -1.149000   M0191TF1 -1.149000
    G0191111 M0191DK0 -39.100000   M0191DK1 -39.100000
    G0191111 M0191DK4 -39.100000   M0191RN2 -125.200000
    G0191111 M0191MN2 -111.500000   M0191FN0 -4258.200000
    G0191111 M0191RP0 -46.000000   M0191RP1 -46.000000
    G0191111 M0191AR1 -1.000000   M0191SB0 -0.870000
    G0191121 S0111831 1.000000   J0104874 -1.000000
    G0191121 M0191TF0 -1.143000   M0191TF1 -1.143000
    G0191121 M0191RN2 -132.600000   M0191MN2 -115.400000
    G0191121 M0191RP0 -34.300000   M0191RP1 -34.300000
    G0191121 M0191AR1 -1.000000   M0191SB0 -0.875000
    G0191141 S0111413 1.000000   J0104874 -1.000000
    G0191141 M0191TF0 -1.754000   M0191TF1 -1.754000
    G0191141 M0191DK0 -175.400000   M0191DK1 -175.400000
    G0191141 M0191DK4 -175.400000   M0191DP3 -175.400000
    G0191141 M0191DP4 -175.400000   M0191RN2 -164.900000
    G0191141 M0191MN2 -156.100000   M0191FN0 -16487.600000
    G0191141 M0191RP0 -5963.600000   M0191RP1 -5963.600000
    G0191141 M0191KR1 -160.000000   M0191SB0 -0.570000
    G0191161 S0111822 1.000000   J0104874 -1.000000
    G0191161 M0191TF0 -1.149000   M0191TF1 -1.149000
    G0191161 M0191DK0 -45.960000   M0191DK1 -45.960000
    G0191161 M0191DK4 -45.960000   M0191RN2 -111.400000
    G0191161 M0191MN2 -99.900000   M0191FN0 -3956.500000
    G0191161 M0191RP0 -46.000000   M0191RP1 -46.000000
    G0191161 M0191AR1 -0.700000   M0191SB0 -0.870000
    G0191171 S0111751 1.000000   J0104874 -1.000000
    G0191171 M0191TF0 -1.282000   M0191TF1 -1.282000
    G0191171 M0191DK0 -44.900000   M0191DK1 -44.900000
    G0191171 M0191DK4 -44.900000   M0191DP3 -12.800000
    G0191171 M0191DP4 -12.800000   M0191RN2 -119.200000
    G0191171 M0191MN2 -107.400000   M0191FN0 -3455.000000
    G0191171 M0191RP0 -230.800000   M0191RP1 -230.800000
    G0191171 M0191AR1 -0.620000   M0191SB0 -0.780000
    G0191181 S0111761 1.000000   J0104874 -1.000000
    G0191181 M0191TF0 -1.282000   M0191TF1 -1.282000
    G0191181 M0191DK0 -44.900000   M0191DK1 -44.900000
    G0191181 M0191DK4 -44.900000   M0191DP3 -16.700000
    G0191181 M0191DP4 -16.700000   M0191RN2 -123.100000
    G0191181 M0191MN2 -110.300000   M0191FN0 -3455.000000
    G0191181 M0191RP0 -256.400000   M0191RP1 -256.400000
    G0191181 M0191AR1 -0.650000   M0191SB0 -0.780000
    G0191191 S0111483 1.000000   J0104874 -1.000000
    G0191191 M0191TF0 -1.600000   M0191TF1 -1.600000
    G0191191 M0191DK0 -160.000000   M0191DK1 -160.000000
    G0191191 M0191DK4 -160.000000   M0191DP3 -160.000000
    G0191191 M0191DP4 -160.000000   M0191RN2 -148.000000
    G0191191 M0191MN2 -144.000000   M0191FN0 -14800.000000
    G0191191 M0191RP0 -1696.000000   M0191RP1 -1696.000000
    G0191191 M0191KR1 -40.000000   M0191SB0 -0.625000
    G0191211 S0111493 1.000000   J0104874 -1.000000
    G0191211 M0191TF0 -1.538000   M0191TF1 -1.538000
    G0191211 M0191DK0 -153.800000   M0191DK1 -153.800000
    G0191211 M0191DK4 -153.800000   M0191DP3 -153.800000
    G0191211 M0191DP4 -153.800000   M0191RN2 -123.000000
    G0191211 M0191MN2 -120.000000   M0191FN0 -12304.000000
    G0191211 M0191RP0 -1153.500000   M0191RP1 -1153.500000
    G0191211 M0191KR1 -3.000000   M0191SB0 -0.650000
    G0191221 S0111421 1.000000   J0104874 -1.000000
    G0191221 M0191TF0 -1.595000   M0191TF1 -1.595000
    G0191221 M0191DK0 -159.500000   M0191DK1 -159.500000
    G0191221 M0191DK4 -159.500000   M0191DP3 -159.500000
    G0191221 M0191DP4 -159.500000   M0191RN2 -121.200000
    G0191221 M0191MN2 -116.400000   M0191FN0 -12122.000000
    G0191221 M0191RP0 -1754.500000   M0191RP1 -1754.500000
    G0191221 M0191KR1 -40.000000   M0191SB0 -0.627000
    G0191241 S0111431 1.000000   J0104874 -1.000000
    G0191241 M0191TF0 -1.422000   M0191TF1 -1.422000
    G0191241 M0191DK0 -135.100000   M0191DK1 -135.100000
    G0191241 M0191DK4 -135.100000   M0191DP3 -92.500000
    G0191241 M0191DP4 -92.500000   M0191RN2 -85.300000
    G0191241 M0191MN2 -83.900000   M0191FN0 -8105.400000
    G0191241 M0191RP0 -455.000000   M0191RP1 -455.000000
    G0191241 M0191AR1 -0.050000   M0191SB0 -0.703000
    G0191291 S0111461 1.000000   J0104874 -1.000000
    G0191291 M0191TF0 -1.595000   M0191TF1 -1.595000
    G0191291 M0191DK0 -159.500000   M0191DK1 -159.500000
    G0191291 M0191DK4 -159.500000   M0191DP3 -159.500000
    G0191291 M0191DP4 -159.500000   M0191RN2 -121.200000
    G0191291 M0191MN2 -116.400000   M0191FN0 -12122.000000
    G0191291 M0191RP0 -1754.200000   M0191RP1 -1754.200000
    G0191291 M0191KR1 -40.000000   M0191SB0 -0.627000
    G0191301 S0111755 1.000000   J0104874 -1.000000
    G0191301 M0191TF0 -1.282000   M0191TF1 -1.282000
    G0191301 M0191DK0 -44.900000   M0191DK1 -44.900000
    G0191301 M0191DK4 -44.900000   M0191DP3 -16.700000
    G0191301 M0191DP4 -16.700000   M0191RN2 -120.500000
    G0191301 M0191MN2 -107.700000   M0191FN0 -3455.000000
    G0191301 M0191RP0 -256.400000   M0191RP1 -256.400000
    G0191301 M0191AR1 -0.650000   M0191SB0 -0.780000
    G0191331 S0111681 1.000000   J0104874 -1.000000
    G0191331 M0191TF0 -1.342000   M0191TF1 -1.342000
    G0191331 M0191DK0 -67.100000   M0191DK1 -67.100000
    G0191331 M0191DK4 -67.100000   M0191DP3 -37.500000
    G0191331 M0191DP4 -37.500000   M0191RN2 -121.900000
    G0191331 M0191MN2 -108.000000   M0191FN0 -6307.400000
    G0191331 M0191RP0 -518.000000   M0191RP1 -518.000000
    G0191331 M0191AR1 -0.650000   M0191FC1 -1.000000
    G0191331 M0191SB0 -0.745000
    G0191351 S0111691 1.000000   J0104874 -1.000000
    G0191351 M0191TF0 -1.435000   M0191TF1 -1.435000
    G0191351 M0191DK0 -36.000000   M0191DK1 -36.000000
    G0191351 M0191DK4 -36.000000   M0191DP3 -14.300000
    G0191351 M0191DP4 -14.300000   M0191RN2 -137.000000
    G0191351 M0191MN2 -133.500000   M0191FN0 -3383.000000
    G0191351 M0191RP0 -416.000000   M0191RP1 -416.000000
    G0191351 M0191SB0 -0.697000
    G0191371 S0101137 1.000000   J0104874 -1.000000
    G0191371 M0191TF0 -1.136000   M0191TF1 -1.136000
    G0191371 M0191RN2 -117.000000   M0191MN2 -101.300000
    G0191371 M0191RP0 -68.200000   M0191RP1 -68.200000
    G0191371 M0191AR1 -1.000000   M0191SB0 -0.880000
    G0191431 S0104353 1.000000   J0104874 -1.000000
    G0191431 M0191TF0 -1.340000   M0191TF1 -1.340000
    G0191431 M0191DK0 -134.000000   M0191DK1 -134.000000
    G0191431 M0191DK4 -134.000000   M0191DP3 -134.000000
    G0191431 M0191DP4 -134.000000   M0191RN2 -156.800000
    G0191431 M0191MN2 -135.300000   M0191FN0 -15678.000000
    G0191431 M0191RP0 -536.200000   M0191RP1 -536.200000
    G0191431 M0191KR1 -5.000000   M0191OX1 -1.000000
    G0191431 M0191SB0 -0.746000
    G0191441 S0101356 1.000000   J0104874 -1.000000
    G0191441 M0191TF0 -1.250000   M0191TF1 -1.250000
    G0191441 M0191DK0 -125.000000   M0191DK1 -125.000000
    G0191441 M0191DK4 -125.000000   M0191DP3 -62.500000
    G0191441 M0191DP4 -62.500000   M0191RN2 -140.625000
    G0191441 M0191MN2 -122.500000   M0191FN0 -14062.500000
    G0191441 M0191RP1 -536.200000   M0191RP0 -536.200000
    G0191441 M0191KR1 -10.000000   M0191OX1 -1.000000
    G0191441 M0191ME1 -1.000000   M0191SB0 -0.746000
    G0191451 S0111766 1.000000   J0104874 -1.000000
    G0191451 M0191TF0 -1.219000   M0191TF1 -1.219000
    G0191451 M0191DK0 -34.100000   M0191DK1 -34.100000
    G0191451 M0191DK4 -34.100000   M0191DP3 -12.190000
    G0191451 M0191DP4 -12.190000   M0191RN2 -120.700000
    G0191451 M0191MN2 -110.900000   M0191FN0 -2663.400000
    G0191451 M0191RP0 -439.000000   M0191RP1 -439.000000
    G0191451 M0191AR1 -0.650000   M0191SB0 -0.820000
    G0191461 S0111479 1.000000   J0104874 -1.000000
    G0191461 M0191TF0 -1.388000   M0191TF1 -1.388000
    G0191461 M0191DK0 -99.940000   M0191DK1 -99.940000
    G0191461 M0191DK4 -99.940000   M0191DP3 -62.500000
    G0191461 M0191DP4 -62.500000   M0191RN2 -126.300000
    G0191461 M0191MN2 -112.400000   M0191FN0 -8194.800000
    G0191461 M0191RP0 -485.800000   M0191RP1 -485.800000
    G0191461 M0191AR1 -0.500000   M0191SB0 -0.720000
    G0191911 M0191SB0 -0.001000   REVENUE1 -0.040500
    G0191921 M0191SB0 0.001000   REVENUE1 0.040500
    G0191971 M0191DK0 1.000000   M0191FN0 82.500000
    G0191981 M0191TF0 1.000000   M0191DK1 45.000000
    G0191981 M0191DK4 65.000000   M0191DP3 20.000000
    G0191981 M0191DP4 40.000000   M0191RN2 92.500000
    G0191981 M0191MN2 83.500000   M0191RP0 565.000000
    G0191981 M0191RP1 435.000000
    G0191991 S0104874 -1.000000   J0104874 1.000000
    G0191991 M0191AR1 0.620000   M0191KR1 12.000000
    G0191991 M0191FC1 0.600000   M0191OX1 0.100000
    G0191991 M0191ME1 0.060000   M0191TF1 1.300000
    G0191991 M0191SB0 0.740000
    G0198021 S0111411 1.000000   J0104641 -1.000000
    G0198021 M0198TF0 -1.754000   M0198DK0 -175.400000
    G0198021 M0198DK1 -175.400000   M0198RN0 -177.200000
    G0198021 M0198MN0 -169.300000   M0198FN0 -16838.400000
    G0198021 M0198RP0 -5963.600000   M0198RP1 -5963.600000
    G0198021 M0198KR1 -160.000000
    G0198031 S0111412 1.000000   J0104641 -1.000000
    G0198031 M0198TF0 -1.597000   M0198DK0 -159.700000
    G0198031 M0198DK1 -159.700000   M0198RN0 -153.300000
    G0198031 M0198MN0 -150.100000   M0198FN0 -14053.600000
    G0198031 M0198RP0 -1558.000000   M0198RP1 -1558.000000
    G0198031 M0198KR1 -40.000000
    G0198051 S0111100 1.000000   J0104641 -1.000000
    G0198051 M0198TF0 -1.515000   M0198DK0 -148.500000
    G0198051 M0198DK1 -148.500000   M0198RN0 -121.200000
    G0198051 M0198MN0 -121.200000   M0198FN0 -9947.500000
    G0198051 M0198RP0 -928.700000   M0198RP1 -928.700000
    G0198051 M0198AR1 -0.020000
    G0198061 S0110295 1.000000   J0104641 -1.000000
    G0198061 M0198TF0 -1.695000   M0198DK0 -169.500000
    G0198061 M0198DK1 -169.500000   M0198RN0 -172.000000
    G0198061 M0198MN0 -160.200000   M0198FN0 -16441.500000
    G0198061 M0198RP0 -4237.500000   M0198RP1 -4237.500000
    G0198061 M0198KR1 -160.000000
    G0198101 S0111215 1.000000   J0104641 -1.000000
    G0198101 M0198TF0 -1.351000   M0198DK0 -6.750000
    G0198101 M0198DK1 -6.750000   M0198RN0 -83.800000
    G0198101 M0198MN0 -78.400000   M0198FN0 -378.300000
    G0198101 M0198RP0 -108.100000   M0198RP1 -108.100000
    G0198101 M0198AR1 -0.050000
    G0198111 S0111821 1.000000   J0104641 -1.000000
    G0198111 M0198TF0 -1.149000   M0198DK0 -39.100000
    G0198111 M0198DK1 -39.100000   M0198RN0 -128.700000
    G0198111 M0198MN0 -114.900000   M0198FN0 -4258.200000
    G0198111 M0198RP0 -46.000000   M0198RP1 -46.000000
    G0198111 M0198AR1 -1.000000
    G0198121 S0111831 1.000000   J0104641 -1.000000
    G0198121 M0198TF0 -1.143000   M0198RN0 -136.000000
    G0198121 M0198MN0 -118.900000   M0198RP0 -34.300000
    G0198121 M0198RP1 -34.300000   M0198AR1 -1.000000
    G0198141 S0111413 1.000000   J0104641 -1.000000
    G0198141 M0198TF0 -1.754000   M0198DK0 -175.400000
    G0198141 M0198DK1 -175.400000   M0198RN0 -174.500000
    G0198141 M0198MN0 -165.800000   M0198FN0 -16487.600000
    G0198141 M0198RP0 -5963.600000   M0198RP1 -5963.600000
    G0198141 M0198KR1 -160.000000
    G0198161 S0111822 1.000000   J0104641 -1.000000
    G0198161 M0198TF0 -1.149000   M0198DK0 -45.960000
    G0198161 M0198DK1 -45.960000   M0198RN0 -117.200000
    G0198161 M0198MN0 -105.700000   M0198FN0 -3956.500000
    G0198161 M0198RP0 -46.000000   M0198RP1 -46.000000
    G0198161 M0198AR1 -0.700000
    G0198171 S0111751 1.000000   J0104641 -1.000000
    G0198171 M0198TF0 -1.282000   M0198DK0 -44.900000
    G0198171 M0198DK1 -44.900000   M0198RN0 -125.100000
    G0198171 M0198MN0 -113.200000   M0198FN0 -3455.000000
    G0198171 M0198RP0 -230.800000   M0198RP1 -230.800000
    G0198171 M0198AR1 -0.620000
    G0198181 S0111761 1.000000   J0104641 -1.000000
    G0198181 M0198TF0 -1.282000   M0198DK0 -44.900000
    G0198181 M0198DK1 -44.900000   M0198RN0 -128.300000
    G0198181 M0198MN0 -116.400000   M0198FN0 -3455.000000
    G0198181 M0198RP0 -256.400000   M0198RP1 -256.400000
    G0198181 M0198AR1 -0.650000
    G0198191 S0111483 1.000000   J0104641 -1.000000
    G0198191 M0198TF0 -1.600000   M0198DK0 -160.000000
    G0198191 M0198DK1 -160.000000   M0198RN0 -160.000000
    G0198191 M0198MN0 -156.000000   M0198FN0 -14800.000000
    G0198191 M0198RP0 -1696.000000   M0198RP1 -1696.000000
    G0198191 M0198KR1 -40.000000
    G0198211 S0111493 1.000000   J0104641 -1.000000
    G0198211 M0198TF0 -1.538000   M0198DK0 -153.800000
    G0198211 M0198DK1 -153.800000   M0198RN0 -136.900000
    G0198211 M0198MN0 -133.800000   M0198FN0 -12304.000000
    G0198211 M0198RP0 -1153.500000   M0198RP1 -1153.500000
    G0198221 S0111421 1.000000   J0104641 -1.000000
    G0198221 M0198TF0 -1.595000   M0198DK0 -159.500000
    G0198221 M0198DK1 -159.500000   M0198RN0 -140.400000
    G0198221 M0198MN0 -135.600000   M0198FN0 -12122.000000
    G0198221 M0198RP0 -1754.500000   M0198RP1 -1754.500000
    G0198221 M0198KR1 -40.000000
    G0198231 S0111711 1.000000   J0104641 -1.000000
    G0198231 M0198TF0 -1.493000   M0198DK0 -146.300000
    G0198231 M0198DK1 -146.300000   M0198RN0 -119.400000
    G0198231 M0198MN0 -115.000000   M0198FN0 -10242.000000
    G0198231 M0198RP0 -627.100000   M0198RP1 -627.100000
    G0198231 M0198AR1 -0.120000
    G0198281 S0111716 1.000000   J0104641 -1.000000
    G0198281 M0198TF0 -1.346000   M0198DK0 -74.000000
    G0198281 M0198DK1 -74.000000   M0198RN0 -123.800000
    G0198281 M0198MN0 -115.800000   M0198FN0 -5182.100000
    G0198281 M0198RP0 -363.400000   M0198RP1 -363.400000
    G0198281 M0198AR1 -0.520000
    G0198291 S0111461 1.000000   J0104641 -1.000000
    G0198291 M0198TF0 -1.595000   M0198DK0 -159.500000
    G0198291 M0198DK1 -159.500000   M0198RN0 -140.400000
    G0198291 M0198MN0 -135.600000   M0198FN0 -12122.000000
    G0198291 M0198RP0 -1754.500000   M0198RP1 -1754.500000
    G0198291 M0198KR1 -40.000000
    G0198301 S0111755 1.000000   J0104641 -1.000000
    G0198301 M0198TF0 -1.282000   M0198DK0 -44.900000
    G0198301 M0198DK1 -44.900000   M0198RN0 -125.800000
    G0198301 M0198MN0 -113.800000   M0198FN0 -3455.000000
    G0198301 M0198RP0 -256.400000   M0198RP1 -256.400000
    G0198301 M0198AR1 -0.650000
    G0198331 S0111681 1.000000   J0104641 -1.000000
    G0198331 M0198TF0 -1.342000   M0198DK0 -67.100000
    G0198331 M0198DK1 -67.100000   M0198RN0 -127.600000
    G0198331 M0198MN0 -113.000000   M0198FN0 -6307.400000
    G0198331 M0198RP0 -518.000000   M0198RP1 -518.000000
    G0198331 M0198AR1 -0.650000
    G0198351 S0111691 1.000000   J0104641 -1.000000
    G0198351 M0198TF0 -1.435000   M0198DK0 -36.000000
    G0198351 M0198DK1 -36.000000   M0198RN0 -142.100000
    G0198351 M0198MN0 -139.200000   M0198FN0 -3383.000000
    G0198351 M0198RP0 -416.000000   M0198RP1 -416.000000
    G0198371 S0101137 1.000000   J0104641 -1.000000
    G0198371 M0198TF0 -1.136000   M0198RN0 -119.800000
    G0198371 M0198MN0 -103.900000   M0198RP0 -68.200000
    G0198371 M0198RP1 -68.200000   M0198AR1 -1.000000
    G0198431 S0104353 1.000000   J0104641 -1.000000
    G0198431 M0198TF0 -1.340000   M0198DK0 -134.000000
    G0198431 M0198DK1 -134.000000   M0198RN0 -156.800000
    G0198431 M0198MN0 -135.300000   M0198FN0 -15678.000000
    G0198431 M0198RP0 -536.200000   M0198RP1 -536.200000
    G0198431 M0198KR1 -5.000000   M0198OX1 -1.000000
    G0198441 S0101356 1.000000   J0104641 -1.000000
    G0198441 M0198TF0 -1.250000   M0198RN0 -140.625000
    G0198441 M0198MN0 -122.500000   M0198FN0 -14062.500000
    G0198441 M0198DK0 -125.000000   M0198DK1 -125.000000
    G0198441 M0198RP0 -1750.000000   M0198RP1 -1750.000000
    G0198441 M0198KR1 -10.000000   M0198OX1 -1.000000
    G0198441 M0198ME1 -1.000000
    G0198451 S0111766 1.000000   J0104641 -1.000000
    G0198451 M0198TF0 -1.219000   M0198DK0 -34.100000
    G0198451 M0198DK1 -34.100000   M0198RN0 -124.300000
    G0198451 M0198MN0 -114.600000   M0198FN0 -2663.400000
    G0198451 M0198RP0 -439.000000   M0198RP1 -439.000000
    G0198451 M0198AR1 -0.650000
    G0198771 S0102021 1.000000   J0104641 -1.000000
    G0198771 M0198EF0 -394.200000
    G0198781 S0102031 1.000000   J0104641 -1.000000
    G0198781 M0198MF0 -394.200000
    G0198811 M0198RN0 9.760000   M0198MN0 9.760000
    G0198811 M0198EF0 -1.000000   M0198P29 4.000000
    G0198811 M0198PM9 2.500000   M0198PLE -1.000000
    G0198821 M0198RN0 12.130000   M0198MN0 12.130000
    G0198821 M0198EF0 -1.000000   M0198P19 6.666670
    G0198821 M0198PM9 2.500000   M0198PLE -1.000000
    G0198831 M0198FN0 -629.000000   M0198EF0 -1.000000
    G0198831 M0198MF0 1.000000   M0198PM9 2.500000
    G0198971 M0198DK1 1.000000   M0198FN0 91.000000
    G0198981 M0198TF0 1.000000   M0198DK0 45.000000
    G0198981 M0198RN0 99.000000   M0198MN0 89.000000
    G0198981 M0198RP0 600.000000   M0198RP1 350.000000
    G0198981 M0198P19 -1.000000   M0198P29 -1.000000
    G0198981 M0198PM9 -1.000000   M0198EF0 0.400000
    G0198991 S0104641 -1.000000   J0104641 1.000000
    G0198991 M0198AR1 0.620000   M0198KR1 12.000000
    G0198991 M0198OX1 0.100000   M0198ME1 0.060000
    G0198022 S0111411 1.000000   J0104643 -1.000000
    G0198022 M0198TF2 -1.754000   M0198TF3 -1.754000
    G0198022 M0198DK2 -175.400000   M0198DK3 -175.400000
    G0198022 M0198DK4 -175.400000   M0198DP3 -175.400000
    G0198022 M0198DP4 -175.400000   M0198RN2 -168.400000
    G0198022 M0198MN2 -160.500000   M0198FN2 -16838.400000
    G0198022 M0198RP2 -5963.600000   M0198RP3 -5963.600000
    G0198022 M0198KR2 -160.000000   M0198SB2 -0.570000
    G0198042 S0111851 1.000000   J0104643 -1.000000
    G0198042 M0198TF2 -1.149000   M0198TF3 -1.149000
    G0198042 M0198RN2 -126.400000   M0198RP2 -34.500000
    G0198042 M0198RP3 -34.500000   M0198MN2 -110.300000
    G0198042 M0198AR2 -0.980000   M0198SB2 -0.870000
    G0198112 S0111821 1.000000   J0104643 -1.000000
    G0198112 M0198TF2 -1.149000   M0198TF3 -1.149000
    G0198112 M0198DK2 -39.100000   M0198DK3 -39.100000
    G0198112 M0198DK4 -39.100000   M0198RN2 -125.200000
    G0198112 M0198MN2 -111.500000   M0198FN2 -4258.200000
    G0198112 M0198RP2 -46.000000   M0198RP3 -46.000000
    G0198112 M0198AR2 -1.000000   M0198SB2 -0.870000
    G0198142 S0111413 1.000000   J0104643 -1.000000
    G0198142 M0198TF2 -1.754000   M0198TF3 -1.754000
    G0198142 M0198DK2 -175.400000   M0198DK3 -175.400000
    G0198142 M0198DK4 -175.400000   M0198DP4 -175.400000
    G0198142 M0198DP3 -175.400000   M0198RN2 -164.900000
    G0198142 M0198MN2 -156.100000   M0198FN2 -16487.600000
    G0198142 M0198RP2 -5963.600000   M0198RP3 -5963.600000
    G0198142 M0198KR2 -160.000000   M0198SB2 -0.570000
    G0198172 S0111751 1.000000   J0104643 -1.000000
    G0198172 M0198TF2 -1.282000   M0198TF3 -1.282000
    G0198172 M0198DK2 -44.900000   M0198DK3 -44.900000
    G0198172 M0198DK4 -44.900000   M0198DP3 -12.800000
    G0198172 M0198DP4 -12.800000   M0198RN2 -119.200000
    G0198172 M0198MN2 -107.400000   M0198FN2 -3455.000000
    G0198172 M0198RP2 -230.800000   M0198RP3 -230.800000
    G0198172 M0198AR2 -0.620000   M0198SB2 -0.780000
    G0198182 S0111761 1.000000   J0104643 -1.000000
    G0198182 M0198TF2 -1.282000   M0198TF3 -1.282000
    G0198182 M0198DK2 -44.900000   M0198DK3 -44.900000
    G0198182 M0198DK4 -44.900000   M0198DP3 -16.700000
    G0198182 M0198DP4 -16.700000   M0198RN2 -123.100000
    G0198182 M0198MN2 -110.300000   M0198FN2 -3455.000000
    G0198182 M0198RP2 -256.400000   M0198RP3 -256.400000
    G0198182 M0198AR2 -0.650000   M0198SB2 -0.780000
    G0198192 S0111483 1.000000   J0104643 -1.000000
    G0198192 M0198TF2 -1.600000   M0198TF3 -1.600000
    G0198192 M0198DK2 -160.000000   M0198DK3 -160.000000
    G0198192 M0198DK4 -160.000000   M0198DP3 -160.000000
    G0198192 M0198DP4 -160.000000   M0198RN2 -148.000000
    G0198192 M0198MN2 -144.000000   M0198FN2 -14800.000000
    G0198192 M0198RP2 -1696.000000   M0198RP3 -1696.000000
    G0198192 M0198KR2 -40.000000   M0198SB2 -0.625000
    G0198212 S0111493 1.000000   J0104643 -1.000000
    G0198212 M0198TF2 -1.538000   M0198TF3 -1.538000
    G0198212 M0198DK2 -153.800000   M0198DK3 -153.800000
    G0198212 M0198DK4 -153.800000   M0198DP3 -153.800000
    G0198212 M0198DP4 -153.800000   M0198RN2 -123.000000
    G0198212 M0198MN2 -120.000000   M0198FN2 -12304.000000
    G0198212 M0198RP2 -1153.500000   M0198RP3 -1153.500000
    G0198212 M0198KR2 -3.000000   M0198SB2 -0.650000
    G0198222 S0111421 1.000000   J0104643 -1.000000
    G0198222 M0198TF2 -1.595000   M0198TF3 -1.595000
    G0198222 M0198DK2 -159.500000   M0198DK3 -159.500000
    G0198222 M0198DK4 -159.500000   M0198DP3 -159.500000
    G0198222 M0198DP4 -159.500000   M0198RN2 -121.200000
    G0198222 M0198MN2 -116.400000   M0198FN2 -12122.000000
    G0198222 M0198RP2 -1754.500000   M0198RP3 -1754.500000
    G0198222 M0198KR2 -40.000000   M0198SB2 -0.627000
    G0198292 S0111461 1.000000   J0104643 -1.000000
    G0198292 M0198TF2 -1.595000   M0198TF3 -1.595000
    G0198292 M0198DK2 -159.500000   M0198DK3 -159.500000
    G0198292 M0198DK4 -159.500000   M0198DP3 -159.500000
    G0198292 M0198DP4 -159.500000   M0198RN2 -121.200000
    G0198292 M0198MN2 -116.400000   M0198FN2 -12122.000000
    G0198292 M0198RP2 -1754.200000   M0198RP3 -1754.200000
    G0198292 M0198KR2 -40.000000   M0198SB2 -0.672000
    G0198302 S0111755 1.000000   J0104643 -1.000000
    G0198302 M0198TF2 -1.282000   M0198TF3 -1.282000
    G0198302 M0198DK2 -44.900000   M0198DK3 -44.900000
    G0198302 M0198DK4 -44.900000   M0198DP3 -16.700000
    G0198302 M0198DP4 -16.700000   M0198RN2 -120.500000
    G0198302 M0198MN2 -107.700000   M0198FN2 -3455.000000
    G0198302 M0198RP2 -256.400000   M0198RP3 -256.400000
    G0198302 M0198AR2 -0.650000   M0198SB2 -0.780000
    G0198332 S0111681 1.000000   J0104643 -1.000000
    G0198332 M0198TF2 -1.342000   M0198TF3 -1.342000
    G0198332 M0198DK2 -67.100000   M0198DK3 -67.100000
    G0198332 M0198DK4 -67.100000   M0198DP3 -37.500000
    G0198332 M0198DP4 -37.500000   M0198RN2 -121.900000
    G0198332 M0198MN2 -108.000000   M0198FN2 -6307.400000
    G0198332 M0198RP2 -518.000000   M0198RP3 -518.000000
    G0198332 M0198AR2 -0.650000   M0198FC2 -1.000000
    G0198332 M0198SB2 -0.745000
    G0198352 S0111691 1.000000   J0104643 -1.000000
    G0198352 M0198TF2 -1.435000   M0198TF3 -1.435000
    G0198352 M0198DK2 -36.000000   M0198DK3 -36.000000
    G0198352 M0198DK4 -36.000000   M0198DP3 -14.300000
    G0198352 M0198DP4 -14.300000   M0198RN2 -137.000000
    G0198352 M0198MN2 -133.500000   M0198FN2 -3383.000000
    G0198352 M0198RP2 -416.000000   M0198RP3 -416.000000
    G0198352 M0198SB2 -0.697000
    G0198372 S0101137 1.000000   J0104643 -1.000000
    G0198372 M0198TF2 -1.136000   M0198TF3 -1.136000
    G0198372 M0198RN2 -117.000000   M0198MN2 -101.300000
    G0198372 M0198RP2 -68.200000   M0198RP3 -68.200000
    G0198372 M0198AR2 -1.000000   M0198SB2 -0.880000
    G0198432 S0104353 1.000000   J0104643 -1.000000
    G0198432 M0198TF2 -1.340000   M0198TF3 -1.340000
    G0198432 M0198DK2 -134.000000   M0198DK3 -134.000000
    G0198432 M0198DK4 -134.000000   M0198DP3 -134.000000
    G0198432 M0198DP4 -134.000000   M0198RN2 -156.800000
    G0198432 M0198MN2 -135.300000   M0198FN2 -15678.000000
    G0198432 M0198RP2 -536.200000   M0198RP3 -536.200000
    G0198432 M0198KR2 -5.000000   M0198OX2 -1.000000
    G0198432 M0198SB2 -0.746000
    G0198442 S0101356 1.000000   J0104643 -1.000000
    G0198442 M0198TF2 -1.250000   M0198TF3 -1.250000
    G0198442 M0198DK2 -125.000000   M0198DK3 -125.000000
    G0198442 M0198DK4 -125.000000   M0198DP3 -62.500000
    G0198442 M0198DP4 -62.500000   M0198RN2 -140.625000
    G0198442 M0198MN2 -122.500000   M0198FN2 -14062.500000
    G0198442 M0198RP2 -1750.000000   M0198RP3 -1750.000000
    G0198442 M0198KR2 -10.000000   M0198ME2 -1.000000
    G0198442 M0198OX2 -1.000000   M0198SB2 -0.800000
    G0198452 S0111766 1.000000   J0104643 -1.000000
    G0198452 M0198TF2 -1.219000   M0198TF3 -1.219000
    G0198452 M0198RN2 -120.700000   M0198MN2 -110.900000
    G0198452 M0198FN2 -2663.400000   M0198DK2 -34.100000
    G0198452 M0198DK3 -34.100000   M0198DK4 -34.100000
    G0198452 M0198DP3 -12.190000   M0198DP4 -12.190000
    G0198452 M0198RP2 -439.000000   M0198RP3 -439.000000
    G0198452 M0198AR2 -0.650000   M0198SB2 -0.794000
    G0198772 S0102021 1.000000   J0104643 -1.000000
    G0198772 M0198EF2 -394.200000
    G0198782 S0102031 1.000000   J0104643 -1.000000
    G0198782 M0198MF2 -394.200000
    G0198842 M0198EF2 1.000000   M0198RN2 -12.130000
    G0198842 M0198MN2 -12.130000   M0198P39 1.000000
    G0198852 M0198MF2 1.000000   M0198RN2 -12.130000
    G0198852 M0198MN2 -12.130000   M0198P39 1.000000
    G0198852 M0198FN2 -629.000000
    G0198912 M0198SB2 -0.001000   REVENUE1 -0.037500
    G0198922 M0198SB2 0.001000   REVENUE1 0.037500
    G0198972 M0198DK2 1.000000   M0198FN2 90.000000
    G0198982 M0198TF2 1.000000   M0198RN2 99.000000
    G0198982 M0198MN2 89.000000   M0198DK3 45.000000
    G0198982 M0198DK4 65.000000   M0198DP3 20.000000
    G0198982 M0198DP4 40.000000   M0198RP2 565.000000
    G0198982 M0198RP3 435.000000   M0198P39 -0.150000
    G0198992 S0104643 -1.000000   J0104643 1.000000
    G0198992 M0198AR2 0.620000   M0198KR2 12.000000
    G0198992 M0198ME2 0.060000   M0198FC2 0.600000
    G0198992 M0198OX2 0.100000   M0198TF3 1.300000
    G0198992 M0198SB2 0.750000
    G01VB011 S0111100 1.000000   J0104741 -1.000000
    G01VB011 M01VBTF0 -1.515000   M01VBDE0 -1.515000
    G01VB021 S0111300 1.000000   J0104741 -1.000000
    G01VB021 M01VBTF0 -1.391000   M01VBDE0 -0.278000
    G01VB031 S0111455 1.000000   J0104741 -1.000000
    G01VB031 M01VBTF0 -1.342000
    G01VB041 S0111489 1.000000   J0104741 -1.000000
    G01VB041 M01VBTF0 -1.445000   M01VBDE0 -1.445000
    G01VB051 S0111881 1.000000   J0104741 -1.000000
    G01VB051 M01VBTF0 -1.480000   M01VBDE0 -1.480000
    G01VB061 S0111891 1.000000   J0104741 -1.000000
    G01VB061 M01VBTF0 -1.431000   M01VBDE0 -0.930000
    G01VB071 S0111941 1.000000   J0104741 -1.000000
    G01VB071 M01VBTF0 -1.388000   M01VBDE0 -0.555000
    G01VB081 S0110271 1.000000   J0104741 -1.000000
    G01VB081 M01VBTF0 -1.820000   M01VBDE0 -1.820000
    G01VB091 S0101061 1.000000   J0104741 -1.000000
    G01VB091 M01VBTF0 -1.459000   M01VBDE0 -1.386000
    G01VB101 S0111471 1.000000   J0104741 -1.000000
    G01VB101 M01VBTF0 -1.501000   M01VBDE0 -1.501000
    G01VB111 S0111411 1.000000   J0104741 -1.000000
    G01VB111 M01VBTF0 -1.754000   M01VBDE0 -1.754000
    G01VB121 S0111561 1.000000   J0104741 -1.000000
    G01VB121 M01VBTF0 -1.388000   M01VBDE0 -0.486000
    G01VB131 S0111445 1.000000   M01VBTF0 -1.370000
    G01VB131 M01VBDE0 -0.959000   J0104741 -1.000000
    G01VB141 S0111431 1.000000   J0104741 -1.000000
    G01VB141 M01VBTF0 -1.429000   M01VBDE0 -1.429000
    G01VB151 S0111441 1.000000   J0104741 -1.000000
    G01VB151 M01VBTF0 -1.351000   M01VBDE0 -1.216000
    G01VB161 S0111461 1.000000   J0104741 -1.000000
    G01VB161 M01VBTF0 -1.449000   M01VBDE0 -1.449000
    G01VB171 S0111217 1.000000   J0104741 -1.000000
    G01VB171 M01VBTF0 -1.351000   M01VBDE0 -0.540000
    G01VB181 S0111211 1.000000   J0104741 -1.000000
    G01VB181 M01VBTF0 -1.351000   M01VBDE0 -0.473000
    G01VB191 S0111454 1.000000   J0104741 -1.000000
    G01VB191 M01VBTF0 -1.299000
    G01VB201 S0111421 1.000000   M01VBTF0 -1.595000
    G01VB201 M01VBDE0 -1.595000   J0104741 -1.000000
    G01VB211 J0104741 -1.000000   S0104122 1.000000
    G01VB211 M01VBTF0 -1.595000   M01VBDE0 -1.595000
    G01VB221 S0104123 1.000000   J0104741 -1.000000
    G01VB221 M01VBTF0 -1.506000   M01VBDE0 -1.506000
    G01VB231 S0111479 1.000000   J0104741 -1.000000
    G01VB231 M01VBTF0 -1.388000   M01VBDE0 -1.138000
    G01VB981 M01VBDE0 0.500000   M01VBTF0 1.000000
    G01VB991 S0104741 -1.000000   J0104741 1.000000
    G01PB021 J0104481 -1.000000   S0110271 1.000000
    G01PB021 M01PBSR1 -0.508000   M01PBSR2 -0.508000
    G01PB021 M01PBHE1 -50.300000   M01PBHE2 -50.300000
    G01PB031 J0104481 -1.000000   S0111411 1.000000
    G01PB031 M01PBSR1 -0.577000   M01PBSR2 -0.577000
    G01PB031 M01PBHE1 -49.500000   M01PBHE2 -49.500000
    G01PB051 S0111413 1.000000   J0104481 -1.000000
    G01PB051 M01PBSR1 -0.584000   M01PBSR2 -0.584000
    G01PB051 M01PBHE1 -49.500000   M01PBHE2 -49.500000
    G01PB061 S0110295 1.000000   J0104481 -1.000000
    G01PB061 M01PBSR1 -0.587000   M01PBSR2 -0.587000
    G01PB061 M01PBHE2 -48.180000   M01PBHE1 -48.180000
    G01PB071 S0111414 1.000000   J0104481 -1.000000
    G01PB071 M01PBSR1 -0.563000   M01PBSR2 -0.563000
    G01PB071 M01PBHE1 -49.400000   M01PBHE2 -49.400000
    G01PB991 J0104481 1.000000   S0104481 -1.000000
    G01PB991 M01PBSR1 0.560000   M01PBSR2 0.525000
    G01PB991 M01PBHE1 49.000000   M01PBHE2 50.100000
    G01FK011 S0113125 1.000000   J0105431 -1.000000
    G01FK011 M01FKVI1 -54.000000   M01FKST1 -0.310000
    G01FK021 S0113225 1.000000   J0105431 -1.000000
    G01FK021 M01FKVI1 -47.000000   M01FKST1 -0.370000
    G01FK031 S0113325 1.000000   J0105431 -1.000000
    G01FK031 M01FKVI1 -41.500000   M01FKST1 -0.490000
    G01FK041 S0113112 1.000000   J0105431 -1.000000
    G01FK041 M01FKVI1 -52.000000   M01FKST1 -1.800000
    G01FK051 S0113212 1.000000   J0105431 -1.000000
    G01FK051 M01FKVI1 -45.000000   M01FKST1 -1.940000
    G01FK061 S0113312 1.000000   J0105431 -1.000000
    G01FK061 M01FKVI1 -38.500000   M01FKST1 -2.070000
    G01FK071 S0117800 1.000000   J0105431 -1.000000
    G01FK071 M01FKVI1 -20.500000   M01FKST1 -3.000000
    G01FK081 S0113344 1.000000   J0105431 -1.000000
    G01FK081 M01FKVI1 -27.500000   M01FKST1 -2.600000
    G01FK091 S0117531 1.000000   J0105431 -1.000000
    G01FK091 M01FKVI1 -41.000000   M01FKST1 -3.000000
    G01FK101 S0117541 1.000000   J0105431 -1.000000
    G01FK101 M01FKVI1 -21.000000   M01FKST1 -3.400000
    G01FK111 S0119411 1.000000   J0105431 -1.000000
    G01FK111 M01FKVI1 -29.400000   M01FKST1 -1.300000
    G01FK121 S0117111 1.000000   J0105431 -1.000000
    G01FK121 M01FKVI1 -36.300000   M01FKST1 -3.000000
    G01FK131 S0117825 1.000000   J0105431 -1.000000
    G01FK131 M01FKVI1 -25.000000   M01FKST1 -1.200000
    G01FK141 S0112661 1.000000   J0105431 -1.000000
    G01FK141 M01FKVI1 -64.000000   M01FKST1 -1.800000
    G01FK151 S0113342 1.000000   J0105431 -1.000000
    G01FK151 M01FKVI1 -31.200000   M01FKST1 -2.600000
    G01FK161 S0117214 1.000000   J0105431 -1.000000
    G01FK161 M01FKVI1 -36.200000   M01FKST1 -1.200000
    G01FK171 S0118111 1.000000   J0105431 -1.000000
    G01FK171 M01FKVI1 -17.200000   M01FKST1 -4.000000
    G01FK181 S0118321 1.000000   J0105431 -1.000000
    G01FK181 M01FKVI1 -19.800000   M01FKST1 -1.010000
    G01FK191 S0117551 1.000000   J0105431 -1.000000
    G01FK191 M01FKVI1 -19.600000   M01FKST1 -3.700000
    G01FK201 S0117251 1.000000   J0105431 -1.000000
    G01FK201 M01FKVI1 -42.000000   M01FKST1 -0.540000
    G01FK211 S0118311 1.000000   J0105431 -1.000000
    G01FK211 M01FKVI1 -15.800000   M01FKST1 -2.900000
    G01FK221 S0117114 1.000000   J0105431 -1.000000
    G01FK221 M01FKVI1 -30.900000   M01FKST1 -3.900000
    G01FK231 S0117115 1.000000   J0105431 -1.000000
    G01FK231 M01FKVI1 -38.500000   M01FKST1 -0.900000
    G01FK241 S0117331 1.000000   J0105431 -1.000000
    G01FK241 M01FKVI1 -52.600000   M01FKST1 -0.550000
    G01FK251 S0117324 1.000000   J0105431 -1.000000
    G01FK251 M01FKVI1 -48.000000   M01FKST1 -0.500000
    G01FK261 S0117314 1.000000   J0105431 -1.000000
    G01FK261 M01FKVI1 -49.000000   M01FKST1 -0.800000
    G01FK271 S0117918 1.000000   J0105431 -1.000000
    G01FK271 M01FKVI1 -41.500000   M01FKST1 -0.100000
    G01FK281 S0117921 1.000000   J0105431 -1.000000
    G01FK281 M01FKVI1 -52.300000   M01FKST1 -0.500000
    G01FK301 S0112681 1.000000   J0105431 -1.000000
    G01FK301 M01FKST1 -0.190000   M01FKVI1 -69.000000
    G01FK311 S0113512 1.000000   J0105431 -1.000000
    G01FK311 M01FKVI1 -46.000000   M01FKST1 -1.950000
    G01FK321 S0113525 1.000000   J0105431 -1.000000
    G01FK321 M01FKVI1 -41.000000   M01FKST1 -0.600000
    G01FK331 S0101297 1.000000   J0105431 -1.000000
    G01FK331 M01FKVI1 -30.900000   M01FKST1 -2.500000
    G01FK341 S0117528 1.000000   J0105431 -1.000000
    G01FK341 M01FKVI1 -30.500000   M01FKST1 -1.900000
    G01FK351 S0117858 1.000000   J0105431 -1.000000
    G01FK351 M01FKVI1 -18.500000   M01FKST1 -3.240000
    G01FK361 S0112911 1.000000   J0105431 -1.000000
    G01FK361 M01FKVI1 -56.000000   M01FKST1 -2.200000
    G01FK371 S0113343 1.000000   J0105431 -1.000000
    G01FK371 M01FKVI1 -25.900000   M01FKST1 -2.600000
    G01FK381 S0113345 1.000000   J0105431 -1.000000
    G01FK381 M01FKVI1 -35.000000   M01FKST1 -0.600000
    G01FK391 S0117836 1.000000   J0105431 -1.000000
    G01FK391 M01FKVI1 -20.600000   M01FKST1 -1.200000
    G01FK401 S0113346 1.000000   J0105431 -1.000000
    G01FK401 M01FKVI1 -32.000000   M01FKST1 -0.600000
    G01FK411 S0112951 1.000000   J0105431 -1.000000
    G01FK411 M01FKVI1 -64.000000   M01FKST1 -2.100000
    G01FK991 J0105431 1.000000   S0105431 -1.000000
    G01FK991 M01FKVI1 30.900000   M01FKST1 3.000000
    G01FM011 S0113125 1.000000   J0105421 -1.000000
    G01FM011 M01FMVI1 -54.000000   M01FMVI2 -54.000000
    G01FM011 M01FMST1 -0.310000
    G01FM021 S0113225 1.000000   J0105421 -1.000000
    G01FM021 M01FMVI1 -47.000000   M01FMVI2 -47.000000
    G01FM021 M01FMST1 -0.370000
    G01FM031 S0113325 1.000000   J0105421 -1.000000
    G01FM031 M01FMVI1 -41.500000   M01FMVI2 -41.500000
    G01FM031 M01FMST1 -0.490000
    G01FM041 S0113112 1.000000   J0105421 -1.000000
    G01FM041 M01FMVI1 -52.000000   M01FMVI2 -52.000000
    G01FM041 M01FMST1 -1.800000
    G01FM051 S0113212 1.000000   J0105421 -1.000000
    G01FM051 M01FMVI1 -45.000000   M01FMVI2 -45.000000
    G01FM051 M01FMST1 -1.940000
    G01FM061 S0113312 1.000000   J0105421 -1.000000
    G01FM061 M01FMVI1 -38.500000   M01FMVI2 -38.500000
    G01FM061 M01FMST1 -2.070000
    G01FM071 S0117800 1.000000   J0105421 -1.000000
    G01FM071 M01FMVI1 -20.500000   M01FMVI2 -20.500000
    G01FM071 M01FMST1 -2.920000
    G01FM091 S0117531 1.000000   J0105421 -1.000000
    G01FM091 M01FMVI1 -41.000000   M01FMVI2 -41.000000
    G01FM091 M01FMST1 -3.000000
    G01FM111 S0119411 1.000000   J0105421 -1.000000
    G01FM111 M01FMVI1 -25.000000   M01FMVI2 -25.000000
    G01FM111 M01FMST1 -1.300000
    G01FM131 S0117825 1.000000   J0105421 -1.000000
    G01FM131 M01FMVI1 -25.900000   M01FMVI2 -25.900000
    G01FM131 M01FMST1 -1.200000
    G01FM141 S0112661 1.000000   J0105421 -1.000000
    G01FM141 M01FMVI1 -64.000000   M01FMVI2 -64.000000
    G01FM141 M01FMST1 -1.800000
    G01FM161 S0117214 1.000000   J0105421 -1.000000
    G01FM161 M01FMVI1 -36.200000   M01FMVI2 -36.200000
    G01FM161 M01FMST1 -1.200000
    G01FM171 S0118111 1.000000   J0105421 -1.000000
    G01FM171 M01FMVI1 -17.200000   M01FMVI2 -17.200000
    G01FM171 M01FMST1 -4.000000
    G01FM181 S0118321 1.000000   J0105421 -1.000000
    G01FM181 M01FMVI1 -19.500000   M01FMVI2 -19.500000
    G01FM181 M01FMST1 -1.010000
    G01FM201 S0117251 1.000000   J0105421 -1.000000
    G01FM201 M01FMVI1 -42.000000   M01FMVI2 -42.000000
    G01FM201 M01FMST1 -0.540000
    G01FM211 S0118311 1.000000   J0105421 -1.000000
    G01FM211 M01FMST1 -2.900000   M01FMVI1 -15.800000
    G01FM211 M01FMVI2 -15.800000
    G01FM231 S0117115 1.000000   J0105421 -1.000000
    G01FM231 M01FMVI1 -38.500000   M01FMVI2 -38.500000
    G01FM231 M01FMST1 -0.900000
    G01FM241 S0117331 1.000000   J0105421 -1.000000
    G01FM241 M01FMVI1 -52.600000   M01FMVI2 -52.600000
    G01FM241 M01FMST1 -0.550000
    G01FM251 S0117324 1.000000   J0105421 -1.000000
    G01FM251 M01FMVI1 -50.000000   M01FMVI2 -50.000000
    G01FM251 M01FMST1 -0.500000
    G01FM261 S0117314 1.000000   J0105421 -1.000000
    G01FM261 M01FMVI1 -49.000000   M01FMVI2 -49.000000
    G01FM261 M01FMST1 -0.800000
    G01FM271 S0117918 1.000000   J0105421 -1.000000
    G01FM271 M01FMVI1 -41.500000   M01FMVI2 -41.500000
    G01FM271 M01FMST1 -0.100000
    G01FM281 S0117921 1.000000   J0105421 -1.000000
    G01FM281 M01FMVI1 -52.300000   M01FMVI2 -52.300000
    G01FM281 M01FMST1 -0.500000
    G01FM291 S0117215 1.000000   J0105421 -1.000000
    G01FM291 M01FMVI1 -42.000000   M01FMVI2 -42.000000
    G01FM291 M01FMST1 -0.170000
    G01FM301 S0112681 1.000000   J0105421 -1.000000
    G01FM301 M01FMVI1 -69.000000   M01FMVI2 -69.000000
    G01FM301 M01FMST1 -0.750000
    G01FM311 S0113512 1.000000   J0105421 -1.000000
    G01FM311 M01FMVI1 -46.000000   M01FMVI2 -46.000000
    G01FM311 M01FMST1 -1.950000
    G01FM321 S0113525 1.000000   J0105421 -1.000000
    G01FM321 M01FMVI1 -41.000000   M01FMVI2 -41.000000
    G01FM321 M01FMST1 -0.600000
    G01FM331 S0101297 1.000000   J0105421 -1.000000
    G01FM331 M01FMVI1 -30.900000   M01FMVI2 -30.900000
    G01FM331 M01FMST1 -2.500000
    G01FM341 S0117528 1.000000   J0105421 -1.000000
    G01FM341 M01FMVI1 -30.500000   M01FMVI2 -30.500000
    G01FM341 M01FMST1 -1.900000
    G01FM381 S0113345 1.000000   J0105421 -1.000000
    G01FM381 M01FMVI1 -35.000000   M01FMVI2 -35.000000
    G01FM381 M01FMST1 -0.600000
    G01FM391 S0117836 1.000000   J0105421 -1.000000
    G01FM391 M01FMVI1 -20.600000   M01FMVI2 -20.600000
    G01FM391 M01FMST1 -1.200000
    G01FM401 S0113346 1.000000   J0105421 -1.000000
    G01FM401 M01FMVI1 -32.000000   M01FMVI2 -32.000000
    G01FM401 M01FMST1 -0.600000
    G01FM991 S0105421 -1.000000   J0105421 1.000000
    G01FM991 M01FMVI1 30.500000   M01FMVI2 34.500000
    G01FM991 M01FMST1 1.200000
    G01FS041 S0113112 1.000000   J0105456 -1.000000
    G01FS041 M01FSVI1 -52.000000   M01FSST1 -1.830000
    G01FS031 S0113325 1.000000   J0105456 -1.000000
    G01FS031 M01FSVI1 -42.500000   M01FSST1 -0.490000
    G01FS051 S0113212 1.000000   J0105456 -1.000000
    G01FS051 M01FSVI1 -45.000000   M01FSST1 -1.940000
    G01FS061 S0113312 1.000000   J0105456 -1.000000
    G01FS061 M01FSVI1 -38.500000   M01FSST1 -2.070000
    G01FS071 S0117800 1.000000   J0105456 -1.000000
    G01FS071 M01FSVI1 -20.500000   M01FSST1 -2.920000
    G01FS081 S0113344 1.000000   J0105456 -1.000000
    G01FS081 M01FSVI1 -27.500000   M01FSST1 -2.600000
    G01FS091 S0117531 1.000000   J0105456 -1.000000
    G01FS091 M01FSVI1 -41.000000   M01FSST1 -3.000000
    G01FS101 S0117541 1.000000   J0105456 -1.000000
    G01FS101 M01FSVI1 -21.000000   M01FSST1 -3.400000
    G01FS111 S0119411 1.000000   J0105456 -1.000000
    G01FS111 M01FSVI1 -29.400000   M01FSST1 -1.300000
    G01FS121 S0117111 1.000000   J0105456 -1.000000
    G01FS121 M01FSVI1 -36.300000   M01FSST1 -3.000000
    G01FS131 S0117825 1.000000   J0105456 -1.000000
    G01FS131 M01FSVI1 -25.000000   M01FSST1 -1.200000
    G01FS151 S0113342 1.000000   J0105456 -1.000000
    G01FS151 M01FSVI1 -31.200000   M01FSST1 -2.600000
    G01FS171 S0118111 1.000000   J0105456 -1.000000
    G01FS171 M01FSVI1 -17.200000   M01FSST1 -4.000000
    G01FS191 S0117551 1.000000   J0105456 -1.000000
    G01FS191 M01FSVI1 -19.600000   M01FSST1 -3.700000
    G01FS211 S0118311 1.000000   J0105456 -1.000000
    G01FS211 M01FSVI1 -15.800000   M01FSST1 -2.900000
    G01FS221 S0117114 1.000000   J0105456 -1.000000
    G01FS221 M01FSVI1 -30.900000   M01FSST1 -3.900000
    G01FS231 S0117115 1.000000   J0105456 -1.000000
    G01FS231 M01FSVI1 -38.500000   M01FSST1 -0.900000
    G01FS311 S0113512 1.000000   J0105456 -1.000000
    G01FS311 M01FSVI1 -46.000000   M01FSST1 -1.950000
    G01FS331 S0101297 1.000000   J0105456 -1.000000
    G01FS331 M01FSVI1 -30.900000   M01FSST1 -2.500000
    G01FS341 S0117528 1.000000   J0105456 -1.000000
    G01FS341 M01FSVI1 -30.500000   M01FSST1 -1.900000
    G01FS351 S0117858 1.000000   J0105456 -1.000000
    G01FS351 M01FSVI1 -18.500000   M01FSST1 -3.240000
    G01FS361 S0112911 1.000000   J0105456 -1.000000
    G01FS361 M01FSVI1 -56.000000   M01FSST1 -1.470000
    G01FS371 S0113343 1.000000   J0105456 -1.000000
    G01FS371 M01FSVI1 -25.900000   M01FSST1 -2.600000
    G01FS381 S0113345 1.000000   J0105456 -1.000000
    G01FS381 M01FSVI1 -35.000000   M01FSST1 -0.600000
    G01FS391 S0117836 1.000000   J0105456 -1.000000
    G01FS391 M01FSVI1 -20.600000   M01FSST1 -1.200000
    G01FS401 S0113346 1.000000   J0105456 -1.000000
    G01FS401 M01FSVI1 -32.000000   M01FSST1 -0.600000
    G01FS991 S0105456 -1.000000   J0105456 1.000000
    G01FS991 M01FSVI1 27.200000   M01FSST1 4.000000
    G01FE051 S0113212 1.000000   J0105471 -1.000000
    G01FE051 M01FEVI1 -45.000000
    G01FE061 S0113312 1.000000   J0105471 -1.000000
    G01FE061 M01FEVI1 -38.500000
    G01FE071 S0117800 1.000000   J0105471 -1.000000
    G01FE071 M01FEVI1 -20.500000
    G01FE081 S0113344 1.000000   J0105471 -1.000000
    G01FE081 M01FEVI1 -27.500000
    G01FE101 S0117541 1.000000   J0105471 -1.000000
    G01FE101 M01FEVI1 -21.000000
    G01FE131 S0117825 1.000000   J0105471 -1.000000
    G01FE131 M01FEVI1 -25.000000
    G01FE151 S0113342 1.000000   J0105471 -1.000000
    G01FE151 M01FEVI1 -31.200000
    G01FE171 S0118111 1.000000   J0105471 -1.000000
    G01FE171 M01FEVI1 -17.200000
    G01FE181 S0118321 1.000000   J0105471 -1.000000
    G01FE181 M01FEVI1 -19.800000
    G01FE191 S0117551 1.000000   J0105471 -1.000000
    G01FE191 M01FEVI1 -19.600000
    G01FE211 S0118311 1.000000   J0105471 -1.000000
    G01FE211 M01FEVI1 -15.800000
    G01FE331 S0101297 1.000000   J0105471 -1.000000
    G01FE331 M01FEVI1 -30.900000
    G01FE351 S0117858 1.000000   J0105471 -1.000000
    G01FE351 M01FEVI1 -18.500000
    G01FE371 S0113343 1.000000   J0105471 -1.000000
    G01FE371 M01FEVI1 -25.900000
    G01FE381 S0113345 1.000000   J0105471 -1.000000
    G01FE381 M01FEVI1 -39.000000
    G01FE391 S0117836 1.000000   J0105471 -1.000000
    G01FE391 M01FEVI1 -20.600000
    G01FE991 S0105471 -1.000000   J0105471 1.000000
    G01FE991 M01FEVI1 20.200000
    G01GN011 S0112184 1.000000   J0105131 -1.000000
    G01GN011 M01GNZP1 10.000000   M01GNTF0 -1.263000
    G01GN011 M01GN350 -135.140000   M01GN370 -135.140000
    G01GN011 M01GNVI1 -58.000000   M01GNVI2 -58.000000
    G01GN011 M01GNST1 -0.200000   M01GNCT1 -42.000000
    G01GN021 S0112400 1.000000   J0105131 -1.000000
    G01GN021 M01GNZP1 6.000000   M01GNTF0 -1.202000
    G01GN021 M01GN350 -123.800000   M01GN370 -128.600000
    G01GN021 M01GNVI1 -49.500000   M01GNVI2 -49.500000
    G01GN021 M01GNST1 -0.750000   M01GNCT1 -50.000000
    G01GN031 S0112681 1.000000   J0105131 -1.000000
    G01GN031 M01GNZP1 -12.000000   M01GNTF0 -1.203000
    G01GN031 M01GN350 -101.650000   M01GN370 -114.290000
    G01GN031 M01GNVI1 -42.100000   M01GNVI2 -42.100000
    G01GN031 M01GNST1 -0.190000   M01GNCT1 -59.000000
    G01GN041 S0112661 1.000000   J0105131 -1.000000
    G01GN041 M01GNZP1 -12.000000   M01GNTF0 -1.148000
    G01GN041 M01GN350 -70.000000   M01GN370 -99.880000
    G01GN041 M01GNVI1 -37.000000   M01GNVI2 -37.000000
    G01GN041 M01GNST1 -1.800000   M01GNCT1 -47.000000
    G01GN051 S0112861 1.000000   J0105131 -1.000000
    G01GN051 M01GNTF0 -1.148000   M01GN350 -70.000000
    G01GN051 M01GN370 -99.880000   M01GNZP1 -12.000000
    G01GN051 M01GNVI1 -39.500000   M01GNVI2 -39.500000
    G01GN051 M01GNST1 -0.220000   M01GNCT1 -49.000000
    G01GN061 S0112915 1.000000   J0105131 -1.000000
    G01GN061 M01GNTF0 -1.040000   M01GN350 -109.600000
    G01GN061 M01GN370 -116.580000   M01GNVI1 -45.000000
    G01GN061 M01GNVI2 -45.000000   M01GNST1 -0.220000
    G01GN061 M01GNCT1 -52.000000
    G01GN071 S0112858 1.000000   J0105131 -1.000000
    G01GN071 M01GNTF0 -1.220000   M01GN350 -118.950000
    G01GN071 M01GN370 -125.660000   M01GNVI1 -51.800000
    G01GN071 M01GNVI2 -51.800000   M01GNST1 -0.086000
    G01GN071 M01GNCT1 -59.000000
    G01GN081 S0112221 1.000000   J0105131 -1.000000
    G01GN081 M01GNTF0 -1.263000   M01GN350 -135.140000
    G01GN081 M01GN370 -135.140000   M01GNZP1 10.000000
    G01GN081 M01GNVI1 -58.000000   M01GNVI2 -58.000000
    G01GN081 M01GNST1 -0.050000   M01GNCT1 -42.000000
    G01GN091 S0112181 1.000000   J0105131 -1.000000
    G01GN091 M01GNTF0 -1.269000   M01GN350 -135.780000
    G01GN091 M01GN370 -135.780000   M01GNZP1 8.000000
    G01GN091 M01GNVI1 -54.500000   M01GNVI2 -54.500000
    G01GN091 M01GNST1 -0.150000   M01GNCT1 -42.000000
    G01GN101 S0101251 1.000000   J0105131 -1.000000
    G01GN101 M01GNTF0 -1.176000   M01GN350 -111.700000
    G01GN101 M01GN370 -118.180000   M01GNVI1 -46.000000
    G01GN101 M01GNVI2 -46.000000   M01GNST1 -0.400000
    G01GN101 M01GNCT1 -46.000000   M01GNZP1 3.000000
    G01GN111 S0113561 1.000000   J0105131 -1.000000
    G01GN111 M01GNTF0 -1.231000   M01GN350 -116.950000
    G01GN111 M01GN370 -129.260000   M01GNZP1 33.000000
    G01GN111 M01GNVI1 -59.000000   M01GNVI2 -59.000000
    G01GN111 M01GNST1 -0.050000   M01GNCT1 -45.000000
    G01GN121 S0112110 1.000000   J0105131 -1.000000
    G01GN121 M01GNTF0 -1.258000   M01GN350 -134.600000
    G01GN121 M01GN370 -134.600000   M01GNVI1 -59.500000
    G01GN121 M01GNVI2 -59.500000   M01GNZP1 8.000000
    G01GN121 M01GNST1 -0.200000   M01GNCT1 -42.000000
    G01GN131 S0112425 1.000000   J0105131 -1.000000
    G01GN131 M01GNTF0 -1.255000   M01GN350 -133.660000
    G01GN131 M01GN370 -134.290000   M01GNZP1 6.000000
    G01GN131 M01GNVI1 -49.500000   M01GNVI2 -49.500000
    G01GN131 M01GNST1 -0.080000   M01GNCT1 -50.000000
    G01GN141 S0112883 1.000000   J0105131 -1.000000
    G01GN141 M01GNTF0 -1.202000   M01GN350 -123.800000
    G01GN141 M01GN370 -128.600000   M01GNZP1 6.000000
    G01GN141 M01GNVI1 -49.500000   M01GNVI2 -49.500000
    G01GN141 M01GNST1 -0.200000   M01GNCT1 -50.000000
    G01GN161 S0112902 1.000000   J0105131 -1.000000
    G01GN161 M01GNTF0 -1.156000   M01GN350 -108.440000
    G01GN161 M01GN370 -115.660000   M01GNZP1 5.000000
    G01GN161 M01GNVI1 -47.000000   M01GNVI2 -47.000000
    G01GN161 M01GNST1 -0.050000   M01GNCT1 -40.000000
    G01GN171 S0112911 1.000000   J0105131 -1.000000
    G01GN171 M01GNTF0 -1.040000   M01GN350 -109.600000
    G01GN171 M01GN370 -116.580000   M01GNVI1 -45.000000
    G01GN171 M01GNVI2 -45.000000   M01GNST1 -2.270000
    G01GN171 M01GNCT1 -28.000000
    G01GN181 S0112952 1.000000   J0105131 -1.000000
    G01GN181 M01GNTF0 -1.183000   M01GN350 -120.100000
    G01GN181 M01GN370 -124.200000   M01GNZP1 3.000000
    G01GN181 M01GNVI1 -46.000000   M01GNVI2 -46.000000
    G01GN181 M01GNST1 -0.200000   M01GNCT1 -42.000000
    G01GN191 S0112889 1.000000   J0105131 -1.000000
    G01GN191 M01GNTF0 -1.143000   M01GN350 -69.720000
    G01GN191 M01GN370 -99.440000   M01GNZP1 10.000000
    G01GN191 M01GNVI1 -40.500000   M01GNVI2 -40.500000
    G01GN191 M01GNST1 -0.150000   M01GNCT1 -49.000000
    G01GN201 S0112888 1.000000   J0105131 -1.000000
    G01GN201 M01GNTF0 -1.198000   M01GN350 -100.630000
    G01GN201 M01GN370 -113.810000   M01GNZP1 8.000000
    G01GN201 M01GNVI1 -42.100000   M01GNVI2 -42.100000
    G01GN201 M01GNST1 -0.250000   M01GNCT1 -59.000000
    G01GN981 M01GNTF0 1.000000   M01GN350 95.000000
    G01GN981 M01GN370 90.000000
    G01GN991 M01GNCT1 45.000000   S0105131 -1.000000
    G01GN991 J0105131 1.000000   M01GNZP1 5.000000
    G01GN991 M01GNVI1 52.000000   M01GNVI2 41.500000
    G01GN991 M01GNST1 0.450000
    G01GO011 S0112184 1.000000   J0105113 -1.000000
    G01GO011 M01GOTF0 -1.263000   M01GO350 -135.140000
    G01GO011 M01GO370 -135.140000   M01GOZP1 10.000000
    G01GO011 M01GOVI1 -58.000000   M01GOVI2 -58.000000
    G01GO011 M01GOST1 -0.200000   M01GOCT1 -42.000000
    G01GO021 S0112400 1.000000   J0105113 -1.000000
    G01GO021 M01GOTF0 -1.202000   M01GO350 -123.800000
    G01GO021 M01GO370 -128.600000   M01GOZP1 6.000000
    G01GO021 M01GOVI1 -49.500000   M01GOVI2 -49.500000
    G01GO021 M01GOST1 -0.750000   M01GOCT1 -50.000000
    G01GO031 S0112681 1.000000   J0105113 -1.000000
    G01GO031 M01GOTF0 -1.203000   M01GO350 -101.650000
    G01GO031 M01GO370 -114.290000   M01GOZP1 -12.000000
    G01GO031 M01GOVI1 -42.100000   M01GOVI2 -42.100000
    G01GO031 M01GOST1 -0.190000   M01GOCT1 -59.000000
    G01GO041 S0112661 1.000000   J0105113 -1.000000
    G01GO041 M01GOTF0 -1.148000   M01GO350 -70.000000
    G01GO041 M01GO370 -99.880000   M01GOZP1 -12.000000
    G01GO041 M01GOVI1 -37.000000   M01GOVI2 -37.000000
    G01GO041 M01GOST1 -1.800000   M01GOCT1 -47.000000
    G01GO051 S0112861 1.000000   J0105113 -1.000000
    G01GO051 M01GOTF0 -1.148000   M01GO350 -70.000000
    G01GO051 M01GO370 -99.880000   M01GOZP1 -12.000000
    G01GO051 M01GOVI1 -39.500000   M01GOVI2 -39.500000
    G01GO051 M01GOST1 -0.220000   M01GOCT1 -49.000000
    G01GO061 S0112915 1.000000   J0105113 -1.000000
    G01GO061 M01GOTF0 -1.040000   M01GO350 -109.600000
    G01GO061 M01GO370 -116.580000   M01GOVI1 -45.000000
    G01GO061 M01GOVI2 -45.000000   M01GOST1 -0.220000
    G01GO061 M01GOCT1 -52.000000
    G01GO071 S0112858 1.000000   J0105113 -1.000000
    G01GO071 M01GOTF0 -1.220000   M01GO350 -118.950000
    G01GO071 M01GO370 -125.660000   M01GOVI1 -51.800000
    G01GO071 M01GOVI2 -51.800000   M01GOST1 -0.086000
    G01GO071 M01GOCT1 -59.000000
    G01GO081 S0112221 1.000000   J0105113 -1.000000
    G01GO081 M01GOTF0 -1.263000   M01GO350 -135.140000
    G01GO081 M01GO370 -135.140000   M01GOZP1 10.000000
    G01GO081 M01GOVI1 -58.000000   M01GOVI2 -58.000000
    G01GO081 M01GOST1 -0.050000   M01GOCT1 -42.000000
    G01GO091 S0112181 1.000000   J0105113 -1.000000
    G01GO091 M01GOTF0 -1.269000   M01GO350 -135.780000
    G01GO091 M01GO370 -135.780000   M01GOZP1 8.000000
    G01GO091 M01GOVI1 -54.500000   M01GOVI2 -54.500000
    G01GO091 M01GOST1 -0.150000   M01GOCT1 -42.000000
    G01GO101 S0101251 1.000000   J0105113 -1.000000
    G01GO101 M01GOTF0 -1.176000   M01GO350 -111.720000
    G01GO101 M01GO370 -118.180000   M01GOZP1 3.000000
    G01GO101 M01GOVI1 -46.000000   M01GOVI2 -46.000000
    G01GO101 M01GOST1 -0.400000   M01GOCT1 -46.000000
    G01GO111 S0113561 1.000000   J0105113 -1.000000
    G01GO111 M01GOTF0 -1.231000   M01GO350 -116.950000
    G01GO111 M01GO370 -129.260000   M01GOZP1 33.000000
    G01GO111 M01GOVI1 -59.000000   M01GOVI2 -59.000000
    G01GO111 M01GOST1 -0.050000   M01GOCT1 -45.000000
    G01GO121 S0112110 1.000000   J0105113 -1.000000
    G01GO121 M01GOTF0 -1.258000   M01GO350 -134.600000
    G01GO121 M01GO370 -134.600000   M01GOZP1 8.000000
    G01GO121 M01GOVI1 -59.500000   M01GOVI2 -59.500000
    G01GO121 M01GOST1 -0.200000   M01GOCT1 -42.000000
    G01GO131 S0112425 1.000000   J0105113 -1.000000
    G01GO131 M01GOTF0 -1.255000   M01GO350 -133.660000
    G01GO131 M01GO370 -134.290000   M01GOZP1 6.000000
    G01GO131 M01GOVI1 -49.500000   M01GOVI2 -49.500000
    G01GO131 M01GOST1 -0.080000   M01GOCT1 -50.000000
    G01GO141 S0112883 1.000000   J0105113 -1.000000
    G01GO141 M01GOTF0 -1.202000   M01GO350 -123.800000
    G01GO141 M01GO370 -128.600000   M01GOZP1 6.000000
    G01GO141 M01GOVI1 -49.500000   M01GOVI2 -49.500000
    G01GO141 M01GOST1 -0.200000   M01GOCT1 -50.000000
    G01GO161 S0112902 1.000000   J0105113 -1.000000
    G01GO161 M01GOTF0 -1.156000   M01GO350 -108.440000
    G01GO161 M01GO370 -115.660000   M01GOVI1 -47.000000
    G01GO161 M01GOVI2 -47.000000   M01GOZP1 5.000000
    G01GO161 M01GOST1 -0.050000   M01GOCT1 -40.000000
    G01GO171 S0112911 1.000000   J0105113 -1.000000
    G01GO171 M01GOTF0 -1.040000   M01GO350 -109.600000
    G01GO171 M01GO370 -116.580000   M01GOVI1 -45.000000
    G01GO171 M01GOVI2 -45.000000   M01GOST1 -2.270000
    G01GO171 M01GOCT1 -28.000000
    G01GO181 S0112952 1.000000   J0105113 -1.000000
    G01GO181 M01GOTF0 -1.183000   M01GO350 -120.100000
    G01GO181 M01GO370 -124.200000   M01GOZP1 3.000000
    G01GO181 M01GOVI1 -46.000000   M01GOVI2 -46.000000
    G01GO181 M01GOST1 -0.200000   M01GOCT1 -42.000000
    G01GO191 S0112889 1.000000   J0105113 -1.000000
    G01GO191 M01GOTF0 -1.143000   M01GO350 -69.720000
    G01GO191 M01GO370 -99.440000   M01GOZP1 10.000000
    G01GO191 M01GOVI1 -40.500000   M01GOVI2 -40.500000
    G01GO191 M01GOST1 -0.150000   M01GOCT1 -49.000000
    G01GO201 S0112888 1.000000   J0105113 -1.000000
    G01GO201 M01GOTF0 -1.198000   M01GO350 -100.630000
    G01GO201 M01GO370 -113.800000   M01GOZP1 8.000000
    G01GO201 M01GOVI1 -42.100000   M01GOVI2 -42.100000
    G01GO201 M01GOST1 -0.250000   M01GOCT1 -59.000000
    G01GO981 M01GOTF0 1.000000   M01GO350 95.000000
    G01GO981 M01GO370 90.000000
    G01GO991 S0105113 -1.000000   J0105113 1.000000
    G01GO991 M01GOCT1 45.000000   M01GOZP1 5.000000
    G01GO991 M01GOVI1 52.000000   M01GOVI2 41.500000
    G01GO991 M01GOST1 0.170000
    G01GT011 S0112184 1.000000   J0105141 -1.000000
    G01GT011 M01GTTF0 -1.263000   M01GT350 -135.140000
    G01GT011 M01GT370 -135.140000   M01GTZP1 10.000000
    G01GT011 M01GTVI1 -58.000000   M01GTVI2 -58.000000
    G01GT011 M01GTST1 -0.200000   M01GTCT1 -42.000000
    G01GT011 M01GTSB1 -0.792000
    G01GT021 S0112400 1.000000   J0105141 -1.000000
    G01GT021 M01GTTF0 -1.202000   M01GT350 -123.800000
    G01GT021 M01GT370 -128.600000   M01GTZP1 6.000000
    G01GT021 M01GTVI1 -49.500000   M01GTVI2 -49.500000
    G01GT021 M01GTPT1 -6.000000   M01GTST1 -0.750000
    G01GT021 M01GTCT1 -50.000000   M01GTSB1 -0.832000
    G01GT031 S0112681 1.000000   J0105141 -1.000000
    G01GT031 M01GTTF0 -1.203000   M01GT350 -101.650000
    G01GT031 M01GT370 -114.290000   M01GTZP1 -12.000000
    G01GT031 M01GTVI1 -42.100000   M01GTVI2 -42.100000
    G01GT031 M01GTPT1 -25.000000   M01GTST1 -0.190000
    G01GT031 M01GTCT1 -59.000000   M01GTSB1 -0.831000
    G01GT041 S0112661 1.000000   J0105141 -1.000000
    G01GT041 M01GTTF0 -1.148000   M01GT350 -70.000000
    G01GT041 M01GT370 -99.880000   M01GTZP1 -12.000000
    G01GT041 M01GTVI1 -37.000000   M01GTVI2 -37.000000
    G01GT041 M01GTPT1 -15.000000   M01GTST1 -1.800000
    G01GT041 M01GTCT1 -47.000000   M01GTSB1 -0.871000
    G01GT051 S0112861 1.000000   J0105141 -1.000000
    G01GT051 M01GTTF0 -1.148000   M01GT350 -70.000000
    G01GT051 M01GT370 -99.880000   M01GTZP1 -12.000000
    G01GT051 M01GTVI1 -39.500000   M01GTVI2 -39.500000
    G01GT051 M01GTPT1 -15.000000   M01GTST1 -0.220000
    G01GT051 M01GTCT1 -49.000000   M01GTSB1 -0.871000
    G01GT061 S0112915 1.000000   J0105141 -1.000000
    G01GT061 M01GTTF0 -1.040000   M01GT350 -109.600000
    G01GT061 M01GT370 -116.580000   M01GTVI1 -45.000000
    G01GT061 M01GTVI2 -45.000000   M01GTPT1 -4.000000
    G01GT061 M01GTST1 -0.220000   M01GTCT1 -52.000000
    G01GT061 M01GTSB1 -0.962000
    G01GT071 S0112858 1.000000   J0105141 -1.000000
    G01GT071 M01GTTF0 -1.220000   M01GT350 -118.950000
    G01GT071 M01GT370 -125.660000   M01GTVI1 -51.800000
    G01GT071 M01GTVI2 -51.800000   M01GTPT1 -10.000000
    G01GT071 M01GTST1 -0.086000   M01GTCT1 -59.000000
    G01GT071 M01GTSB1 -0.820000
    G01GT081 S0112221 1.000000   J0105141 -1.000000
    G01GT081 M01GTTF0 -1.263000   M01GT350 -135.140000
    G01GT081 M01GT370 -135.140000   M01GTZP1 10.000000
    G01GT081 M01GTVI1 -58.000000   M01GTVI2 -58.000000
    G01GT081 M01GTST1 -0.050000   M01GTCT1 -42.000000
    G01GT081 M01GTSB1 -0.792000
    G01GT091 S0112181 1.000000   J0105141 -1.000000
    G01GT091 M01GTTF0 -1.269000   M01GT350 -135.780000
    G01GT091 M01GT370 -135.780000   M01GTZP1 8.000000
    G01GT091 M01GTVI1 -54.500000   M01GTVI2 -54.500000
    G01GT091 M01GTPT1 -1.000000   M01GTST1 -0.150000
    G01GT091 M01GTCT1 -42.000000   M01GTSB1 -0.788000
    G01GT101 S0101251 1.000000   J0105141 -1.000000
    G01GT101 M01GTTF0 -1.176000   M01GT350 -111.700000
    G01GT101 M01GT370 -118.180000   M01GTVI1 -46.000000
    G01GT101 M01GTVI2 -46.000000   M01GTST1 -0.400000
    G01GT101 M01GTCT1 -46.000000   M01GTPT1 -10.000000
    G01GT101 M01GTZP1 3.000000   M01GTSB1 -0.850000
    G01GT111 S0113561 1.000000   J0105141 -1.000000
    G01GT111 M01GTTF0 -1.231000   M01GT350 -116.950000
    G01GT111 M01GT370 -129.260000   M01GTZP1 33.000000
    G01GT111 M01GTVI1 -59.000000   M01GTVI2 -59.000000
    G01GT111 M01GTST1 -0.050000   M01GTCT1 -45.000000
    G01GT111 M01GTPT1 -10.500000   M01GTSB1 -0.812000
    G01GT121 S0112110 1.000000   J0105141 -1.000000
    G01GT121 M01GTTF0 -1.258000   M01GT350 -134.600000
    G01GT121 M01GT370 -134.600000   M01GTST1 -0.200000
    G01GT121 M01GTVI1 -59.500000   M01GTVI2 -59.500000
    G01GT121 M01GTPT1 -5.000000   M01GTCT1 -42.000000
    G01GT121 M01GTSB1 -0.795000   M01GTZP1 8.000000
    G01GT131 S0112425 1.000000   J0105141 -1.000000
    G01GT131 M01GTTF0 -1.255000   M01GT350 -133.660000
    G01GT131 M01GT370 -134.290000   M01GTPT1 -6.000000
    G01GT131 M01GTVI1 -49.500000   M01GTVI2 -49.500000
    G01GT131 M01GTST1 -0.080000   M01GTCT1 -50.000000
    G01GT131 M01GTSB1 -0.797000   M01GTZP1 6.000000
    G01GT141 S0112883 1.000000   J0105141 -1.000000
    G01GT141 M01GTTF0 -1.202000   M01GT350 -123.800000
    G01GT141 M01GT370 -128.600000   M01GTST1 -0.200000
    G01GT141 M01GTVI1 -49.500000   M01GTVI2 -49.500000
    G01GT141 M01GTPT1 -6.000000   M01GTCT1 -50.000000
    G01GT141 M01GTZP1 6.000000   M01GTSB1 -0.832000
    G01GT161 S0112902 1.000000   J0105141 -1.000000
    G01GT161 M01GTTF0 -1.156000   M01GT350 -108.440000
    G01GT161 M01GT370 -115.660000   M01GTSB1 -0.865000
    G01GT161 M01GTST1 -0.050000   M01GTPT1 -6.000000
    G01GT161 M01GTZP1 5.000000   M01GTCT1 -40.000000
    G01GT161 M01GTVI1 -47.000000   M01GTVI2 -47.000000
    G01GT171 S0112911 1.000000   J0105141 -1.000000
    G01GT171 M01GTTF0 -1.040000   M01GT350 -109.600000
    G01GT171 M01GT370 -116.580000   M01GTSB1 -0.962000
    G01GT171 M01GTST1 -2.270000   M01GTPT1 -4.000000
    G01GT171 M01GTCT1 -28.000000   M01GTVI1 -45.000000
    G01GT171 M01GTVI2 -45.000000
    G01GT181 S0112952 1.000000   J0105141 -1.000000
    G01GT181 M01GTTF0 -1.183000   M01GT350 -120.100000
    G01GT181 M01GT370 -124.200000   M01GTSB1 -0.845000
    G01GT181 M01GTST1 -0.200000   M01GTPT1 -2.000000
    G01GT181 M01GTZP1 3.000000   M01GTCT1 -42.000000
    G01GT181 M01GTVI1 -46.000000   M01GTVI2 -46.000000
    G01GT191 S0112889 1.000000   J0105141 -1.000000
    G01GT191 M01GTTF0 -1.143000   M01GT350 -69.720000
    G01GT191 M01GT370 -99.440000   M01GTSB1 -0.875000
    G01GT191 M01GTST1 -0.150000   M01GTPT1 -4.000000
    G01GT191 M01GTZP1 10.000000   M01GTCT1 -49.000000
    G01GT191 M01GTVI1 -40.500000   M01GTVI2 -40.500000
    G01GT201 S0112888 1.000000   J0105141 -1.000000
    G01GT201 M01GTTF0 -1.198000   M01GT350 -100.600000
    G01GT201 M01GT370 -113.800000   M01GTSB1 -0.835000
    G01GT201 M01GTST1 -0.250000   M01GTPT1 -4.000000
    G01GT201 M01GTZP1 8.000000   M01GTCT1 -59.000000
    G01GT201 M01GTVI1 -42.100000   M01GTVI2 -42.100000
    G01GT911 M01GTSB1 -0.001000   REVENUE1 -0.022500
    G01GT921 M01GTSB1 0.001000   REVENUE1 0.022500
    G01GT981 M01GTTF0 1.000000   M01GT350 95.000000
    G01GT981 M01GT370 90.000000
    G01GT991 M01GTCT1 45.000000   S0105141 -1.000000
    G01GT991 J0105141 1.000000   M01GTVI1 52.000000
    G01GT991 M01GTVI2 41.500000   M01GTPT1 10.500000
    G01GT991 M01GTST1 0.450000   M01GTSB1 0.835000
    G01GA011 S0112184 1.000000   J0105112 -1.000000
    G01GA011 M01GATF0 -1.263000   M01GA350 -135.140000
    G01GA011 M01GA370 -135.140000   M01GAZP1 10.000000
    G01GA011 M01GAVI1 -58.000000   M01GAVI2 -58.000000
    G01GA011 M01GAST1 -0.200000   M01GACT1 -42.000000
    G01GA011 M01GASB1 -0.792000
    G01GA021 S0112400 1.000000   J0105112 -1.000000
    G01GA021 M01GATF0 -1.202000   M01GA350 -123.800000
    G01GA021 M01GA370 -128.600000   M01GAZP1 6.000000
    G01GA021 M01GAVI1 -49.500000   M01GAVI2 -49.500000
    G01GA021 M01GAPT1 -6.000000   M01GAST1 -0.750000
    G01GA021 M01GACT1 -50.000000   M01GASB1 -0.832000
    G01GA031 S0112681 1.000000   J0105112 -1.000000
    G01GA031 M01GATF0 -1.203000   M01GA350 -101.650000
    G01GA031 M01GA370 -114.290000   M01GAZP1 -12.000000
    G01GA031 M01GAVI1 -42.100000   M01GAVI2 -42.100000
    G01GA031 M01GAPT1 -25.000000   M01GAST1 -0.190000
    G01GA031 M01GACT1 -59.000000   M01GASB1 -0.831000
    G01GA041 S0112661 1.000000   J0105112 -1.000000
    G01GA041 M01GATF0 -1.148000   M01GA350 -70.000000
    G01GA041 M01GA370 -99.880000   M01GAZP1 -12.000000
    G01GA041 M01GAVI1 -37.000000   M01GAVI2 -37.000000
    G01GA041 M01GAPT1 -15.000000   M01GAST1 -1.800000
    G01GA041 M01GACT1 -47.000000   M01GASB1 -0.871000
    G01GA051 S0112861 1.000000   J0105112 -1.000000
    G01GA051 M01GATF0 -1.148000   M01GA350 -70.000000
    G01GA051 M01GA370 -99.880000   M01GAZP1 -12.000000
    G01GA051 M01GAVI1 -39.500000   M01GAVI2 -39.500000
    G01GA051 M01GAST1 -0.220000   M01GAPT1 -15.000000
    G01GA051 M01GACT1 -49.000000   M01GASB1 -0.871000
    G01GA061 S0112915 1.000000   J0105112 -1.000000
    G01GA061 M01GATF0 -1.040000   M01GA350 -109.600000
    G01GA061 M01GA370 -116.580000   M01GAVI1 -45.000000
    G01GA061 M01GAVI2 -45.000000   M01GAPT1 -4.000000
    G01GA061 M01GAST1 -0.220000   M01GACT1 -52.000000
    G01GA061 M01GASB1 -0.962000
    G01GA071 S0112858 1.000000   J0105112 -1.000000
    G01GA071 M01GATF0 -1.220000   M01GA350 -118.950000
    G01GA071 M01GA370 -125.660000   M01GAVI1 -51.800000
    G01GA071 M01GAVI2 -51.800000   M01GAPT1 -10.000000
    G01GA071 M01GAST1 -0.086000   M01GACT1 -59.000000
    G01GA071 M01GASB1 -0.820000
    G01GA081 S0112221 1.000000   J0105112 -1.000000
    G01GA081 M01GATF0 -1.263000   M01GA350 -135.140000
    G01GA081 M01GA370 -135.140000   M01GAZP1 10.000000
    G01GA081 M01GAVI1 -58.000000   M01GAVI2 -58.000000
    G01GA081 M01GAST1 -0.050000   M01GACT1 -42.000000
    G01GA081 M01GASB1 -0.792000
    G01GA091 S0112181 1.000000   J0105112 -1.000000
    G01GA091 M01GATF0 -1.269000   M01GA350 -135.780000
    G01GA091 M01GA370 -135.780000   M01GAZP1 8.000000
    G01GA091 M01GAVI1 -54.500000   M01GAVI2 -54.500000
    G01GA091 M01GAPT1 -1.000000   M01GAST1 -0.150000
    G01GA091 M01GACT1 -42.000000   M01GASB1 -0.788000
    G01GA101 S0101251 1.000000   J0105112 -1.000000
    G01GA101 M01GATF0 -1.176000   M01GA350 -111.720000
    G01GA101 M01GA370 -118.180000   M01GAZP1 3.000000
    G01GA101 M01GAVI1 -46.000000   M01GAVI2 -46.000000
    G01GA101 M01GAST1 -0.400000   M01GACT1 -46.000000
    G01GA101 M01GAPT1 -10.000000   M01GASB1 -0.850000
    G01GA111 S0113561 1.000000   J0105112 -1.000000
    G01GA111 M01GATF0 -1.231000   M01GA350 -116.950000
    G01GA111 M01GA370 -129.260000   M01GAZP1 33.000000
    G01GA111 M01GAVI1 -59.000000   M01GAVI2 -59.000000
    G01GA111 M01GAST1 -0.050000   M01GACT1 -45.000000
    G01GA111 M01GAPT1 -10.500000   M01GASB1 -0.812000
    G01GA121 S0112110 1.000000   J0105112 -1.000000
    G01GA121 M01GATF0 -1.258000   M01GA350 -134.600000
    G01GA121 M01GA370 -134.600000   M01GAZP1 8.000000
    G01GA121 M01GAVI1 -59.500000   M01GAVI2 -59.500000
    G01GA121 M01GAST1 -0.200000   M01GAPT1 -5.000000
    G01GA121 M01GACT1 -42.000000   M01GASB1 -0.795000
    G01GA131 S0112425 1.000000   J0105112 -1.000000
    G01GA131 M01GATF0 -1.255000   M01GA350 -133.660000
    G01GA131 M01GA370 -134.290000   M01GAZP1 6.000000
    G01GA131 M01GAVI1 -49.500000   M01GAVI2 -49.500000
    G01GA131 M01GAPT1 -6.000000   M01GAST1 -0.080000
    G01GA131 M01GACT1 -50.000000   M01GASB1 -0.797000
    G01GA141 S0112883 1.000000   J0105112 -1.000000
    G01GA141 M01GATF0 -1.202000   M01GA350 -123.800000
    G01GA141 M01GA370 -128.600000   M01GAZP1 6.000000
    G01GA141 M01GAVI1 -49.500000   M01GAVI2 -49.500000
    G01GA141 M01GAPT1 -6.000000   M01GAST1 -0.200000
    G01GA141 M01GACT1 -50.000000   M01GASB1 -0.832000
    G01GA161 S0112902 1.000000   J0105112 -1.000000
    G01GA161 M01GATF0 -1.156000   M01GA350 -108.440000
    G01GA161 M01GA370 -115.660000   M01GAZP1 5.000000
    G01GA161 M01GAVI1 -47.000000   M01GAVI2 -47.000000
    G01GA161 M01GAPT1 -6.000000   M01GAST1 -0.050000
    G01GA161 M01GACT1 -40.000000   M01GASB1 -0.865000
    G01GA171 S0112911 1.000000   J0105112 -1.000000
    G01GA171 M01GATF0 -1.040000   M01GA350 -109.600000
    G01GA171 M01GA370 -116.580000   M01GAVI1 -45.000000
    G01GA171 M01GAVI2 -45.000000   M01GAPT1 -4.000000
    G01GA171 M01GAST1 -2.270000   M01GACT1 -28.000000
    G01GA171 M01GASB1 -0.962000
    G01GA181 S0112952 1.000000   J0105112 -1.000000
    G01GA181 M01GATF0 -1.183000   M01GA350 -120.100000
    G01GA181 M01GA370 -124.200000   M01GAZP1 3.000000
    G01GA181 M01GAVI1 -46.000000   M01GAVI2 -46.000000
    G01GA181 M01GAPT1 -2.000000   M01GAST1 -0.200000
    G01GA181 M01GACT1 -42.000000   M01GASB1 -0.845000
    G01GA191 S0112889 1.000000   J0105112 -1.000000
    G01GA191 M01GATF0 -1.143000   M01GA350 -69.720000
    G01GA191 M01GA370 -99.440000   M01GAZP1 10.000000
    G01GA191 M01GAVI1 -40.500000   M01GAVI2 -40.500000
    G01GA191 M01GAPT1 -4.000000   M01GAST1 -0.150000
    G01GA191 M01GACT1 -49.000000   M01GASB1 -0.875000
    G01GA201 S0112888 1.000000   J0105112 -1.000000
    G01GA201 M01GATF0 -1.198000   M01GA350 -100.630000
    G01GA201 M01GA370 -113.810000   M01GAZP1 8.000000
    G01GA201 M01GAVI1 -42.100000   M01GAVI2 -42.100000
    G01GA201 M01GAPT1 -4.000000   M01GAST1 -0.250000
    G01GA201 M01GACT1 -59.000000   M01GASB1 -0.835000
    G01GA911 REVENUE1 -0.022500   M01GASB1 -0.001000
    G01GA921 REVENUE1 0.022500   M01GASB1 0.001000
    G01GA981 M01GATF0 1.000000   M01GA350 95.000000
    G01GA981 M01GA370 90.000000
    G01GA991 M01GACT1 45.000000   S0105112 -1.000000
    G01GA991 J0105112 1.000000   M01GAZP1 -4.000000
    G01GA991 M01GAVI1 52.000000   M01GAVI2 41.500000
    G01GA991 M01GAPT1 7.500000   M01GAST1 0.170000
    G01GA991 M01GASB1 0.835000
    G01GE011 S0112184 1.000000   J0105161 -1.000000
    G01GE011 M01GETF0 -1.263000   M01GE350 -135.140000
    G01GE011 M01GE370 -135.140000   M01GEZP1 10.000000
    G01GE011 M01GEVI1 -58.000000   M01GEVI2 -58.000000
    G01GE011 M01GEST1 -0.200000   M01GECT1 -42.000000
    G01GE011 M01GESB1 -0.792000
    G01GE021 S0112400 1.000000   J0105161 -1.000000
    G01GE021 M01GETF0 -1.202000   M01GE350 -123.800000
    G01GE021 M01GE370 -128.600000   M01GEZP1 6.000000
    G01GE021 M01GEVI1 -49.500000   M01GEVI2 -49.500000
    G01GE021 M01GEPT1 -6.000000   M01GEST1 -0.750000
    G01GE021 M01GECT1 -50.000000   M01GESB1 -0.832000
    G01GE031 S0112681 1.000000   J0105161 -1.000000
    G01GE031 M01GETF0 -1.203000   M01GE350 -101.650000
    G01GE031 M01GE370 -114.290000   M01GEZP1 -12.000000
    G01GE031 M01GEVI1 -42.100000   M01GEVI2 -42.100000
    G01GE031 M01GEPT1 -25.000000   M01GEST1 -0.190000
    G01GE031 M01GECT1 -59.000000   M01GESB1 -0.831000
    G01GE041 S0112661 1.000000   J0105161 -1.000000
    G01GE041 M01GETF0 -1.148000   M01GE350 -70.000000
    G01GE041 M01GE370 -99.880000   M01GEZP1 -12.000000
    G01GE041 M01GEVI1 -37.000000   M01GEVI2 -37.000000
    G01GE041 M01GEPT1 -15.000000   M01GEST1 -1.800000
    G01GE041 M01GECT1 -47.000000   M01GESB1 -0.871000
    G01GE051 S0112861 1.000000   J0105161 -1.000000
    G01GE051 M01GETF0 -1.148000   M01GE350 -70.000000
    G01GE051 M01GE370 -99.880000   M01GEZP1 -12.000000
    G01GE051 M01GEVI1 -39.500000   M01GEVI2 -39.500000
    G01GE051 M01GEPT1 -15.000000   M01GEST1 -0.220000
    G01GE051 M01GECT1 -49.000000   M01GESB1 -0.871000
    G01GE061 S0112915 1.000000   J0105161 -1.000000
    G01GE061 M01GETF0 -1.040000   M01GE350 -109.600000
    G01GE061 M01GE370 -116.580000   M01GEVI1 -45.000000
    G01GE061 M01GEVI2 -45.000000   M01GEPT1 -4.000000
    G01GE061 M01GEST1 -0.220000   M01GECT1 -52.000000
    G01GE061 M01GESB1 -0.962000
    G01GE071 S0112858 1.000000   J0105161 -1.000000
    G01GE071 M01GETF0 -1.220000   M01GE350 -118.950000
    G01GE071 M01GE370 -125.660000   M01GEVI1 -51.800000
    G01GE071 M01GEVI2 -51.800000   M01GEPT1 -10.000000
    G01GE071 M01GEST1 -0.086000   M01GECT1 -59.000000
    G01GE071 M01GESB1 -0.820000
    G01GE081 S0112221 1.000000   J0105161 -1.000000
    G01GE081 M01GETF0 -1.263000   M01GE350 -135.140000
    G01GE081 M01GE370 -135.140000   M01GEZP1 10.000000
    G01GE081 M01GEVI1 -58.000000   M01GEVI2 -58.000000
    G01GE081 M01GEST1 -0.050000   M01GECT1 -42.000000
    G01GE081 M01GESB1 -0.792000
    G01GE091 S0112181 1.000000   J0105161 -1.000000
    G01GE091 M01GETF0 -1.269000   M01GE350 -135.780000
    G01GE091 M01GE370 -135.780000   M01GEZP1 8.000000
    G01GE091 M01GEVI1 -54.500000   M01GEVI2 -54.500000
    G01GE091 M01GEPT1 -1.000000   M01GEST1 -0.150000
    G01GE091 M01GECT1 -42.000000   M01GESB1 -0.788000
    G01GE101 S0101251 1.000000   J0105161 -1.000000
    G01GE101 M01GETF0 -1.176000   M01GE350 -111.720000
    G01GE101 M01GE370 -118.180000   M01GEZP1 3.000000
    G01GE101 M01GEVI1 -46.000000   M01GEVI2 -46.000000
    G01GE101 M01GEST1 -0.400000   M01GEPT1 -10.000000
    G01GE101 M01GECT1 -46.000000   M01GESB1 -0.850000
    G01GE111 S0113561 1.000000   J0105161 -1.000000
    G01GE111 M01GETF0 -1.231000   M01GE350 -116.950000
    G01GE111 M01GE370 -129.260000   M01GEZP1 33.000000
    G01GE111 M01GEVI1 -59.000000   M01GEVI2 -59.000000
    G01GE111 M01GEST1 -0.050000   M01GEPT1 -10.500000
    G01GE111 M01GECT1 -45.000000   M01GESB1 -0.812000
    G01GE121 S0112110 1.000000   J0105161 -1.000000
    G01GE121 M01GETF0 -1.258000   M01GE350 -134.600000
    G01GE121 M01GE370 -134.600000   M01GEZP1 8.000000
    G01GE121 M01GEVI1 -59.500000   M01GEVI2 -59.500000
    G01GE121 M01GEST1 -0.200000   M01GEPT1 -5.000000
    G01GE121 M01GECT1 -42.000000   M01GESB1 -0.795000
    G01GE131 S0112425 1.000000   J0105161 -1.000000
    G01GE131 M01GETF0 -1.255000   M01GE350 -133.660000
    G01GE131 M01GE370 -134.290000   M01GEVI1 -49.500000
    G01GE131 M01GEVI2 -49.500000   M01GEZP1 6.000000
    G01GE131 M01GEPT1 -6.000000   M01GECT1 -50.000000
    G01GE131 M01GEST1 -0.080000   M01GESB1 -0.797000
    G01GE141 S0112883 1.000000   J0105161 -1.000000
    G01GE141 M01GETF0 -1.202000   M01GE350 -123.800000
    G01GE141 M01GE370 -128.600000   M01GEST1 -0.200000
    G01GE141 M01GEVI1 -49.500000   M01GEVI2 -49.500000
    G01GE141 M01GEPT1 -6.000000   M01GECT1 -50.000000
    G01GE141 M01GEZP1 6.000000   M01GESB1 -0.832000
    G01GE161 S0112902 1.000000   J0105161 -1.000000
    G01GE161 M01GETF0 -1.156000   M01GE350 -108.440000
    G01GE161 M01GE370 -115.660000   M01GEST1 -0.050000
    G01GE161 M01GEVI1 -47.000000   M01GEVI2 -47.000000
    G01GE161 M01GEPT1 -6.000000   M01GECT1 -40.000000
    G01GE161 M01GEZP1 5.000000   M01GESB1 -0.865000
    G01GE171 S0112911 1.000000   J0105161 -1.000000
    G01GE171 M01GETF0 -1.040000   M01GE350 -109.600000
    G01GE171 M01GE370 -116.580000   M01GEST1 -2.270000
    G01GE171 M01GEVI1 -45.000000   M01GEVI2 -45.000000
    G01GE171 M01GEPT1 -4.000000   M01GECT1 -28.000000
    G01GE171 M01GESB1 -0.962000
    G01GE181 S0112952 1.000000   J0105161 -1.000000
    G01GE181 M01GETF0 -1.183000   M01GE350 -120.100000
    G01GE181 M01GE370 -124.200000   M01GEST1 -0.200000
    G01GE181 M01GEVI1 -46.000000   M01GEVI2 -46.000000
    G01GE181 M01GEPT1 -2.000000   M01GECT1 -42.000000
    G01GE181 M01GEZP1 3.000000   M01GESB1 -0.845000
    G01GE191 S0112889 1.000000   J0105161 -1.000000
    G01GE191 M01GETF0 -1.143000   M01GE350 -69.720000
    G01GE191 M01GE370 -99.440000   M01GEST1 -0.150000
    G01GE191 M01GEVI1 -40.500000   M01GEVI2 -40.500000
    G01GE191 M01GEPT1 -4.000000   M01GECT1 -49.000000
    G01GE191 M01GEZP1 10.000000   M01GESB1 -0.875000
    G01GE201 S0112888 1.000000   J0105161 -1.000000
    G01GE201 M01GETF0 -1.198000   M01GE350 -100.630000
    G01GE201 M01GE370 -113.810000   M01GEST1 -0.250000
    G01GE201 M01GEVI1 -42.100000   M01GEVI2 -42.100000
    G01GE201 M01GEPT1 -4.000000   M01GECT1 -59.000000
    G01GE201 M01GEZP1 8.000000   M01GESB1 -0.835000
    G01GE911 M01GESB1 -0.001000   REVENUE1 -0.022500
    G01GE921 M01GESB1 0.001000   REVENUE1 0.022500
    G01GE981 M01GETF0 1.000000   M01GE350 95.000000
    G01GE981 M01GE370 90.000000
    G01GE991 M01GECT1 45.000000   S0105161 -1.000000
    G01GE991 J0105161 1.000000   M01GEZP1 -4.000000
    G01GE991 M01GEVI1 54.000000   M01GEVI2 41.500000
    G01GE991 M01GEPT1 5.600000   M01GEST1 0.130000
    G01GE991 M01GESB1 0.835000
    G01TT021 S0112400 1.000000   J0105211 -1.000000
    G01TT021 M01TTZP1 1.000000   M01TTZP2 1.000000
    G01TT021 M01TTVI1 -49.500000   M01TTKG1 -1.000000
    G01TT021 M01TTST1 -0.750000
    G01TT031 S0112681 1.000000   J0105211 -1.000000
    G01TT031 M01TTZP1 -12.000000   M01TTZP2 -12.000000
    G01TT031 M01TTVI1 -42.100000   M01TTST1 -0.190000
    G01TT041 S0112661 1.000000   J0105211 -1.000000
    G01TT041 M01TTZP1 -12.000000   M01TTZP2 -12.000000
    G01TT041 M01TTVI1 -37.000000   M01TTST1 -1.800000
    G01TT051 S0112861 1.000000   J0105211 -1.000000
    G01TT051 M01TTZP1 -10.000000   M01TTZP2 -10.000000
    G01TT051 M01TTVI1 -39.500000   M01TTST1 -0.220000
    G01TT061 S0112915 1.000000   J0105211 -1.000000
    G01TT061 M01TTZP1 -2.000000   M01TTZP2 -2.000000
    G01TT061 M01TTVI1 -45.000000   M01TTKG1 -1.000000
    G01TT061 M01TTST1 -0.200000
    G01TT071 S0112858 1.000000   J0105211 -1.000000
    G01TT071 M01TTZP1 -4.000000   M01TTZP2 -4.000000
    G01TT071 M01TTVI1 -51.800000   M01TTST1 -0.860000
    G01TT121 S0113125 1.000000   J0105211 -1.000000
    G01TT121 M01TTZP1 -60.000000   M01TTZP2 -60.000000
    G01TT121 M01TTVI1 -31.500000   M01TTST1 -0.310000
    G01TT131 S0113112 1.000000   J0105211 -1.000000
    G01TT131 M01TTZP1 -20.000000   M01TTZP2 -20.000000
    G01TT131 M01TTVI1 -31.200000   M01TTST1 -1.830000
    G01TT141 S0113212 1.000000   J0105211 -1.000000
    G01TT141 M01TTZP1 -28.000000   M01TTZP2 -28.000000
    G01TT141 M01TTVI1 -24.500000   M01TTST1 -1.940000
    G01TT991 S0105211 -1.000000   J0105211 1.000000
    G01TT991 M01TTZP1 5.000000   M01TTVI1 39.500000
    G01TT991 M01TTKG1 0.100000   M01TTST1 0.450000
    G01TN021 S0112400 1.000000   J0105214 -1.000000
    G01TN021 M01TNZP1 1.000000   M01TNZP2 1.000000
    G01TN021 M01TNVI1 -49.500000   M01TNKG1 -1.000000
    G01TN021 M01TNST1 -0.750000
    G01TN031 S0112681 1.000000   J0105214 -1.000000
    G01TN031 M01TNZP1 -12.000000   M01TNZP2 -12.000000
    G01TN031 M01TNVI1 -42.100000   M01TNST1 -0.190000
    G01TN041 S0112661 1.000000   J0105214 -1.000000
    G01TN041 M01TNZP1 -12.000000   M01TNZP2 -12.000000
    G01TN041 M01TNVI1 -37.000000   M01TNST1 -1.800000
    G01TN051 S0112861 1.000000   J0105214 -1.000000
    G01TN051 M01TNZP1 -10.000000   M01TNZP2 -10.000000
    G01TN051 M01TNVI1 -39.500000   M01TNST1 -0.220000
    G01TN061 S0112915 1.000000   J0105214 -1.000000
    G01TN061 M01TNZP1 -2.000000   M01TNZP2 -2.000000
    G01TN061 M01TNVI1 -45.000000   M01TNKG1 -1.000000
    G01TN061 M01TNST1 -0.200000
    G01TN071 S0112858 1.000000   J0105214 -1.000000
    G01TN071 M01TNZP1 -4.000000   M01TNZP2 -4.000000
    G01TN071 M01TNVI1 -51.800000   M01TNST1 -0.086000
    G01TN121 S0113125 1.000000   J0105214 -1.000000
    G01TN121 M01TNZP1 -30.000000   M01TNZP2 -30.000000
    G01TN121 M01TNVI1 -31.500000   M01TNST1 -0.310000
    G01TN131 S0113112 1.000000   J0105214 -1.000000
    G01TN131 M01TNZP1 -20.000000   M01TNZP2 -20.000000
    G01TN131 M01TNVI1 -31.200000   M01TNST1 -1.830000
    G01TN141 S0113212 1.000000   J0105214 -1.000000
    G01TN141 M01TNZP1 -28.000000   M01TNZP2 -28.000000
    G01TN141 M01TNVI1 -24.500000   M01TNST1 -1.940000
    G01TN991 S0105214 -1.000000   J0105214 1.000000
    G01TN991 M01TNZP1 12.000000   M01TNZP2 7.000000
    G01TN991 M01TNVI1 39.500000   M01TNKG1 0.100000
    G01TN991 M01TNST1 0.450000
    G01FG011 S0110211 1.000000   J0100820 -1.000000
    G01FG031 S0110111 1.000000   J0100820 -1.000000
    G01FG041 S0110214 1.000000   J0100820 -1.000000
    G01FG991 J0100820 1.000000   S0100820 -1.000000
    G01PM011 S0114302 1.000000   J0106018 -1.000000
    G01PM021 S0114305 1.000000   J0106018 -1.000000
    G01PM031 S0117251 1.000000   J0106018 -1.000000
    G01PM991 S0106018 -1.000000   J0106018 1.000000
    G01OR011 S0114702 1.000000   J0106218 -1.000000
    G01OR021 S0114712 1.000000   J0106218 -1.000000
    G01OR031 S0114705 1.000000   J0106218 -1.000000
    G01OR991 S0106218 -1.000000   J0106218 1.000000
    G01GP011 S0114702 1.000000   J0106310 -1.000000
    G01GP021 S0114712 1.000000   J0106310 -1.000000
    G01GP031 S0114722 1.000000   J0106310 -1.000000
    G01GP041 S0114705 1.000000   J0106310 -1.000000
    G01GP051 S0114762 1.000000   J0106310 -1.000000
    G01GP061 S0114782 1.000000   J0106310 -1.000000
    G01GP071 S0114742 1.000000   J0106310 -1.000000
    G01GP991 S0106310 -1.000000   J0106310 1.000000
    G01DS011 S0114742 1.000000   J0106794 -1.000000
    G01DS021 S0114762 1.000000   J0106794 -1.000000
    G01DS031 S0114782 1.000000   J0106794 -1.000000
    G01DS041 S0114765 1.000000   J0106794 -1.000000
    G01DS991 S0106794 -1.000000   J0106794 1.000000
    G01SB011 S0114785 1.000000   J0107020 -1.000000
    G01SB021 J0107020 -1.000000   S0114745 1.000000
    G01SB031 S0114742 1.000000   J0107020 -1.000000
    G01SB041 J0107020 -1.000000   S0114762 1.000000
    G01SB051 S0114765 1.000000   J0107020 -1.000000
    G01SB061 J0107020 -1.000000   S0114782 1.000000
    G01SB071 S0114282 1.000000   J0107020 -1.000000
    G01SB081 J0107020 -1.000000   S0114285 1.000000
    G01SB991 S0107020 -1.000000   J0107020 1.000000
    G01PT011 S0117215 1.000000   J0108341 -1.000000
    G01PT021 S0117214 1.000000   J0108341 -1.000000
    G01PT991 S0108341 -1.000000   J0108341 1.000000
    N01IA011 S0111412 1.000000   J0111500 -1.000000
    N01IA021 S0111421 1.000000   J0111500 -1.000000
    N01IA991 J0111500 1.000000   S0111500 -1.000000
    N01BF011 S0111100 1.000000   J0111000 -1.000000
    N01BF011 M01BFKB1 -1.000000   M01BFKB2 -1.000000
    N01BF021 S0111211 1.000000   J0111000 -1.000000
    N01BF031 S0111215 1.000000   J0111000 -1.000000
    N01BF041 S0111216 1.000000   J0111000 -1.000000
    N01BF051 S0111217 1.000000   J0111000 -1.000000
    N01BF061 S0111300 1.000000   J0111000 -1.000000
    N01BF991 S0111000 -1.000000   J0111000 1.000000
    N01BF991 M01BFKB1 0.350000   M01BFKB2 0.300000
    N01RF011 S0111442 1.000000   J0111404 -1.000000
    N01RF011 M01RFKB1 -1.000000
    N01RF021 S0111445 1.000000   J0111404 -1.000000
    N01RF021 M01RFKB1 -1.000000
    N01RF031 S0111454 1.000000   J0111404 -1.000000
    N01RF041 S0111300 1.000000   J0111404 -1.000000
    N01RF051 S0111479 1.000000   J0111404 -1.000000
    N01RF991 S0111404 -1.000000   J0111404 1.000000
    N01RF991 M01RFKB1 0.410000
    N01HD012 S0113112 1.000000   J0117505 -1.000000
    N01HD012 M01HDST2 -1.830000   M01HDCS2 -0.080000
    N01HD012 M01HDFM2 -0.130000
    N01HD022 S0113212 1.000000   J0117505 -1.000000
    N01HD022 M01HDST2 -1.940000   M01HDCS2 -0.230000
    N01HD022 M01HDFM2 -0.130000
    N01HD032 S0113312 1.000000   J0117505 -1.000000
    N01HD032 M01HDST2 -2.070000   M01HDCS2 -0.420000
    N01HD032 M01HDFM2 -1.410000
    N01HD042 S0113125 1.000000   J0117505 -1.000000
    N01HD042 M01HDST2 -0.310000   M01HDCS2 -0.010000
    N01HD052 S0113225 1.000000   J0117505 -1.000000
    N01HD052 M01HDST2 -0.380000   M01HDCS2 -0.020000
    N01HD062 S0113325 1.000000   J0117505 -1.000000
    N01HD062 M01HDST2 -0.490000   M01HDCS2 -0.150000
    N01HD072 S0113379 1.000000   J0117505 -1.000000
    N01HD072 M01HDST2 -2.300000   M01HDCS2 -0.800000
    N01HD072 M01HDFM2 -1.000000
    N01HD082 S0113525 1.000000   J0117505 -1.000000
    N01HD082 M01HDST2 -0.800000   M01HDCS2 -0.200000
    N01HD082 M01HDFM2 -1.000000
    N01HD092 S0113512 1.000000   J0117505 -1.000000
    N01HD092 M01HDST2 -1.950000   M01HDCS2 -0.150000
    N01HD092 M01HDFM2 -0.150000
    N01HD102 S0117251 1.000000   J0117505 -1.000000
    N01HD102 M01HDST2 -0.540000   M01HDCS2 -0.060000
    N01HD102 M01HDFM2 -0.110000
    N01HD112 S0101295 1.000000   J0117505 -1.000000
    N01HD112 M01HDST2 -0.400000   M01HDCS2 -0.600000
    N01HD112 M01HDFM2 -1.030000
    N01HD122 S0113345 1.000000   J0117505 -1.000000
    N01HD122 M01HDST2 -0.680000   M01HDCS2 -1.000000
    N01HD122 M01HDFM2 -2.000000
    N01HD142 S0117115 1.000000   J0117505 -1.000000
    N01HD142 M01HDST2 -0.900000   M01HDCS2 -0.420000
    N01HD142 M01HDFM2 -1.410000
    N01HD152 S0117314 1.000000   J0117505 -1.000000
    N01HD152 M01HDST2 -0.800000   M01HDCS2 -0.020000
    N01HD152 M01HDFM2 -0.110000
    N01HD162 S0117918 1.000000   J0117505 -1.000000
    N01HD162 M01HDST2 -0.100000   M01HDCS2 -0.020000
    N01HD162 M01HDFM2 -0.120000
    N01HD172 S0117921 1.000000   J0117505 -1.000000
    N01HD172 M01HDST2 -0.500000   M01HDCS2 -0.020000
    N01HD172 M01HDFM2 -0.120000
    N01HD182 S0117825 1.000000   J0117505 -1.000000
    N01HD182 M01HDST2 -1.200000   M01HDCS2 -11.500000
    N01HD182 M01HDFM2 -18.500000
    N01HD192 S0113344 1.000000   J0117505 -1.000000
    N01HD192 M01HDST2 -2.600000   M01HDCS2 -7.250000
    N01HD192 M01HDFM2 -101.700000
    N01HD202 S0117111 1.000000   J0117505 -1.000000
    N01HD202 M01HDST2 -3.000000   M01HDCS2 -1.290000
    N01HD202 M01HDFM2 -0.770000
    N01HD212 S0113342 1.000000   J0117505 -1.000000
    N01HD212 M01HDST2 -2.600000   M01HDCS2 -4.600000
    N01HD212 M01HDFM2 -54.000000
    N01HD222 S0117528 1.000000   J0117505 -1.000000
    N01HD222 M01HDST2 -0.400000   M01HDCS2 -0.400000
    N01HD222 M01HDFM2 -0.100000
    N01HD232 S0113343 1.000000   J0117505 -1.000000
    N01HD232 M01HDST2 -2.600000   M01HDCS2 -10.300000
    N01HD232 M01HDFM2 -150.000000
    N01HD242 S0113346 1.000000   J0117505 -1.000000
    N01HD242 M01HDST2 -0.720000   M01HDCS2 -1.100000
    N01HD242 M01HDFM2 -1.400000
    N01HD992 S0117505 -1.000000   J0117505 1.000000
    N01HD992 M01HDST2 2.000000   M01HDCS2 0.500000
    N01HD992 M01HDFM2 0.700000
    N01HK041 S0113112 1.000000   J0117502 -1.000000
    N01HK041 M01HKCS1 -0.080000
    N01HK051 S0113212 1.000000   J0117502 -1.000000
    N01HK051 M01HKCS1 -0.230000
    N01HK061 S0113312 1.000000   J0117502 -1.000000
    N01HK061 M01HKCS1 -0.420000
    N01HK071 S0117800 1.000000   J0117502 -1.000000
    N01HK071 M01HKCS1 -19.300000
    N01HK101 S0117541 1.000000   J0117502 -1.000000
    N01HK101 M01HKCS1 -22.000000
    N01HK111 S0119411 1.000000   J0117502 -1.000000
    N01HK111 M01HKCS1 -3.000000
    N01HK121 S0117111 1.000000   J0117502 -1.000000
    N01HK121 M01HKCS1 -1.290000
    N01HK131 S0117825 1.000000   J0117502 -1.000000
    N01HK131 M01HKCS1 -11.500000
    N01HK151 S0113342 1.000000   J0117502 -1.000000
    N01HK151 M01HKCS1 -4.600000
    N01HK171 S0118111 1.000000   J0117502 -1.000000
    N01HK171 M01HKCS1 -22.000000
    N01HK191 S0117551 1.000000   J0117502 -1.000000
    N01HK191 M01HKCS1 -27.000000
    N01HK211 S0118311 1.000000   J0117502 -1.000000
    N01HK211 M01HKCS1 -28.000000
    N01HK221 S0117114 1.000000   J0117502 -1.000000
    N01HK221 M01HKCS1 -1.000000
    N01HK231 S0117115 1.000000   J0117502 -1.000000
    N01HK231 M01HKCS1 -0.420000
    N01HK311 S0113512 1.000000   J0117502 -1.000000
    N01HK311 M01HKCS1 -0.150000
    N01HK331 S0101297 1.000000   J0117502 -1.000000
    N01HK331 M01HKCS1 -3.000000
    N01HK991 S0117502 -1.000000   J0117502 1.000000
    N01HK991 M01HKCS1 9.000000
    N01HK042 S0113112 1.000000   J0117503 -1.000000
    N01HK042 M01HKCS2 -0.080000
    N01HK052 S0113212 1.000000   J0117503 -1.000000
    N01HK052 M01HKCS2 -0.230000
    N01HK062 S0113312 1.000000   J0117503 -1.000000
    N01HK062 M01HKCS2 -0.420000
    N01HK072 S0117800 1.000000   J0117503 -1.000000
    N01HK072 M01HKCS2 -19.300000
    N01HK102 S0117541 1.000000   J0117503 -1.000000
    N01HK102 M01HKCS2 -22.000000
    N01HK112 S0119411 1.000000   J0117503 -1.000000
    N01HK112 M01HKCS2 -3.000000
    N01HK122 S0117111 1.000000   J0117503 -1.000000
    N01HK122 M01HKCS2 -1.290000
    N01HK132 S0117825 1.000000   J0117503 -1.000000
    N01HK132 M01HKCS2 -11.500000
    N01HK152 S0113342 1.000000   J0117503 -1.000000
    N01HK152 M01HKCS2 -4.600000
    N01HK172 S0118111 1.000000   J0117503 -1.000000
    N01HK172 M01HKCS2 -22.000000
    N01HK192 S0117551 1.000000   J0117503 -1.000000
    N01HK192 M01HKCS2 -27.000000
    N01HK212 S0118311 1.000000   J0117503 -1.000000
    N01HK212 M01HKCS2 -28.000000
    N01HK222 S0117114 1.000000   J0117503 -1.000000
    N01HK222 M01HKCS2 -1.000000
    N01HK232 S0117115 1.000000   J0117503 -1.000000
    N01HK232 M01HKCS2 -0.420000
    N01HK312 S0113512 1.000000   J0117503 -1.000000
    N01HK312 M01HKCS2 -0.150000
    N01HK332 S0101297 1.000000   J0117503 -1.000000
    N01HK332 M01HKCS2 -3.000000
    N01HK992 S0117503 -1.000000   J0117503 1.000000
    N01HK992 M01HKCS2 20.000000
    N01VA011 S0113342 1.000000   J0117400 -1.000000
    N01VA021 S0113343 1.000000   J0117400 -1.000000
    N01VA031 S0113344 1.000000   J0117400 -1.000000
    N01VA991 S0117400 -1.000000   J0117400 1.000000
    N01KA011 S0113112 1.000000   J0117500 -1.000000
    N01KA011 M01KAFM1 -0.130000   M01KACS1 -0.080000
    N01KA011 M01KAST1 -1.830000   S0110214 -0.017900
    N01KA011 S0110273 -0.000100   S0110295 -0.001000
    N01KA011 S0111681 -0.006000   S0112911 0.025000
    N01KA021 S0113212 1.000000   J0117500 -1.000000
    N01KA021 M01KAFM1 -0.130000   M01KACS1 -0.230000
    N01KA021 M01KAST1 -1.940000   S0110214 0.005000
    N01KA021 S0111681 0.001000   S0112911 -0.006000
    N01KA031 S0113312 1.000000   J0117500 -1.000000
    N01KA031 M01KAFM1 -1.410000   M01KACS1 -0.420000
    N01KA031 M01KAST1 -2.070000   S0110214 0.023900
    N01KA031 S0110273 0.000100   S0110295 0.002000
    N01KA031 S0111681 0.008000   S0112911 -0.034000
    N01KA041 S0113125 1.000000   J0117500 -1.000000
    N01KA041 M01KACS1 -0.010000   M01KAST1 -0.310000
    N01KA041 S0110214 -0.042200   S0110273 0.002200
    N01KA041 S0110295 -0.013000   S0111681 -0.062000
    N01KA041 S0112911 0.115000
    N01KA051 S0113225 1.000000   J0117500 -1.000000
    N01KA051 M01KACS1 -0.020000   M01KAST1 -0.380000
    N01KA051 S0110214 -0.028600   S0110273 0.002600
    N01KA051 S0110295 -0.013000   S0111681 -0.063000
    N01KA051 S0112911 0.102000
    N01KA061 S0113325 1.000000   J0117500 -1.000000
    N01KA061 M01KACS1 -0.150000   M01KAST1 -0.490000
    N01KA061 S0110214 -0.013900   S0110273 0.001900
    N01KA061 S0110295 -0.009000   S0111681 -0.043000
    N01KA061 S0112911 0.064000
    N01KA071 S0113379 1.000000   J0117500 -1.000000
    N01KA071 M01KAFM1 -1.000000   M01KACS1 -0.800000
    N01KA071 M01KAST1 -2.300000   S0110214 0.023900
    N01KA071 S0110273 0.000100   S0110295 0.002000
    N01KA071 S0111681 0.008000   S0112911 -0.034000
    N01KA081 S0113525 1.000000   J0117500 -1.000000
    N01KA081 M01KAFM1 -1.000000   M01KACS1 -0.200000
    N01KA081 M01KAST1 -0.800000   S0110214 -0.028600
    N01KA081 S0110273 0.002600   S0110295 -0.013000
    N01KA081 S0111681 -0.063000   S0112911 0.102000
    N01KA091 S0113512 1.000000   J0117500 -1.000000
    N01KA091 M01KAFM1 -0.150000   M01KACS1 -0.150000
    N01KA091 M01KAST1 -1.950000
    N01KA101 S0117251 1.000000   J0117500 -1.000000
    N01KA101 M01KAFM1 -0.110000   M01KACS1 -0.060000
    N01KA101 M01KAST1 -0.540000   S0110214 -0.019000
    N01KA101 S0110273 0.004000   S0110295 -0.015000
    N01KA101 S0111681 -0.070000   S0112911 0.100000
    N01KA111 S0101295 1.000000   J0117500 -1.000000
    N01KA111 M01KAFM1 -1.030000   M01KACS1 -0.600000
    N01KA111 M01KAST1 -0.400000   S0110214 0.023900
    N01KA111 S0110273 0.000100   S0110295 0.002000
    N01KA111 S0111681 0.008000   S0112911 -0.034000
    N01KA121 S0113345 1.000000   J0117500 -1.000000
    N01KA121 M01KAFM1 -2.000000   M01KACS1 -1.000000
    N01KA121 M01KAST1 -0.680000   S0110214 -0.007200
    N01KA121 S0110273 0.002200   S0110295 0.010000
    N01KA121 S0111681 0.048000   S0112911 -0.053000
    N01KA131 S0112661 1.000000   J0117500 -1.000000
    N01KA131 M01KACS1 -0.005000   M01KAST1 -1.800000
    N01KA131 S0110214 -0.038700   S0110273 -0.000300
    N01KA131 S0110295 0.001000   S0111681 0.002000
    N01KA131 S0112911 0.036000
    N01KA141 S0117115 1.000000   J0117500 -1.000000
    N01KA141 M01KAFM1 -1.410000   M01KACS1 -0.420000
    N01KA141 M01KAST1 -0.900000   S0110214 -0.016500
    N01KA141 S0110273 -0.002500   S0110295 0.017000
    N01KA141 S0111681 0.083000   S0112911 -0.081000
    N01KA151 S0117314 1.000000   J0117500 -1.000000
    N01KA151 M01KAFM1 -0.110000   M01KACS1 -0.020000
    N01KA151 M01KAST1 -0.800000   S0110214 -0.058400
    N01KA151 S0110273 0.004400   S0110295 -0.020000
    N01KA151 S0111681 -0.094000   S0112911 0.168000
    N01KA161 S0117918 1.000000   J0117500 -1.000000
    N01KA161 M01KAFM1 -0.120000   M01KACS1 -0.020000
    N01KA161 M01KAST1 -0.100000   S0110214 -0.014000
    N01KA161 S0110273 0.004000   S0110295 -0.014000
    N01KA161 S0111681 -0.067000   S0112911 0.091000
    N01KA171 S0117921 1.000000   J0117500 -1.000000
    N01KA171 M01KAFM1 -0.120000   M01KACS1 -0.020000
    N01KA171 M01KAST1 -0.500000   S0110214 -0.058400
    N01KA171 S0110273 0.004400   S0110295 -0.020000
    N01KA171 S0111681 -0.094000   S0112911 0.168000
    N01KA181 S0117825 1.000000   J0117500 -1.000000
    N01KA181 M01KAFM1 -18.500000   M01KACS1 -11.500000
    N01KA181 M01KAST1 -1.200000   S0110214 -0.007200
    N01KA181 S0110273 0.002200   S0110295 0.010000
    N01KA181 S0111681 0.048000   S0112911 -0.053000
    N01KA191 S0113344 1.000000   J0117500 -1.000000
    N01KA191 M01KAST1 -2.600000   M01KACS1 -7.250000
    N01KA191 M01KAFM1 -101.700000   S0110214 0.023900
    N01KA191 S0110273 0.000100   S0110295 0.002000
    N01KA191 S0111681 0.006000   S0112911 -0.054000
    N01KA201 S0117111 1.000000   J0117500 -1.000000
    N01KA201 M01KACS1 -1.290000   M01KAFM1 -0.770000
    N01KA201 M01KAST1 -3.000000   S0110214 -0.016500
    N01KA201 S0110273 -0.002500   S0110295 0.017000
    N01KA201 S0111681 0.083000   S0112911 -0.081000
    N01KA211 S0113342 1.000000   J0117500 -1.000000
    N01KA211 S0110214 0.023900   S0110273 0.000100
    N01KA211 S0110295 0.002000   S0111681 0.006000
    N01KA211 S0112911 -0.054000   M01KAST1 -2.600000
    N01KA211 M01KACS1 -4.600000   M01KAFM1 -54.000000
    N01KA231 S0113343 1.000000   J0117500 -1.000000
    N01KA231 S0110214 0.023900   S0110273 0.000100
    N01KA231 S0110295 0.002000   S0111681 0.006000
    N01KA231 S0112911 -0.054000   M01KAST1 -2.600000
    N01KA231 M01KACS1 -10.300000   M01KAFM1 -150.000000
    N01KA241 S0113346 1.000000   J0117500 -1.000000
    N01KA241 S0110214 -0.007200   S0110273 0.002200
    N01KA241 S0110295 0.010000   S0111681 0.048000
    N01KA241 S0112911 -0.053000   M01KAST1 -0.720000
    N01KA241 M01KACS1 -1.100000   M01KAFM1 -1.400000
    N01KA251 S0117600 1.000000   J0117500 -1.000000
    N01KA251 S0110214 -0.002000   S0110271 -0.003000
    N01KA251 S0110273 -0.005000   S0110295 -0.006000
    N01KA251 S0111681 -0.060000   S0112911 0.051000
    N01KA251 S0117531 0.025000   M01KAST1 -0.050000
    N01KA251 M01KACS1 -0.200000   M01KAFM1 -0.200000
    N01KA911 S0109999 -0.024900   S0110214 -0.014880
    N01KA911 S0110271 -0.010500   S0110273 -0.034400
    N01KA911 S0110311 -0.004920   S0111681 0.090000
    N01KA911 S0112911 0.010500   S0117531 -0.010900
    N01KA911 H0175000 1.000000   REVENUE1 1.000000
    N01KA921 REVENUE1 1.000000   S0109999 0.021800
    N01KA921 S0110214 0.009240   S0110271 -0.014000
    N01KA921 S0110273 0.008000   S0110295 0.050400
    N01KA921 S0110311 0.003060   S0111681 0.140000
    N01KA921 S0112911 -0.017500   S0117531 -0.201000
    N01KA921 H0175001 -1.000000
    N01KA991 H0175000 1.000000   H0175001 1.000000
    N01KA991 S0117500 -1.000000   J0117500 1.000000
    N01KA991 M01KAFM1 0.450000   M01KACS1 0.300000
    N01KA991 M01KAST1 3.000000
    N01BC011 S0113342 1.000000   J0117831 -1.000000
    N01BC021 S0117214 1.000000   J0117831 -1.000000
    N01BC031 S0117800 1.000000   J0117831 -1.000000
    N01BC041 S0117825 1.000000   J0117831 -1.000000
    N01BC051 S0118111 1.000000   J0117831 -1.000000
    N01BC991 S0117831 -1.000000   J0117831 1.000000
    N01VS011 S0113342 1.000000   J0117871 -1.000000
    N01VS011 M01VSVI1 -31.200000
    N01VS021 S0117800 1.000000   J0117871 -1.000000
    N01VS021 M01VSVI1 -20.500000
    N01VS031 S0118111 1.000000   J0117871 -1.000000
    N01VS031 M01VSVI1 -17.200000
    N01VS041 S0118311 1.000000   J0117871 -1.000000
    N01VS041 M01VSVI1 -15.800000
    N01VS051 S0117825 1.000000   J0117871 -1.000000
    N01VS051 M01VSVI1 -25.000000
    N01VS061 S0117111 1.000000   J0117871 -1.000000
    N01VS061 M01VSVI1 -36.300000
    N01VS071 S0118321 1.000000   J0117871 -1.000000
    N01VS071 M01VSVI1 -19.800000
    N01VS081 S0117115 1.000000   J0117871 -1.000000
    N01VS081 M01VSVI1 -38.500000
    N01VS091 S0117114 1.000000   J0117871 -1.000000
    N01VS091 M01VSVI1 -30.900000
    N01VS381 S0113345 1.000000   J0117871 -1.000000
    N01VS381 M01VSVI1 -39.000000
    N01VS391 S0117836 1.000000   J0117871 -1.000000
    N01VS391 M01VSVI1 -20.600000
    N01VS401 S0113346 1.000000   J0117871 -1.000000
    N01VS401 M01VSVI1 -32.000000
    N01VS991 S0117871 -1.000000   J0117871 1.000000
    N01VS991 M01VSVI1 19.300000
    N01VS012 S0113342 1.000000   J0117872 -1.000000
    N01VS012 M01VSVI2 -31.200000
    N01VS022 S0117800 1.000000   J0117872 -1.000000
    N01VS022 M01VSVI2 -20.500000
    N01VS032 S0118111 1.000000   J0117872 -1.000000
    N01VS032 M01VSVI2 -17.200000
    N01VS042 S0118311 1.000000   J0117872 -1.000000
    N01VS042 M01VSVI2 -15.800000
    N01VS052 S0117825 1.000000   J0117872 -1.000000
    N01VS052 M01VSVI2 -25.000000
    N01VS062 S0117111 1.000000   J0117872 -1.000000
    N01VS062 M01VSVI2 -36.300000
    N01VS072 S0118321 1.000000   J0117872 -1.000000
    N01VS072 M01VSVI2 -19.800000
    N01VS082 S0117115 1.000000   J0117872 -1.000000
    N01VS082 M01VSVI2 -38.500000
    N01VS092 S0117114 1.000000   J0117872 -1.000000
    N01VS092 M01VSVI2 -30.900000
    N01VS382 S0113345 1.000000   J0117872 -1.000000
    N01VS382 M01VSVI2 -39.000000
    N01VS392 S0117836 1.000000   J0117872 -1.000000
    N01VS392 M01VSVI2 -20.600000
    N01VS402 S0113346 1.000000   J0117872 -1.000000
    N01VS402 M01VSVI2 -32.000000
    N01VS992 S0117872 -1.000000   J0117872 1.000000
    N01VS992 M01VSVI2 17.800000
    N01GR011 S0117215 1.000000   J0116800 -1.000000
    N01GR021 S0117331 1.000000   J0116800 -1.000000
    N01GR031 S0117324 1.000000   J0116800 -1.000000
    N01GR991 S0116800 -1.000000   J0116800 1.000000
    L0101111 S0110111 -1.000000   S0110112 0.547000
    L0101111 S0110211 0.453000
    L0114421 S0111442 -1.000000   S0111431 0.500000
    L0114421 S0111441 0.500000
    L0114691 S0111469 -1.000000   S0111766 1.000000
    L0181001 S0118111 1.000000   S0118100 -1.000000
    L0181002 S0118111 0.600000   S0118311 0.400000
    L0181002 S0118100 -1.000000
    L0102041 S0110204 -1.000000   S0109999 1.000000
    L0175131 S0109999 1.000000   S0117513 -1.000000
    D0142001 S0111811 1.000000   S0104200 -1.000000
    D0147291 S0104729 -1.000000   S0111300 1.000000
    D0147292 S0104729 -1.000000   S0111891 1.000000
    D0155151 S0105515 -1.000000   S0112110 0.100000
    D0155151 S0118511 0.100000   S0118111 0.575000
    D0155151 S0118311 0.225000
    D0155201 S0118111 0.700000   S0118311 0.300000
    D0155201 S0105520 -1.000000
    D0155202 S0118321 0.300000   S0118111 0.700000
    D0155202 S0105520 -1.000000
    D0155411 S0118513 0.750000   S0118111 0.250000
    D0155411 S0105541 -1.000000
    D0155451 S0118513 0.500000   S0118111 0.500000
    D0155451 S0105545 -1.000000
    D0155491 S0105549 -1.000000   S0118513 0.300000
    D0155491 S0118321 0.100000   S0118111 0.600000
    D0155492 S0118513 0.250000   S0118111 0.650000
    D0155492 S0118321 0.100000   S0105549 -1.000000
    D0163871 S0114312 0.300000   S0114322 0.700000
    D0163871 S0106387 -1.000000
    D0163872 S0114462 1.000000   S0106387 -1.000000
    D0166331 S0114797 0.150000   S0114745 0.090000
    D0166331 S0114765 0.530000   S0114785 0.230000
    D0166331 S0106633 -1.000000
    D0166332 S0101476 0.150000   S0114765 0.650000
    D0166332 S0114785 0.200000   S0106633 -1.000000
    D0168651 S0114785 1.000000   S0106865 -1.000000
    D0169101 S0114745 1.000000   S0106910 -1.000000
    D0169511 S0106951 -1.000000   S0114742 0.300000
    D0169511 S0114765 0.700000
    D0169901 S0106990 -1.000000   S0114765 0.720000
    D0169901 S0114782 0.280000
    D0170101 S0107010 -1.000000   S0114762 0.500000
    D0170101 S0114782 0.500000
    D0170102 S0114742 0.250000   S0114782 0.750000
    D0170102 S0107010 -1.000000
    D0171511 S0114762 0.850000   S0114782 0.150000
    D0171511 S0107151 -1.000000
    D0172151 S0107215 -1.000000   S0114762 0.900000
    D0172151 S0114782 0.100000
    D0172251 S0114762 0.500000   S0114782 0.500000
    D0172251 S0107225 -1.000000
    D0172751 S0107275 -1.000000   S0114762 0.280000
    D0172751 S0114782 0.720000
    D0175041 S0114742 0.650000   S0114762 0.350000
    D0175041 S0107504 -1.000000
    D0175042 S0107504 -1.000000   S0114742 0.750000
    D0175042 S0114762 0.250000
    D0175071 S0114742 0.200000   S0114762 0.800000
    D0175071 S0107507 -1.000000
    D0175072 S0107507 -1.000000   S0114742 0.250000
    D0175072 S0114762 0.750000
    D0175351 S0114742 0.740000   S0114762 0.260000
    D0175351 S0107535 -1.000000
    D0175371 S0107537 -1.000000   S0114742 0.250000
    D0175371 S0114762 0.750000
    D0175391 S0114762 0.700000   S0114782 0.300000
    D0175391 S0107539 -1.000000
    D0194211 S0117215 0.500000   S0117921 0.500000
    D0194211 S0109421 -1.000000
    Q014110L S0119611 1.000000   REVENUE1 -7.000000
    Q014110Y S0119611 1.000000   REVENUE1 -6.580000
    Q014122L S0104122 1.000000   REVENUE1 -15.000000
    Q014122L X0904121 -1.000000
    Q014122Y S0104122 1.000000   REVENUE1 -6.110000
    Q014123L S0104123 1.000000   REVENUE1 -15.000000
    Q014123L X0904121 -1.000000
    Q014123Y S0104123 1.000000   REVENUE1 -7.520000
    Q014130L S0111861 1.000000   REVENUE1 -44.000000
    Q0141304 S0111861 1.000000   REVENUE1 -16.643000
    Q014130Y S0111861 1.000000   REVENUE1 -32.900000
    Q014200L S0104200 1.000000   REVENUE1 -14.000000
    Q014200L X0904300 -1.000000
    Q0142004 X0904300 -1.000000   S0104200 1.000000
    Q0142004 REVENUE1 -9.846000
    Q014200Y S0104200 1.000000   REVENUE1 -13.630000
    Q014200Y X0904300 -1.000000
    Q014220L X0904300 -1.000000   S0111821 1.000000
    Q014220L REVENUE1 -10.000000
    Q0142204 S0111821 1.000000   REVENUE1 -7.636000
    Q0142204 X0904300 -1.000000
    Q014220Y X0904300 -1.000000   S0111821 1.000000
    Q014220Y REVENUE1 -9.870000
    Q014240L S0111831 1.000000   REVENUE1 -12.000000
    Q014240L X0904300 -1.000000
    Q0142404 X0904300 -1.000000   S0111831 1.000000
    Q0142404 REVENUE1 -5.300000
    Q014240Y S0111831 1.000000   REVENUE1 -10.810000
    Q014240Y X0904300 -1.000000
    Q014260L X0904300 -1.000000   S0111841 1.000000
    Q014260L REVENUE1 -13.500000
    Q0142604 S0111841 1.000000   REVENUE1 -8.500000
    Q0142604 X0904300 -1.000000
    Q014260Y X0904300 -1.000000   S0111841 1.000000
    Q014260Y REVENUE1 -12.450000
    Q014291L S0111851 1.000000   REVENUE1 -8.500000
    Q014291L X0904300 -1.000000
    Q014291Y S0111851 1.000000   REVENUE1 -8.930000
    Q014291Y X0904300 -1.000000
    Q014314Y S0110295 1.000000   REVENUE1 -5.640000
    Q014421Y S0110271 1.000000   REVENUE1 -3.370000
    Q014429L S0110273 1.000000   REVENUE1 -16.970000
    Q014429Y S0110273 1.000000   REVENUE1 -12.690000
    Q014431Y S0111411 1.000000   REVENUE1 -3.375000
    Q014481L S0104481 1.000000   REVENUE1 -8.810000
    Q014481Y S0104481 1.000000   REVENUE1 -5.640000
    Q014601Y S0111681 1.000000   REVENUE1 -6.815000
    Q014621A S0104621 1.000000   REVENUE1 -24.630000
    Q014621A X0904621 -1.000000
    Q014621S S0104621 1.000000   REVENUE1 -24.290000
    Q014621S X0904621 -1.000000
    Q0146314 S0104631 1.000000   REVENUE1 -11.700000
    Q014631A REVENUE1 -26.330000   S0104631 1.000000
    Q014631A X0904631 -1.000000
    Q014633Y S0104633 1.000000   REVENUE1 -5.625000
    Q014641A REVENUE1 -28.330000   S0104641 1.000000
    Q014641A X0904641 -1.000000
    Q014643Y S0104643 1.000000   REVENUE1 -7.285000
    Q014655A S0104655 1.000000   REVENUE1 -28.330000
    Q014655A X0904874 -1.000000
    Q014655Y S0104655 1.000000   REVENUE1 -7.285000
    Q014711A S0104711 1.000000   X0904728 -1.000000
    Q014711A REVENUE1 -11.280000
    Q014719Y S0104719 1.000000   REVENUE1 -7.990000
    Q014722Y S0104722 1.000000   REVENUE1 -7.990000
    Q014728A S0111900 1.000000   X0904728 -1.000000
    Q014728A REVENUE1 -11.250000
    Q014728Y S0111900 1.000000   REVENUE1 -7.990000
    Q014729A S0104729 1.000000   X0904728 -1.000000
    Q014729A REVENUE1 -10.270000
    Q014741A S0104741 1.000000   X0904741 -1.000000
    Q014741A REVENUE1 -6.670000
    Q014741Y S0104741 1.000000   REVENUE1 -4.050000
    Q014771A S0104719 1.000000   X0904728 -1.000000
    Q014771A REVENUE1 -9.800000
    Q014874A S0104874 1.000000   X0904874 -1.000000
    Q014874A REVENUE1 -28.990000
    Q014874Y S0104874 1.000000   REVENUE1 -7.285000
    Q015001A S0105001 1.000000   REVENUE1 -7.860000
    Q015002Y S0112221 1.000000   REVENUE1 -7.050000
    Q015003Y S0112184 1.000000   REVENUE1 -6.580000
    Q015131A S0105131 1.000000   X0905131 -1.000000
    Q015131A REVENUE1 -11.270000
    Q015141A S0105141 1.000000   X0905141 -1.000000
    Q015141A REVENUE1 -11.270000
    Q0151414 S0105141 1.000000   REVENUE1 -9.900000
    Q015124Y S0105141 1.000000   REVENUE1 -7.050000
    Q015113A S0105113 1.000000   REVENUE1 -11.390000
    Q015113A X0905131 -1.000000
    Q015112A S0105112 1.000000   X0905141 -1.000000
    Q015112A REVENUE1 -11.390000
    Q015159Y S0105113 1.000000   REVENUE1 -4.050000
    Q015161Y S0105161 1.000000   REVENUE1 -4.500000
    Q015162Y S0105161 1.000000   REVENUE1 -4.500000
    Q015211A S0105211 1.000000   X0905211 -1.000000
    Q015211A REVENUE1 -11.270000
    Q015214A S0105214 1.000000   X0905214 -1.000000
    Q015214A REVENUE1 -11.270000
    Q015251A S0105161 1.000000   X0905211 -1.000000
    Q015251A REVENUE1 -12.360000
    Q015421A S0105421 1.000000   X0905421 -1.000000
    Q015421A X0905499 -1.000000   REVENUE1 -5.130000
    Q015431A S0105431 1.000000   X0905431 -1.000000
    Q015431A X0905499 -1.000000   REVENUE1 -4.540000
    Q015431Y S0105431 1.000000   REVENUE1 -1.890000
    Q015456A S0105456 1.000000   X0905499 -1.000000
    Q015456A REVENUE1 -4.430000
    Q015471L S0105471 1.000000   REVENUE1 -4.080000
    Q015471L X0905499 -1.000000
    Q015515A S0105515 1.000000   X0905515 -1.000000
    Q015515A REVENUE1 -7.100000
    Q015541A S0105541 1.000000   X0905530 -1.000000
    Q015541A REVENUE1 -4.340000
    Q015545A S0105545 1.000000   X0905530 -1.000000
    Q015545A REVENUE1 -4.340000
    Q015549A S0105549 1.000000   X0905530 -1.000000
    Q015549A REVENUE1 -4.340000
    Q015570L S0118511 1.000000   X0905570 -1.000000
    Q015570L REVENUE1 -3.120000
    Q0156004 S0105545 1.000000   REVENUE1 -3.260000
    Q016018A S0106018 1.000000   REVENUE1 -8.450000
    Q016018A X0907899 -1.000000
    Q016218L S0106218 1.000000   REVENUE1 -8.690000
    Q016218L X0907899 -1.000000
    Q016310L S0106310 1.000000   REVENUE1 -8.110000
    Q016310L X0907899 -1.000000
    Q016310Y S0106310 1.000000   REVENUE1 -7.520000
    Q016310Y X0907899 -1.000000
    Q016371A S0114336 1.000000   REVENUE1 -10.010000
    Q016371A X0907899 -1.000000
    Q016387A S0106387 1.000000   REVENUE1 -7.490000
    Q016387A X0907899 -1.000000
    Q016633A S0106633 1.000000   REVENUE1 -26.850000
    Q016633A X0907899 -1.000000
    Q016794A S0106794 1.000000   REVENUE1 -18.500000
    Q016794A X0907899 -1.000000
    Q016861Y S0114797 1.000000   REVENUE1 -12.825000
    Q016861Y X0907899 -1.000000
    Q016861L X0907899 -1.000000   S0114797 1.000000
    Q016861L REVENUE1 -12.825000
    Q016865Y S0106865 1.000000   REVENUE1 -11.700000
    Q016865Y X0907899 -1.000000
    Q016910Y X0907899 -1.000000   S0106910 1.000000
    Q016910Y REVENUE1 -11.700000
    Q016951Y S0106951 1.000000   REVENUE1 -11.700000
    Q016951Y X0907899 -1.000000
    Q016990Y X0907899 -1.000000   S0106990 1.000000
    Q016990Y REVENUE1 -11.700000
    Q017010Y S0107010 1.000000   REVENUE1 -11.700000
    Q017010Y X0907899 -1.000000
    Q017020L S0107020 1.000000   REVENUE1 -12.500000
    Q017020L X0907899 -1.000000
    Q017151A S0107151 1.000000   REVENUE1 -11.840000
    Q017151A X0907899 -1.000000
    Q017215A S0107215 1.000000   REVENUE1 -12.160000
    Q017215A X0907899 -1.000000
    Q017225A S0107225 1.000000   REVENUE1 -12.310000
    Q017225A X0907899 -1.000000
    Q017235A X0907899 -1.000000   S0114336 1.000000
    Q017235A REVENUE1 -10.790000
    Q017275A S0107275 1.000000   REVENUE1 -15.830000
    Q017275A X0907899 -1.000000
    Q017285A S0114797 1.000000   REVENUE1 -20.830000
    Q017285A X0907899 -1.000000
    Q017501A S0114742 1.000000   REVENUE1 -16.040000
    Q017501A X0907899 -1.000000
    Q017504A X0907899 -1.000000   S0107504 1.000000
    Q017504A REVENUE1 -16.040000
    Q017507A S0107507 1.000000   REVENUE1 -16.040000
    Q017507A X0907899 -1.000000
    Q017514A X0907899 -1.000000   S0114745 1.000000
    Q017514A REVENUE1 -16.950000
    Q017531A S0114702 1.000000   REVENUE1 -16.340000
    Q017531A X0907899 -1.000000
    Q017533A X0907899 -1.000000   S0114742 1.000000
    Q017533A REVENUE1 -16.340000
    Q017535A S0107535 1.000000   REVENUE1 -16.340000
    Q017535A X0907899 -1.000000
    Q017537A X0907899 -1.000000   S0107537 1.000000
    Q017537A REVENUE1 -16.340000
    Q017539A S0107539 1.000000   REVENUE1 -16.340000
    Q017539A X0907899 -1.000000
    Q017841A S0114765 1.000000   REVENUE1 -14.440000
    Q017841A X0907899 -1.000000
    Q018020A S0116310 1.000000   REVENUE1 -17.660000
    Q018020Y S0116310 1.000000   REVENUE1 -17.860000
    Q018070A S0116310 1.000000   REVENUE1 -23.660000
    Q018070Y S0116310 1.000000   REVENUE1 -18.800000
    Q018121L S0115131 1.000000   REVENUE1 -17.100000
    Q018138Y S0115111 1.000000   REVENUE1 -20.160000
    Q018241Y S0115121 1.000000   REVENUE1 -12.160000
    Q018321A S0117918 1.000000   REVENUE1 -6.240000
    Q018341A S0108341 1.000000   REVENUE1 -5.740000
    Q018387L S0117271 1.000000   REVENUE1 -5.740000
    Q019421A S0109421 1.000000   REVENUE1 -8.020000
    Q019491A S0117111 1.000000   REVENUE1 -5.400000
    K0100110 S0100110 1.000000   S0100400 -1.000000
    K0100210 S0100210 1.000000   S0100400 -1.000000
    K0100330 S0100330 1.000000   S0100400 -1.000000
    K0104200 S0111811 1.000000
    K0104220 S0111821 1.000000
    K0104621 S0104621 1.000000   S0105300 -1.000000
    K0104631 S0105300 -1.000000   S0104631 1.000000
    K0104641 S0104641 1.000000   S0105300 -1.000000
    K0104741 S0104741 1.000000   S0105300 -1.000000
    K0111100 S0111100 1.000000   S0105300 -1.000000
    K0111300 S0111300 1.000000   S0105300 -1.000000
    K0111751 S0111751 1.000000   S0105300 -1.000000
    K0117825 S0117825 1.000000
    K0117411 S0117411 1.000000
    K0118111 S0118111 1.000000
    K0112400 S0112400 1.000000   S0105300 -1.000000
    K0112425 S0112425 1.000000   S0105300 -1.000000
    K0105112 S0105112 1.000000   S0105300 -1.000000
    K0105113 S0105300 -1.000000   S0105113 1.000000
    K0105131 S0105131 1.000000   S0105300 -1.000000
    K0105141 S0105141 1.000000   S0105300 -1.000000
    K0105421 S0105421 1.000000
    K0105431 S0105431 1.000000
    K0105471 S0105471 1.000000
    I0100400 S0100400 1.000000
    I0105300 S0105300 1.000000
    E0100800 S0117114 1.000000   R0100800 -1.000000
    E0100810 S0100810 1.000000   R0100800 -1.000000
    E0100820 S0100820 1.000000   R0100800 -1.000000
    E0100825 S0110111 1.000000   R0100800 -1.000000
    E0100830 S0105431 1.000000   R0100800 -1.000000
    E0100833 R0100800 -1.000000   S0117511 1.000000
    E0109999 S0109999 1.000000
    Y0146013 S0111681 1.000000   S0304601 -1.000000
    Y0146013 REVENUE1 0.200000
    Y0146015 S0111681 1.000000   S0504601 -1.000000
    Y0146015 REVENUE1 0.200000
    Y0146683 S0111766 1.000000   S0304668 -1.000000
    Y0146683 REVENUE1 0.200000
    Y0146685 S0111766 1.000000   S0504668 -1.000000
    Y0146685 REVENUE1 0.200000
    Y0146823 S0111751 1.000000   S0304682 -1.000000
    Y0146823 REVENUE1 0.200000
    Y0146825 S0111751 1.000000   S0504682 -1.000000
    Y0146825 REVENUE1 0.200000
    Y0145573 S0111483 1.000000   S0304557 -1.000000
    Y0145573 REVENUE1 0.100000
    Y0155205 S0105520 1.000000   S0505511 -1.000000
    Y0155205 REVENUE1 0.100000
    B0300110 REVENUE1 5.250000   S0300110 -1.000000
    B0300110 S0900110 1.000000
    B0301051 S0301051 -1.000000   REVENUE1 5.910000
    B0301051 S0901051 1.000000
    B0301061 S0301061 -1.000000   S0901061 1.000000
    B0301061 REVENUE1 5.710000
    B0301137 S0301137 -1.000000   S0901137 1.000000
    B0301137 REVENUE1 11.410000
    B0301103 S0301103 -1.000000   REVENUE1 8.100000
    B0301106 S0301106 -1.000000   S0901106 1.000000
    B0301106 REVENUE1 7.820000
    B0301173 S0301173 -1.000000   S0901173 1.000000
    B0301173 REVENUE1 3.870000
    U0905431 X0905431 1.000000   LOBROW4647 1.000000
    B0301253 S0301253 -1.000000   S0901251 1.000000
    B0301253 REVENUE1 7.400000
    B0301297 S0901297 1.000000   S0301297 -1.000000
    B0301297 REVENUE1 4.100000
    B0301356 S0301356 -1.000000   S0901356 1.000000
    B0301356 REVENUE1 15.680000
    B0302021 S0302021 -1.000000   REVENUE1 121.600000
    B0302031 S0302031 -1.000000   REVENUE1 123.000000
    B0302949 S0302949 -1.000000   REVENUE1 8.000000
    B0330111 S0330111 -1.000000   REVENUE1 13.500000
    A0301011 S0300110 1.000000   S0330211 -0.002000
    A0301011 S0330251 -0.005500   S0331111 -0.053000
    A0301011 S0331291 -0.109500   S0331412 -0.018500
    A0301011 S0333112 -0.082500   S0333312 -0.056000
    A0301011 S0337800 -0.260000   S0309999 -0.002000
    A0301011 S0332111 -0.100000   S0332411 -0.150000
    A0301011 S0332511 -0.045000   S0332541 -0.044000
    A0301011 S0333512 -0.072000   R0300800 0.017700
    A0301011 R0300500 0.055700   R0300600 0.280000
    A0301011 R0300700 12.500000   V0301000 0.112400
    A0301011 REVENUE1 0.008950
    A0301021 S0300110 1.000000   S0330211 -0.002000
    A0301021 S0330251 -0.005500   S0331291 -0.109500
    A0301021 S0333112 -0.082500   S0333312 -0.106000
    A0301021 S0338111 -0.210000   S0309999 -0.002000
    A0301021 S0331412 -0.018500   S0331111 -0.053000
    A0301021 S0332111 -0.100000   S0332411 -0.150000
    A0301021 S0332511 -0.045000   S0332541 -0.044000
    A0301021 S0333512 -0.072000   R0300500 0.055700
    A0301021 R0300600 0.280000   R0300700 12.500000
    A0301021 R0300800 0.017700   V0301000 0.112400
    A0301021 REVENUE1 0.008950
    A0301036 S0301297 1.000000   S0309999 -0.005000
    A0301036 S0332541 -0.200000   S0333512 -0.355000
    A0301036 S0338111 -0.440000   V0301000 0.112400
    A0301036 REVENUE1 0.008950   R0300500 0.055700
    A0301036 R0300600 0.280000   R0300700 12.500000
    A0301036 R0300800 0.017700
    A0301046 S0333522 1.000000   S0309999 -0.005000
    A0301046 S0332851 -0.295000   S0333523 -0.700000
    A0301046 R0300500 0.055700   R0300600 0.280000
    A0301046 R0300700 12.500000   R0300800 0.017700
    A0301046 V0301000 0.112400   REVENUE1 0.008950
    A0306016 S0302949 0.125000   S0301103 0.875000
    A0306016 S0309999 -0.013000   S0301361 -0.651000
    A0306016 S0304353 -0.336000   V0306000 3.816000
    A0306016 REVENUE1 0.368400   R0300800 0.001000
    A0368016 S0338111 1.000000   S0309999 -0.015000
    A0368016 S0338511 -0.947000   S0339411 -0.038000
    A0368016 R0300500 0.950000   R0300600 1.000000
    A0368016 R0300700 4.800000   R0300800 0.003000
    A0368016 V0368000 6.439000
    A0379016 S0332511 1.000000   S0330111 0.021000
    A0379016 S0309999 -0.006000   S0330211 -0.010000
    A0379016 S0330311 -0.010000   S0330251 -0.026000
    A0379016 S0331479 -0.131000   S0332888 -0.838000
    A0379016 V0379000 1.440000   R0300500 0.055000
    A0379016 R0300600 2.900000   R0300700 19.000000
    A0379016 R0300800 0.005000   REVENUE1 0.000500
    A0379026 S0332541 1.000000   S0330111 0.021000
    A0379026 S0309999 -0.006000   S0330211 -0.012000
    A0379026 S0330311 -0.010000   S0330251 -0.031000
    A0379026 S0331479 -0.116000   S0332889 -0.846000
    A0379026 V0379000 1.440000   R0300500 0.055000
    A0379026 R0300600 2.900000   R0300700 19.000000
    A0379026 R0300800 0.005000   REVENUE1 0.000500
    A0379036 S0333112 1.000000   S0330111 0.021000
    A0379036 S0309999 -0.006000   S0330211 -0.010000
    A0379036 S0330251 -0.036000   S0330311 -0.010000
    A0379036 S0331479 -0.095000   S0332887 -0.864000
    A0379036 R0300500 0.055000   R0300600 2.900000
    A0379036 R0300700 19.000000   R0300800 0.005000
    A0379036 V0379000 1.440000   REVENUE1 0.000500
    A0383016 S0332511 0.250000   S0332541 0.250000
    A0383016 S0333112 0.500000   S0330111 0.011100
    A0383016 S0330211 -0.017500   S0330311 -0.017500
    A0383016 S0331157 -0.007500   S0332851 -0.960600
    A0383016 S0309999 -0.008000   R0300500 0.041800
    A0383016 R0300600 0.680000   R0300700 19.000000
    A0383016 R0300800 0.008400   V0383000 0.476200
    A0383016 REVENUE1 0.000890
    A0383026 S0333512 1.000000   S0330111 0.012000
    A0383026 S0309999 -0.008000   S0330211 -0.016100
    A0383026 S0330311 -0.018700   S0331157 -0.041000
    A0383026 S0333522 -0.928200   R0300500 0.041800
    A0383026 R0300600 0.680000   R0300700 19.000000
    A0383026 R0300800 0.008400   V0383000 0.476200
    A0383026 REVENUE1 0.000890
    A0383036 S0332111 0.257000   S0332411 0.386000
    A0383036 S0301251 0.357000   S0330111 0.004100
    A0383036 S0309999 -0.003000   S0330211 -0.016000
    A0383036 S0330311 -0.006600   S0331157 -0.007500
    A0383036 S0332981 -0.971000   R0300500 0.041800
    A0383036 R0300600 0.680000   R0300700 19.000000
    A0383036 R0300800 0.008400   V0383000 0.476200
    A0383036 REVENUE1 0.000890
    A0383046 S0301251 1.000000   S0330111 0.006000
    A0383046 S0330211 -0.016000   S0309999 -0.005000
    A0383046 S0330311 -0.008000   S0331157 -0.008000
    A0383046 S0332880 -0.969000   V0383000 0.463000
    A0383046 R0300500 0.041800   R0300600 0.680000
    A0383046 R0300700 19.000000   R0300800 0.008400
    A0383046 REVENUE1 0.000890
    A0383056 S0332888 1.000000   S0330111 0.011100
    A0383056 S0309999 -0.008000   S0330211 -0.015000
    A0383056 S0330311 -0.015000   S0331157 -0.007500
    A0383056 S0332890 -0.965600   V0383000 0.463000
    A0383056 R0300500 0.041800   R0300600 0.680000
    A0383056 R0300700 19.000000   R0300800 0.008400
    A0383056 REVENUE1 0.000890
    A0383066 S0332889 1.000000   S0330111 0.011100
    A0383066 S0309999 -0.008000   S0330211 -0.014000
    A0383066 S0330311 -0.016000   S0331157 -0.007500
    A0383066 S0332891 -0.965600   V0383000 0.463000
    A0383066 R0300500 0.041800   R0300600 0.680000
    A0383066 R0300700 19.000000   R0300800 0.008400
    A0383066 REVENUE1 0.000890
    A0383076 S0332887 1.000000   S0330111 0.015000
    A0383076 S0309999 -0.008000   S0330211 -0.018000
    A0383076 S0330311 -0.017000   S0331157 -0.006400
    A0383076 S0332893 -0.965600   R0300500 0.041800
    A0383076 R0300600 0.680000   R0300700 19.800000
    A0383076 R0300800 0.008400   V0383000 0.463000
    A0383076 REVENUE1 0.000890
    A0383086 S0332411 1.000000   S0330111 0.004000
    A0383086 S0330211 -0.016000   S0309999 -0.003000
    A0383086 S0330311 -0.005000   S0331157 -0.009000
    A0383086 S0332876 -0.971000   R0300500 0.041800
    A0383086 R0300600 0.680000   R0300700 19.000000
    A0383086 R0300800 0.008400   V0383000 0.463000
    A0383086 REVENUE1 0.000890
    A0383096 S0301253 1.000000   S0330111 0.006000
    A0383096 S0309999 -0.005000   S0330211 -0.016000
    A0383096 S0330311 -0.008000   S0331157 -0.008000
    A0383096 S0332882 -0.969000   V0383000 0.463000
    A0383096 R0100500 0.041800   R0100600 0.680000
    A0383096 R0100700 19.000000   R0100800 0.008400
    A0383096 REVENUE1 0.000890
    A0386016 S0330311 1.000000   S0339611 -0.750000
    A0386016 S0309999 -0.250000   V0386000 31.700000
    A0386016 R0300500 0.790000   R0300600 17.000000
    A0386016 R0300700 100.000000   R0300800 0.049300
    C0300500 R0300500 -1.000000   REVENUE1 0.480200
    C0300600 R0300600 -1.000000   REVENUE1 0.000580
    C0300700 R0300700 -1.000000   REVENUE1 0.001390
    G0386171 S0304682 1.000000   J0304621 -1.000000
    G0386171 M0386TF0 -1.282000   M0386DK1 -44.900000
    G0386171 M0386RN0 -125.100000   M0386MN0 -113.200000
    G0386171 M0386FN0 -3455.000000   M0386RP0 -230.800000
    G0386171 M0386RP1 -230.800000   M0386AR1 -0.620000
    G0386331 S0304601 1.000000   J0304621 -1.000000
    G0386331 M0386TF0 -1.342000   M0386DK1 -67.100000
    G0386331 M0386RN0 -127.600000   M0386MN0 -113.000000
    G0386331 M0386FN0 -6307.400000   M0386RP0 -518.000000
    G0386331 M0386RP1 -518.000000   M0386AR1 -0.650000
    G0386371 S0301137 1.000000   J0304621 -1.000000
    G0386371 M0386TF0 -1.136000   M0386RN0 -119.800000
    G0386371 M0386MN0 -103.900000   M0386RP0 -68.200000
    G0386371 M0386RP1 -68.200000   M0386AR1 -1.000000
    G0386411 S0301061 1.000000   J0304621 -1.000000
    G0386411 M0386TF0 -1.460000   M0386DK1 -106.600000
    G0386411 M0386RN0 -111.000000   M0386MN0 -113.200000
    G0386411 M0386FN0 -6927.700000   M0386RP0 -600.000000
    G0386411 M0386RP1 -600.000000   M0386AR1 -0.050000
    G0386421 S0301106 1.000000   J0304621 -1.000000
    G0386421 M0386TF0 -1.600000   M0386DK1 -160.000000
    G0386421 M0386RN0 -161.600000   M0386MN0 -155.200000
    G0386421 M0386FN0 -14880.000000   M0386RP0 -1696.000000
    G0386421 M0386RP1 -1696.000000   M0386KR1 -40.000000
    G0386431 S0304353 1.000000   J0304621 -1.000000
    G0386431 M0386TF0 -1.340000   M0386DK1 -134.000000
    G0386431 M0386RN0 -156.800000   M0386MN0 -135.300000
    G0386431 M0386FN0 -15678.000000   M0386RP0 -536.200000
    G0386431 M0386RP1 -536.200000   M0386KR1 -5.000000
    G0386431 M0386OX1 -1.000000
    G0386441 S0301356 1.000000   J0304621 -1.000000
    G0386441 M0386TF0 -1.250000   M0386DK1 -125.000000
    G0386441 M0386RN0 -140.625000   M0386MN0 -122.500000
    G0386441 M0386FN0 -14062.500000   M0386RP0 -1750.000000
    G0386441 M0386RP1 -1750.000000   M0386KR1 -10.000000
    G0386441 M0386ME1 -1.000000   M0386OX1 -1.000000
    G0386451 S0304668 1.000000   J0304621 -1.000000
    G0386451 M0386TF0 -1.219000   M0386DK1 -34.100000
    G0386451 M0386RN0 -124.300000   M0386MN0 -114.600000
    G0386451 M0386FN0 -2663.400000   M0386RP0 -439.000000
    G0386451 M0386RP1 -439.000000   M0386AR1 -0.650000
    G0386561 S0331412 1.000000   J0304621 -1.000000
    G0386561 M0386TF0 -1.582000   M0386DK1 -158.200000
    G0386561 M0386RN0 -155.040000   M0386MN0 -148.700000
    G0386561 M0386FN0 -14238.000000   M0386RP0 -2214.000000
    G0386561 M0386RP1 -2214.000000   M0386KR1 -40.000000
    G0386571 S0331291 1.000000   J0304621 -1.000000
    G0386571 M0386TF0 -1.410000   M0386DK1 -45.100000
    G0386571 M0386RN0 -90.200000   M0386MN0 -88.800000
    G0386571 M0386FN0 -3068.200000   M0386RP0 -655.700000
    G0386571 M0386RP1 -655.700000   M0386AR1 -0.050000
    G0386581 S0301051 1.000000   J0304621 -1.000000
    G0386581 M0386TF0 -1.499000   M0386DK1 -119.900000
    G0386581 M0386RN0 -122.500000   M0386MN0 -116.200000
    G0386581 M0386FN0 -8512.900000   M0386RP0 -1124.300000
    G0386581 M0386RP1 -1124.300000   M0386AR1 -0.050000
    G0386591 S0331157 1.000000   J0304621 -1.000000
    G0386591 M0386TF0 -1.350000   M0386RN0 -81.000000
    G0386591 M0386MN0 -81.000000   M0386RP0 -135.100000
    G0386591 M0386RP1 -135.100000   M0386AR1 -0.050000
    G0386641 S0331111 1.000000   J0304621 -1.000000
    G0386641 M0386TF0 -1.515000   M0386DK1 -148.470000
    G0386641 M0386RN0 -121.200000   M0386MN0 -121.200000
    G0386641 M0386FN0 -9947.500000   M0386RP0 -928.700000
    G0386641 M0386RP1 -928.700000   M0386AR1 -0.020000
    G0386711 S0301173 1.000000   J0304621 -1.000000
    G0386711 M0386TF0 -1.379000   M0386DK1 -82.700000
    G0386711 M0386RN0 -122.700000   M0386MN0 -117.200000
    G0386711 M0386FN0 -6202.500000   M0386RP0 -551.600000
    G0386711 M0386RP1 -551.600000   M0386AR1 -0.120000
    G0386771 S0302021 1.000000   J0304621 -1.000000
    G0386771 M0386EF0 -394.200000
    G0386781 S0302031 1.000000   J0304621 -1.000000
    G0386781 M0386MF0 -394.200000
    G0386811 M0386RN0 17.200000   M0386P29 4.000000
    G0386811 M0386EF0 -1.000000   M0386PM9 2.500000
    G0386811 M0386MN0 17.200000   M0386PLE -1.000000
    G0386821 M0386RN0 21.000000   M0386P19 6.666670
    G0386821 M0386EF0 -1.000000   M0386MN0 21.000000
    G0386821 M0386PM9 2.500000   M0386PLE -1.000000
    G0386831 M0386FN0 -629.000000   M0386EF0 -1.000000
    G0386831 M0386MF0 1.000000   M0386PM9 2.500000
    G0386971 M0386DK1 1.000000   M0386FN0 75.500000
    G0386981 M0386TF0 1.000000   M0386RN0 87.500000
    G0386981 M0386MN0 78.500000   M0386RP0 600.000000
    G0386981 M0386RP1 350.000000   M0386EF0 0.400000
    G0386981 M0386P19 -1.000000   M0386P29 -1.000000
    G0386981 M0386PM9 -1.000000
    G0386991 S0304621 -1.000000   J0304621 1.000000
    G0386991 M0386AR1 0.620000   M0386KR1 12.000000
    G0386991 M0386ME1 0.060000   M0386OX1 0.100000
    G0392171 S0304682 1.000000   J0304631 -1.000000
    G0392171 M0392TF0 -1.282000   M0392DK0 -44.900000
    G0392171 M0392DK1 -44.900000   M0392RN0 -125.100000
    G0392171 M0392MN0 -113.200000   M0392FN0 -3455.000000
    G0392171 M0392RP0 -230.800000   M0392RP1 -230.800000
    G0392171 M0392AR1 -0.620000
    G0392191 S0304557 1.000000   J0304631 -1.000000
    G0392191 M0392TF0 -1.600000   M0392DK0 -160.000000
    G0392191 M0392DK1 -160.000000   M0392RN0 -160.000000
    G0392191 M0392MN0 -156.000000   M0392FN0 -14800.000000
    G0392191 M0392RP0 -1696.000000   M0392RP1 -1696.000000
    G0392191 M0392KR1 -40.000000
    G0392331 S0304601 1.000000   J0304631 -1.000000
    G0392331 M0392TF0 -1.342000   M0392DK0 -67.100000
    G0392331 M0392DK1 -67.100000   M0392RN0 -127.600000
    G0392331 M0392MN0 -113.000000   M0392FN0 -6307.400000
    G0392331 M0392RP0 -518.000000   M0392RP1 -518.000000
    G0392331 M0392AR1 -0.650000
    G0392371 S0301137 1.000000   J0304631 -1.000000
    G0392371 M0392TF0 -1.136000   M0392RN0 -119.800000
    G0392371 M0392MN0 -103.900000   M0392RP0 -68.200000
    G0392371 M0392RP1 -68.200000   M0392AR1 -1.000000
    G0392411 S0301061 1.000000   J0304631 -1.000000
    G0392411 M0392TF0 -1.460000   M0392DK0 -106.600000
    G0392411 M0392DK1 -106.600000   M0392RN0 -111.000000
    G0392411 M0392MN0 -113.200000   M0392FN0 -6927.700000
    G0392411 M0392RP0 -600.000000   M0392RP1 -600.000000
    G0392411 M0392AR1 -0.050000
    G0392421 S0301106 1.000000   J0304631 -1.000000
    G0392421 M0392TF0 -1.600000   M0392DK0 -160.000000
    G0392421 M0392DK1 -160.000000   M0392RN0 -161.600000
    G0392421 M0392MN0 -155.200000   M0392FN0 -14800.000000
    G0392421 M0392RP0 -1696.000000   M0392RP1 -1696.000000
    G0392421 M0392KR1 -40.000000
    G0392431 S0304353 1.000000   J0304631 -1.000000
    G0392431 M0392TF0 -1.340000   M0392DK0 -134.000000
    G0392431 M0392DK1 -134.000000   M0392RN0 -156.800000
    G0392431 M0392MN0 -135.300000   M0392FN0 -15678.000000
    G0392431 M0392RP0 -536.200000   M0392RP1 -536.200000
    G0392431 M0392KR1 -5.000000   M0392OX1 -1.000000
    G0392441 S0301356 1.000000   J0304631 -1.000000
    G0392441 M0392TF0 -1.250000   M0392DK0 -125.000000
    G0392441 M0392DK1 -125.000000   M0392RN0 -140.625000
    G0392441 M0392MN0 -122.500000   M0392FN0 -14062.500000
    G0392441 M0392RP0 -1750.000000   M0392RP1 -1750.000000
    G0392441 M0392KR1 -10.000000   M0392ME1 -1.000000
    G0392441 M0392OX1 -1.000000
    G0392451 S0304668 1.000000   J0304631 -1.000000
    G0392451 M0392TF0 -1.219000   M0392DK0 -34.100000
    G0392451 M0392DK1 -34.100000   M0392RN0 -124.300000
    G0392451 M0392MN0 -114.600000   M0392FN0 -2663.400000
    G0392451 M0392RP0 -439.000000   M0392RP1 -439.000000
    G0392451 M0392AR1 -0.650000
    G0392461 S0331479 1.000000   J0304631 -1.000000
    G0392461 M0392TF0 -1.388000   M0392DK0 -99.940000
    G0392461 M0392DK1 -99.940000   M0392RN0 -130.500000
    G0392461 M0392MN0 -115.200000   M0392FN0 -8194.800000
    G0392461 M0392RP0 -485.800000   M0392RP1 -485.800000
    G0392461 M0392AR1 -0.500000
    G0392561 S0331412 1.000000   J0304631 -1.000000
    G0392561 M0392TF0 -1.582000   M0392DK0 -158.200000
    G0392561 M0392DK1 -158.200000   M0392RN0 -155.040000
    G0392561 M0392MN0 -148.700000   M0392FN0 -14238.000000
    G0392561 M0392RP0 -2214.000000   M0392RP1 -2214.000000
    G0392561 M0392KR1 -40.000000
    G0392571 S0331291 1.000000   J0304631 -1.000000
    G0392571 M0392TF0 -1.410000   M0392DK1 -45.100000
    G0392571 M0392DK0 -45.100000   M0392RN0 -90.200000
    G0392571 M0392MN0 -88.800000   M0392FN0 -3068.200000
    G0392571 M0392RP0 -655.700000   M0392RP1 -655.700000
    G0392571 M0392AR1 -0.050000
    G0392581 S0301051 1.000000   J0304631 -1.000000
    G0392581 M0392TF0 -1.499000   M0392DK0 -119.900000
    G0392581 M0392DK1 -119.900000   M0392RN0 -122.500000
    G0392581 M0392MN0 -116.200000   M0392FN0 -8512.900000
    G0392581 M0392RP0 -1124.300000   M0392RP1 -1124.300000
    G0392581 M0392AR1 -0.050000
    G0392591 S0331157 1.000000   J0304631 -1.000000
    G0392591 M0392TF0 -1.350000   M0392RN0 -81.000000
    G0392591 M0392MN0 -81.000000   M0392RP0 -135.100000
    G0392591 M0392RP1 -135.100000   M0392AR1 -0.050000
    G0392641 S0331111 1.000000   J0304631 -1.000000
    G0392641 M0392TF0 -1.515000   M0392DK1 -148.470000
    G0392641 M0392DK0 -148.470000   M0392RN0 -121.200000
    G0392641 M0392MN0 -121.200000   M0392FN0 -9947.500000
    G0392641 M0392RP0 -928.700000   M0392RP1 -928.700000
    G0392641 M0392AR1 -0.020000
    G0392711 S0301173 1.000000   J0304631 -1.000000
    G0392711 M0392TF0 -1.379000   M0392DK1 -82.700000
    G0392711 M0392DK0 -82.700000   M0392RN0 -122.700000
    G0392711 M0392MN0 -117.200000   M0392FN0 -6202.500000
    G0392711 M0392RP0 -551.600000   M0392RP1 -551.600000
    G0392711 M0392AR1 -0.120000
    G0392771 S0302021 1.000000   J0304631 -1.000000
    G0392771 M0392EF0 -394.200000
    G0392781 S0302031 1.000000   J0304631 -1.000000
    G0392781 M0392MF0 -394.200000
    G0392811 M0392RN0 13.500000   M0392MN0 13.500000
    G0392811 M0392P29 4.000000   M0392PM9 2.500000
    G0392811 M0392PLE -1.000000   M0392EF0 -1.000000
    G0392821 M0392RN0 17.500000   M0392MN0 17.500000
    G0392821 M0392P19 6.666670   M0392PM9 2.500000
    G0392821 M0392PLE -1.000000   M0392EF0 -1.000000
    G0392831 M0392FN0 -629.000000   M0392MF0 1.000000
    G0392831 M0392PM9 2.500000   M0392EF0 -1.000000
    G0392971 M0392DK1 1.000000   M0392FN0 81.500000
    G0392981 M0392TF0 1.000000   M0392DK0 45.000000
    G0392981 M0392RN0 93.500000   M0392RP0 600.000000
    G0392981 M0392RP1 350.000000   M0392MN0 84.500000
    G0392981 M0392P19 -1.000000   M0392P29 -1.000000
    G0392981 M0392PM9 -1.000000   M0392EF0 0.400000
    G0392991 S0304631 -1.000000   J0304631 1.000000
    G0392991 M0392KR1 12.000000   M0392AR1 0.620000
    G0392991 M0392OX1 0.100000   M0392ME1 0.060000
    G0398171 S0304682 1.000000   J0304641 -1.000000
    G0398171 M0398TF0 -1.282000   M0398DK0 -44.900000
    G0398171 M0398DK1 -44.900000   M0398RN0 -125.100000
    G0398171 M0398MN0 -113.200000   M0398FN0 -3455.000000
    G0398171 M0398RP0 -230.800000   M0398RP1 -230.800000
    G0398171 M0398AR1 -0.620000
    G0398191 S0304557 1.000000   J0304641 -1.000000
    G0398191 M0398TF0 -1.600000   M0398DK0 -160.000000
    G0398191 M0398DK1 -160.000000   M0398RN0 -161.600000
    G0398191 M0398MN0 -155.200000   M0398FN0 -14880.000000
    G0398191 M0398RP0 -1696.000000   M0398RP1 -1696.000000
    G0398191 M0398KR1 -40.000000
    G0398331 S0304601 1.000000   J0304641 -1.000000
    G0398331 M0398TF0 -1.342000   M0398DK0 -67.100000
    G0398331 M0398DK1 -67.100000   M0398RN0 -127.600000
    G0398331 M0398MN0 -113.000000   M0398FN0 -6307.400000
    G0398331 M0398RP0 -518.000000   M0398RP1 -518.000000
    G0398331 M0398AR1 -0.650000
    G0398371 S0301137 1.000000   J0304641 -1.000000
    G0398371 M0398TF0 -1.136000   M0398RN0 -119.800000
    G0398371 M0398MN0 -103.900000   M0398RP0 -68.200000
    G0398371 M0398RP1 -68.200000   M0398AR1 -1.000000
    G0398411 S0301061 1.000000   J0304641 -1.000000
    G0398411 M0398TF0 -1.460000   M0398DK0 -106.600000
    G0398411 M0398DK1 -106.600000   M0398RN0 -111.000000
    G0398411 M0398MN0 -113.200000   M0398FN0 -6927.700000
    G0398411 M0398RP0 -600.000000   M0398RP1 -600.000000
    G0398411 M0398AR1 -0.050000
    G0398431 S0304353 1.000000   J0304641 -1.000000
    G0398431 M0398TF0 -1.340000   M0398DK0 -134.000000
    G0398431 M0398DK1 -134.000000   M0398RN0 -156.800000
    G0398431 M0398MN0 -135.300000   M0398FN0 -15678.000000
    G0398431 M0398RP0 -536.200000   M0398RP1 -536.200000
    G0398431 M0398KR1 -5.000000   M0398OX1 -1.000000
    G0398441 S0301356 1.000000   J0304641 -1.000000
    G0398441 M0398TF0 -1.250000   M0398DK0 -125.000000
    G0398441 M0398DK1 -125.000000   M0398RN0 -140.625000
    G0398441 M0398MN0 -122.500000   M0398FN0 -14062.500000
    G0398441 M0398RP0 -1750.000000   M0398RP1 -1750.000000
    G0398441 M0398KR1 -10.000000   M0398ME1 -1.000000
    G0398441 M0398OX1 -1.000000
    G0398451 S0304668 1.000000   J0304641 -1.000000
    G0398451 M0398TF0 -1.219000   M0398DK0 -34.100000
    G0398451 M0398DK1 -34.100000   M0398RN0 -124.300000
    G0398451 M0398MN0 -114.600000   M0398FN0 -2663.400000
    G0398451 M0398RP0 -439.000000   M0398RP1 -439.000000
    G0398451 M0398AR1 -0.650000
    G0398461 S0331479 1.000000   J0304641 -1.000000
    G0398461 M0398TF0 -1.388000   M0398DK0 -99.940000
    G0398461 M0398DK1 -99.940000   M0398RN0 -130.500000
    G0398461 M0398MN0 -115.200000   M0398FN0 -8194.800000
    G0398461 M0398RP0 -485.800000   M0398RP1 -485.800000
    G0398461 M0398AR1 -0.500000
    G0398561 S0331412 1.000000   J0304641 -1.000000
    G0398561 M0398TF0 -1.582000   M0398DK0 -158.200000
    G0398561 M0398DK1 -158.200000   M0398RN0 -155.040000
    G0398561 M0398MN0 -148.700000   M0398FN0 -14238.000000
    G0398561 M0398RP0 -2214.000000   M0398RP1 -2214.000000
    G0398561 M0398KR1 -40.000000
    G0398581 S0301051 1.000000   J0304641 -1.000000
    G0398581 M0398TF0 -1.499000   M0398DK0 -119.900000
    G0398581 M0398DK1 -119.900000   M0398RN0 -122.500000
    G0398581 M0398MN0 -116.200000   M0398FN0 -8512.900000
    G0398581 M0398RP0 -1124.300000   M0398RP1 -1124.300000
    G0398581 M0398AR1 -0.050000
    G0398641 S0331111 1.000000   J0304641 -1.000000
    G0398641 M0398TF0 -1.515000   M0398DK0 -148.470000
    G0398641 M0398DK1 -148.470000   M0398RN0 -121.200000
    G0398641 M0398MN0 -121.200000   M0398FN0 -9947.500000
    G0398641 M0398RP0 -928.700000   M0398RP1 -928.700000
    G0398641 M0398AR1 -0.020000
    G0398711 S0301173 1.000000   J0304641 -1.000000
    G0398711 M0398TF0 -1.379000   M0398DK0 -82.700000
    G0398711 M0398DK1 -82.700000   M0398RN0 -122.700000
    G0398711 M0398MN0 -117.200000   M0398FN0 -6202.500000
    G0398711 M0398RP0 -551.600000   M0398RP1 -551.600000
    G0398711 M0398AR1 -0.120000
    G0398771 S0302021 1.000000   J0304641 -1.000000
    G0398771 M0398EF0 -394.200000
    G0398781 S0302031 1.000000   J0304641 -1.000000
    G0398781 M0398MF0 -394.200000
    G0398811 M0398RN0 9.760000   M0398MN0 9.760000
    G0398811 M0398EF0 -1.000000   M0398P29 4.000000
    G0398811 M0398PM9 2.500000   M0398PLE -1.000000
    G0398821 M0398RN0 12.130000   M0398MN0 12.130000
    G0398821 M0398EF0 -1.000000   M0398P19 6.666670
    G0398821 M0398PM9 2.500000   M0398PLE -1.000000
    G0398831 M0398MF0 1.000000   M0398PM9 2.500000
    G0398831 M0398EF0 -1.000000   M0398FN0 -629.000000
    G0398971 M0398DK1 1.000000   M0398FN0 90.000000
    G0398981 M0398TF0 1.000000   M0398DK0 45.000000
    G0398981 M0398RN0 98.000000   M0398MN0 88.000000
    G0398981 M0398RP0 600.000000   M0398RP1 350.000000
    G0398981 M0398EF0 0.400000   M0398P19 -1.000000
    G0398981 M0398P29 -1.000000   M0398PM9 -1.000000
    G0398991 S0304641 -1.000000   J0304641 1.000000
    G0398991 M0398AR1 0.620000   M0398KR1 12.000000
    G0398991 M0398ME1 0.060000   M0398OX1 0.100000
    G03FK011 S0333112 1.000000   J0305431 -1.000000
    G03FK011 M03FKVI1 -51.800000
    G03FK021 S0333312 1.000000   J0305431 -1.000000
    G03FK021 M03FKVI1 -36.000000
    G03FK031 S0337800 1.000000   J0305431 -1.000000
    G03FK031 M03FKVI1 -20.600000
    G03FK041 S0301297 1.000000   J0305431 -1.000000
    G03FK041 M03FKVI1 -30.900000
    G03FK051 S0333512 1.000000   J0305431 -1.000000
    G03FK051 M03FKVI1 -45.000000
    G03FK061 S0338111 1.000000   J0305431 -1.000000
    G03FK061 M03FKVI1 -17.700000
    G03FK991 S0305431 -1.000000   J0305431 1.000000
    G03FK991 M03FKVI1 30.200000
    G03GN011 S0332111 1.000000   J0305131 -1.000000
    G03GN011 M03GNZP1 14.000000   M03GNVI1 -58.000000
    G03GN011 M03GNVI2 -58.000000   M03GNST1 -0.200000
    G03GN011 M03GNTF0 -1.242000   M03GN350 -124.200000
    G03GN011 M03GN370 -124.200000
    G03GN021 S0332851 1.000000   J0305131 -1.000000
    G03GN021 M03GNZP1 -16.000000   M03GNVI1 -43.000000
    G03GN021 M03GNVI2 -43.000000   M03GNST1 -0.150000
    G03GN021 M03GNTF0 -1.129000   M03GN350 -56.500000
    G03GN021 M03GN370 -67.800000
    G03GN031 S0301251 1.000000   J0305131 -1.000000
    G03GN031 M03GNVI1 -46.000000   M03GNVI2 -46.000000
    G03GN031 M03GNST1 -0.400000   M03GNTF0 -1.197000
    G03GN031 M03GN350 -111.720000   M03GN370 -118.180000
    G03GN041 S0333112 1.000000   J0305131 -1.000000
    G03GN041 M03GNZP1 -22.000000   M03GNVI1 -31.800000
    G03GN041 M03GNVI2 -31.800000   M03GNST1 -1.800000
    G03GN041 M03GNTF0 -1.108000   M03GN350 -55.400000
    G03GN041 M03GN370 -61.500000
    G03GN051 S0332411 1.000000   J0305131 -1.000000
    G03GN051 M03GNZP1 14.000000   M03GNVI1 -49.500000
    G03GN051 M03GNVI2 -49.500000   M03GNST1 -0.700000
    G03GN051 M03GNTF0 -1.204000   M03GN350 -118.200000
    G03GN051 M03GN370 -118.200000
    G03GN061 S0332511 1.000000   J0305131 -1.000000
    G03GN061 M03GNZP1 -18.000000   M03GNVI1 -43.000000
    G03GN061 M03GNVI2 -43.000000   M03GNST1 -1.700000
    G03GN061 M03GNTF0 -1.128000   M03GN350 -51.000000
    G03GN061 M03GN370 -79.000000
    G03GN071 S0332541 1.000000   J0305131 -1.000000
    G03GN071 M03GNZP1 -3.000000   M03GNVI1 -37.000000
    G03GN071 M03GNVI2 -37.000000   M03GNST1 -1.700000
    G03GN071 M03GNTF0 -1.136000   M03GN350 -78.000000
    G03GN071 M03GN370 -108.000000
    G03GN091 S0332888 1.000000   J0305131 -1.000000
    G03GN091 M03GNZP1 -12.000000   M03GNVI1 -45.000000
    G03GN091 M03GNVI2 -45.000000   M03GNST1 -1.350000
    G03GN091 M03GNTF0 -1.128000   M03GN350 -67.700000
    G03GN091 M03GN370 -79.000000
    G03GN101 S0332889 1.000000   J0305131 -1.000000
    G03GN101 M03GNZP1 17.000000   M03GNVI1 -40.000000
    G03GN101 M03GNVI2 -40.000000   M03GNST1 -1.850000
    G03GN101 M03GNTF0 -1.137000   M03GN350 -69.320000
    G03GN101 M03GN370 -93.180000
    G03GN111 S0332880 1.000000   J0305131 -1.000000
    G03GN111 M03GNVI1 -51.000000   M03GNVI2 -51.000000
    G03GN111 M03GNST1 -0.080000   M03GNTF0 -1.197000
    G03GN111 M03GN350 -111.720000   M03GN370 -118.180000
    G03GN121 S0332890 1.000000   J0305131 -1.000000
    G03GN121 M03GNZP1 12.000000   M03GNVI1 -45.000000
    G03GN121 M03GNVI2 -45.000000   M03GNST1 -0.200000
    G03GN121 M03GNTF0 -1.128000   M03GN350 -67.700000
    G03GN121 M03GN370 -79.000000
    G03GN131 S0332891 1.000000   J0305131 -1.000000
    G03GN131 M03GNZP1 17.000000   M03GNVI1 -40.000000
    G03GN131 M03GNVI2 -40.000000   M03GNST1 -0.300000
    G03GN131 M03GNTF0 -1.137000   M03GN350 -69.320000
    G03GN131 M03GN370 -93.180000
    G03GN141 S0332887 1.000000   J0305131 -1.000000
    G03GN141 M03GNZP1 5.000000   M03GNVI1 -31.800000
    G03GN141 M03GNVI2 -31.800000   M03GNST1 -1.900000
    G03GN141 M03GNTF0 -1.108000   M03GN350 -55.400000
    G03GN141 M03GN370 -61.500000
    G03GN151 S0332893 1.000000   J0305131 -1.000000
    G03GN151 M03GNZP1 5.000000   M03GNVI1 -31.800000
    G03GN151 M03GNVI2 -31.800000   M03GNST1 -0.300000
    G03GN151 M03GNTF0 -1.108000   M03GN350 -55.400000
    G03GN151 M03GN370 -61.500000
    G03GN161 S0332876 1.000000   J0305131 -1.000000
    G03GN161 M03GNZP1 14.000000   M03GNVI1 -49.500000
    G03GN161 M03GNVI2 -49.500000   M03GNST1 -0.100000
    G03GN161 M03GNTF0 -1.204000   M03GN350 -118.200000
    G03GN161 M03GN370 -118.200000
    G03GN981 M03GNTF0 1.000000   M03GN350 95.000000
    G03GN981 M03GN370 90.000000
    G03GN991 S0305131 -1.000000   J0305131 1.000000
    G03GN991 M03GNZP1 5.000000   M03GNVI1 52.000000
    G03GN991 M03GNVI2 41.500000   M03GNST1 0.500000
    G03GO011 S0332111 1.000000   J0305113 -1.000000
    G03GO011 M03GOZP1 14.000000   M03GOVI1 -58.000000
    G03GO011 M03GOVI2 -58.000000   M03GOST1 -0.200000
    G03GO011 M03GOTF0 -1.242000   M03GO350 -124.200000
    G03GO011 M03GO370 -124.200000
    G03GO021 S0332851 1.000000   J0305113 -1.000000
    G03GO021 M03GOZP1 -16.000000   M03GOVI1 -43.000000
    G03GO021 M03GOVI2 -43.000000   M03GOST1 -0.150000
    G03GO021 M03GOTF0 -1.129000   M03GO350 -56.500000
    G03GO021 M03GO370 -67.800000
    G03GO031 S0301251 1.000000   J0305113 -1.000000
    G03GO031 M03GOVI1 -46.000000   M03GOVI2 -46.000000
    G03GO031 M03GOST1 -0.400000   M03GOTF0 -1.197000
    G03GO031 M03GO350 -111.720000   M03GO370 -118.180000
    G03GO041 S0333112 1.000000   J0305113 -1.000000
    G03GO041 M03GOZP1 -22.000000   M03GOVI1 -31.800000
    G03GO041 M03GOVI2 -31.800000   M03GOST1 -1.800000
    G03GO041 M03GOTF0 -1.108000   M03GO350 -55.400000
    G03GO041 M03GO370 -61.500000
    G03GO051 S0332411 1.000000   J0305113 -1.000000
    G03GO051 M03GOZP1 14.000000   M03GOVI1 -49.500000
    G03GO051 M03GOVI2 -49.500000   M03GOST1 -0.700000
    G03GO051 M03GOTF0 -1.204000   M03GO350 -118.200000
    G03GO051 M03GO370 -118.200000
    G03GO061 S0332511 1.000000   J0305113 -1.000000
    G03GO061 M03GOZP1 -18.000000   M03GOVI1 -43.000000
    G03GO061 M03GOVI2 -43.000000   M03GOST1 -1.700000
    G03GO061 M03GO350 -51.000000   M03GO370 -79.000000
    G03GO061 M03GOTF0 -1.128000
    G03GO071 S0332541 1.000000   J0305113 -1.000000
    G03GO071 M03GOZP1 -3.000000   M03GOVI1 -37.000000
    G03GO071 M03GOVI2 -37.000000   M03GOST1 -1.700000
    G03GO071 M03GOTF0 -1.136000   M03GO350 -78.000000
    G03GO071 M03GO370 -108.000000
    G03GO091 S0332888 1.000000   J0305113 -1.000000
    G03GO091 M03GOZP1 12.000000   M03GOVI1 -45.000000
    G03GO091 M03GOVI2 -45.000000   M03GOST1 -1.350000
    G03GO091 M03GOTF0 -1.128000   M03GO350 -67.700000
    G03GO091 M03GO370 -79.000000
    G03GO101 S0332889 1.000000   J0305113 -1.000000
    G03GO101 M03GOZP1 17.000000   M03GOVI1 -40.000000
    G03GO101 M03GOVI2 -40.000000   M03GOST1 -1.850000
    G03GO101 M03GO350 -69.320000   M03GO370 -93.180000
    G03GO101 M03GOTF0 -1.137000
    G03GO111 S0332880 1.000000   J0305113 -1.000000
    G03GO111 M03GOVI1 -51.000000   M03GOVI2 -51.000000
    G03GO111 M03GOTF0 -1.197000   M03GO350 -111.720000
    G03GO111 M03GO370 -118.180000   M03GOST1 -0.080000
    G03GO121 S0332890 1.000000   J0305113 -1.000000
    G03GO121 M03GOZP1 12.000000   M03GOVI1 -45.000000
    G03GO121 M03GOVI2 -45.000000   M03GOTF0 -1.128000
    G03GO121 M03GOST1 -0.150000   M03GO350 -67.700000
    G03GO121 M03GO370 -79.000000
    G03GO131 S0332891 1.000000   J0305113 -1.000000
    G03GO131 M03GOZP1 17.000000   M03GOVI1 -40.000000
    G03GO131 M03GOVI2 -40.000000   M03GOST1 -0.150000
    G03GO131 M03GOTF0 -1.137000   M03GO350 -69.320000
    G03GO131 M03GO370 -93.180000
    G03GO141 S0332887 1.000000   J0305113 -1.000000
    G03GO141 M03GOZP1 5.000000   M03GOVI1 -31.800000
    G03GO141 M03GOVI2 -31.800000   M03GOST1 -1.900000
    G03GO141 M03GOTF0 -1.108000   M03GO350 -55.400000
    G03GO141 M03GO370 -61.500000
    G03GO151 S0332893 1.000000   J0305113 -1.000000
    G03GO151 M03GOZP1 5.000000   M03GOVI1 -31.800000
    G03GO151 M03GOVI2 -31.800000   M03GOST1 -0.300000
    G03GO151 M03GOTF0 -1.108000   M03GO350 -55.400000
    G03GO151 M03GO370 -61.500000
    G03GO161 S0332876 1.000000   J0305113 -1.000000
    G03GO161 M03GOZP1 14.000000   M03GOVI1 -49.500000
    G03GO161 M03GOVI2 -49.500000   M03GOST1 -0.100000
    G03GO161 M03GOTF0 -1.182000   M03GO350 -118.200000
    G03GO161 M03GO370 -118.200000
    G03GO981 M03GOTF0 1.000000   M03GO350 95.000000
    G03GO981 M03GO370 90.000000
    G03GO991 S0305113 -1.000000   J0305113 1.000000
    G03GO991 M03GOZP1 5.000000   M03GOVI1 52.000000
    G03GO991 M03GOVI2 41.500000   M03GOST1 0.200000
    G03GT011 S0332111 1.000000   J0305141 -1.000000
    G03GT011 M03GTZP1 14.000000   M03GTVI1 -58.000000
    G03GT011 M03GTVI2 -58.000000   M03GTPT1 -2.000000
    G03GT011 M03GTST1 -0.200000   M03GTTF0 -1.242000
    G03GT011 M03GT350 -124.200000   M03GT370 -124.200000
    G03GT021 S0332851 1.000000   J0305141 -1.000000
    G03GT021 M03GTZP1 -16.000000   M03GTVI1 -43.000000
    G03GT021 M03GTVI2 -43.000000   M03GTPT1 -28.000000
    G03GT021 M03GTST1 -0.150000   M03GTTF0 -1.129000
    G03GT021 M03GT350 -56.500000   M03GT370 -67.800000
    G03GT031 S0301251 1.000000   J0305141 -1.000000
    G03GT031 M03GTZP1 3.000000   M03GTVI1 -46.000000
    G03GT031 M03GTVI2 -46.000000   M03GTPT1 -8.500000
    G03GT031 M03GTST1 -0.400000   M03GTTF0 -1.197000
    G03GT031 M03GT350 -111.720000   M03GT370 -118.180000
    G03GT041 S0333112 1.000000   J0305141 -1.000000
    G03GT041 M03GTZP1 -22.000000   M03GTVI1 -31.800000
    G03GT041 M03GTVI2 -31.800000   M03GTPT1 -30.000000
    G03GT041 M03GTST1 -1.800000   M03GTTF0 -1.108000
    G03GT041 M03GT350 -55.400000   M03GT370 -61.500000
    G03GT051 S0332411 1.000000   J0305141 -1.000000
    G03GT051 M03GTZP1 14.000000   M03GTVI1 -49.500000
    G03GT051 M03GTVI2 -49.500000   M03GTPT1 -5.500000
    G03GT051 M03GTST1 -0.700000   M03GTTF0 -1.204000
    G03GT051 M03GT350 -118.200000   M03GT370 -118.200000
    G03GT061 S0332511 1.000000   J0305141 -1.000000
    G03GT061 M03GTZP1 -18.000000   M03GTVI1 -43.000000
    G03GT061 M03GTVI2 -43.000000   M03GTPT1 -25.000000
    G03GT061 M03GTST1 -1.700000   M03GTTF0 -1.128000
    G03GT061 M03GT350 -51.000000   M03GT370 -79.000000
    G03GT071 S0332541 1.000000   J0305141 -1.000000
    G03GT071 M03GTZP1 -3.000000   M03GTVI1 -37.000000
    G03GT071 M03GTVI2 -37.000000   M03GTPT1 -11.000000
    G03GT071 M03GTST1 -1.700000   M03GTTF0 -1.136000
    G03GT071 M03GT350 -78.000000   M03GT370 -108.000000
    G03GT081 S0332981 1.000000   J0305141 -1.000000
    G03GT081 M03GTZP1 12.000000   M03GTVI1 -50.000000
    G03GT081 M03GTVI2 -50.000000   M03GTPT1 -5.000000
    G03GT081 M03GTST1 -0.100000   M03GTTF0 -1.204000
    G03GT081 M03GT350 -115.600000   M03GT370 -120.000000
    G03GT091 S0332888 1.000000   J0305141 -1.000000
    G03GT091 M03GTZP1 12.000000   M03GTVI1 -45.000000
    G03GT091 M03GTVI2 -45.000000   M03GTST1 -1.350000
    G03GT091 M03GTPT1 -5.000000   M03GTTF0 -1.128000
    G03GT091 M03GT350 -67.700000   M03GT370 -79.000000
    G03GT101 S0332889 1.000000   J0305141 -1.000000
    G03GT101 M03GTZP1 17.000000   M03GTVI1 -40.000000
    G03GT101 M03GTVI2 -40.000000   M03GTST1 -1.850000
    G03GT101 M03GTPT1 -5.000000   M03GTTF0 -1.137000
    G03GT101 M03GT350 -69.320000   M03GT370 -93.180000
    G03GT111 S0332880 1.000000   J0305141 -1.000000
    G03GT111 M03GTZP1 3.000000   M03GTVI1 -51.000000
    G03GT111 M03GTVI2 -51.000000   M03GTST1 -0.080000
    G03GT111 M03GTPT1 -8.500000   M03GTTF0 -1.197000
    G03GT111 M03GT350 -111.720000   M03GT370 -118.180000
    G03GT121 S0332890 1.000000   J0305141 -1.000000
    G03GT121 M03GTZP1 12.000000   M03GTVI1 -45.000000
    G03GT121 M03GTVI2 -45.000000   M03GTST1 -0.200000
    G03GT121 M03GTPT1 -5.000000   M03GTTF0 -1.128000
    G03GT121 M03GT350 -67.700000   M03GT370 -79.000000
    G03GT131 S0332891 1.000000   J0305141 -1.000000
    G03GT131 M03GTZP1 17.000000   M03GTVI1 -40.000000
    G03GT131 M03GTVI2 -40.000000   M03GTST1 -0.300000
    G03GT131 M03GTPT1 -5.000000   M03GTTF0 -1.137000
    G03GT131 M03GT350 -69.320000   M03GT370 -93.180000
    G03GT141 S0332887 1.000000   J0305141 -1.000000
    G03GT141 M03GTZP1 5.000000   M03GTVI1 -31.800000
    G03GT141 M03GTVI2 -31.800000   M03GTPT1 -7.000000
    G03GT141 M03GTST1 -1.900000   M03GTTF0 -1.108000
    G03GT141 M03GT350 -55.400000   M03GT370 -61.800000
    G03GT151 S0332893 1.000000   J0305141 -1.000000
    G03GT151 M03GTZP1 5.000000   M03GTVI1 -31.800000
    G03GT151 M03GTVI2 -31.800000   M03GTST1 -0.300000
    G03GT151 M03GTPT1 -7.000000   M03GTTF0 -1.108000
    G03GT151 M03GT350 -55.400000   M03GT370 -64.800000
    G03GT161 S0332876 1.000000   J0305141 -1.000000
    G03GT161 M03GTPT1 -5.500000   M03GTZP1 14.000000
    G03GT161 M03GTVI1 -49.500000   M03GTVI2 -49.500000
    G03GT161 M03GTST1 -0.100000   M03GTTF0 -1.204000
    G03GT161 M03GT350 -118.200000   M03GT370 -118.200000
    G03GT171 S0301253 1.000000   J0305141 -1.000000
    G03GT171 M03GTZP1 3.000000   M03GTVI1 -46.000000
    G03GT171 M03GTVI2 -46.000000   M03GTPT1 -8.500000
    G03GT171 M03GTST1 -0.400000   M03GTTF0 -1.197000
    G03GT171 M03GT350 -111.720000   M03GT370 -118.180000
    G03GT181 S0332882 1.000000   J0305141 -1.000000
    G03GT181 M03GTZP1 3.000000   M03GTVI1 -51.000000
    G03GT181 M03GTVI2 -51.000000   M03GTPT1 -8.500000
    G03GT181 M03GTST1 -0.080000   M03GTTF0 -1.197000
    G03GT181 M03GT350 -111.720000   M03GT370 -118.180000
    G03GT981 M03GTTF0 1.000000   M03GT350 95.000000
    G03GT981 M03GT370 90.000000
    G03GT991 S0305141 -1.000000   J0305141 1.000000
    G03GT991 M03GTVI1 52.000000   M03GTVI2 41.500000
    G03GT991 M03GTPT1 10.500000   M03GTST1 0.500000
    G03GA011 S0332111 1.000000   J0305112 -1.000000
    G03GA011 M03GAZP1 14.000000   M03GAVI1 -58.000000
    G03GA011 M03GAVI2 -58.000000   M03GAPT1 -2.000000
    G03GA011 M03GAST1 -0.200000   M03GATF0 -1.242000
    G03GA011 M03GA350 -124.200000   M03GA370 -124.200000
    G03GA021 S0332851 1.000000   J0305112 -1.000000
    G03GA021 M03GAZP1 -16.000000   M03GAVI1 -43.000000
    G03GA021 M03GAVI2 -43.000000   M03GAPT1 -22.000000
    G03GA021 M03GAST1 -0.150000   M03GATF0 -1.129000
    G03GA021 M03GA350 -56.500000   M03GA370 -67.800000
    G03GA031 S0301251 1.000000   J0305112 -1.000000
    G03GA031 M03GAZP1 3.000000   M03GAVI1 -46.000000
    G03GA031 M03GAVI2 -46.000000   M03GAPT1 -8.500000
    G03GA031 M03GAST1 -0.400000   M03GATF0 -1.197000
    G03GA031 M03GA350 -111.720000   M03GA370 -118.180000
    G03GA041 S0333112 1.000000   J0305112 -1.000000
    G03GA041 M03GAZP1 -22.000000   M03GAVI1 -31.800000
    G03GA041 M03GAVI2 -31.800000   M03GAPT1 -30.000000
    G03GA041 M03GAST1 -1.800000   M03GATF0 -1.108000
    G03GA041 M03GA350 -55.400000   M03GA370 -61.500000
    G03GA051 S0332411 1.000000   J0305112 -1.000000
    G03GA051 M03GAZP1 14.000000   M03GAVI1 -49.500000
    G03GA051 M03GAVI2 -49.500000   M03GAPT1 -5.500000
    G03GA051 M03GAST1 -0.700000   M03GATF0 -1.204000
    G03GA051 M03GA350 -118.200000   M03GA370 -118.200000
    G03GA061 S0332511 1.000000   J0305112 -1.000000
    G03GA061 M03GAZP1 -18.000000   M03GAVI1 -43.000000
    G03GA061 M03GAVI2 -43.000000   M03GAPT1 -20.000000
    G03GA061 M03GAST1 -1.700000   M03GATF0 -1.128000
    G03GA061 M03GA350 -51.000000   M03GA370 -99.000000
    G03GA071 S0332541 1.000000   J0305112 -1.000000
    G03GA071 M03GAZP1 -3.000000   M03GAVI1 -37.000000
    G03GA071 M03GAVI2 -37.000000   M03GAPT1 -11.000000
    G03GA071 M03GAST1 -1.700000   M03GATF0 -1.136000
    G03GA071 M03GA350 -78.000000   M03GA370 -108.000000
    G03GA081 S0332981 1.000000   J0305112 -1.000000
    G03GA081 M03GAZP1 12.000000   M03GAVI1 -50.000000
    G03GA081 M03GAVI2 -50.000000   M03GAPT1 -5.000000
    G03GA081 M03GAST1 -0.100000   M03GATF0 -1.204000
    G03GA081 M03GA350 -115.600000   M03GA370 -120.000000
    G03GA091 S0332888 1.000000   J0305112 -1.000000
    G03GA091 M03GAZP1 12.000000   M03GAVI1 -45.000000
    G03GA091 M03GAVI2 -45.000000   M03GAST1 -1.350000
    G03GA091 M03GAPT1 -5.000000   M03GATF0 -1.128000
    G03GA091 M03GA350 -67.700000   M03GA370 -79.000000
    G03GA101 S0332889 1.000000   J0305112 -1.000000
    G03GA101 M03GAZP1 17.000000   M03GAVI1 -40.000000
    G03GA101 M03GAVI2 -40.000000   M03GAST1 -1.850000
    G03GA101 M03GAPT1 -5.000000   M03GATF0 -1.137000
    G03GA101 M03GA350 -69.320000   M03GA370 -93.180000
    G03GA111 S0332880 1.000000   J0305112 -1.000000
    G03GA111 M03GAZP1 3.000000   M03GAVI1 -51.000000
    G03GA111 M03GAVI2 -51.000000   M03GAST1 -0.080000
    G03GA111 M03GAPT1 -8.500000   M03GATF0 -1.197000
    G03GA111 M03GA350 -111.720000   M03GA370 -118.800000
    G03GA121 S0332890 1.000000   J0305112 -1.000000
    G03GA121 M03GAZP1 12.000000   M03GAVI1 -45.000000
    G03GA121 M03GAVI2 -45.000000   M03GAST1 -0.200000
    G03GA121 M03GAPT1 -5.000000   M03GATF0 -1.128000
    G03GA121 M03GA350 -67.700000   M03GA370 -79.000000
    G03GA131 S0332891 1.000000   J0305112 -1.000000
    G03GA131 M03GAZP1 17.000000   M03GAVI1 -40.000000
    G03GA131 M03GAVI2 -40.000000   M03GAST1 -0.300000
    G03GA131 M03GAPT1 -5.000000   M03GATF0 -1.137000
    G03GA131 M03GA350 -69.320000   M03GA370 -73.180000
    G03GA141 S0332887 1.000000   J0305112 -1.000000
    G03GA141 M03GAZP1 5.000000   M03GAVI1 -31.800000
    G03GA141 M03GAVI2 -31.800000   M03GAPT1 -7.000000
    G03GA141 M03GAST1 -1.900000   M03GATF0 -1.108000
    G03GA141 M03GA350 -55.400000   M03GA370 -61.800000
    G03GA151 S0332893 1.000000   J0305112 -1.000000
    G03GA151 M03GAZP1 5.000000   M03GAVI1 -31.800000
    G03GA151 M03GAVI2 -31.800000   M03GAST1 -0.300000
    G03GA151 M03GAPT1 -7.000000   M03GATF0 -1.108000
    G03GA151 M03GA350 -55.400000   M03GA370 -64.800000
    G03GA161 S0332876 1.000000   J0305112 -1.000000
    G03GA161 M03GAZP1 14.000000   M03GAVI1 -49.500000
    G03GA161 M03GAVI2 -49.500000   M03GAST1 -0.100000
    G03GA161 M03GATF0 -1.204000   M03GAPT1 -5.500000
    G03GA161 M03GA350 -118.200000   M03GA370 -118.200000
    G03GA171 S0301253 1.000000   J0305112 -1.000000
    G03GA171 M03GAZP1 3.000000   M03GAVI1 -46.000000
    G03GA171 M03GAVI2 -46.000000   M03GAPT1 -8.500000
    G03GA171 M03GAST1 -0.400000   M03GATF0 -1.197000
    G03GA171 M03GA350 -111.720000   M03GA370 -118.180000
    G03GA181 S0332882 1.000000   J0305112 -1.000000
    G03GA181 M03GAZP1 3.000000   M03GAVI1 -51.000000
    G03GA181 M03GAVI2 -51.000000   M03GAPT1 -8.500000
    G03GA181 M03GAST1 -0.080000   M03GATF0 -1.197000
    G03GA181 M03GA350 -111.720000   M03GA370 -118.180000
    G03GA981 M03GATF0 1.000000   M03GA350 95.000000
    G03GA981 M03GA370 90.000000
    G03GA991 M03GAVI1 52.000000   M03GAVI2 41.500000
    G03GA991 M03GAPT1 6.500000   M03GAST1 0.200000
    G03GA991 M03GAZP1 -4.000000   S0305112 -1.000000
    G03GA991 J0305112 1.000000
    G03GE011 S0332111 1.000000   J0305162 -1.000000
    G03GE011 M03GEZP1 14.000000   M03GEVI1 -58.000000
    G03GE011 M03GEVI2 -58.000000   M03GEST1 -0.200000
    G03GE011 M03GEPT1 -2.000000   M03GETF0 -1.242000
    G03GE011 M03GESB0 -0.805000   M03GE350 -124.200000
    G03GE011 M03GE370 -124.200000
    G03GE021 S0332851 1.000000   J0305162 -1.000000
    G03GE021 M03GEZP1 -16.000000   M03GEVI1 -43.000000
    G03GE021 M03GEVI2 -43.000000   M03GEST1 -0.150000
    G03GE021 M03GEPT1 -28.000000   M03GETF0 -1.129000
    G03GE021 M03GE350 -56.500000   M03GE370 -67.800000
    G03GE021 M03GESB0 -0.885000
    G03GE031 S0301251 1.000000   J0305162 -1.000000
    G03GE031 M03GEZP1 3.000000   M03GEVI1 -46.000000
    G03GE031 M03GEVI2 -46.000000   M03GEST1 -0.400000
    G03GE031 M03GEPT1 -8.500000   M03GETF0 -1.197000
    G03GE031 M03GESB0 -0.835000   M03GE350 -111.720000
    G03GE031 M03GE370 -118.180000
    G03GE041 S0333112 1.000000   J0305162 -1.000000
    G03GE041 M03GEZP1 -22.000000   M03GEVI1 -31.800000
    G03GE041 M03GEVI2 -31.800000   M03GEST1 -1.800000
    G03GE041 M03GEPT1 -30.000000   M03GETF0 -1.108000
    G03GE041 M03GESB0 -0.902000   M03GE350 -55.400000
    G03GE041 M03GE370 -61.500000
    G03GE051 S0332411 1.000000   J0305162 -1.000000
    G03GE051 M03GEZP1 14.000000   M03GEVI1 -49.500000
    G03GE051 M03GEVI2 -49.500000   M03GEST1 -0.700000
    G03GE051 M03GEPT1 -5.500000   M03GETF0 -1.204000
    G03GE051 M03GESB0 -0.830000   M03GE350 -118.200000
    G03GE051 M03GE370 -118.200000
    G03GE061 S0332511 1.000000   J0305162 -1.000000
    G03GE061 M03GEZP1 -18.000000   M03GEVI1 -43.000000
    G03GE061 M03GEVI2 -43.000000   M03GEPT1 -20.000000
    G03GE061 M03GEST1 -1.700000   M03GETF0 -1.128000
    G03GE061 M03GESB0 -0.886000   M03GE350 -51.000000
    G03GE061 M03GE370 -79.000000
    G03GE071 S0332541 1.000000   J0305162 -1.000000
    G03GE071 M03GEZP1 -3.000000   M03GEVI1 -37.000000
    G03GE071 M03GEVI2 -37.000000   M03GEST1 -1.700000
    G03GE071 M03GEPT1 -11.000000   M03GETF0 -1.136000
    G03GE071 M03GESB0 -0.880000   M03GE350 -78.000000
    G03GE071 M03GE370 -108.000000
    G03GE081 S0332981 1.000000   J0305162 -1.000000
    G03GE081 M03GEZP1 12.000000   M03GEVI1 -50.000000
    G03GE081 M03GEVI2 -50.000000   M03GEPT1 -5.500000
    G03GE081 M03GEST1 -0.100000   M03GETF0 -1.204000
    G03GE081 M03GESB0 -0.830000   M03GE350 -115.600000
    G03GE081 M03GE370 -120.000000
    G03GE091 S0332888 1.000000   J0305162 -1.000000
    G03GE091 M03GEZP1 12.000000   M03GEVI1 -45.000000
    G03GE091 M03GEVI2 -45.000000   M03GEST1 -1.350000
    G03GE091 M03GEPT1 -5.000000   M03GETF0 -1.128000
    G03GE091 M03GESB0 -0.886000   M03GE350 -67.700000
    G03GE091 M03GE370 -79.000000
    G03GE101 S0332889 1.000000   J0305162 -1.000000
    G03GE101 M03GEZP1 17.000000   M03GEVI1 -40.000000
    G03GE101 M03GEVI2 -40.000000   M03GEST1 -1.850000
    G03GE101 M03GEPT1 -5.000000   M03GETF0 -1.137000
    G03GE101 M03GESB0 -0.880000   M03GE350 -69.320000
    G03GE101 M03GE370 -93.180000
    G03GE111 S0332880 1.000000   J0305162 -1.000000
    G03GE111 M03GEZP1 3.000000   M03GEVI1 -51.000000
    G03GE111 M03GEVI2 -51.000000   M03GEST1 -0.080000
    G03GE111 M03GEPT1 -8.500000   M03GETF0 -1.197000
    G03GE111 M03GESB0 -0.835000   M03GE350 -111.720000
    G03GE111 M03GE370 -118.180000
    G03GE121 S0332890 1.000000   J0305162 -1.000000
    G03GE121 M03GEZP1 12.000000   M03GEVI1 45.000000
    G03GE121 M03GEVI2 -45.000000   M03GEST1 -0.200000
    G03GE121 M03GEPT1 -5.000000   M03GETF0 -1.128000
    G03GE121 M03GESB0 -0.886000   M03GE350 -67.700000
    G03GE121 M03GE370 -79.000000
    G03GE131 S0332891 1.000000   J0305162 -1.000000
    G03GE131 M03GEZP1 17.000000   M03GEVI1 -40.000000
    G03GE131 M03GEVI2 -40.000000   M03GEST1 -0.300000
    G03GE131 M03GEPT1 -5.000000   M03GETF0 -1.137000
    G03GE131 M03GESB0 -0.880000   M03GE350 -69.320000
    G03GE131 M03GE370 -93.180000
    G03GE141 S0332887 1.000000   J0305162 -1.000000
    G03GE141 M03GEZP1 5.000000   M03GEVI1 -31.800000
    G03GE141 M03GEVI2 -31.800000   M03GEST1 -1.900000
    G03GE141 M03GEPT1 -7.000000   M03GETF0 -1.108000
    G03GE141 M03GESB0 -0.902000   M03GE350 -55.400000
    G03GE141 M03GE370 -61.800000
    G03GE151 S0332893 1.000000   J0305162 -1.000000
    G03GE151 M03GEZP1 5.000000   M03GEVI1 -31.800000
    G03GE151 M03GEVI2 -31.800000   M03GEST1 -0.300000
    G03GE151 M03GEPT1 -7.000000   M03GETF0 -1.108000
    G03GE151 M03GESB0 -0.902000   M03GE350 -55.400000
    G03GE151 M03GE370 -64.800000
    G03GE161 S0332876 1.000000   J0305162 -1.000000
    G03GE161 M03GEZP1 14.000000   M03GEVI1 -49.500000
    G03GE161 M03GEVI2 -49.500000   M03GEST1 -0.100000
    G03GE161 M03GEPT1 -5.500000   M03GETF0 -1.204000
    G03GE161 M03GESB0 -0.830000   M03GE350 -118.200000
    G03GE161 M03GE370 -118.200000
    G03GE171 S0301253 1.000000   J0305162 -1.000000
    G03GE171 M03GEZP1 3.000000   M03GEVI1 -46.000000
    G03GE171 M03GEVI2 -46.000000   M03GEPT1 -8.500000
    G03GE171 M03GEST1 -0.400000   M03GETF0 -1.197000
    G03GE171 M03GE350 -111.720000   M03GE370 -118.180000
    G03GE181 S0332882 1.000000   J0305162 -1.000000
    G03GE181 M03GEZP1 3.000000   M03GEVI1 -51.000000
    G03GE181 M03GEVI2 -51.000000   M03GEPT1 -8.500000
    G03GE181 M03GEST1 -0.080000   M03GETF0 -1.197000
    G03GE181 M03GE350 -111.720000   M03GE370 -118.180000
    G03GE981 M03GETF0 1.000000   M03GE350 95.000000
    G03GE981 M03GE370 90.000000
    G03GE991 S0305162 -1.000000   J0305162 1.000000
    G03GE991 M03GEZP1 -4.000000   M03GEVI1 54.000000
    G03GE991 M03GEVI2 41.500000   M03GEST1 0.150000
    G03GE991 M03GESB0 0.835000   M03GEPT1 5.600000
    G03TT011 J0305211 -1.000000   S0332511 1.000000
    G03TT011 M03TTZP1 -18.000000   M03TTZP2 -18.000000
    G03TT011 M03TTVI1 -43.000000   M03TTST1 -1.200000
    G03TT021 S0332851 1.000000   J0305211 -1.000000
    G03TT021 M03TTZP1 -16.000000   M03TTZP2 -16.000000
    G03TT021 M03TTVI1 -43.000000   M03TTST1 -0.150000
    G03TT031 S0301253 1.000000   J0305211 -1.000000
    G03TT031 M03TTZP1 3.000000   M03TTZP2 3.000000
    G03TT031 M03TTVI1 -46.000000   M03TTST1 -0.400000
    G03TT041 S0332541 1.000000   J0305211 -1.000000
    G03TT041 M03TTZP1 -3.000000   M03TTZP2 -3.000000
    G03TT041 M03TTVI1 -37.000000   M03TTST1 -1.800000
    G03TT051 S0333112 1.000000   J0305211 -1.000000
    G03TT051 M03TTZP1 -22.000000   M03TTZP2 -22.000000
    G03TT051 M03TTVI1 -31.800000   M03TTST1 -1.800000
    G03TT991 S0305211 -1.000000   J0305211 1.000000
    G03TT991 M03TTZP1 5.000000   M03TTVI1 39.500000
    G03TT991 M03TTST1 0.500000
    G03TN011 S0332511 1.000000   J0305214 -1.000000
    G03TN011 M03TNZP1 -18.000000   M03TNZP2 -18.000000
    G03TN011 M03TNVI1 -43.000000   M03TNST1 -1.200000
    G03TN021 S0332851 1.000000   J0305214 -1.000000
    G03TN021 M03TNZP1 -16.000000   M03TNZP2 -16.000000
    G03TN021 M03TNVI1 -43.000000   M03TNST1 -0.150000
    G03TN031 S0301251 1.000000   J0305214 -1.000000
    G03TN031 M03TNVI1 -46.000000   M03TNST1 -0.400000
    G03TN041 S0332541 1.000000   J0305214 -1.000000
    G03TN041 M03TNZP1 -3.000000   M03TNZP2 -3.000000
    G03TN041 M03TNVI1 -37.000000   M03TNST1 -1.700000
    G03TN051 S0333112 1.000000   J0305214 -1.000000
    G03TN051 M03TNZP1 -22.000000   M03TNZP2 -22.000000
    G03TN051 M03TNVI1 -31.800000   M03TNST1 -1.800000
    G03TN991 S0305214 -1.000000   J0305214 1.000000
    G03TN991 M03TNZP1 12.000000   M03TNZP2 7.000000
    G03TN991 M03TNVI1 39.500000   M03TNST1 0.500000
    D0312951 S0301295 -1.000000   S0333522 1.000000
    D0312952 S0333523 1.000000   S0301295 -1.000000
    D0347411 S0304741 -1.000000   S0330251 1.000000
    D0347412 S0304741 -1.000000   S0331412 1.000000
    D0347413 S0304741 -1.000000   S0331291 1.000000
    D0347414 S0304741 -1.000000   S0331157 1.000000
    D0347415 S0331111 1.000000   S0304741 -1.000000
    D0347416 S0304741 -1.000000   S0331479 1.000000
    D0355151 S0338111 0.900000   S0332511 0.100000
    D0355151 S0305515 -1.000000
    Q031361Y S0301361 1.000000   REVENUE1 -5.940000
    Q034110L S0339611 1.000000   REVENUE1 -7.000000
    Q034110Y S0339611 1.000000   REVENUE1 -6.525000
    Q034353Y S0304353 1.000000   REVENUE1 -10.593000
    Q034621A S0304621 1.000000   REVENUE1 -24.630000
    Q034621A X0904621 -1.000000
    Q034631A S0304631 1.000000   REVENUE1 -26.330000
    Q034631A X0904631 -1.000000
    Q034641A S0304641 1.000000   X0904641 -1.000000
    Q034641A REVENUE1 -28.330000
    Q034741A S0304741 1.000000   X0904741 -1.000000
    Q034741A REVENUE1 -7.430000
    Q034741Y S0304741 1.000000   REVENUE1 -3.375000
    Q035113A S0305113 1.000000   REVENUE1 -11.390000
    Q035113A X0905131 -1.000000
    Q035112A S0305112 1.000000   REVENUE1 -11.390000
    Q035112A X0905141 -1.000000
    Q035131A S0305131 1.000000   X0905131 -1.000000
    Q035131A REVENUE1 -11.270000
    Q035141A S0305141 1.000000   X0905141 -1.000000
    Q035141A REVENUE1 -11.270000
    Q0351414 S0305141 1.000000   REVENUE1 -9.900000
    Q035162Y S0305162 1.000000   REVENUE1 -4.500000
    Q035211A REVENUE1 -10.790000   S0305211 1.000000
    Q035211A X0905211 -1.000000
    Q035214A S0305214 1.000000   REVENUE1 -11.270000
    Q035214A X0905214 -1.000000
    Q035431A S0305431 1.000000   X0905431 -1.000000
    Q035431A X0905499 -1.000000   REVENUE1 -4.540000
    Q035431Y S0305431 1.000000   REVENUE1 -1.890000
    Q035471L S0337800 1.000000   REVENUE1 -5.100000
    Q035471L X0905499 -1.000000
    Q035530A S0338511 1.000000   X0905530 -1.000000
    Q035530A REVENUE1 -6.330000
    Y0343531 S0304353 1.000000   S0104353 -1.000000
    Y0343531 REVENUE1 0.300000
    Y0355155 S0305515 1.000000   S0505511 -1.000000
    Y0355155 REVENUE1 0.150000
    Y0312951 S0301295 1.000000   S0101295 -1.000000
    Y0312951 REVENUE1 0.150000
    K0300110 S0300110 1.000000
    K0304621 S0304621 1.000000   S0305300 -1.000000
    K0305112 S0305300 -1.000000   S0305112 1.000000
    K0305113 S0305113 1.000000   S0305300 -1.000000
    K0305131 S0305131 1.000000   S0305300 -1.000000
    K0305141 S0305141 1.000000   S0305300 -1.000000
    K0305431 S0305431 1.000000
    K0305471 S0337800 1.000000
    K0331291 S0331291 1.000000   S0305300 -1.000000
    I0305300 S0305300 1.000000
    E0339411 S0339411 1.000000   R0300800 -1.000000
    E0300820 S0330211 1.000000   R0300800 -1.000000
    E0305431 S0305431 1.000000   R0300800 -1.000000
    E0309999 S0309999 1.000000
    U0905421 X0905421 1.000000   LOBROW4646 1.000000
    U0904728 X0904728 1.000000   LOBROW4645 1.000000
    B0501051 S0501051 -1.000000   S0901051 1.000000
    B0501051 REVENUE1 5.910000
    B0501061 S0501061 -1.000000   S0901061 1.000000
    B0501061 REVENUE1 5.710000
    B0501106 S0501106 -1.000000   S0901106 1.000000
    B0501106 REVENUE1 7.820000
    B0501137 S0501137 -1.000000   S0901137 1.000000
    B0501137 REVENUE1 9.430000
    B0502021 S0502021 -1.000000   REVENUE1 121.600000
    B0502031 S0502031 -1.000000   REVENUE1 123.000000
    A0501014 S0500275 1.000000   S0551391 -0.143000
    A0501014 S0552751 -0.483000   S0557611 -0.359000
    A0501014 S0509999 -0.015000   R0500800 0.026000
    A0501014 V0501000 1.667000   REVENUE1 0.004580
    A0501024 S0500280 0.500000   S0505511 0.500000
    A0501024 S0552751 -0.130000   S0557711 -0.180000
    A0501024 S0558211 -0.680000   S0509999 -0.010000
    A0501024 R0500800 0.026000   V0501000 2.222000
    A0501024 REVENUE1 0.004580
    A0501034 S0505511 1.000000   S0552751 -0.080000
    A0501034 S0557711 -0.140000   S0558211 -0.770000
    A0501034 S0509999 -0.010000   R0500800 0.026000
    A0501034 V0501000 2.222000   REVENUE1 0.004580
    A0502014 S0500280 0.500000   S0505511 0.500000
    A0502014 S0552751 -0.135000   S0557711 -0.185000
    A0502014 S0558211 -0.670000   S0509999 -0.010000
    A0502014 R0500800 0.029500   V0502000 1.053000
    A0502014 REVENUE1 0.002500
    A0502024 S0500280 1.000000   S0552751 -0.180000
    A0502024 S0557711 -0.210000   S0558211 -0.600000
    A0502024 S0509999 -0.010000   R0500800 0.029500
    A0502024 V0502000 1.053000   REVENUE1 0.002500
    A0502034 S0505511 1.000000   S0552751 -0.080000
    A0502034 S0557711 -0.140000   S0558211 -0.770000
    A0502034 S0509999 -0.010000   R0500800 0.029500
    A0502034 V0502000 1.053000   REVENUE1 0.002500
    A0568014 S0558211 1.000000   S0558561 -0.985000
    A0568014 S0509999 -0.015000   R0500800 0.003000
    A0568014 V0568000 1.515000   REVENUE1 0.005300
    G0586171 S0504682 1.000000   J0504621 -1.000000
    G0586171 M0586TF0 -1.282000   M0586DK0 -44.900000
    G0586171 M0586DK1 -44.900000   M0586RN0 -125.100000
    G0586171 M0586MN0 -113.200000   M0586FN0 -3455.000000
    G0586171 M0586RP0 -230.800000   M0586RP1 -230.800000
    G0586171 M0586AR1 -0.620000
    G0586331 S0504601 1.000000   J0504621 -1.000000
    G0586331 M0586TF0 -1.342000   M0586DK0 -67.100000
    G0586331 M0586DK1 -67.100000   M0586RN0 -127.600000
    G0586331 M0586MN0 -113.000000   M0586FN0 -6307.400000
    G0586331 M0586RP0 -518.000000   M0586RP1 -518.000000
    G0586331 M0586AR1 -0.650000
    G0586371 S0501137 1.000000   J0504621 -1.000000
    G0586371 M0586TF0 -1.136000   M0586RN0 -119.800000
    G0586371 M0586MN0 -103.900000   M0586RP0 -68.200000
    G0586371 M0586RP1 -68.200000   M0586AR1 -1.000000
    G0586411 S0501061 1.000000   J0504621 -1.000000
    G0586411 M0586TF0 -1.460000   M0586DK0 -106.600000
    G0586411 M0586DK1 -106.600000   M0586RN0 -111.000000
    G0586411 M0586MN0 -113.200000   M0586FN0 -6927.700000
    G0586411 M0586RP0 -600.000000   M0586RP1 -600.000000
    G0586411 M0586AR1 -0.050000
    G0586421 S0501106 1.000000   J0504621 -1.000000
    G0586421 M0586TF0 -1.600000   M0586DK0 -160.000000
    G0586421 M0586DK1 -160.000000   M0586RN0 -161.600000
    G0586421 M0586MN0 -155.200000   M0586FN0 -14880.000000
    G0586421 M0586RP0 -1696.000000   M0586RP1 -1696.000000
    G0586421 M0586KR1 -40.000000
    G0586451 S0504668 1.000000   J0504621 -1.000000
    G0586451 M0586TF0 -1.219000   M0586DK0 -34.100000
    G0586451 M0586DK1 -34.100000   M0586RN0 -124.300000
    G0586451 M0586MN0 -114.600000   M0586FN0 -2663.400000
    G0586451 M0586RP0 -439.000000   M0586RP1 -439.000000
    G0586451 M0586AR1 -0.650000
    G0586581 S0501051 1.000000   J0504621 -1.000000
    G0586581 M0586TF0 -1.499000   M0586DK1 -119.900000
    G0586581 M0586DK0 -119.900000   M0586RN0 -122.500000
    G0586581 M0586MN0 -116.200000   M0586FN0 -8512.900000
    G0586581 M0586RP0 -1124.300000   M0586RP1 -1124.300000
    G0586581 M0586AR1 -0.050000
    G0586601 S0551391 1.000000   J0504621 -1.000000
    G0586601 M0586TF0 -1.333000   M0586DK0 -73.300000
    G0586601 M0586DK1 -73.300000   M0586RN0 -98.700000
    G0586601 M0586MN0 -96.000000   M0586FN0 -5646.700000
    G0586601 M0586RP0 -266.600000   M0586RP1 -266.600000
    G0586601 M0586AR1 -0.130000
    G0586771 S0502021 1.000000   J0504621 -1.000000
    G0586771 M0586EF0 -394.200000
    G0586781 S0502031 1.000000   J0504621 -1.000000
    G0586781 M0586MF0 -394.200000
    G0586811 M0586RN0 17.200000   M0586P29 4.000000
    G0586811 M0586PM9 2.500000   M0586EF0 -1.000000
    G0586811 M0586PLE -1.000000   M0586MN0 17.200000
    G0586821 M0586RN0 21.000000   M0586MN0 21.000000
    G0586821 M0586EF0 -1.000000   M0586P19 6.666670
    G0586821 M0586PM9 2.500000   M0586PLE -1.000000
    G0586831 M0586FN0 -629.000000   M0586EF0 -1.000000
    G0586831 M0586MF0 1.000000   M0586DK1 1.000000
    G0586831 M0586PM9 2.500000
    G0586971 M0586DK1 1.000000   M0586FN0 73.500000
    G0586981 M0586TF0 1.000000   M0586DK0 45.000000
    G0586981 M0586RN0 86.500000   M0586MN0 77.500000
    G0586981 M0586RP0 600.000000   M0586RP1 350.000000
    G0586981 M0586P19 -1.000000   M0586P29 -1.000000
    G0586981 M0586PM9 -1.000000   M0586EF0 0.400000
    G0586991 S0504621 -1.000000   J0504621 1.000000
    G0586991 M0586KR1 12.000000   M0586AR1 0.620000
    D0555151 S0558211 0.880000   S0552751 0.120000
    D0555151 S0505515 -1.000000   REVENUE1 0.000042
    D0554211 S0557611 1.000000   S0505421 -1.000000
    D0554212 S0557611 0.700000   S0557711 0.300000
    D0554212 S0505421 -1.000000
    D0554311 S0505431 -1.000000   S0557711 1.000000
    D0554312 S0557611 1.000000   S0505431 -1.000000
    D0555302 S0558561 1.000000   S0505530 -1.000000
    D0555302 REVENUE1 0.000042
    Q054621A S0504621 1.000000   REVENUE1 -24.630000
    Q054621A X0904621 -1.000000
    Q054631A S0504621 1.000000   REVENUE1 -26.330000
    Q054631A X0904631 -1.000000
    Q055141A S0552751 1.000000   X0905141 -1.000000
    Q055141A REVENUE1 -10.790000
    Q055421A S0505421 1.000000   X0905421 -1.000000
    Q055421A X0905499 -1.000000   REVENUE1 -5.130000
    Q055431A S0505431 1.000000   X0905431 -1.000000
    Q055431A X0905499 -1.000000   REVENUE1 -4.540000
    Q055431Y S0557711 1.000000   REVENUE1 -1.890000
    Q055515A S0505515 1.000000   X0905515 -1.000000
    Q055515A REVENUE1 -7.100000
    Q055530A S0505530 1.000000   X0905530 -1.000000
    Q055530A REVENUE1 -6.330000
    Q055600Y S0505530 1.000000   REVENUE1 -4.275000
    Q0556004 REVENUE1 -2.500000   S0505530 1.000000
    K0504621 S0504621 1.000000   S0505300 -1.000000
    K0505431 S0557711 1.000000
    K0551391 S0551391 1.000000   S0505300 -1.000000
    K0552751 S0552751 1.000000   S0505300 -1.000000
    K0558211 S0558211 1.000000
    I0500400 S0500400 1.000000
    I0505300 S0505300 1.000000
    E0500830 S0557711 1.000000   R0500800 -1.000000
    E0509999 S0509999 1.000000
    U0904300 X0904300 1.000000   LOBROW4643 1.000000
    B0801131 S0901131 1.000000   S0804741 -1.000000
    U0904874 X0904874 1.000000   LOBROW4644 1.000000
    SLACK7537 S0110111 1.000000
    SLACK7538 S0110112 1.000000
    SLACK7539 S0110131 1.000000
    SLACK7540 S0110214 1.000000
    SLACK7541 S0110221 1.000000
    SLACK7542 S0110222 1.000000
    SLACK7543 S0110271 1.000000
    SLACK7544 S0110273 1.000000
    SLACK7545 S0110295 1.000000
    SLACK7546 S0110311 1.000000
    SLACK7547 S0111211 1.000000
    SLACK7548 S0111215 1.000000
    SLACK7549 S0111216 1.000000
    SLACK7550 S0111217 1.000000
    SLACK7551 S0111401 1.000000
    SLACK7552 S0111411 1.000000
    SLACK7553 S0111412 1.000000
    SLACK7554 S0111413 1.000000
    SLACK7555 S0111421 1.000000
    SLACK7556 S0111431 1.000000
    SLACK7557 S0111441 1.000000
    SLACK7558 S0111445 1.000000
    SLACK7559 S0111455 1.000000
    SLACK7560 S0111454 1.000000
    SLACK7561 S0111461 1.000000
    SLACK7562 S0111469 1.000000
    SLACK7563 S0111471 1.000000
    SLACK7564 S0111479 1.000000
    SLACK7565 S0111483 1.000000
    SLACK7566 S0111493 1.000000
    SLACK7567 S0111489 1.000000
    SLACK7568 S0111500 1.000000
    SLACK7569 S0111561 1.000000
    SLACK7570 S0111681 1.000000
    SLACK7571 S0111691 1.000000
    SLACK7572 S0111711 1.000000
    SLACK7573 S0111716 1.000000
    SLACK7574 S0111718 1.000000
    SLACK7575 S0111751 1.000000
    SLACK7576 S0111755 1.000000
    SLACK7577 S0111761 1.000000
    SLACK7578 S0111766 1.000000
    SLACK7579 S0111781 1.000000
    SLACK7580 S0111801 1.000000
    SLACK7581 S0111802 1.000000
    SLACK7582 S0111803 1.000000
    SLACK7583 S0111811 1.000000
    SLACK7584 S0111821 1.000000
    SLACK7585 S0111822 1.000000
    SLACK7586 S0111831 1.000000
    SLACK7587 S0111841 1.000000
    SLACK7588 S0111861 1.000000
    SLACK7589 S0111851 1.000000
    SLACK7590 S0111881 1.000000
    SLACK7591 S0111891 1.000000
    SLACK7592 S0111900 1.000000
    SLACK7593 S0111941 1.000000
    SLACK7594 S0112110 1.000000
    SLACK7595 S0112184 1.000000
    SLACK7596 S0112181 1.000000
    SLACK7597 S0112221 1.000000
    SLACK7598 S0112661 1.000000
    SLACK7599 S0112681 1.000000
    SLACK7600 S0112858 1.000000
    SLACK7601 S0112869 1.000000
    SLACK7602 S0112883 1.000000
    SLACK7603 S0112888 1.000000
    SLACK7604 S0112889 1.000000
    SLACK7605 S0112902 1.000000
    SLACK7606 S0112915 1.000000
    SLACK7607 S0112951 1.000000
    SLACK7608 S0112952 1.000000
    SLACK7609 S0112861 1.000000
    SLACK7610 S0113112 1.000000
    SLACK7611 S0113125 1.000000
    SLACK7612 S0113212 1.000000
    SLACK7613 S0113225 1.000000
    SLACK7614 S0113312 1.000000
    SLACK7615 S0113325 1.000000
    SLACK7616 S0113342 1.000000
    SLACK7617 S0113343 1.000000
    SLACK7618 S0113344 1.000000
    SLACK7619 S0113345 1.000000
    SLACK7620 S0113346 1.000000
    SLACK7621 S0113379 1.000000
    SLACK7622 S0113512 1.000000
    SLACK7623 S0113525 1.000000
    SLACK7624 S0113561 1.000000
    SLACK7625 S0114112 1.000000
    SLACK7626 S0114125 1.000000
    SLACK7627 S0114151 1.000000
    SLACK7628 S0114197 1.000000
    SLACK7629 S0114242 1.000000
    SLACK7630 S0114245 1.000000
    SLACK7631 S0114262 1.000000
    SLACK7632 S0114265 1.000000
    SLACK7633 S0114282 1.000000
    SLACK7634 S0114285 1.000000
    SLACK7635 S0114297 1.000000
    SLACK7636 S0114302 1.000000
    SLACK7637 S0114305 1.000000
    SLACK7638 S0114312 1.000000
    SLACK7639 S0114322 1.000000
    SLACK7640 S0114336 1.000000
    SLACK7641 S0114442 1.000000
    SLACK7642 S0114445 1.000000
    SLACK7643 S0114462 1.000000
    SLACK7644 S0114465 1.000000
    SLACK7645 S0114482 1.000000
    SLACK7646 S0114485 1.000000
    SLACK7647 S0114497 1.000000
    SLACK7648 S0114702 1.000000
    SLACK7649 S0114705 1.000000
    SLACK7650 S0114712 1.000000
    SLACK7651 S0114722 1.000000
    SLACK7652 S0114742 1.000000
    SLACK7653 S0114745 1.000000
    SLACK7654 S0114762 1.000000
    SLACK7655 S0114765 1.000000
    SLACK7656 S0114782 1.000000
    SLACK7657 S0114785 1.000000
    SLACK7658 S0114797 1.000000
    SLACK7659 S0115111 1.000000
    SLACK7660 S0115121 1.000000
    SLACK7661 S0115131 1.000000
    SLACK7662 S0116110 1.000000
    SLACK7663 S0116310 1.000000
    SLACK7664 S0116821 1.000000
    SLACK7665 S0116831 1.000000
    SLACK7666 S0116841 1.000000
    SLACK7667 S0117111 1.000000
    SLACK7668 S0117114 1.000000
    SLACK7669 S0117115 1.000000
    SLACK7670 S0117214 1.000000
    SLACK7671 S0117215 1.000000
    SLACK7672 S0117251 1.000000
    SLACK7673 S0117271 1.000000
    SLACK7674 S0117314 1.000000
    SLACK7675 S0117324 1.000000
    SLACK7676 S0117331 1.000000
    SLACK7677 S0117411 1.000000
    SLACK7678 S0117918 1.000000
    SLACK7679 S0117921 1.000000
    SLACK7680 S0117528 1.000000
    SLACK7681 S0117531 1.000000
    SLACK7682 S0117541 1.000000
    SLACK7683 S0117551 1.000000
    SLACK7684 S0117600 1.000000
    SLACK7685 S0117601 1.000000
    SLACK7686 S0117825 1.000000
    SLACK7687 S0117836 1.000000
    SLACK7688 S0117858 1.000000
    SLACK7689 S0117800 1.000000
    SLACK7690 S0118111 1.000000
    SLACK7691 S0118311 1.000000
    SLACK7692 S0118321 1.000000
    SLACK7693 S0118511 1.000000
    SLACK7694 S0118513 1.000000
    SLACK7695 S0119411 1.000000
    SLACK7696 S0119611 1.000000
    SLACK7697 M0186RN0 1.000000
    SLACK7698 M0186FN0 1.000000
    SLACK7699 M0186P19 1.000000
    SLACK7700 M0186P29 1.000000
    SLACK7701 M0186PM9 1.000000
    SLACK7702 M0186PLE 1.000000
    SLACK7703 M0186MN0 1.000000
    SLACK7704 M0186RP0 -1.000000
    SLACK7705 M0186RP1 1.000000
    SLACK7706 M0186AR1 -1.000000
    SLACK7707 M0186KR1 -1.000000
    SLACK7708 M0186ME1 -1.000000
    SLACK7709 M0186OX1 -1.000000
    SLACK7710 M0195TF3 1.000000
    SLACK7711 M0195RN2 1.000000
    SLACK7712 M0195MN2 1.000000
    SLACK7713 M0195FN2 1.000000
    SLACK7714 M0195RP2 -1.000000
    SLACK7715 M0195RP3 1.000000
    SLACK7716 M0195AR2 -1.000000
    SLACK7717 M0195KR2 -1.000000
    SLACK7718 M0195FC2 -1.000000
    SLACK7719 M0195DK3 1.000000
    SLACK7720 M0195DK4 -1.000000
    SLACK7721 M0195DP3 1.000000
    SLACK7722 M0195DP4 -1.000000
    SLACK7723 M0195ME2 -1.000000
    SLACK7724 M0195OX2 -1.000000
    SLACK7725 M0192DK0 1.000000
    SLACK7726 M0192RN0 1.000000
    SLACK7727 M0192FN0 1.000000
    SLACK7728 M0192RP0 -1.000000
    SLACK7729 M0192RP1 1.000000
    SLACK7730 M0192PM9 1.000000
    SLACK7731 M0192P19 1.000000
    SLACK7732 M0192P29 1.000000
    SLACK7733 M0192PLE 1.000000
    SLACK7734 M0192MN0 1.000000
    SLACK7735 M0192AR1 -1.000000
    SLACK7736 M0192KR1 -1.000000
    SLACK7737 M0192ME1 -1.000000
    SLACK7738 M0192OX1 -1.000000
    SLACK7739 M0192TF3 1.000000
    SLACK7740 M0192DK3 1.000000
    SLACK7741 M0192DK4 -1.000000
    SLACK7742 M0192DP3 1.000000
    SLACK7743 M0192DP4 -1.000000
    SLACK7744 M0192RN2 1.000000
    SLACK7745 M0192FN2 1.000000
    SLACK7746 M0192RP2 -1.000000
    SLACK7747 M0192RP3 1.000000
    SLACK7748 M0192AR2 -1.000000
    SLACK7749 M0192KR2 -1.000000
    SLACK7750 M0192MN2 1.000000
    SLACK7751 M0192P39 1.000000
    SLACK7752 M0192ME2 -1.000000
    SLACK7753 M0192FC2 -1.000000
    SLACK7754 M0192OX2 -1.000000
    SLACK7755 M0191TF1 1.000000
    SLACK7756 M0191DK1 1.000000
    SLACK7757 M0191DK4 -1.000000
    SLACK7758 M0191DP3 1.000000
    SLACK7759 M0191DP4 -1.000000
    SLACK7760 M0191RN2 1.000000
    SLACK7761 M0191MN2 1.000000
    SLACK7762 M0191FN0 1.000000
    SLACK7763 M0191RP0 -1.000000
    SLACK7764 M0191RP1 1.000000
    SLACK7765 M0191AR1 -1.000000
    SLACK7766 M0191KR1 -1.000000
    SLACK7767 M0191FC1 -1.000000
    SLACK7768 M0191ME1 -1.000000
    SLACK7769 M0191OX1 -1.000000
    SLACK7770 M0198DK0 1.000000
    SLACK7771 M0198RN0 1.000000
    SLACK7772 M0198MN0 1.000000
    SLACK7773 M0198FN0 1.000000
    SLACK7774 M0198RP0 -1.000000
    SLACK7775 M0198RP1 1.000000
    SLACK7776 M0198P19 1.000000
    SLACK7777 M0198P29 1.000000
    SLACK7778 M0198PM9 1.000000
    SLACK7779 M0198PLE 1.000000
    SLACK7780 M0198AR1 -1.000000
    SLACK7781 M0198KR1 -1.000000
    SLACK7782 M0198ME1 -1.000000
    SLACK7783 M0198OX1 -1.000000
    SLACK7784 M0198TF3 1.000000
    SLACK7785 M0198DK3 1.000000
    SLACK7786 M0198DK4 -1.000000
    SLACK7787 M0198DP3 1.000000
    SLACK7788 M0198DP4 -1.000000
    SLACK7789 M0198RN2 1.000000
    SLACK7790 M0198FN2 1.000000
    SLACK7791 M0198RP2 -1.000000
    SLACK7792 M0198RP3 1.000000
    SLACK7793 M0198AR2 -1.000000
    SLACK7794 M0198KR2 -1.000000
    SLACK7795 M0198MN2 1.000000
    SLACK7796 M0198P39 1.000000
    SLACK7797 M0198ME2 -1.000000
    SLACK7798 M0198FC2 -1.000000
    SLACK7799 M0198OX2 -1.000000
    SLACK7800 M01VBDE0 1.000000
    SLACK7801 M01FKVI1 1.000000
    SLACK7802 M01FKST1 -1.000000
    SLACK7803 M01FMST1 -1.000000
    SLACK7804 M01FMVI1 1.000000
    SLACK7805 M01FMVI2 -1.000000
    SLACK7806 M01FSVI1 1.000000
    SLACK7807 M01FSST1 -1.000000
    SLACK7808 M01FEVI1 1.000000
    SLACK7809 M01BFKB1 -1.000000
    SLACK7810 M01BFKB2 1.000000
    SLACK7811 M01HKCS1 -1.000000
    SLACK7812 M01HKCS2 -1.000000
    SLACK7813 M01PBSR1 -1.000000
    SLACK7814 M01PBSR2 1.000000
    SLACK7815 M01PBHE1 1.000000
    SLACK7816 M01PBHE2 -1.000000
    SLACK7817 M01GNZP1 -1.000000
    SLACK7818 M01GNVI1 -1.000000
    SLACK7819 M01GNVI2 1.000000
    SLACK7820 M01GN350 1.000000
    SLACK7821 M01GN370 1.000000
    SLACK7822 M01GNST1 -1.000000
    SLACK7823 M01GNCT1 1.000000
    SLACK7824 M01GO350 1.000000
    SLACK7825 M01GO370 1.000000
    SLACK7826 M01GOZP1 -1.000000
    SLACK7827 M01GOVI1 -1.000000
    SLACK7828 M01GOVI2 1.000000
    SLACK7829 M01GOST1 -1.000000
    SLACK7830 M01GOCT1 1.000000
    SLACK7831 M01GT350 1.000000
    SLACK7832 M01GT370 1.000000
    SLACK7833 M01GTZP1 -1.000000
    SLACK7834 M01GTST1 -1.000000
    SLACK7835 M01GTVI1 -1.000000
    SLACK7836 M01GTVI2 1.000000
    SLACK7837 M01GTPT1 -1.000000
    SLACK7838 M01GTCT1 1.000000
    SLACK7839 M01GAPT1 -1.000000
    SLACK7840 M01GA350 1.000000
    SLACK7841 M01GA370 1.000000
    SLACK7842 M01GACT1 1.000000
    SLACK7843 M01GAZP1 -1.000000
    SLACK7844 M01GAVI1 -1.000000
    SLACK7845 M01GAVI2 1.000000
    SLACK7846 M01GAST1 -1.000000
    SLACK7847 M01GEZP1 -1.000000
    SLACK7848 M01GE350 1.000000
    SLACK7849 M01GE370 1.000000
    SLACK7850 M01GEVI1 -1.000000
    SLACK7851 M01GEVI2 1.000000
    SLACK7852 M01GEPT1 -1.000000
    SLACK7853 M01GEST1 -1.000000
    SLACK7854 M01GECT1 1.000000
    SLACK7855 M01TTZP1 -1.000000
    SLACK7856 M01TTZP2 1.000000
    SLACK7857 M01TTVI1 1.000000
    SLACK7858 M01TTKG1 1.000000
    SLACK7859 M01TTST1 -1.000000
    SLACK7860 M01TNST1 -1.000000
    SLACK7861 M01TNZP1 -1.000000
    SLACK7862 M01TNZP2 1.000000
    SLACK7863 M01TNVI1 1.000000
    SLACK7864 M01TNKG1 1.000000
    SLACK7865 M01KAFM1 -1.000000
    SLACK7866 M01KACS1 -1.000000
    SLACK7867 M01KAST1 -1.000000
    SLACK7868 M01HDST2 -1.000000
    SLACK7869 M01HDCS2 -1.000000
    SLACK7870 M01HDFM2 -1.000000
    SLACK7871 V0101000 1.000000
    SLACK7872 V0102000 1.000000
    SLACK7873 V0103000 1.000000
    SLACK7874 V0106000 1.000000
    SLACK7875 V0105000 1.000000
    SLACK7876 V0108000 1.000000
    SLACK7877 V0109000 1.000000
    SLACK7878 V0111000 1.000000
    SLACK7879 V0112000 1.000000
    SLACK7880 V0113000 1.000000
    SLACK7881 V0114000 1.000000
    SLACK7882 V0114001 1.000000
    SLACK7883 V0115000 1.000000
    SLACK7884 V0118000 1.000000
    SLACK7885 V0121000 1.000000
    SLACK7886 V0122000 1.000000
    SLACK7887 V0123000 1.000000
    SLACK7888 V0124000 1.000000
    SLACK7889 V0126000 1.000000
    SLACK7890 V0128000 1.000000
    SLACK7891 V0129000 1.000000
    SLACK7892 V0131000 1.000000
    SLACK7893 V0132000 1.000000
    SLACK7894 V0134000 1.000000
    SLACK7895 V0141000 1.000000
    SLACK7896 V0144000 1.000000
    SLACK7897 V0147000 1.000000
    SLACK7898 V0147001 1.000000
    SLACK7899 V0148000 1.000000
    SLACK7900 V0151000 1.000000
    SLACK7901 V0152000 1.000000
    SLACK7902 V0154000 1.000000
    SLACK7903 V0155000 1.000000
    SLACK7904 V0157000 1.000000
    SLACK7905 V0160000 1.000000
    SLACK7906 V0161000 1.000000
    SLACK7907 V0162000 1.000000
    SLACK7908 V0172000 1.000000
    SLACK7909 V0174000 1.000000
    SLACK7910 V0175000 1.000000
    SLACK7911 V0178000 1.000000
    SLACK7912 V0179000 1.000000
    SLACK7913 V0183000 1.000000
    SLACK7914 V0184000 1.000000
    SLACK7915 V0186000 1.000000
    SLACK7916 V0187000 1.000000
    SLACK7917 V0189000 1.000000
    SLACK7918 H0175000 -1.000000
    SLACK7919 H0175001 1.000000
    SLACK7920 S0301173 1.000000
    SLACK7921 S0330211 1.000000
    SLACK7922 S0330251 1.000000
    SLACK7923 S0331111 1.000000
    SLACK7924 S0331291 1.000000
    SLACK7925 S0331412 1.000000
    SLACK7926 S0331479 1.000000
    SLACK7927 S0332111 1.000000
    SLACK7928 S0332411 1.000000
    SLACK7929 S0332511 1.000000
    SLACK7930 S0332541 1.000000
    SLACK7931 S0332851 1.000000
    SLACK7932 S0332876 1.000000
    SLACK7933 S0332880 1.000000
    SLACK7934 S0332882 1.000000
    SLACK7935 S0332887 1.000000
    SLACK7936 S0332888 1.000000
    SLACK7937 S0332889 1.000000
    SLACK7938 S0332890 1.000000
    SLACK7939 S0332891 1.000000
    SLACK7940 S0332981 1.000000
    SLACK7941 S0332893 1.000000
    SLACK7942 S0333112 1.000000
    SLACK7943 S0333512 1.000000
    SLACK7944 S0333522 1.000000
    SLACK7945 S0333523 1.000000
    SLACK7946 S0333312 1.000000
    SLACK7947 S0339411 1.000000
    SLACK7948 S0338111 1.000000
    SLACK7949 S0339611 1.000000
    SLACK7950 M0386RN0 1.000000
    SLACK7951 M0386FN0 1.000000
    SLACK7952 M0386P19 1.000000
    SLACK7953 M0386P29 1.000000
    SLACK7954 M0386PM9 1.000000
    SLACK7955 M0386PLE 1.000000
    SLACK7956 M0386MN0 1.000000
    SLACK7957 M0386RP0 -1.000000
    SLACK7958 M0386RP1 1.000000
    SLACK7959 M0386AR1 -1.000000
    SLACK7960 M0386KR1 -1.000000
    SLACK7961 M0386ME1 -1.000000
    SLACK7962 M0386OX1 -1.000000
    SLACK7963 M0392DK0 1.000000
    SLACK7964 M0392RN0 1.000000
    SLACK7965 M0392MN0 1.000000
    SLACK7966 M0392FN0 1.000000
    SLACK7967 M0392RP0 -1.000000
    SLACK7968 M0392RP1 1.000000
    SLACK7969 M0392KR1 -1.000000
    SLACK7970 M0392ME1 -1.000000
    SLACK7971 M0392OX1 -1.000000
    SLACK7972 M0392AR1 -1.000000
    SLACK7973 M0392P19 1.000000
    SLACK7974 M0392P29 1.000000
    SLACK7975 M0392PM9 1.000000
    SLACK7976 M0392PLE 1.000000
    SLACK7977 M0398DK0 1.000000
    SLACK7978 M0398RN0 1.000000
    SLACK7979 M0398MN0 1.000000
    SLACK7980 M0398FN0 1.000000
    SLACK7981 M0398RP0 -1.000000
    SLACK7982 M0398RP1 1.000000
    SLACK7983 M0398AR1 -1.000000
    SLACK7984 M0398KR1 -1.000000
    SLACK7985 M0398OX1 -1.000000
    SLACK7986 M0398ME1 -1.000000
    SLACK7987 M0398P19 1.000000
    SLACK7988 M0398P29 1.000000
    SLACK7989 M0398PM9 1.000000
    SLACK7990 M0398PLE 1.000000
    SLACK7991 M03FKVI1 1.000000
    SLACK7992 M03GNZP1 -1.000000
    SLACK7993 M03GNVI1 -1.000000
    SLACK7994 M03GNVI2 1.000000
    SLACK7995 M03GNST1 -1.000000
    SLACK7996 M03GN350 1.000000
    SLACK7997 M03GN370 1.000000
    SLACK7998 M03GOZP1 -1.000000
    SLACK7999 M03GOVI1 -1.000000
    SLACK8000 M03GOVI2 1.000000
    SLACK8001 M03GOST1 -1.000000
    SLACK8002 M03GO350 1.000000
    SLACK8003 M03GO370 1.000000
    SLACK8004 M03GTZP1 -1.000000
    SLACK8005 M03GTVI1 -1.000000
    SLACK8006 M03GTVI2 1.000000
    SLACK8007 M03GTPT1 -1.000000
    SLACK8008 M03GTST1 -1.000000
    SLACK8009 M03GT350 1.000000
    SLACK8010 M03GT370 1.000000
    SLACK8011 M03GAZP1 -1.000000
    SLACK8012 M03GAVI1 -1.000000
    SLACK8013 M03GAVI2 1.000000
    SLACK8014 M03GAPT1 -1.000000
    SLACK8015 M03GAST1 -1.000000
    SLACK8016 M03GA350 1.000000
    SLACK8017 M03GA370 1.000000
    SLACK8018 M03GEZP1 1.000000
    SLACK8019 M03GE350 1.000000
    SLACK8020 M03GE370 1.000000
    SLACK8021 M03GEVI1 -1.000000
    SLACK8022 M03GEVI2 1.000000
    SLACK8023 M03GEPT1 -1.000000
    SLACK8024 M03GEST1 -1.000000
    SLACK8025 M03TTZP1 -1.000000
    SLACK8026 M03TTZP2 1.000000
    SLACK8027 M03TTVI1 1.000000
    SLACK8028 M03TTST1 -1.000000
    SLACK8029 M03TNZP1 -1.000000
    SLACK8030 M03TNZP2 1.000000
    SLACK8031 M03TNVI1 1.000000
    SLACK8032 M03TNST1 -1.000000
    SLACK8033 V0301000 1.000000
    SLACK8034 V0306000 1.000000
    SLACK8035 V0368000 1.000000
    SLACK8036 V0379000 1.000000
    SLACK8037 V0383000 1.000000
    SLACK8038 V0386000 1.000000
    SLACK8039 S0551391 1.000000
    SLACK8040 S0552751 1.000000
    SLACK8041 S0557611 1.000000
    SLACK8042 S0557711 1.000000
    SLACK8043 S0558211 1.000000
    SLACK8044 S0558561 1.000000
    SLACK8045 M0586DK0 1.000000
    SLACK8046 M0586RN0 1.000000
    SLACK8047 M0586MN0 1.000000
    SLACK8048 M0586FN0 1.000000
    SLACK8049 M0586RP0 -1.000000
    SLACK8050 M0586RP1 1.000000
    SLACK8051 M0586KR1 -1.000000
    SLACK8052 M0586AR1 -1.000000
    SLACK8053 M0586P19 1.000000
    SLACK8054 M0586P29 1.000000
    SLACK8055 M0586PM9 1.000000
    SLACK8056 M0586PLE 1.000000
    SLACK8057 V0501000 1.000000
    SLACK8058 V0502000 1.000000
    SLACK8059 V0568000 1.000000
    SLACK8060 LOBROW4642 -1.000000
    SLACK8061 LOBROW4643 -1.000000
    SLACK8062 LOBROW4644 -1.000000
    SLACK8063 LOBROW4645 -1.000000
    SLACK8064 LOBROW4646 -1.000000
    SLACK8065 LOBROW4647 -1.000000
RHS
    RHS1     V0101000 360.000000
    RHS1     V0102000 336.000000
    RHS1     V0103000 340.000000
    RHS1     V0105000 350.000000
    RHS1     V0106000 360.000000
    RHS1     V0108000 350.000000
    RHS1     V0111000 340.000000
    RHS1     V0112000 340.000000
    RHS1     V0113000 355.000000
    RHS1     V0121000 355.000000
    RHS1     V0122000 350.000000
    RHS1     V0124000 350.000000
    RHS1     V0126000 355.000000
    RHS1     V0128000 360.000000
    RHS1     V0129000 360.000000
    RHS1     V0131000 340.000000
    RHS1     V0132000 360.000000
    RHS1     V0134000 360.000000
    RHS1     V0141000 360.000000
    RHS1     V0144000 360.000000
    RHS1     V0151000 350.000000
    RHS1     V0152000 350.000000
    RHS1     V0154000 350.000000
    RHS1     V0155000 350.000000
    RHS1     V0157000 350.000000
    RHS1     V0160000 350.000000
    RHS1     V0161000 350.000000
    RHS1     V0162000 350.000000
    RHS1     V0172000 340.000000
    RHS1     V0178000 230.000000
    RHS1     V0183000 340.000000
    RHS1     V0184000 360.000000
    RHS1     V0186000 450.000000
    RHS1     V0187000 450.000000
    RHS1     V0189000 344.000000
    RHS1     V0301000 273.000000
    RHS1     V0306000 350.000000
    RHS1     V0383000 350.000000
    RHS1     V0386000 350.000000
    RHS1     V0501000 351.000000
    RHS1     V0502000 351.000000
    RHS1     V0568000 351.000000
    FXIMPLICITRHS S0100210 1550.000000
    FXIMPLICITRHS REVENUE1 -13330.571000
    FXIMPLICITRHS S0100260 120.000000
    FXIMPLICITRHS S0100810 17.200000
    FXIMPLICITRHS S0111414 0.000000
    FXIMPLICITRHS S0101133 75.000000
    FXIMPLICITRHS S0301251 364.000000
    FXIMPLICITRHS S0901251 364.000000
    FXIMPLICITRHS S0500275 63.000000
    FXIMPLICITRHS S0500280 127.000000
    FXIMPLICITRHS S0800811 0.000000
    FXIMPLICITRHS S0801298 0.000000
    FXIMPLICITRHS S0900110 7480.000000
    FXIMPLICITRHS S0900330 0.000000
    FXIMPLICITRHS S0901051 0.000000
    FXIMPLICITRHS S0901061 138.000000
    FXIMPLICITRHS S0901071 363.000000
    FXIMPLICITRHS S0901131 0.000000
    FXIMPLICITRHS S0901141 0.000000
    FXIMPLICITRHS S0901106 0.000000
    FXIMPLICITRHS S0901137 122.000000
    FXIMPLICITRHS S0901173 310.000000
    FXIMPLICITRHS S0901297 200.000000
    FXIMPLICITRHS S0901356 0.000000
    BOUNDRHS LOBROW4642 0.000000
    BOUNDRHS LOBROW4643 320.000000
    FXIMPLICITRHS X0904621 -560.000000
    FXIMPLICITRHS X0904631 -480.000000
    FXIMPLICITRHS X0904641 -160.000000
    BOUNDRHS LOBROW4644 0.000000
    FXIMPLICITRHS X0904741 -950.000000
    BOUNDRHS LOBROW4645 0.000000
    FXIMPLICITRHS X0905131 -1574.000000
    FXIMPLICITRHS X0905141 -1179.000000
    FXIMPLICITRHS X0905211 -0.000000
    FXIMPLICITRHS X0905214 -0.000000
    BOUNDRHS LOBROW4646 200.000000
    BOUNDRHS LOBROW4647 800.000000
    FXIMPLICITRHS X0905515 -39.000000
    FXIMPLICITRHS X0905530 -226.000000
    FXIMPLICITRHS X0905570 -192.000000
    FXIMPLICITRHS X0907899 -180.000000
BOUNDS
ENDATA
