NAME          MODSZK1
ROWS
 N  OBJ.FUNC
 E  ROW0002 
 E  ROW0003 
 E  ROW0004 
 E  ROW0005 
 E  ROW0006 
 E  ROW0007 
 E  ROW0008 
 E  ROW0009 
 E  ROW0010 
 E  ROW0011 
 E  ROW0012 
 E  ROW0013 
 E  ROW0014 
 E  ROW0015 
 E  ROW0016 
 E  ROW0017 
 E  ROW0018 
 E  ROW0019 
 E  ROW0020 
 E  ROW0021 
 E  ROW0022 
 E  ROW0023 
 E  ROW0024 
 E  ROW0025 
 E  ROW0026 
 E  ROW0027 
 E  ROW0028 
 E  ROW0029 
 E  ROW0030 
 E  ROW0031 
 E  ROW0032 
 E  ROW0033 
 E  ROW0034 
 E  ROW0035 
 E  ROW0036 
 E  ROW0037 
 E  ROW0038 
 E  ROW0039 
 E  ROW0040 
 E  ROW0041 
 E  ROW0042 
 E  ROW0043 
 E  ROW0044 
 E  ROW0045 
 E  ROW0046 
 E  ROW0047 
 E  ROW0048 
 E  ROW0049 
 E  ROW0050 
 E  ROW0051 
 E  ROW0052 
 E  ROW0053 
 E  ROW0054 
 E  ROW0055 
 E  ROW0056 
 E  ROW0057 
 E  ROW0058 
 E  ROW0059 
 E  ROW0060 
 E  ROW0061 
 E  ROW0062 
 E  ROW0063 
 E  ROW0064 
 E  ROW0065 
 E  ROW0066 
 E  ROW0067 
 E  ROW0068 
 E  ROW0069 
 E  ROW0070 
 E  ROW0071 
 E  ROW0072 
 E  ROW0073 
 E  ROW0074 
 E  ROW0075 
 E  ROW0076 
 E  ROW0077 
 E  ROW0078 
 E  ROW0079 
 E  ROW0080 
 E  ROW0081 
 E  ROW0082 
 E  ROW0083 
 E  ROW0084 
 E  ROW0085 
 E  ROW0086 
 E  ROW0087 
 E  ROW0088 
 E  ROW0089 
 E  ROW0090 
 E  ROW0091 
 E  ROW0092 
 E  ROW0093 
 E  ROW0094 
 E  ROW0095 
 E  ROW0096 
 E  ROW0097 
 E  ROW0098 
 E  ROW0099 
 E  ROW0100 
 E  ROW0101 
 E  ROW0102 
 E  ROW0103 
 E  ROW0104 
 E  ROW0105 
 E  ROW0106 
 E  ROW0107 
 E  ROW0108 
 E  ROW0109 
 E  ROW0110 
 E  ROW0111 
 E  ROW0112 
 E  ROW0113 
 E  ROW0114 
 E  ROW0115 
 E  ROW0116 
 E  ROW0117 
 E  ROW0118 
 E  ROW0119 
 E  ROW0120 
 E  ROW0121 
 E  ROW0122 
 E  ROW0123 
 E  ROW0124 
 E  ROW0125 
 E  ROW0126 
 E  ROW0127 
 E  ROW0128 
 E  ROW0129 
 E  ROW0130 
 E  ROW0131 
 E  ROW0132 
 E  ROW0133 
 E  ROW0134 
 E  ROW0135 
 E  ROW0136 
 E  ROW0137 
 E  ROW0138 
 E  ROW0139 
 E  ROW0140 
 E  ROW0141 
 E  ROW0142 
 E  ROW0143 
 E  ROW0144 
 E  ROW0145 
 E  ROW0146 
 E  ROW0147 
 E  ROW0148 
 E  ROW0149 
 E  ROW0150 
 E  ROW0151 
 E  ROW0152 
 E  ROW0153 
 E  ROW0154 
 E  ROW0155 
 E  ROW0156 
 E  ROW0157 
 E  ROW0158 
 E  ROW0159 
 E  ROW0160 
 E  ROW0161 
 E  ROW0162 
 E  ROW0163 
 E  ROW0164 
 E  ROW0165 
 E  ROW0166 
 E  ROW0167 
 E  ROW0168 
 E  ROW0169 
 E  ROW0170 
 E  ROW0171 
 E  ROW0172 
 E  ROW0173 
 E  ROW0174 
 E  ROW0175 
 E  ROW0176 
 E  ROW0177 
 E  ROW0178 
 E  ROW0179 
 E  ROW0180 
 E  ROW0181 
 E  ROW0182 
 E  ROW0183 
 E  ROW0184 
 E  ROW0185 
 E  ROW0186 
 E  ROW0187 
 E  ROW0188 
 E  ROW0189 
 E  ROW0190 
 E  ROW0191 
 E  ROW0192 
 E  ROW0193 
 E  ROW0194 
 E  ROW0195 
 E  ROW0196 
 E  ROW0197 
 E  ROW0198 
 E  ROW0199 
 E  ROW0200 
 E  ROW0201 
 E  ROW0202 
 E  ROW0203 
 E  ROW0204 
 E  ROW0205 
 E  ROW0206 
 E  ROW0207 
 E  ROW0208 
 E  ROW0209 
 E  ROW0210 
 E  ROW0211 
 E  ROW0212 
 E  ROW0213 
 E  ROW0214 
 E  ROW0215 
 E  ROW0216 
 E  ROW0217 
 E  ROW0218 
 E  ROW0219 
 E  ROW0220 
 E  ROW0221 
 E  ROW0222 
 E  ROW0223 
 E  ROW0224 
 E  ROW0225 
 E  ROW0226 
 E  ROW0227 
 E  ROW0228 
 E  ROW0229 
 E  ROW0230 
 E  ROW0231 
 E  ROW0232 
 E  ROW0233 
 E  ROW0234 
 E  ROW0235 
 E  ROW0236 
 E  ROW0237 
 E  ROW0238 
 E  ROW0239 
 E  ROW0240 
 E  ROW0241 
 E  ROW0242 
 E  ROW0243 
 E  ROW0244 
 E  ROW0245 
 E  ROW0246 
 E  ROW0247 
 E  ROW0248 
 E  ROW0249 
 E  ROW0250 
 E  ROW0251 
 E  ROW0252 
 E  ROW0253 
 E  ROW0254 
 E  ROW0255 
 E  ROW0256 
 E  ROW0257 
 E  ROW0258 
 E  ROW0259 
 E  ROW0260 
 E  ROW0261 
 E  ROW0262 
 E  ROW0263 
 E  ROW0264 
 E  ROW0265 
 E  ROW0266 
 E  ROW0267 
 E  ROW0268 
 E  ROW0269 
 E  ROW0270 
 E  ROW0271 
 E  ROW0272 
 E  ROW0273 
 E  ROW0274 
 E  ROW0275 
 E  ROW0276 
 E  ROW0277 
 E  ROW0278 
 E  ROW0279 
 E  ROW0280 
 E  ROW0281 
 E  ROW0282 
 E  ROW0283 
 E  ROW0284 
 E  ROW0285 
 E  ROW0286 
 E  ROW0287 
 E  ROW0288 
 E  ROW0289 
 E  ROW0290 
 E  ROW0291 
 E  ROW0292 
 E  ROW0293 
 E  ROW0294 
 E  ROW0295 
 E  ROW0296 
 E  ROW0297 
 E  ROW0298 
 E  ROW0299 
 E  ROW0300 
 E  ROW0301 
 E  ROW0302 
 E  ROW0303 
 E  ROW0304 
 E  ROW0305 
 E  ROW0306 
 E  ROW0307 
 E  ROW0308 
 E  ROW0309 
 E  ROW0310 
 E  ROW0311 
 E  ROW0312 
 E  ROW0313 
 E  ROW0314 
 E  ROW0315 
 E  ROW0316 
 E  ROW0317 
 E  ROW0318 
 E  ROW0319 
 E  ROW0320 
 E  ROW0321 
 E  ROW0322 
 E  ROW0323 
 E  ROW0324 
 E  ROW0325 
 E  ROW0326 
 E  ROW0327 
 E  ROW0328 
 E  ROW0329 
 E  ROW0330 
 E  ROW0331 
 E  ROW0332 
 E  ROW0333 
 E  ROW0334 
 E  ROW0335 
 E  ROW0336 
 E  ROW0337 
 E  ROW0338 
 E  ROW0339 
 E  ROW0340 
 E  ROW0341 
 E  ROW0342 
 E  ROW0343 
 E  ROW0344 
 E  ROW0345 
 E  ROW0346 
 E  ROW0347 
 E  ROW0348 
 E  ROW0349 
 E  ROW0350 
 E  ROW0351 
 E  ROW0352 
 E  ROW0353 
 E  ROW0354 
 E  ROW0355 
 E  ROW0356 
 E  ROW0357 
 E  ROW0358 
 E  ROW0359 
 E  ROW0360 
 E  ROW0361 
 E  ROW0362 
 E  ROW0363 
 E  ROW0364 
 E  ROW0365 
 E  ROW0366 
 E  ROW0367 
 E  ROW0368 
 E  ROW0369 
 E  ROW0370 
 E  ROW0371 
 E  ROW0372 
 E  ROW0373 
 E  ROW0374 
 E  ROW0375 
 E  ROW0376 
 E  ROW0377 
 E  ROW0378 
 E  ROW0379 
 E  ROW0380 
 E  ROW0381 
 E  ROW0382 
 E  ROW0383 
 E  ROW0384 
 E  ROW0385 
 E  ROW0386 
 E  ROW0387 
 E  ROW0388 
 E  ROW0389 
 E  ROW0390 
 E  ROW0391 
 E  ROW0392 
 E  ROW0393 
 E  ROW0394 
 E  ROW0395 
 E  ROW0396 
 E  ROW0397 
 E  ROW0398 
 E  ROW0399 
 E  ROW0400 
 E  ROW0401 
 E  ROW0402 
 E  ROW0403 
 E  ROW0404 
 E  ROW0405 
 E  ROW0406 
 E  ROW0407 
 E  ROW0408 
 E  ROW0409 
 E  ROW0410 
 E  ROW0411 
 E  ROW0412 
 E  ROW0413 
 E  ROW0414 
 E  ROW0415 
 E  ROW0416 
 E  ROW0417 
 E  ROW0418 
 E  ROW0419 
 E  ROW0420 
 E  ROW0421 
 E  ROW0422 
 E  ROW0423 
 E  ROW0424 
 E  ROW0425 
 E  ROW0426 
 E  ROW0427 
 E  ROW0428 
 E  ROW0429 
 E  ROW0430 
 E  ROW0431 
 E  ROW0432 
 E  ROW0433 
 E  ROW0434 
 E  ROW0435 
 E  ROW0436 
 E  ROW0437 
 E  ROW0438 
 E  ROW0439 
 E  ROW0440 
 E  ROW0441 
 E  ROW0442 
 E  ROW0443 
 E  ROW0444 
 E  ROW0445 
 E  ROW0446 
 E  ROW0447 
 E  ROW0448 
 E  ROW0449 
 E  ROW0450 
 E  ROW0451 
 E  ROW0452 
 E  ROW0453 
 E  ROW0454 
 E  ROW0455 
 E  ROW0456 
 E  ROW0457 
 E  ROW0458 
 E  ROW0459 
 E  ROW0460 
 E  ROW0461 
 E  ROW0462 
 E  ROW0463 
 E  ROW0464 
 E  ROW0465 
 E  ROW0466 
 E  ROW0467 
 E  ROW0468 
 E  ROW0469 
 E  ROW0470 
 E  ROW0471 
 E  ROW0472 
 E  ROW0473 
 E  ROW0474 
 E  ROW0475 
 E  ROW0476 
 E  ROW0477 
 E  ROW0478 
 E  ROW0479 
 E  ROW0480 
 E  ROW0481 
 E  ROW0482 
 E  ROW0483 
 E  ROW0484 
 E  ROW0485 
 E  ROW0486 
 E  ROW0487 
 E  ROW0488 
 E  ROW0489 
 E  ROW0490 
 E  ROW0491 
 E  ROW0492 
 E  ROW0493 
 E  ROW0494 
 E  ROW0495 
 E  ROW0496 
 E  ROW0497 
 E  ROW0498 
 E  ROW0499 
 E  ROW0500 
 E  ROW0501 
 E  ROW0502 
 E  ROW0503 
 E  ROW0504 
 E  ROW0505 
 E  ROW0506 
 E  ROW0507 
 E  ROW0508 
 E  ROW0509 
 E  ROW0510 
 E  ROW0511 
 E  ROW0512 
 E  ROW0513 
 E  ROW0514 
 E  ROW0515 
 E  ROW0516 
 E  ROW0517 
 E  ROW0518 
 E  ROW0519 
 E  ROW0520 
 E  ROW0521 
 E  ROW0522 
 E  ROW0523 
 E  ROW0524 
 E  ROW0525 
 E  ROW0526 
 E  ROW0527 
 E  ROW0528 
 E  ROW0529 
 E  ROW0530 
 E  ROW0531 
 E  ROW0532 
 E  ROW0533 
 E  ROW0534 
 E  ROW0535 
 E  ROW0536 
 E  ROW0537 
 E  ROW0538 
 E  ROW0539 
 E  ROW0540 
 E  ROW0541 
 E  ROW0542 
 E  ROW0543 
 E  ROW0544 
 E  ROW0545 
 E  ROW0546 
 E  ROW0547 
 E  ROW0548 
 E  ROW0549 
 E  ROW0550 
 E  ROW0551 
 E  ROW0552 
 E  ROW0553 
 E  ROW0554 
 E  ROW0555 
 E  ROW0556 
 E  ROW0557 
 E  ROW0558 
 E  ROW0559 
 E  ROW0560 
 E  ROW0561 
 E  ROW0562 
 E  ROW0563 
 E  ROW0564 
 E  ROW0565 
 E  ROW0566 
 E  ROW0567 
 E  ROW0568 
 E  ROW0569 
 E  ROW0570 
 E  ROW0571 
 E  ROW0572 
 E  ROW0573 
 E  ROW0574 
 E  ROW0575 
 E  ROW0576 
 E  ROW0577 
 E  ROW0578 
 E  ROW0579 
 E  ROW0580 
 E  ROW0581 
 E  ROW0582 
 E  ROW0583 
 E  ROW0584 
 E  ROW0585 
 E  ROW0586 
 E  ROW0587 
 E  ROW0588 
 E  ROW0589 
 E  ROW0590 
 E  ROW0591 
 E  ROW0592 
 E  ROW0593 
 E  ROW0594 
 E  ROW0595 
 E  ROW0596 
 E  ROW0597 
 E  ROW0598 
 E  ROW0599 
 E  ROW0600 
 E  ROW0601 
 E  ROW0602 
 E  ROW0603 
 E  ROW0604 
 E  ROW0605 
 E  ROW0606 
 E  ROW0607 
 E  ROW0608 
 E  ROW0609 
 E  ROW0610 
 E  ROW0611 
 E  ROW0612 
 E  ROW0613 
 E  ROW0614 
 E  ROW0615 
 E  ROW0616 
 E  ROW0617 
 E  ROW0618 
 E  ROW0619 
 E  ROW0620 
 E  ROW0621 
 E  ROW0622 
 E  ROW0623 
 E  ROW0624 
 E  ROW0625 
 E  ROW0626 
 E  ROW0627 
 E  ROW0628 
 E  ROW0629 
 E  ROW0630 
 E  ROW0631 
 E  ROW0632 
 E  ROW0633 
 E  ROW0634 
 E  ROW0635 
 E  ROW0636 
 E  ROW0637 
 E  ROW0638 
 E  ROW0639 
 E  ROW0640 
 E  ROW0641 
 E  ROW0642 
 E  ROW0643 
 E  ROW0644 
 E  ROW0645 
 E  ROW0646 
 E  ROW0647 
 E  ROW0648 
 E  ROW0649 
 E  ROW0650 
 E  ROW0651 
 E  ROW0652 
 E  ROW0653 
 E  ROW0654 
 E  ROW0655 
 E  ROW0656 
 E  ROW0657 
 E  ROW0658 
 E  ROW0659 
 E  ROW0660 
 E  ROW0661 
 E  ROW0662 
 E  ROW0663 
 E  ROW0664 
 E  ROW0665 
 E  ROW0666 
 E  ROW0667 
 E  ROW0668 
 E  ROW0669 
 E  ROW0670 
 E  ROW0671 
 E  ROW0672 
 E  ROW0673 
 E  ROW0674 
 E  ROW0675 
 E  ROW0676 
 E  ROW0677 
 E  ROW0678 
 E  ROW0679 
 E  ROW0680 
 E  ROW0681 
 E  ROW0682 
 E  ROW0683 
 E  ROW0684 
 E  ROW0685 
 E  ROW0686 
 E  ROW0687 
 E  ROW0688 
COLUMNS
    COL0001  OBJ.FUNC 1.210840   ROW0002  1.000000
    COL0002  OBJ.FUNC 1.210840   ROW0002  -1.000000
    COL0003  OBJ.FUNC 0.932280   ROW0003  1.000000
    COL0004  OBJ.FUNC 0.932280   ROW0003  -1.000000
    COL0005  OBJ.FUNC 0.683620   ROW0004  1.000000
    COL0006  OBJ.FUNC 0.683620   ROW0004  -1.000000
    COL0007  OBJ.FUNC 0.471760   ROW0005  1.000000
    COL0008  OBJ.FUNC 0.471760   ROW0005  -1.000000
    COL0009  OBJ.FUNC 0.685210   ROW0006  1.000000
    COL0010  OBJ.FUNC 0.685210   ROW0006  -1.000000
    COL0011  OBJ.FUNC 0.565820   ROW0007  1.000000
    COL0012  OBJ.FUNC 0.565820   ROW0007  -1.000000
    COL0013  OBJ.FUNC 1.204130   ROW0008  1.000000
    COL0014  OBJ.FUNC 1.204130   ROW0008  -1.000000
    COL0015  OBJ.FUNC 0.916900   ROW0009  1.000000
    COL0016  OBJ.FUNC 0.916900   ROW0009  -1.000000
    COL0017  OBJ.FUNC 1.703650   ROW0010  1.000000
    COL0018  OBJ.FUNC 1.703650   ROW0010  -1.000000
    COL0019  OBJ.FUNC 1.620510   ROW0011  1.000000
    COL0020  OBJ.FUNC 1.620510   ROW0011  -1.000000
    COL0021  OBJ.FUNC 0.383570   ROW0012  1.000000
    COL0022  OBJ.FUNC 0.383570   ROW0012  -1.000000
    COL0023  OBJ.FUNC 0.360750   ROW0013  1.000000
    COL0024  OBJ.FUNC 0.360750   ROW0013  -1.000000
    COL0025  OBJ.FUNC 0.518520   ROW0014  1.000000
    COL0026  OBJ.FUNC 0.518520   ROW0014  -1.000000
    COL0027  OBJ.FUNC 0.720610   ROW0015  1.000000
    COL0028  OBJ.FUNC 0.720610   ROW0015  -1.000000
    COL0029  ROW0002  1.000000   ROW0016  -0.022780
    COL0029  ROW0017  -0.063620   ROW0018  -0.028370
    COL0029  ROW0019  -0.022780   ROW0020  -0.017040
    COL0029  ROW0021  -0.026530   ROW0022  -0.008370
    COL0029  ROW0023  -0.003630   ROW0024  -0.025680
    COL0029  ROW0025  -0.032850   ROW0026  -0.019550
    COL0029  ROW0027  -0.196950   ROW0028  -0.062820
    COL0029  ROW0029  -0.050920   ROW0030  -0.305390
    COL0029  ROW0031  -0.014960   ROW0032  -0.006520
    COL0029  ROW0033  -0.039210   ROW0034  1.000000
    COL0029  ROW0035  1.000000   ROW0036  0.271120
    COL0029  ROW0037  1.000000
    COL0030  ROW0016  1.000000   ROW0038  -1.000000
    COL0030  ROW0039  -1.000000
    COL0031  OBJ.FUNC 53.157560   ROW0016  1.000000
    COL0032  OBJ.FUNC 53.157560   ROW0016  -1.000000
    COL0033  ROW0017  1.000000   ROW0039  -1.000000
    COL0033  ROW0040  -1.000000
    COL0034  OBJ.FUNC 19.031670   ROW0017  1.000000
    COL0035  OBJ.FUNC 19.031670   ROW0017  -1.000000
    COL0036  ROW0018  1.000000   ROW0039  -1.000000
    COL0036  ROW0041  -1.000000
    COL0037  OBJ.FUNC 42.687610   ROW0018  1.000000
    COL0038  OBJ.FUNC 42.687610   ROW0018  -1.000000
    COL0039  ROW0019  1.000000   ROW0039  -1.000000
    COL0039  ROW0042  -1.000000
    COL0040  OBJ.FUNC 53.157560   ROW0019  1.000000
    COL0041  OBJ.FUNC 53.157560   ROW0019  -1.000000
    COL0042  ROW0020  1.000000   ROW0039  -1.000000
    COL0042  ROW0043  -1.000000
    COL0043  OBJ.FUNC 71.042910   ROW0020  1.000000
    COL0044  OBJ.FUNC 71.042910   ROW0020  -1.000000
    COL0045  ROW0021  1.000000   ROW0039  -1.000000
    COL0045  ROW0044  -1.000000
    COL0046  OBJ.FUNC 45.637100   ROW0021  1.000000
    COL0047  OBJ.FUNC 45.637100   ROW0021  -1.000000
    COL0048  ROW0022  1.000000   ROW0039  -1.000000
    COL0048  ROW0045  -1.000000
    COL0049  OBJ.FUNC 144.717800   ROW0022  1.000000
    COL0050  OBJ.FUNC 144.717800   ROW0022  -1.000000
    COL0051  ROW0023  1.000000   ROW0039  -1.000000
    COL0051  ROW0046  -1.000000
    COL0052  OBJ.FUNC 334.001300   ROW0023  1.000000
    COL0053  OBJ.FUNC 334.001300   ROW0023  -1.000000
    COL0054  ROW0024  1.000000   ROW0039  -1.000000
    COL0054  ROW0047  -1.000000
    COL0055  OBJ.FUNC 47.147570   ROW0024  1.000000
    COL0056  OBJ.FUNC 47.147570   ROW0024  -1.000000
    COL0057  ROW0025  1.000000   ROW0039  -1.000000
    COL0057  ROW0048  -1.000000
    COL0058  OBJ.FUNC 36.859570   ROW0025  1.000000
    COL0059  OBJ.FUNC 36.859570   ROW0025  -1.000000
    COL0060  ROW0026  1.000000   ROW0039  -1.000000
    COL0060  ROW0049  -1.000000
    COL0061  OBJ.FUNC 61.950200   ROW0026  1.000000
    COL0062  OBJ.FUNC 61.950200   ROW0026  -1.000000
    COL0063  ROW0027  1.000000   ROW0039  -1.000000
    COL0063  ROW0050  1.000000
    COL0064  OBJ.FUNC 6.148020   ROW0027  1.000000
    COL0065  OBJ.FUNC 6.148020   ROW0027  -1.000000
    COL0066  ROW0034  -1.000000   ROW0038  0.906040
    COL0067  ROW0030  1.000000   ROW0034  -1.000000
    COL0068  OBJ.FUNC 3.964890   ROW0030  1.000000
    COL0069  OBJ.FUNC 3.964890   ROW0030  -1.000000
    COL0070  ROW0031  1.000000   ROW0034  -1.000000
    COL0071  OBJ.FUNC 80.919240   ROW0031  1.000000
    COL0072  OBJ.FUNC 80.919240   ROW0031  -1.000000
    COL0073  ROW0032  1.000000   ROW0034  -1.000000
    COL0073  ROW0051  -1.000000   ROW0052  1.000000
    COL0074  OBJ.FUNC 30.879450   ROW0032  1.000000
    COL0075  OBJ.FUNC 30.879450   ROW0032  -1.000000
    COL0076  ROW0033  1.000000   ROW0034  -1.000000
    COL0076  ROW0053  -1.000000   ROW0054  1.000000
    COL0077  OBJ.FUNC 185.804500   ROW0033  1.000000
    COL0078  OBJ.FUNC 185.804500   ROW0033  -1.000000
    COL0079  ROW0039  0.954230   ROW0055  -1.025740
    COL0080  ROW0035  -1.000000   ROW0055  1.000000
    COL0081  ROW0028  1.000000   ROW0055  -1.025740
    COL0081  ROW0056  -0.039090   ROW0057  -0.696090
    COL0081  ROW0058  -0.098220   ROW0059  0.833400
    COL0081  ROW0060  1.000000
    COL0082  OBJ.FUNC 19.273770   ROW0028  1.000000
    COL0083  OBJ.FUNC 19.273770   ROW0028  -1.000000
    COL0084  ROW0056  1.000000   ROW0059  -1.000000
    COL0084  ROW0061  1.000000
    COL0085  OBJ.FUNC 493.096600   ROW0056  1.000000
    COL0086  OBJ.FUNC 493.096600   ROW0056  -1.000000
    COL0087  ROW0057  1.000000   ROW0059  -1.000000
    COL0087  ROW0062  1.000000
    COL0088  OBJ.FUNC 27.688560   ROW0057  1.000000
    COL0089  OBJ.FUNC 27.688560   ROW0057  -1.000000
    COL0090  ROW0058  1.000000   ROW0059  -1.000000
    COL0090  ROW0063  1.000000
    COL0091  OBJ.FUNC 196.232300   ROW0058  1.000000
    COL0092  OBJ.FUNC 196.232300   ROW0058  -1.000000
    COL0093  ROW0061  -0.950980   ROW0064  1.000000
    COL0094  ROW0036  -0.728880   ROW0064  -0.723300
    COL0094  ROW0065  1.000000
    COL0095  ROW0029  1.000000   ROW0055  -1.025740
    COL0095  ROW0066  -0.046560   ROW0067  -0.070620
    COL0095  ROW0068  -0.347770   ROW0069  -0.034950
    COL0095  ROW0070  -0.098250   ROW0071  -0.046180
    COL0095  ROW0072  -0.287240   ROW0073  0.931570
    COL0095  ROW0074  1.000000
    COL0096  OBJ.FUNC 23.777820   ROW0029  1.000000
    COL0097  OBJ.FUNC 23.777820   ROW0029  -1.000000
    COL0098  ROW0066  1.000000   ROW0073  -1.000000
    COL0098  ROW0075  1.000000
    COL0099  OBJ.FUNC 510.725200   ROW0066  1.000000
    COL0100  OBJ.FUNC 510.725200   ROW0066  -1.000000
    COL0101  ROW0067  1.000000   ROW0073  -1.000000
    COL0101  ROW0076  1.000000
    COL0102  OBJ.FUNC 336.700300   ROW0067  1.000000
    COL0103  OBJ.FUNC 336.700300   ROW0067  -1.000000
    COL0104  ROW0068  1.000000   ROW0073  -1.000000
    COL0104  ROW0077  1.000000
    COL0105  OBJ.FUNC 68.371390   ROW0068  1.000000
    COL0106  OBJ.FUNC 68.371390   ROW0068  -1.000000
    COL0107  ROW0069  1.000000   ROW0073  -1.000000
    COL0107  ROW0078  1.000000
    COL0108  OBJ.FUNC 680.272100   ROW0069  1.000000
    COL0109  OBJ.FUNC 680.272100   ROW0069  -1.000000
    COL0110  ROW0070  1.000000   ROW0073  -1.000000
    COL0110  ROW0079  1.000000
    COL0111  OBJ.FUNC 242.013500   ROW0070  1.000000
    COL0112  OBJ.FUNC 242.013500   ROW0070  -1.000000
    COL0113  ROW0071  1.000000   ROW0073  -1.000000
    COL0113  ROW0080  1.000000
    COL0114  OBJ.FUNC 514.933000   ROW0071  1.000000
    COL0115  OBJ.FUNC 514.933000   ROW0071  -1.000000
    COL0116  ROW0072  1.000000   ROW0073  -1.000000
    COL0116  ROW0081  1.000000
    COL0117  OBJ.FUNC 82.781460   ROW0072  1.000000
    COL0118  OBJ.FUNC 82.781460   ROW0072  -1.000000
    COL0119  ROW0075  -0.928440   ROW0082  1.000000
    COL0120  ROW0036  -0.728880   ROW0082  -0.425790
    COL0120  ROW0083  1.000000
    COL0121  OBJ.FUNC 0.882560   ROW0036  1.000000
    COL0122  OBJ.FUNC 0.882560   ROW0036  -1.000000
    COL0123  ROW0035  -1.000000   ROW0084  1.000000
    COL0124  ROW0003  1.000000   ROW0037  1.000000
    COL0124  ROW0085  -0.008270   ROW0086  -0.011810
    COL0124  ROW0087  -0.007020   ROW0088  -0.006640
    COL0124  ROW0089  -0.004040   ROW0090  -0.017430
    COL0124  ROW0091  -0.009360   ROW0092  -0.054670
    COL0124  ROW0093  -0.028060   ROW0094  -0.015980
    COL0124  ROW0095  -0.110690   ROW0096  -0.059760
    COL0124  ROW0097  -0.027220   ROW0098  -0.000740
    COL0124  ROW0099  1.000000   ROW0100  1.000000
    COL0124  ROW0101  0.450800
    COL0125  ROW0038  -1.000000   ROW0085  1.000000
    COL0125  ROW0102  -1.000000
    COL0126  OBJ.FUNC 112.688800   ROW0085  1.000000
    COL0127  OBJ.FUNC 112.688800   ROW0085  -1.000000
    COL0128  ROW0040  -1.000000   ROW0086  1.000000
    COL0128  ROW0102  -1.000000
    COL0129  OBJ.FUNC 78.951520   ROW0086  1.000000
    COL0130  OBJ.FUNC 78.951520   ROW0086  -1.000000
    COL0131  ROW0041  -1.000000   ROW0087  1.000000
    COL0131  ROW0102  -1.000000
    COL0132  OBJ.FUNC 132.802100   ROW0087  1.000000
    COL0133  OBJ.FUNC 132.802100   ROW0087  -1.000000
    COL0134  ROW0043  -1.000000   ROW0088  1.000000
    COL0134  ROW0102  -1.000000
    COL0135  OBJ.FUNC 140.410000   ROW0088  1.000000
    COL0136  OBJ.FUNC 140.410000   ROW0088  -1.000000
    COL0137  ROW0047  -1.000000   ROW0089  1.000000
    COL0137  ROW0102  -1.000000
    COL0138  OBJ.FUNC 230.521000   ROW0089  1.000000
    COL0139  OBJ.FUNC 230.521000   ROW0089  -1.000000
    COL0140  ROW0048  -1.000000   ROW0090  1.000000
    COL0140  ROW0102  -1.000000
    COL0141  OBJ.FUNC 53.493100   ROW0090  1.000000
    COL0142  OBJ.FUNC 53.493100   ROW0090  -1.000000
    COL0143  ROW0049  -1.000000   ROW0091  1.000000
    COL0143  ROW0102  -1.000000
    COL0144  OBJ.FUNC 99.561930   ROW0091  1.000000
    COL0145  OBJ.FUNC 99.561930   ROW0091  -1.000000
    COL0146  ROW0050  1.000000   ROW0092  1.000000
    COL0146  ROW0102  -1.000000
    COL0147  OBJ.FUNC 17.054370   ROW0092  1.000000
    COL0148  OBJ.FUNC 17.054370   ROW0092  -1.000000
    COL0149  ROW0099  -1.000000   ROW0103  0.908190
    COL0150  ROW0095  1.000000   ROW0099  -1.000000
    COL0151  OBJ.FUNC 8.422760   ROW0095  1.000000
    COL0152  OBJ.FUNC 8.422760   ROW0095  -1.000000
    COL0153  ROW0096  1.000000   ROW0099  -1.000000
    COL0154  OBJ.FUNC 15.600140   ROW0096  1.000000
    COL0155  OBJ.FUNC 15.600140   ROW0096  -1.000000
    COL0156  ROW0051  -1.000000   ROW0052  1.000000
    COL0156  ROW0097  1.000000   ROW0099  -1.000000
    COL0157  OBJ.FUNC 1256.281000   ROW0097  1.000000
    COL0158  OBJ.FUNC 1256.281000   ROW0097  -1.000000
    COL0159  ROW0053  -1.000000   ROW0054  1.000000
    COL0159  ROW0098  1.000000   ROW0099  -1.000000
    COL0160  OBJ.FUNC 34.248920   ROW0098  1.000000
    COL0161  OBJ.FUNC 34.248920   ROW0098  -1.000000
    COL0162  ROW0102  0.889840   ROW0104  -1.040080
    COL0163  ROW0100  -1.000000   ROW0104  1.000000
    COL0164  ROW0060  1.000000   ROW0093  1.000000
    COL0164  ROW0104  -1.040080   ROW0105  -0.357190
    COL0164  ROW0106  -0.382380   ROW0107  -0.052900
    COL0164  ROW0108  -0.102600   ROW0109  0.895070
    COL0165  OBJ.FUNC 33.227010   ROW0093  1.000000
    COL0166  OBJ.FUNC 33.227010   ROW0093  -1.000000
    COL0167  ROW0105  1.000000   ROW0109  -1.000000
    COL0167  ROW0110  1.000000
    COL0168  OBJ.FUNC 93.023250   ROW0105  1.000000
    COL0169  OBJ.FUNC 93.023250   ROW0105  -1.000000
    COL0170  ROW0062  1.000000   ROW0106  1.000000
    COL0170  ROW0109  -1.000000
    COL0171  OBJ.FUNC 86.896070   ROW0106  1.000000
    COL0172  OBJ.FUNC 86.896070   ROW0106  -1.000000
    COL0173  ROW0107  1.000000   ROW0109  -1.000000
    COL0173  ROW0111  1.000000
    COL0174  OBJ.FUNC 628.140700   ROW0107  1.000000
    COL0175  OBJ.FUNC 628.140700   ROW0107  -1.000000
    COL0176  ROW0063  1.000000   ROW0108  1.000000
    COL0176  ROW0109  -1.000000
    COL0177  OBJ.FUNC 323.834200   ROW0108  1.000000
    COL0178  OBJ.FUNC 323.834200   ROW0108  -1.000000
    COL0179  ROW0112  -0.999950   ROW0113  1.000000
    COL0180  ROW0065  1.000000   ROW0101  -0.549200
    COL0180  ROW0113  -1.000000
    COL0181  ROW0074  1.000000   ROW0094  1.000000
    COL0181  ROW0104  -1.040080   ROW0114  -0.085740
    COL0181  ROW0115  -0.635210   ROW0116  -0.082830
    COL0181  ROW0117  -0.068830   ROW0118  0.872610
    COL0182  OBJ.FUNC 58.329440   ROW0094  1.000000
    COL0183  OBJ.FUNC 58.329440   ROW0094  -1.000000
    COL0184  ROW0076  1.000000   ROW0114  1.000000
    COL0184  ROW0118  -1.000000
    COL0185  OBJ.FUNC 680.272100   ROW0114  1.000000
    COL0186  OBJ.FUNC 680.272100   ROW0114  -1.000000
    COL0187  ROW0077  1.000000   ROW0115  1.000000
    COL0187  ROW0118  -1.000000
    COL0188  OBJ.FUNC 91.827360   ROW0115  1.000000
    COL0189  OBJ.FUNC 91.827360   ROW0115  -1.000000
    COL0190  ROW0116  1.000000   ROW0118  -1.000000
    COL0190  ROW0119  1.000000
    COL0191  OBJ.FUNC 704.225300   ROW0116  1.000000
    COL0192  OBJ.FUNC 704.225300   ROW0116  -1.000000
    COL0193  ROW0081  1.000000   ROW0117  1.000000
    COL0193  ROW0118  -1.000000
    COL0194  OBJ.FUNC 847.457600   ROW0117  1.000000
    COL0195  OBJ.FUNC 847.457600   ROW0117  -1.000000
    COL0196  ROW0120  -0.903580   ROW0121  1.000000
    COL0197  ROW0083  1.000000   ROW0101  -0.549200
    COL0197  ROW0121  -1.000000
    COL0198  OBJ.FUNC 0.512010   ROW0101  1.000000
    COL0199  OBJ.FUNC 0.512010   ROW0101  -1.000000
    COL0200  ROW0084  1.000000   ROW0100  -1.000000
    COL0201  ROW0004  1.000000   ROW0122  -0.141100
    COL0201  ROW0123  -0.046350   ROW0124  -0.003650
    COL0201  ROW0125  -0.036450   ROW0126  -0.005760
    COL0201  ROW0127  -0.002260   ROW0128  -0.006890
    COL0201  ROW0129  -0.118180   ROW0130  -0.120290
    COL0201  ROW0131  -0.030690   ROW0132  -0.168350
    COL0201  ROW0133  -0.146920   ROW0134  -0.044350
    COL0201  ROW0135  -0.001120   ROW0136  -0.006780
    COL0201  ROW0137  1.000000   ROW0138  1.000000
    COL0201  ROW0139  0.251890
    COL0202  ROW0038  -1.000000   ROW0122  1.000000
    COL0202  ROW0140  -1.000000
    COL0203  OBJ.FUNC 4.844820   ROW0122  1.000000
    COL0204  OBJ.FUNC 4.844820   ROW0122  -1.000000
    COL0205  ROW0103  -1.000000   ROW0123  1.000000
    COL0205  ROW0140  -1.000000
    COL0206  OBJ.FUNC 14.750130   ROW0123  1.000000
    COL0207  OBJ.FUNC 14.750130   ROW0123  -1.000000
    COL0208  ROW0042  -1.000000   ROW0124  1.000000
    COL0208  ROW0140  -1.000000
    COL0209  OBJ.FUNC 187.265900   ROW0124  1.000000
    COL0210  OBJ.FUNC 187.265900   ROW0124  -1.000000
    COL0211  ROW0044  -1.000000   ROW0125  1.000000
    COL0211  ROW0140  -1.000000
    COL0212  OBJ.FUNC 18.755390   ROW0125  1.000000
    COL0213  OBJ.FUNC 18.755390   ROW0125  -1.000000
    COL0214  ROW0045  -1.000000   ROW0126  1.000000
    COL0214  ROW0140  -1.000000
    COL0215  OBJ.FUNC 118.595800   ROW0126  1.000000
    COL0216  OBJ.FUNC 118.595800   ROW0126  -1.000000
    COL0217  ROW0046  -1.000000   ROW0127  1.000000
    COL0217  ROW0140  -1.000000
    COL0218  OBJ.FUNC 301.932300   ROW0127  1.000000
    COL0219  OBJ.FUNC 301.932300   ROW0127  -1.000000
    COL0220  ROW0047  -1.000000   ROW0128  1.000000
    COL0220  ROW0140  -1.000000
    COL0221  OBJ.FUNC 99.206350   ROW0128  1.000000
    COL0222  OBJ.FUNC 99.206350   ROW0128  -1.000000
    COL0223  ROW0048  -1.000000   ROW0129  1.000000
    COL0223  ROW0140  -1.000000
    COL0224  OBJ.FUNC 5.784690   ROW0129  1.000000
    COL0225  OBJ.FUNC 5.784690   ROW0129  -1.000000
    COL0226  ROW0050  1.000000   ROW0130  1.000000
    COL0226  ROW0140  -1.000000
    COL0227  OBJ.FUNC 5.683170   ROW0130  1.000000
    COL0228  OBJ.FUNC 5.683170   ROW0130  -1.000000
    COL0229  ROW0040  0.970150   ROW0137  -1.000000
    COL0230  ROW0133  1.000000   ROW0137  -1.000000
    COL0231  OBJ.FUNC 4.652890   ROW0133  1.000000
    COL0232  OBJ.FUNC 4.652890   ROW0133  -1.000000
    COL0233  ROW0134  1.000000   ROW0137  -1.000000
    COL0234  OBJ.FUNC 15.413070   ROW0134  1.000000
    COL0235  OBJ.FUNC 15.413070   ROW0134  -1.000000
    COL0236  ROW0051  -1.000000   ROW0135  1.000000
    COL0236  ROW0137  -1.000000
    COL0237  OBJ.FUNC 100.806400   ROW0135  1.000000
    COL0238  OBJ.FUNC 100.806400   ROW0135  -1.000000
    COL0239  ROW0053  -1.000000   ROW0136  1.000000
    COL0239  ROW0137  -1.000000
    COL0240  OBJ.FUNC 609.756100   ROW0136  1.000000
    COL0241  OBJ.FUNC 609.756100   ROW0136  -1.000000
    COL0242  ROW0140  0.938890   ROW0141  -1.021260
    COL0243  ROW0138  -1.000000   ROW0141  1.000000
    COL0244  ROW0060  1.000000   ROW0131  1.000000
    COL0244  ROW0141  -1.021260   ROW0142  -0.510020
    COL0244  ROW0143  -0.148550   ROW0144  -0.033540
    COL0244  ROW0145  0.692120
    COL0245  OBJ.FUNC 22.271720   ROW0131  1.000000
    COL0246  OBJ.FUNC 22.271720   ROW0131  -1.000000
    COL0247  ROW0061  1.000000   ROW0142  1.000000
    COL0247  ROW0145  -1.000000
    COL0248  OBJ.FUNC 43.668120   ROW0142  1.000000
    COL0249  OBJ.FUNC 43.668120   ROW0142  -1.000000
    COL0250  ROW0062  1.000000   ROW0143  1.000000
    COL0250  ROW0145  -1.000000
    COL0251  OBJ.FUNC 149.925000   ROW0143  1.000000
    COL0252  OBJ.FUNC 149.925000   ROW0143  -1.000000
    COL0253  ROW0144  1.000000   ROW0145  -1.000000
    COL0253  ROW0146  1.000000
    COL0254  OBJ.FUNC 664.010600   ROW0144  1.000000
    COL0255  OBJ.FUNC 664.010600   ROW0144  -1.000000
    COL0256  ROW0148  1.000000
    COL0257  ROW0065  1.000000   ROW0139  -0.748110
    COL0258  ROW0074  1.000000   ROW0132  1.000000
    COL0258  ROW0141  -1.021260   ROW0149  -0.790300
    COL0258  ROW0150  -0.039490   ROW0151  -0.010690
    COL0258  ROW0152  -0.008040   ROW0153  0.848530
    COL0259  OBJ.FUNC 4.060750   ROW0132  1.000000
    COL0260  OBJ.FUNC 4.060750   ROW0132  -1.000000
    COL0261  ROW0149  1.000000   ROW0153  -1.000000
    COL0261  ROW0154  1.000000
    COL0262  OBJ.FUNC 5.138220   ROW0149  1.000000
    COL0263  OBJ.FUNC 5.138220   ROW0149  -1.000000
    COL0264  ROW0077  1.000000   ROW0150  1.000000
    COL0264  ROW0153  -1.000000
    COL0265  OBJ.FUNC 102.817200   ROW0150  1.000000
    COL0266  OBJ.FUNC 102.817200   ROW0150  -1.000000
    COL0267  ROW0078  1.000000   ROW0151  1.000000
    COL0267  ROW0153  -1.000000
    COL0268  OBJ.FUNC 379.939200   ROW0151  1.000000
    COL0269  OBJ.FUNC 379.939200   ROW0151  -1.000000
    COL0270  ROW0119  1.000000   ROW0152  1.000000
    COL0270  ROW0153  -1.000000
    COL0271  OBJ.FUNC 505.050500   ROW0152  1.000000
    COL0272  OBJ.FUNC 505.050500   ROW0152  -1.000000
    COL0273  ROW0154  -1.000000   ROW0155  1.000000
    COL0274  ROW0083  1.000000   ROW0139  -0.748110
    COL0274  ROW0155  -1.000000
    COL0275  OBJ.FUNC 0.511430   ROW0139  1.000000
    COL0276  OBJ.FUNC 0.511430   ROW0139  -1.000000
    COL0277  ROW0138  -1.000000
    COL0278  ROW0005  1.000000   ROW0156  -0.034340
    COL0278  ROW0157  -0.018480   ROW0158  -0.068750
    COL0278  ROW0159  -0.191280   ROW0160  -0.005570
    COL0278  ROW0161  -0.006250   ROW0162  -0.009430
    COL0278  ROW0163  -0.016550   ROW0164  -0.011290
    COL0278  ROW0165  -0.006640   ROW0166  -0.138050
    COL0278  ROW0167  -0.119350   ROW0168  -0.158250
    COL0278  ROW0169  -0.006480   ROW0170  -0.016960
    COL0278  ROW0171  -0.189110   ROW0172  -0.061870
    COL0278  ROW0173  1.000000   ROW0174  1.000000
    COL0278  ROW0175  0.198570
    COL0279  ROW0038  -1.000000   ROW0156  1.000000
    COL0279  ROW0176  -1.000000
    COL0280  OBJ.FUNC 13.739660   ROW0156  1.000000
    COL0281  OBJ.FUNC 13.739660   ROW0156  -1.000000
    COL0282  ROW0103  -1.000000   ROW0157  1.000000
    COL0282  ROW0176  -1.000000
    COL0283  OBJ.FUNC 25.524530   ROW0157  1.000000
    COL0284  OBJ.FUNC 25.524530   ROW0157  -1.000000
    COL0285  ROW0040  -1.000000   ROW0158  1.000000
    COL0285  ROW0176  -1.000000
    COL0286  OBJ.FUNC 6.862480   ROW0158  1.000000
    COL0287  OBJ.FUNC 6.862480   ROW0158  -1.000000
    COL0288  ROW0041  -1.000000   ROW0159  1.000000
    COL0288  ROW0176  -1.000000
    COL0289  OBJ.FUNC 2.466330   ROW0159  1.000000
    COL0290  OBJ.FUNC 2.466330   ROW0159  -1.000000
    COL0291  ROW0042  -1.000000   ROW0160  1.000000
    COL0291  ROW0176  -1.000000
    COL0292  OBJ.FUNC 84.731410   ROW0160  1.000000
    COL0293  OBJ.FUNC 84.731410   ROW0160  -1.000000
    COL0294  ROW0043  -1.000000   ROW0161  1.000000
    COL0294  ROW0176  -1.000000
    COL0295  OBJ.FUNC 75.528700   ROW0161  1.000000
    COL0296  OBJ.FUNC 75.528700   ROW0161  -1.000000
    COL0297  ROW0047  -1.000000   ROW0162  1.000000
    COL0297  ROW0176  -1.000000
    COL0298  OBJ.FUNC 50.020010   ROW0162  1.000000
    COL0299  OBJ.FUNC 50.020010   ROW0162  -1.000000
    COL0300  ROW0048  -1.000000   ROW0163  1.000000
    COL0300  ROW0176  -1.000000
    COL0301  OBJ.FUNC 28.509520   ROW0163  1.000000
    COL0302  OBJ.FUNC 28.509520   ROW0163  -1.000000
    COL0303  ROW0049  -1.000000   ROW0164  1.000000
    COL0303  ROW0176  -1.000000
    COL0304  OBJ.FUNC 41.799030   ROW0164  1.000000
    COL0305  OBJ.FUNC 41.799030   ROW0164  -1.000000
    COL0306  ROW0165  1.000000   ROW0176  -1.000000
    COL0306  ROW0177  -1.000000
    COL0307  OBJ.FUNC 71.022730   ROW0165  1.000000
    COL0308  OBJ.FUNC 71.022730   ROW0165  -1.000000
    COL0309  ROW0050  1.000000   ROW0166  1.000000
    COL0309  ROW0176  -1.000000
    COL0310  OBJ.FUNC 3.417400   ROW0166  1.000000
    COL0311  OBJ.FUNC 3.417400   ROW0166  -1.000000
    COL0312  ROW0041  0.953290   ROW0173  -1.000000
    COL0313  ROW0169  1.000000   ROW0173  -1.000000
    COL0314  OBJ.FUNC 72.780200   ROW0169  1.000000
    COL0315  OBJ.FUNC 72.780200   ROW0169  -1.000000
    COL0316  ROW0170  1.000000   ROW0173  -1.000000
    COL0317  OBJ.FUNC 27.824150   ROW0170  1.000000
    COL0318  OBJ.FUNC 27.824150   ROW0170  -1.000000
    COL0319  ROW0051  -1.000000   ROW0171  1.000000
    COL0319  ROW0173  -1.000000
    COL0320  OBJ.FUNC 7.625440   ROW0171  1.000000
    COL0321  OBJ.FUNC 7.625440   ROW0171  -1.000000
    COL0322  ROW0053  -1.000000   ROW0172  1.000000
    COL0322  ROW0173  -1.000000
    COL0323  OBJ.FUNC 2.494640   ROW0172  1.000000
    COL0324  OBJ.FUNC 2.494640   ROW0172  -1.000000
    COL0325  ROW0176  0.970690   ROW0178  -1.117870
    COL0326  ROW0174  -1.000000   ROW0178  1.000000
    COL0327  ROW0060  1.000000   ROW0167  1.000000
    COL0327  ROW0178  -1.117870   ROW0179  -0.126970
    COL0327  ROW0180  -0.266420   ROW0181  -0.104770
    COL0327  ROW0182  -0.011570   ROW0183  -0.199490
    COL0327  ROW0184  -0.080320   ROW0185  0.789540
    COL0328  OBJ.FUNC 3.952880   ROW0167  1.000000
    COL0329  OBJ.FUNC 3.952880   ROW0167  -1.000000
    COL0330  ROW0061  1.000000   ROW0179  1.000000
    COL0330  ROW0185  -1.000000
    COL0331  OBJ.FUNC 31.133250   ROW0179  1.000000
    COL0332  OBJ.FUNC 31.133250   ROW0179  -1.000000
    COL0333  ROW0110  1.000000   ROW0180  1.000000
    COL0333  ROW0185  -1.000000
    COL0334  OBJ.FUNC 14.836790   ROW0180  1.000000
    COL0335  OBJ.FUNC 14.836790   ROW0180  -1.000000
    COL0336  ROW0062  1.000000   ROW0181  1.000000
    COL0336  ROW0185  -1.000000
    COL0337  OBJ.FUNC 37.730160   ROW0181  1.000000
    COL0338  OBJ.FUNC 37.730160   ROW0181  -1.000000
    COL0339  ROW0111  1.000000   ROW0182  1.000000
    COL0339  ROW0185  -1.000000
    COL0340  OBJ.FUNC 341.530100   ROW0182  1.000000
    COL0341  OBJ.FUNC 341.530100   ROW0182  -1.000000
    COL0342  ROW0183  1.000000   ROW0185  -1.000000
    COL0342  ROW0186  1.000000
    COL0343  OBJ.FUNC 19.815320   ROW0183  1.000000
    COL0344  OBJ.FUNC 19.815320   ROW0183  -1.000000
    COL0345  ROW0184  1.000000   ROW0185  -1.000000
    COL0345  ROW0187  1.000000
    COL0346  OBJ.FUNC 49.212600   ROW0184  1.000000
    COL0347  OBJ.FUNC 49.212600   ROW0184  -1.000000
    COL0348  ROW0110  -0.795480   ROW0188  1.000000
    COL0349  ROW0065  1.000000   ROW0175  -0.801430
    COL0349  ROW0188  -0.958800
    COL0350  ROW0074  1.000000   ROW0168  1.000000
    COL0350  ROW0178  -1.117870   ROW0189  -0.092820
    COL0350  ROW0190  -0.060590   ROW0191  -0.589200
    COL0350  ROW0192  -0.051900   ROW0193  -0.121320
    COL0350  ROW0194  -0.033700   ROW0195  -0.044060
    COL0350  ROW0196  0.993590
    COL0351  OBJ.FUNC 2.981160   ROW0168  1.000000
    COL0352  OBJ.FUNC 2.981160   ROW0168  -1.000000
    COL0353  ROW0075  1.000000   ROW0189  1.000000
    COL0353  ROW0196  -1.000000
    COL0354  OBJ.FUNC 32.117160   ROW0189  1.000000
    COL0355  OBJ.FUNC 32.117160   ROW0189  -1.000000
    COL0356  ROW0120  1.000000   ROW0190  1.000000
    COL0356  ROW0196  -1.000000
    COL0357  OBJ.FUNC 49.202910   ROW0190  1.000000
    COL0358  OBJ.FUNC 49.202910   ROW0190  -1.000000
    COL0359  ROW0076  1.000000   ROW0191  1.000000
    COL0359  ROW0196  -1.000000
    COL0360  OBJ.FUNC 5.059700   ROW0191  1.000000
    COL0361  OBJ.FUNC 5.059700   ROW0191  -1.000000
    COL0362  ROW0077  1.000000   ROW0192  1.000000
    COL0362  ROW0196  -1.000000
    COL0363  OBJ.FUNC 57.438260   ROW0192  1.000000
    COL0364  OBJ.FUNC 57.438260   ROW0192  -1.000000
    COL0365  ROW0193  1.000000   ROW0196  -1.000000
    COL0365  ROW0197  1.000000
    COL0366  OBJ.FUNC 24.573650   ROW0193  1.000000
    COL0367  OBJ.FUNC 24.573650   ROW0193  -1.000000
    COL0368  ROW0079  1.000000   ROW0194  1.000000
    COL0368  ROW0196  -1.000000
    COL0369  OBJ.FUNC 88.448620   ROW0194  1.000000
    COL0370  OBJ.FUNC 88.448620   ROW0194  -1.000000
    COL0371  ROW0081  1.000000   ROW0195  1.000000
    COL0371  ROW0196  -1.000000
    COL0372  OBJ.FUNC 67.659000   ROW0195  1.000000
    COL0373  OBJ.FUNC 67.659000   ROW0195  -1.000000
    COL0374  ROW0076  -0.893900   ROW0198  1.000000
    COL0375  ROW0083  1.000000   ROW0175  -0.801430
    COL0375  ROW0198  -1.000000
    COL0376  OBJ.FUNC 0.378090   ROW0175  1.000000
    COL0377  OBJ.FUNC 0.378090   ROW0175  -1.000000
    COL0378  ROW0174  -1.000000
    COL0379  ROW0006  1.000000   ROW0199  -0.018820
    COL0379  ROW0200  -0.152710   ROW0201  -0.013420
    COL0379  ROW0202  -0.018190   ROW0203  -0.019380
    COL0379  ROW0204  -0.008140   ROW0205  -0.022370
    COL0379  ROW0206  -0.014640   ROW0207  -0.168430
    COL0379  ROW0208  -0.073410   ROW0209  -0.053510
    COL0379  ROW0210  -0.017670   ROW0211  -0.346660
    COL0379  ROW0212  -0.141350   ROW0213  -0.349160
    COL0379  ROW0214  1.000000   ROW0215  1.000000
    COL0379  ROW0216  0.424940   ROW0217  1.000000
    COL0380  ROW0040  -1.000000   ROW0199  1.000000
    COL0380  ROW0218  -1.000000
    COL0381  OBJ.FUNC 36.416610   ROW0199  1.000000
    COL0382  OBJ.FUNC 36.416610   ROW0199  -1.000000
    COL0383  ROW0041  -1.000000   ROW0200  1.000000
    COL0383  ROW0218  -1.000000
    COL0384  OBJ.FUNC 4.487040   ROW0200  1.000000
    COL0385  OBJ.FUNC 4.487040   ROW0200  -1.000000
    COL0386  ROW0042  -1.000000   ROW0201  1.000000
    COL0386  ROW0218  -1.000000
    COL0387  OBJ.FUNC 51.072520   ROW0201  1.000000
    COL0388  OBJ.FUNC 51.072520   ROW0201  -1.000000
    COL0389  ROW0043  -1.000000   ROW0202  1.000000
    COL0389  ROW0218  -1.000000
    COL0390  OBJ.FUNC 37.667620   ROW0202  1.000000
    COL0391  OBJ.FUNC 37.667620   ROW0202  -1.000000
    COL0392  ROW0044  -1.000000   ROW0203  1.000000
    COL0392  ROW0218  -1.000000
    COL0393  OBJ.FUNC 35.350680   ROW0203  1.000000
    COL0394  OBJ.FUNC 35.350680   ROW0203  -1.000000
    COL0395  ROW0046  -1.000000   ROW0204  1.000000
    COL0395  ROW0218  -1.000000
    COL0396  OBJ.FUNC 84.146750   ROW0204  1.000000
    COL0397  OBJ.FUNC 84.146750   ROW0204  -1.000000
    COL0398  ROW0047  -1.000000   ROW0205  1.000000
    COL0398  ROW0218  -1.000000
    COL0399  OBJ.FUNC 30.629750   ROW0205  1.000000
    COL0400  OBJ.FUNC 30.629750   ROW0205  -1.000000
    COL0401  ROW0177  -1.000000   ROW0206  1.000000
    COL0401  ROW0218  -1.000000
    COL0402  OBJ.FUNC 46.803330   ROW0206  1.000000
    COL0403  OBJ.FUNC 46.803330   ROW0206  -1.000000
    COL0404  ROW0050  1.000000   ROW0207  1.000000
    COL0404  ROW0218  -1.000000
    COL0405  OBJ.FUNC 4.068150   ROW0207  1.000000
    COL0406  OBJ.FUNC 4.068150   ROW0207  -1.000000
    COL0407  ROW0042  0.897310   ROW0214  -1.000000
    COL0408  ROW0210  1.000000   ROW0214  -1.000000
    COL0409  OBJ.FUNC 38.783740   ROW0210  1.000000
    COL0410  OBJ.FUNC 38.783740   ROW0210  -1.000000
    COL0411  ROW0211  1.000000   ROW0214  -1.000000
    COL0412  OBJ.FUNC 1.976600   ROW0211  1.000000
    COL0413  OBJ.FUNC 1.976600   ROW0211  -1.000000
    COL0414  ROW0051  -1.000000   ROW0212  1.000000
    COL0414  ROW0214  -1.000000   ROW0219  1.000000
    COL0415  OBJ.FUNC 1.962470   ROW0212  1.000000
    COL0416  OBJ.FUNC 1.962470   ROW0212  -1.000000
    COL0417  ROW0053  -1.000000   ROW0213  1.000000
    COL0417  ROW0214  -1.000000   ROW0220  1.000000
    COL0418  OBJ.FUNC 4.847590   ROW0213  1.000000
    COL0419  OBJ.FUNC 4.847590   ROW0213  -1.000000
    COL0420  ROW0218  0.900340   ROW0221  -1.033240
    COL0421  ROW0215  -1.000000   ROW0221  1.000000
    COL0422  ROW0060  1.000000   ROW0208  1.000000
    COL0422  ROW0221  -1.033240   ROW0222  -0.136290
    COL0422  ROW0223  -0.572560   ROW0224  -0.026430
    COL0422  ROW0225  -0.032240   ROW0226  -0.075830
    COL0422  ROW0227  -0.056710   ROW0228  0.900060
    COL0423  OBJ.FUNC 9.333580   ROW0208  1.000000
    COL0424  OBJ.FUNC 9.333580   ROW0208  -1.000000
    COL0425  ROW0110  1.000000   ROW0222  1.000000
    COL0425  ROW0228  -1.000000
    COL0426  OBJ.FUNC 68.483770   ROW0222  1.000000
    COL0427  OBJ.FUNC 68.483770   ROW0222  -1.000000
    COL0428  ROW0062  1.000000   ROW0223  1.000000
    COL0428  ROW0228  -1.000000
    COL0429  OBJ.FUNC 16.301510   ROW0223  1.000000
    COL0430  OBJ.FUNC 16.301510   ROW0223  -1.000000
    COL0431  ROW0224  1.000000   ROW0228  -1.000000
    COL0431  ROW0229  1.000000
    COL0432  OBJ.FUNC 353.107300   ROW0224  1.000000
    COL0433  OBJ.FUNC 353.107300   ROW0224  -1.000000
    COL0434  ROW0146  1.000000   ROW0225  1.000000
    COL0434  ROW0228  -1.000000
    COL0435  OBJ.FUNC 289.519400   ROW0225  1.000000
    COL0436  OBJ.FUNC 289.519400   ROW0225  -1.000000
    COL0437  ROW0111  1.000000   ROW0226  1.000000
    COL0437  ROW0228  -1.000000
    COL0438  OBJ.FUNC 123.092100   ROW0226  1.000000
    COL0439  OBJ.FUNC 123.092100   ROW0226  -1.000000
    COL0440  ROW0187  1.000000   ROW0227  1.000000
    COL0440  ROW0228  -1.000000
    COL0441  OBJ.FUNC 164.582000   ROW0227  1.000000
    COL0442  OBJ.FUNC 164.582000   ROW0227  -1.000000
    COL0443  ROW0062  -0.681570   ROW0230  1.000000
    COL0444  ROW0065  1.000000   ROW0216  -0.575060
    COL0444  ROW0230  -0.613670
    COL0445  ROW0074  1.000000   ROW0209  1.000000
    COL0445  ROW0221  -1.033240   ROW0231  -0.164350
    COL0445  ROW0232  -0.571170   ROW0233  -0.023690
    COL0445  ROW0234  -0.008140   ROW0235  -0.061690
    COL0445  ROW0236  -0.083740   ROW0237  0.912780
    COL0446  OBJ.FUNC 12.804100   ROW0209  1.000000
    COL0447  OBJ.FUNC 12.804100   ROW0209  -1.000000
    COL0448  ROW0076  1.000000   ROW0231  1.000000
    COL0448  ROW0237  -1.000000
    COL0449  OBJ.FUNC 77.905890   ROW0231  1.000000
    COL0450  OBJ.FUNC 77.905890   ROW0231  -1.000000
    COL0451  ROW0077  1.000000   ROW0232  1.000000
    COL0451  ROW0237  -1.000000
    COL0452  OBJ.FUNC 22.417510   ROW0232  1.000000
    COL0453  OBJ.FUNC 22.417510   ROW0232  -1.000000
    COL0454  ROW0078  1.000000   ROW0233  1.000000
    COL0454  ROW0237  -1.000000
    COL0455  OBJ.FUNC 540.540500   ROW0233  1.000000
    COL0456  OBJ.FUNC 540.540500   ROW0233  -1.000000
    COL0457  ROW0234  1.000000   ROW0237  -1.000000
    COL0457  ROW0238  1.000000
    COL0458  OBJ.FUNC 1572.327000   ROW0234  1.000000
    COL0459  OBJ.FUNC 1572.327000   ROW0234  -1.000000
    COL0460  ROW0079  1.000000   ROW0235  1.000000
    COL0460  ROW0237  -1.000000
    COL0461  OBJ.FUNC 207.555000   ROW0235  1.000000
    COL0462  OBJ.FUNC 207.555000   ROW0235  -1.000000
    COL0463  ROW0081  1.000000   ROW0236  1.000000
    COL0463  ROW0237  -1.000000
    COL0464  OBJ.FUNC 152.905200   ROW0236  1.000000
    COL0465  OBJ.FUNC 152.905200   ROW0236  -1.000000
    COL0466  ROW0077  -0.473250   ROW0239  1.000000
    COL0467  ROW0083  1.000000   ROW0216  -0.575060
    COL0467  ROW0239  -0.635080
    COL0468  OBJ.FUNC 0.394040   ROW0216  1.000000
    COL0469  OBJ.FUNC 0.394040   ROW0216  -1.000000
    COL0470  ROW0215  -1.000000   ROW0240  1.000000
    COL0471  ROW0007  1.000000   ROW0217  1.000000
    COL0471  ROW0241  -0.008040   ROW0242  -0.017810
    COL0471  ROW0243  -0.097540   ROW0244  -0.024350
    COL0471  ROW0245  -0.134360   ROW0246  -0.030680
    COL0471  ROW0247  -0.006450   ROW0248  -0.030790
    COL0471  ROW0249  -0.024560   ROW0250  -0.148020
    COL0471  ROW0251  -0.085660   ROW0252  -0.059690
    COL0471  ROW0253  -0.021110   ROW0254  -0.053150
    COL0471  ROW0255  -0.117310   ROW0256  -0.490310
    COL0471  ROW0257  1.000000   ROW0258  1.000000
    COL0471  ROW0259  0.226950
    COL0472  ROW0038  -1.000000   ROW0241  1.000000
    COL0472  ROW0260  -1.000000
    COL0473  OBJ.FUNC 70.333370   ROW0241  1.000000
    COL0474  OBJ.FUNC 70.333370   ROW0241  -1.000000
    COL0475  ROW0040  -1.000000   ROW0242  1.000000
    COL0475  ROW0260  -1.000000
    COL0476  OBJ.FUNC 31.772260   ROW0242  1.000000
    COL0477  OBJ.FUNC 31.772260   ROW0242  -1.000000
    COL0478  ROW0041  -1.000000   ROW0243  1.000000
    COL0478  ROW0260  -1.000000
    COL0479  OBJ.FUNC 5.800670   ROW0243  1.000000
    COL0480  OBJ.FUNC 5.800670   ROW0243  -1.000000
    COL0481  ROW0042  -1.000000   ROW0244  1.000000
    COL0481  ROW0260  -1.000000
    COL0482  OBJ.FUNC 23.235280   ROW0244  1.000000
    COL0483  OBJ.FUNC 23.235280   ROW0244  -1.000000
    COL0484  ROW0043  -1.000000   ROW0245  1.000000
    COL0484  ROW0260  -1.000000
    COL0485  OBJ.FUNC 4.211090   ROW0245  1.000000
    COL0486  OBJ.FUNC 4.211090   ROW0245  -1.000000
    COL0487  ROW0044  -1.000000   ROW0246  1.000000
    COL0487  ROW0260  -1.000000
    COL0488  OBJ.FUNC 18.441340   ROW0246  1.000000
    COL0489  OBJ.FUNC 18.441340   ROW0246  -1.000000
    COL0490  ROW0046  -1.000000   ROW0247  1.000000
    COL0490  ROW0260  -1.000000
    COL0491  OBJ.FUNC 87.734690   ROW0247  1.000000
    COL0492  OBJ.FUNC 87.734690   ROW0247  -1.000000
    COL0493  ROW0047  -1.000000   ROW0248  1.000000
    COL0493  ROW0260  -1.000000
    COL0494  OBJ.FUNC 18.376270   ROW0248  1.000000
    COL0495  OBJ.FUNC 18.376270   ROW0248  -1.000000
    COL0496  ROW0177  -1.000000   ROW0249  1.000000
    COL0496  ROW0260  -1.000000
    COL0497  OBJ.FUNC 23.037230   ROW0249  1.000000
    COL0498  OBJ.FUNC 23.037230   ROW0249  -1.000000
    COL0499  ROW0050  1.000000   ROW0250  1.000000
    COL0499  ROW0260  -1.000000
    COL0500  OBJ.FUNC 3.822720   ROW0250  1.000000
    COL0501  OBJ.FUNC 3.822720   ROW0250  -1.000000
    COL0502  ROW0043  0.909190   ROW0257  -1.000000
    COL0503  ROW0253  1.000000   ROW0257  -1.000000
    COL0504  OBJ.FUNC 26.799590   ROW0253  1.000000
    COL0505  OBJ.FUNC 26.799590   ROW0253  -1.000000
    COL0506  ROW0254  1.000000   ROW0257  -1.000000
    COL0507  OBJ.FUNC 10.645090   ROW0254  1.000000
    COL0508  OBJ.FUNC 10.645090   ROW0254  -1.000000
    COL0509  ROW0051  -1.000000   ROW0219  1.000000
    COL0509  ROW0255  1.000000   ROW0257  -1.000000
    COL0510  OBJ.FUNC 1.154020   ROW0255  1.000000
    COL0511  OBJ.FUNC 1.154020   ROW0255  -1.000000
    COL0512  ROW0053  -1.000000   ROW0220  1.000000
    COL0512  ROW0256  1.000000   ROW0257  -1.000000
    COL0513  OBJ.FUNC 4.823140   ROW0256  1.000000
    COL0514  OBJ.FUNC 4.823140   ROW0256  -1.000000
    COL0515  ROW0260  0.937340   ROW0261  -1.031920
    COL0516  ROW0258  -1.000000   ROW0261  1.000000
    COL0517  ROW0060  1.000000   ROW0251  1.000000
    COL0517  ROW0261  -1.031920   ROW0262  -0.125700
    COL0517  ROW0263  -0.136220   ROW0264  -0.467240
    COL0517  ROW0265  -0.022310   ROW0266  -0.039550
    COL0517  ROW0267  -0.044970   ROW0268  -0.098180
    COL0517  ROW0269  -0.049070   ROW0270  0.983250
    COL0518  OBJ.FUNC 6.605460   ROW0251  1.000000
    COL0519  OBJ.FUNC 6.605460   ROW0251  -1.000000
    COL0520  ROW0110  1.000000   ROW0262  1.000000
    COL0520  ROW0270  -1.000000
    COL0521  OBJ.FUNC 52.548610   ROW0262  1.000000
    COL0522  OBJ.FUNC 52.548610   ROW0262  -1.000000
    COL0523  ROW0062  1.000000   ROW0263  1.000000
    COL0523  ROW0270  -1.000000
    COL0524  OBJ.FUNC 48.491900   ROW0263  1.000000
    COL0525  OBJ.FUNC 48.491900   ROW0263  -1.000000
    COL0526  ROW0264  1.000000   ROW0270  -1.000000
    COL0526  ROW0271  1.000000
    COL0527  OBJ.FUNC 14.137070   ROW0264  1.000000
    COL0528  OBJ.FUNC 14.137070   ROW0264  -1.000000
    COL0529  ROW0229  1.000000   ROW0265  1.000000
    COL0529  ROW0270  -1.000000
    COL0530  OBJ.FUNC 296.033200   ROW0265  1.000000
    COL0531  OBJ.FUNC 296.033200   ROW0265  -1.000000
    COL0532  ROW0146  1.000000   ROW0266  1.000000
    COL0532  ROW0270  -1.000000
    COL0533  OBJ.FUNC 167.000700   ROW0266  1.000000
    COL0534  OBJ.FUNC 167.000700   ROW0266  -1.000000
    COL0535  ROW0111  1.000000   ROW0267  1.000000
    COL0535  ROW0270  -1.000000
    COL0536  OBJ.FUNC 146.886000   ROW0267  1.000000
    COL0537  OBJ.FUNC 146.886000   ROW0267  -1.000000
    COL0538  ROW0063  1.000000   ROW0268  1.000000
    COL0538  ROW0270  -1.000000
    COL0539  OBJ.FUNC 67.276640   ROW0268  1.000000
    COL0540  OBJ.FUNC 67.276640   ROW0268  -1.000000
    COL0541  ROW0187  1.000000   ROW0269  1.000000
    COL0541  ROW0270  -1.000000
    COL0542  OBJ.FUNC 134.625700   ROW0269  1.000000
    COL0543  OBJ.FUNC 134.625700   ROW0269  -1.000000
    COL0544  ROW0271  -0.686600   ROW0272  1.000000
    COL0545  ROW0065  1.000000   ROW0259  -0.773050
    COL0545  ROW0272  -0.744860
    COL0546  ROW0074  1.000000   ROW0252  1.000000
    COL0546  ROW0261  -1.031920   ROW0273  -0.131580
    COL0546  ROW0274  -0.173710   ROW0275  -0.399300
    COL0546  ROW0276  -0.054700   ROW0277  -0.003390
    COL0546  ROW0278  -0.155780   ROW0279  -0.045730
    COL0546  ROW0280  0.964200
    COL0547  OBJ.FUNC 9.480110   ROW0252  1.000000
    COL0548  OBJ.FUNC 9.480110   ROW0252  -1.000000
    COL0549  ROW0076  1.000000   ROW0273  1.000000
    COL0549  ROW0280  -1.000000
    COL0550  OBJ.FUNC 72.046110   ROW0273  1.000000
    COL0551  OBJ.FUNC 72.046110   ROW0273  -1.000000
    COL0552  ROW0077  1.000000   ROW0274  1.000000
    COL0552  ROW0280  -1.000000
    COL0553  OBJ.FUNC 54.573240   ROW0274  1.000000
    COL0554  OBJ.FUNC 54.573240   ROW0274  -1.000000
    COL0555  ROW0275  1.000000   ROW0280  -1.000000
    COL0555  ROW0281  1.000000
    COL0556  OBJ.FUNC 23.741690   ROW0275  1.000000
    COL0557  OBJ.FUNC 23.741690   ROW0275  -1.000000
    COL0558  ROW0078  1.000000   ROW0276  1.000000
    COL0558  ROW0280  -1.000000
    COL0559  OBJ.FUNC 173.310200   ROW0276  1.000000
    COL0560  OBJ.FUNC 173.310200   ROW0276  -1.000000
    COL0561  ROW0238  1.000000   ROW0277  1.000000
    COL0561  ROW0280  -1.000000
    COL0562  OBJ.FUNC 2793.296000   ROW0277  1.000000
    COL0563  OBJ.FUNC 2793.296000   ROW0277  -1.000000
    COL0564  ROW0079  1.000000   ROW0278  1.000000
    COL0564  ROW0280  -1.000000
    COL0565  OBJ.FUNC 60.856860   ROW0278  1.000000
    COL0566  OBJ.FUNC 60.856860   ROW0278  -1.000000
    COL0567  ROW0081  1.000000   ROW0279  1.000000
    COL0567  ROW0280  -1.000000
    COL0568  OBJ.FUNC 207.296800   ROW0279  1.000000
    COL0569  OBJ.FUNC 207.296800   ROW0279  -1.000000
    COL0570  ROW0281  -0.306040   ROW0282  1.000000
    COL0571  ROW0083  1.000000   ROW0259  -0.773050
    COL0571  ROW0282  -0.398200
    COL0572  OBJ.FUNC 0.437410   ROW0259  1.000000
    COL0573  OBJ.FUNC 0.437410   ROW0259  -1.000000
    COL0574  ROW0240  1.000000   ROW0258  -1.000000
    COL0575  ROW0008  1.000000   ROW0217  1.000000
    COL0575  ROW0283  -0.019860   ROW0284  -0.155290
    COL0575  ROW0285  -0.071660   ROW0286  -0.033130
    COL0575  ROW0287  -0.008640   ROW0288  -0.038070
    COL0575  ROW0289  -0.038650   ROW0290  -0.164920
    COL0575  ROW0291  -0.093850   ROW0292  -0.039710
    COL0575  ROW0293  -0.097570   ROW0294  -0.071910
    COL0575  ROW0295  -0.133470   ROW0296  -0.168170
    COL0575  ROW0297  1.000000   ROW0298  1.000000
    COL0575  ROW0299  0.151580
    COL0576  ROW0040  -1.000000   ROW0283  1.000000
    COL0576  ROW0300  -1.000000
    COL0577  OBJ.FUNC 60.642810   ROW0283  1.000000
    COL0578  OBJ.FUNC 60.642810   ROW0283  -1.000000
    COL0579  ROW0041  -1.000000   ROW0284  1.000000
    COL0579  ROW0300  -1.000000
    COL0580  OBJ.FUNC 7.754100   ROW0284  1.000000
    COL0581  OBJ.FUNC 7.754100   ROW0284  -1.000000
    COL0582  ROW0044  -1.000000   ROW0285  1.000000
    COL0582  ROW0300  -1.000000
    COL0583  OBJ.FUNC 16.803330   ROW0285  1.000000
    COL0584  OBJ.FUNC 16.803330   ROW0285  -1.000000
    COL0585  ROW0045  -1.000000   ROW0286  1.000000
    COL0585  ROW0300  -1.000000
    COL0586  OBJ.FUNC 36.345130   ROW0286  1.000000
    COL0587  OBJ.FUNC 36.345130   ROW0286  -1.000000
    COL0588  ROW0046  -1.000000   ROW0287  1.000000
    COL0588  ROW0300  -1.000000
    COL0589  OBJ.FUNC 139.431100   ROW0287  1.000000
    COL0590  OBJ.FUNC 139.431100   ROW0287  -1.000000
    COL0591  ROW0047  -1.000000   ROW0288  1.000000
    COL0591  ROW0300  -1.000000
    COL0592  OBJ.FUNC 31.631560   ROW0288  1.000000
    COL0593  OBJ.FUNC 31.631560   ROW0288  -1.000000
    COL0594  ROW0049  -1.000000   ROW0289  1.000000
    COL0594  ROW0300  -1.000000
    COL0595  OBJ.FUNC 31.158470   ROW0289  1.000000
    COL0596  OBJ.FUNC 31.158470   ROW0289  -1.000000
    COL0597  ROW0050  1.000000   ROW0290  1.000000
    COL0597  ROW0300  -1.000000
    COL0598  OBJ.FUNC 7.301190   ROW0290  1.000000
    COL0599  OBJ.FUNC 7.301190   ROW0290  -1.000000
    COL0600  ROW0044  0.928880   ROW0297  -1.000000
    COL0601  ROW0293  1.000000   ROW0297  -1.000000
    COL0602  OBJ.FUNC 12.340800   ROW0293  1.000000
    COL0603  OBJ.FUNC 12.340800   ROW0293  -1.000000
    COL0604  ROW0294  1.000000   ROW0297  -1.000000
    COL0605  OBJ.FUNC 16.744250   ROW0294  1.000000
    COL0606  OBJ.FUNC 16.744250   ROW0294  -1.000000
    COL0607  ROW0051  -1.000000   ROW0219  1.000000
    COL0607  ROW0295  1.000000   ROW0297  -1.000000
    COL0608  OBJ.FUNC 7.160250   ROW0295  1.000000
    COL0609  OBJ.FUNC 7.160250   ROW0295  -1.000000
    COL0610  ROW0053  -1.000000   ROW0220  1.000000
    COL0610  ROW0296  1.000000   ROW0297  -1.000000
    COL0611  OBJ.FUNC 9.022010   ROW0296  1.000000
    COL0612  OBJ.FUNC 9.022010   ROW0296  -1.000000
    COL0613  ROW0300  0.912390   ROW0301  -1.023420
    COL0614  ROW0298  -1.000000   ROW0301  1.000000
    COL0615  ROW0060  1.000000   ROW0291  1.000000
    COL0615  ROW0301  -1.023420   ROW0302  -0.165950
    COL0615  ROW0303  -0.099130   ROW0304  -0.258210
    COL0615  ROW0305  -0.077470   ROW0306  -0.036340
    COL0615  ROW0307  -0.263800   ROW0308  0.900900
    COL0616  OBJ.FUNC 12.830710   ROW0291  1.000000
    COL0617  OBJ.FUNC 12.830710   ROW0291  -1.000000
    COL0618  ROW0110  1.000000   ROW0302  1.000000
    COL0618  ROW0308  -1.000000
    COL0619  OBJ.FUNC 77.315600   ROW0302  1.000000
    COL0620  OBJ.FUNC 77.315600   ROW0302  -1.000000
    COL0621  ROW0062  1.000000   ROW0303  1.000000
    COL0621  ROW0308  -1.000000
    COL0622  OBJ.FUNC 129.433100   ROW0303  1.000000
    COL0623  OBJ.FUNC 129.433100   ROW0303  -1.000000
    COL0624  ROW0229  1.000000   ROW0304  1.000000
    COL0624  ROW0308  -1.000000
    COL0625  OBJ.FUNC 49.691910   ROW0304  1.000000
    COL0626  OBJ.FUNC 49.691910   ROW0304  -1.000000
    COL0627  ROW0146  1.000000   ROW0305  1.000000
    COL0627  ROW0308  -1.000000
    COL0628  OBJ.FUNC 165.617800   ROW0305  1.000000
    COL0629  OBJ.FUNC 165.617800   ROW0305  -1.000000
    COL0630  ROW0111  1.000000   ROW0306  1.000000
    COL0630  ROW0308  -1.000000
    COL0631  OBJ.FUNC 353.107300   ROW0306  1.000000
    COL0632  OBJ.FUNC 353.107300   ROW0306  -1.000000
    COL0633  ROW0063  1.000000   ROW0307  1.000000
    COL0633  ROW0308  -1.000000
    COL0634  OBJ.FUNC 48.638130   ROW0307  1.000000
    COL0635  OBJ.FUNC 48.638130   ROW0307  -1.000000
    COL0636  ROW0229  -0.531320   ROW0309  1.000000
    COL0637  ROW0065  1.000000   ROW0299  -0.848420
    COL0637  ROW0309  -0.786280
    COL0638  ROW0074  1.000000   ROW0292  1.000000
    COL0638  ROW0301  -1.023420   ROW0310  -0.145190
    COL0638  ROW0311  -0.326400   ROW0312  -0.226270
    COL0638  ROW0313  -0.096060   ROW0314  -0.085390
    COL0638  ROW0315  0.879310
    COL0639  OBJ.FUNC 30.323250   ROW0292  1.000000
    COL0640  OBJ.FUNC 30.323250   ROW0292  -1.000000
    COL0641  ROW0076  1.000000   ROW0310  1.000000
    COL0641  ROW0315  -1.000000
    COL0642  OBJ.FUNC 208.855500   ROW0310  1.000000
    COL0643  OBJ.FUNC 208.855500   ROW0310  -1.000000
    COL0644  ROW0077  1.000000   ROW0311  1.000000
    COL0644  ROW0315  -1.000000
    COL0645  OBJ.FUNC 92.902270   ROW0311  1.000000
    COL0646  OBJ.FUNC 92.902270   ROW0311  -1.000000
    COL0647  ROW0078  1.000000   ROW0312  1.000000
    COL0647  ROW0315  -1.000000
    COL0648  OBJ.FUNC 134.012300   ROW0312  1.000000
    COL0649  OBJ.FUNC 134.012300   ROW0312  -1.000000
    COL0650  ROW0079  1.000000   ROW0313  1.000000
    COL0650  ROW0315  -1.000000
    COL0651  OBJ.FUNC 315.656600   ROW0313  1.000000
    COL0652  OBJ.FUNC 315.656600   ROW0313  -1.000000
    COL0653  ROW0081  1.000000   ROW0314  1.000000
    COL0653  ROW0315  -1.000000
    COL0654  OBJ.FUNC 355.113600   ROW0314  1.000000
    COL0655  OBJ.FUNC 355.113600   ROW0314  -1.000000
    COL0656  ROW0078  -0.599180   ROW0316  1.000000
    COL0657  ROW0083  1.000000   ROW0299  -0.848420
    COL0657  ROW0316  -0.490260
    COL0658  OBJ.FUNC 1.021610   ROW0299  1.000000
    COL0659  OBJ.FUNC 1.021610   ROW0299  -1.000000
    COL0660  ROW0240  1.000000   ROW0298  -1.000000
    COL0661  ROW0009  1.000000   ROW0217  1.000000
    COL0661  ROW0317  -0.015720   ROW0318  -0.020150
    COL0661  ROW0319  -0.016900   ROW0320  -0.078130
    COL0661  ROW0321  -0.016730   ROW0322  -0.019160
    COL0661  ROW0323  -0.012980   ROW0324  -0.125890
    COL0661  ROW0325  -0.125350   ROW0326  -0.062150
    COL0661  ROW0327  -0.089370   ROW0328  -0.036070
    COL0661  ROW0329  -0.168600   ROW0330  -0.440430
    COL0661  ROW0331  1.000000   ROW0332  1.000000
    COL0661  ROW0333  0.257790
    COL0662  ROW0040  -1.000000   ROW0317  1.000000
    COL0662  ROW0334  -1.000000
    COL0663  OBJ.FUNC 58.343060   ROW0317  1.000000
    COL0664  OBJ.FUNC 58.343060   ROW0317  -1.000000
    COL0665  ROW0041  -1.000000   ROW0318  1.000000
    COL0665  ROW0334  -1.000000
    COL0666  OBJ.FUNC 45.512470   ROW0318  1.000000
    COL0667  OBJ.FUNC 45.512470   ROW0318  -1.000000
    COL0668  ROW0044  -1.000000   ROW0319  1.000000
    COL0668  ROW0334  -1.000000
    COL0669  OBJ.FUNC 54.259360   ROW0319  1.000000
    COL0670  OBJ.FUNC 54.259360   ROW0319  -1.000000
    COL0671  ROW0045  -1.000000   ROW0320  1.000000
    COL0671  ROW0334  -1.000000
    COL0672  OBJ.FUNC 11.735990   ROW0320  1.000000
    COL0673  OBJ.FUNC 11.735990   ROW0320  -1.000000
    COL0674  ROW0046  -1.000000   ROW0321  1.000000
    COL0674  ROW0334  -1.000000
    COL0675  OBJ.FUNC 54.812540   ROW0321  1.000000
    COL0676  OBJ.FUNC 54.812540   ROW0321  -1.000000
    COL0677  ROW0047  -1.000000   ROW0322  1.000000
    COL0677  ROW0334  -1.000000
    COL0678  OBJ.FUNC 47.846890   ROW0322  1.000000
    COL0679  OBJ.FUNC 47.846890   ROW0322  -1.000000
    COL0680  ROW0049  -1.000000   ROW0323  1.000000
    COL0680  ROW0334  -1.000000
    COL0681  OBJ.FUNC 70.641430   ROW0323  1.000000
    COL0682  OBJ.FUNC 70.641430   ROW0323  -1.000000
    COL0683  ROW0050  1.000000   ROW0324  1.000000
    COL0683  ROW0334  -1.000000
    COL0684  OBJ.FUNC 7.283430   ROW0324  1.000000
    COL0685  OBJ.FUNC 7.283430   ROW0324  -1.000000
    COL0686  ROW0045  0.900780   ROW0331  -1.000000
    COL0687  ROW0327  1.000000   ROW0331  -1.000000
    COL0688  OBJ.FUNC 10.259780   ROW0327  1.000000
    COL0689  OBJ.FUNC 10.259780   ROW0327  -1.000000
    COL0690  ROW0328  1.000000   ROW0331  -1.000000
    COL0691  OBJ.FUNC 25.423300   ROW0328  1.000000
    COL0692  OBJ.FUNC 25.423300   ROW0328  -1.000000
    COL0693  ROW0051  -1.000000   ROW0219  1.000000
    COL0693  ROW0329  1.000000   ROW0331  -1.000000
    COL0694  OBJ.FUNC 2.081820   ROW0329  1.000000
    COL0695  OBJ.FUNC 2.081820   ROW0329  -1.000000
    COL0696  ROW0053  -1.000000   ROW0220  1.000000
    COL0696  ROW0330  1.000000   ROW0331  -1.000000
    COL0697  OBJ.FUNC 5.438450   ROW0330  1.000000
    COL0698  OBJ.FUNC 5.438450   ROW0330  -1.000000
    COL0699  ROW0334  0.883330   ROW0335  -1.043790
    COL0700  ROW0332  -1.000000   ROW0335  1.000000
    COL0701  ROW0060  1.000000   ROW0325  1.000000
    COL0701  ROW0335  -1.043790   ROW0336  -0.155570
    COL0701  ROW0337  -0.024360   ROW0338  -0.540330
    COL0701  ROW0339  -0.050710   ROW0340  -0.020350
    COL0701  ROW0341  -0.074260   ROW0342  -0.070600
    COL0701  ROW0343  0.936180
    COL0702  OBJ.FUNC 7.314970   ROW0325  1.000000
    COL0703  OBJ.FUNC 7.314970   ROW0325  -1.000000
    COL0704  ROW0110  1.000000   ROW0336  1.000000
    COL0704  ROW0343  -1.000000
    COL0705  OBJ.FUNC 47.018990   ROW0336  1.000000
    COL0706  OBJ.FUNC 47.018990   ROW0336  -1.000000
    COL0707  ROW0229  1.000000   ROW0337  1.000000
    COL0707  ROW0343  -1.000000
    COL0708  OBJ.FUNC 300.300300   ROW0337  1.000000
    COL0709  OBJ.FUNC 300.300300   ROW0337  -1.000000
    COL0710  ROW0338  1.000000   ROW0343  -1.000000
    COL0710  ROW0344  1.000000
    COL0711  OBJ.FUNC 13.538030   ROW0338  1.000000
    COL0712  OBJ.FUNC 13.538030   ROW0338  -1.000000
    COL0713  ROW0146  1.000000   ROW0339  1.000000
    COL0713  ROW0343  -1.000000
    COL0714  OBJ.FUNC 144.258500   ROW0339  1.000000
    COL0715  OBJ.FUNC 144.258500   ROW0339  -1.000000
    COL0716  ROW0111  1.000000   ROW0340  1.000000
    COL0716  ROW0343  -1.000000
    COL0717  OBJ.FUNC 359.453600   ROW0340  1.000000
    COL0718  OBJ.FUNC 359.453600   ROW0340  -1.000000
    COL0719  ROW0063  1.000000   ROW0341  1.000000
    COL0719  ROW0343  -1.000000
    COL0720  OBJ.FUNC 98.502750   ROW0341  1.000000
    COL0721  OBJ.FUNC 98.502750   ROW0341  -1.000000
    COL0722  ROW0187  1.000000   ROW0342  1.000000
    COL0722  ROW0343  -1.000000
    COL0723  OBJ.FUNC 103.605500   ROW0342  1.000000
    COL0724  OBJ.FUNC 103.605500   ROW0342  -1.000000
    COL0725  ROW0344  -0.956200   ROW0345  1.000000
    COL0726  ROW0065  1.000000   ROW0333  -0.742210
    COL0726  ROW0345  -0.695360
    COL0727  ROW0074  1.000000   ROW0326  1.000000
    COL0727  ROW0335  -1.043790   ROW0346  -0.046590
    COL0727  ROW0347  -0.022600   ROW0348  -0.592640
    COL0727  ROW0349  -0.158210   ROW0350  -0.039920
    COL0727  ROW0351  -0.062610   ROW0352  0.922580
    COL0728  OBJ.FUNC 14.753180   ROW0326  1.000000
    COL0729  OBJ.FUNC 14.753180   ROW0326  -1.000000
    COL0730  ROW0076  1.000000   ROW0346  1.000000
    COL0730  ROW0352  -1.000000
    COL0731  OBJ.FUNC 316.656100   ROW0346  1.000000
    COL0732  OBJ.FUNC 316.656100   ROW0346  -1.000000
    COL0733  ROW0078  1.000000   ROW0347  1.000000
    COL0733  ROW0352  -1.000000
    COL0734  OBJ.FUNC 652.741500   ROW0347  1.000000
    COL0735  OBJ.FUNC 652.741500   ROW0347  -1.000000
    COL0736  ROW0348  1.000000   ROW0352  -1.000000
    COL0736  ROW0353  1.000000
    COL0737  OBJ.FUNC 24.894200   ROW0348  1.000000
    COL0738  OBJ.FUNC 24.894200   ROW0348  -1.000000
    COL0739  ROW0119  1.000000   ROW0349  1.000000
    COL0739  ROW0352  -1.000000
    COL0740  OBJ.FUNC 93.248790   ROW0349  1.000000
    COL0741  OBJ.FUNC 93.248790   ROW0349  -1.000000
    COL0742  ROW0079  1.000000   ROW0350  1.000000
    COL0742  ROW0352  -1.000000
    COL0743  OBJ.FUNC 369.549100   ROW0350  1.000000
    COL0744  OBJ.FUNC 369.549100   ROW0350  -1.000000
    COL0745  ROW0081  1.000000   ROW0351  1.000000
    COL0745  ROW0352  -1.000000
    COL0746  OBJ.FUNC 235.626800   ROW0351  1.000000
    COL0747  OBJ.FUNC 235.626800   ROW0351  -1.000000
    COL0748  ROW0353  -0.181350   ROW0354  1.000000
    COL0749  ROW0083  1.000000   ROW0333  -0.742210
    COL0749  ROW0354  -0.910560
    COL0750  OBJ.FUNC 0.680540   ROW0333  1.000000
    COL0751  OBJ.FUNC 0.680540   ROW0333  -1.000000
    COL0752  ROW0240  1.000000   ROW0332  -1.000000
    COL0753  ROW0010  1.000000   ROW0217  1.000000
    COL0753  ROW0355  -0.035030   ROW0356  -0.015790
    COL0753  ROW0357  -0.057100   ROW0358  -0.036080
    COL0753  ROW0359  -0.033630   ROW0360  -0.013270
    COL0753  ROW0361  -0.021860   ROW0362  -0.146630
    COL0753  ROW0363  -0.082970   ROW0364  -0.035320
    COL0753  ROW0365  -0.034290   ROW0366  -0.217170
    COL0753  ROW0367  -0.115720   ROW0368  -0.427780
    COL0753  ROW0369  1.000000   ROW0370  1.000000
    COL0753  ROW0371  0.321770
    COL0754  ROW0041  -1.000000   ROW0355  1.000000
    COL0754  ROW0372  -1.000000
    COL0755  OBJ.FUNC 48.628670   ROW0355  1.000000
    COL0756  OBJ.FUNC 48.628670   ROW0355  -1.000000
    COL0757  ROW0044  -1.000000   ROW0356  1.000000
    COL0757  ROW0372  -1.000000
    COL0758  OBJ.FUNC 107.898100   ROW0356  1.000000
    COL0759  OBJ.FUNC 107.898100   ROW0356  -1.000000
    COL0760  ROW0045  -1.000000   ROW0357  1.000000
    COL0760  ROW0372  -1.000000
    COL0761  OBJ.FUNC 29.838280   ROW0357  1.000000
    COL0762  OBJ.FUNC 29.838280   ROW0357  -1.000000
    COL0763  ROW0046  -1.000000   ROW0358  1.000000
    COL0763  ROW0372  -1.000000
    COL0764  OBJ.FUNC 47.218810   ROW0358  1.000000
    COL0765  OBJ.FUNC 47.218810   ROW0358  -1.000000
    COL0766  ROW0047  -1.000000   ROW0359  1.000000
    COL0766  ROW0372  -1.000000
    COL0767  OBJ.FUNC 50.663690   ROW0359  1.000000
    COL0768  OBJ.FUNC 50.663690   ROW0359  -1.000000
    COL0769  ROW0049  -1.000000   ROW0360  1.000000
    COL0769  ROW0372  -1.000000
    COL0770  OBJ.FUNC 128.369700   ROW0360  1.000000
    COL0771  OBJ.FUNC 128.369700   ROW0360  -1.000000
    COL0772  ROW0177  -1.000000   ROW0361  1.000000
    COL0772  ROW0372  -1.000000
    COL0773  OBJ.FUNC 77.930180   ROW0361  1.000000
    COL0774  OBJ.FUNC 77.930180   ROW0361  -1.000000
    COL0775  ROW0050  1.000000   ROW0362  1.000000
    COL0775  ROW0372  -1.000000
    COL0776  OBJ.FUNC 11.618720   ROW0362  1.000000
    COL0777  OBJ.FUNC 11.618720   ROW0362  -1.000000
    COL0778  ROW0046  0.889490   ROW0369  -1.000000
    COL0779  ROW0365  1.000000   ROW0369  -1.000000
    COL0780  OBJ.FUNC 49.686970   ROW0365  1.000000
    COL0781  OBJ.FUNC 49.686970   ROW0365  -1.000000
    COL0782  ROW0366  1.000000   ROW0369  -1.000000
    COL0783  OBJ.FUNC 7.844610   ROW0366  1.000000
    COL0784  OBJ.FUNC 7.844610   ROW0366  -1.000000
    COL0785  ROW0051  -1.000000   ROW0219  1.000000
    COL0785  ROW0367  1.000000   ROW0369  -1.000000
    COL0786  OBJ.FUNC 3.982540   ROW0367  1.000000
    COL0787  OBJ.FUNC 3.982540   ROW0367  -1.000000
    COL0788  ROW0053  -1.000000   ROW0220  1.000000
    COL0788  ROW0368  1.000000   ROW0369  -1.000000
    COL0789  OBJ.FUNC 14.722770   ROW0368  1.000000
    COL0790  OBJ.FUNC 14.722770   ROW0368  -1.000000
    COL0791  ROW0372  0.879440   ROW0373  -1.015260
    COL0792  ROW0370  -1.000000   ROW0373  1.000000
    COL0793  ROW0060  1.000000   ROW0363  1.000000
    COL0793  ROW0373  -1.015260   ROW0374  -0.072520
    COL0793  ROW0375  -0.077530   ROW0376  -0.088780
    COL0793  ROW0377  -0.501500   ROW0378  -0.062750
    COL0793  ROW0379  -0.080160   ROW0380  0.883250
    COL0794  OBJ.FUNC 20.533040   ROW0363  1.000000
    COL0795  OBJ.FUNC 20.533040   ROW0363  -1.000000
    COL0796  ROW0110  1.000000   ROW0374  1.000000
    COL0796  ROW0380  -1.000000
    COL0797  OBJ.FUNC 283.125700   ROW0374  1.000000
    COL0798  OBJ.FUNC 283.125700   ROW0374  -1.000000
    COL0799  ROW0062  1.000000   ROW0375  1.000000
    COL0799  ROW0380  -1.000000
    COL0800  OBJ.FUNC 264.830500   ROW0375  1.000000
    COL0801  OBJ.FUNC 264.830500   ROW0375  -1.000000
    COL0802  ROW0344  1.000000   ROW0376  1.000000
    COL0802  ROW0380  -1.000000
    COL0803  OBJ.FUNC 231.267300   ROW0376  1.000000
    COL0804  OBJ.FUNC 231.267300   ROW0376  -1.000000
    COL0805  ROW0146  1.000000   ROW0377  1.000000
    COL0805  ROW0380  -1.000000
    COL0806  OBJ.FUNC 40.943340   ROW0377  1.000000
    COL0807  OBJ.FUNC 40.943340   ROW0377  -1.000000
    COL0808  ROW0111  1.000000   ROW0378  1.000000
    COL0808  ROW0380  -1.000000
    COL0809  OBJ.FUNC 327.225100   ROW0378  1.000000
    COL0810  OBJ.FUNC 327.225100   ROW0378  -1.000000
    COL0811  ROW0187  1.000000   ROW0379  1.000000
    COL0811  ROW0380  -1.000000
    COL0812  OBJ.FUNC 256.147600   ROW0379  1.000000
    COL0813  OBJ.FUNC 256.147600   ROW0379  -1.000000
    COL0814  ROW0146  -0.500510   ROW0381  1.000000
    COL0815  ROW0065  1.000000   ROW0371  -0.678230
    COL0815  ROW0381  -0.589110
    COL0816  ROW0074  1.000000   ROW0364  1.000000
    COL0816  ROW0373  -1.015260   ROW0382  -0.038100
    COL0816  ROW0383  -0.083440   ROW0384  -0.038390
    COL0816  ROW0385  -0.142950   ROW0386  -0.427030
    COL0816  ROW0387  -0.162050   ROW0388  0.891960
    COL0817  OBJ.FUNC 48.229960   ROW0364  1.000000
    COL0818  OBJ.FUNC 48.229960   ROW0364  -1.000000
    COL0819  ROW0076  1.000000   ROW0382  1.000000
    COL0819  ROW0388  -1.000000
    COL0820  OBJ.FUNC 1265.823000   ROW0382  1.000000
    COL0821  OBJ.FUNC 1265.823000   ROW0382  -1.000000
    COL0822  ROW0077  1.000000   ROW0383  1.000000
    COL0822  ROW0388  -1.000000
    COL0823  OBJ.FUNC 578.034700   ROW0383  1.000000
    COL0824  OBJ.FUNC 578.034700   ROW0383  -1.000000
    COL0825  ROW0281  1.000000   ROW0384  1.000000
    COL0825  ROW0388  -1.000000
    COL0826  OBJ.FUNC 1256.281000   ROW0384  1.000000
    COL0827  OBJ.FUNC 1256.281000   ROW0384  -1.000000
    COL0828  ROW0353  1.000000   ROW0385  1.000000
    COL0828  ROW0388  -1.000000
    COL0829  OBJ.FUNC 337.381900   ROW0385  1.000000
    COL0830  OBJ.FUNC 337.381900   ROW0385  -1.000000
    COL0831  ROW0119  1.000000   ROW0386  1.000000
    COL0831  ROW0388  -1.000000
    COL0832  OBJ.FUNC 112.943300   ROW0386  1.000000
    COL0833  OBJ.FUNC 112.943300   ROW0386  -1.000000
    COL0834  ROW0081  1.000000   ROW0387  1.000000
    COL0834  ROW0388  -1.000000
    COL0835  OBJ.FUNC 297.619000   ROW0387  1.000000
    COL0836  OBJ.FUNC 297.619000   ROW0387  -1.000000
    COL0837  ROW0119  -0.440060   ROW0389  1.000000
    COL0838  ROW0083  1.000000   ROW0371  -0.678230
    COL0838  ROW0389  -0.554780
    COL0839  OBJ.FUNC 1.155480   ROW0371  1.000000
    COL0840  OBJ.FUNC 1.155480   ROW0371  -1.000000
    COL0841  ROW0240  1.000000   ROW0370  -1.000000
    COL0842  ROW0011  1.000000   ROW0217  1.000000
    COL0842  ROW0390  -0.021500   ROW0391  -0.184360
    COL0842  ROW0392  -0.022280   ROW0393  -0.017510
    COL0842  ROW0394  -0.035490   ROW0395  -0.021290
    COL0842  ROW0396  -0.153120   ROW0397  -0.101390
    COL0842  ROW0398  -0.035390   ROW0399  -0.106660
    COL0842  ROW0400  -0.027170   ROW0401  -0.077300
    COL0842  ROW0402  -0.104900   ROW0403  1.000000
    COL0842  ROW0404  1.000000   ROW0405  0.212830
    COL0843  ROW0040  -1.000000   ROW0390  1.000000
    COL0843  ROW0406  -1.000000
    COL0844  OBJ.FUNC 75.369310   ROW0390  1.000000
    COL0845  OBJ.FUNC 75.369310   ROW0390  -1.000000
    COL0846  ROW0041  -1.000000   ROW0391  1.000000
    COL0846  ROW0406  -1.000000
    COL0847  OBJ.FUNC 8.790130   ROW0391  1.000000
    COL0848  OBJ.FUNC 8.790130   ROW0391  -1.000000
    COL0849  ROW0043  -1.000000   ROW0392  1.000000
    COL0849  ROW0406  -1.000000
    COL0850  OBJ.FUNC 72.727270   ROW0392  1.000000
    COL0851  OBJ.FUNC 72.727270   ROW0392  -1.000000
    COL0852  ROW0045  -1.000000   ROW0393  1.000000
    COL0852  ROW0406  -1.000000
    COL0853  OBJ.FUNC 92.524060   ROW0393  1.000000
    COL0854  OBJ.FUNC 92.524060   ROW0393  -1.000000
    COL0855  ROW0047  -1.000000   ROW0394  1.000000
    COL0855  ROW0406  -1.000000
    COL0856  OBJ.FUNC 45.666270   ROW0394  1.000000
    COL0857  OBJ.FUNC 45.666270   ROW0394  -1.000000
    COL0858  ROW0049  -1.000000   ROW0395  1.000000
    COL0858  ROW0406  -1.000000
    COL0859  OBJ.FUNC 76.103500   ROW0395  1.000000
    COL0860  OBJ.FUNC 76.103500   ROW0395  -1.000000
    COL0861  ROW0050  1.000000   ROW0396  1.000000
    COL0861  ROW0406  -1.000000
    COL0862  OBJ.FUNC 10.583580   ROW0396  1.000000
    COL0863  OBJ.FUNC 10.583580   ROW0396  -1.000000
    COL0864  ROW0047  0.923010   ROW0403  -1.000000
    COL0865  ROW0399  1.000000   ROW0403  -1.000000
    COL0866  OBJ.FUNC 15.193870   ROW0399  1.000000
    COL0867  OBJ.FUNC 15.193870   ROW0399  -1.000000
    COL0868  ROW0400  1.000000   ROW0403  -1.000000
    COL0869  OBJ.FUNC 59.637400   ROW0400  1.000000
    COL0870  OBJ.FUNC 59.637400   ROW0400  -1.000000
    COL0871  ROW0051  -1.000000   ROW0219  1.000000
    COL0871  ROW0401  1.000000   ROW0403  -1.000000
    COL0872  OBJ.FUNC 15.447830   ROW0401  1.000000
    COL0873  OBJ.FUNC 15.447830   ROW0401  -1.000000
    COL0874  ROW0053  -1.000000   ROW0220  1.000000
    COL0874  ROW0402  1.000000   ROW0403  -1.000000
    COL0875  OBJ.FUNC 20.964360   ROW0402  1.000000
    COL0876  OBJ.FUNC 20.964360   ROW0402  -1.000000
    COL0877  ROW0406  0.892370   ROW0407  -1.032240
    COL0878  ROW0404  -1.000000   ROW0407  1.000000
    COL0879  ROW0060  1.000000   ROW0397  1.000000
    COL0879  ROW0407  -1.032240   ROW0408  -0.444890
    COL0879  ROW0409  -0.123910   ROW0410  -0.045680
    COL0879  ROW0411  -0.156480   ROW0412  -0.084040
    COL0879  ROW0413  -0.028580   ROW0414  0.883580
    COL0880  OBJ.FUNC 15.983630   ROW0397  1.000000
    COL0881  OBJ.FUNC 15.983630   ROW0397  -1.000000
    COL0882  ROW0110  1.000000   ROW0408  1.000000
    COL0882  ROW0414  -1.000000
    COL0883  OBJ.FUNC 35.927280   ROW0408  1.000000
    COL0884  OBJ.FUNC 35.927280   ROW0408  -1.000000
    COL0885  ROW0062  1.000000   ROW0409  1.000000
    COL0885  ROW0414  -1.000000
    COL0886  OBJ.FUNC 128.999000   ROW0409  1.000000
    COL0887  OBJ.FUNC 128.999000   ROW0409  -1.000000
    COL0888  ROW0229  1.000000   ROW0410  1.000000
    COL0888  ROW0414  -1.000000
    COL0889  OBJ.FUNC 349.895100   ROW0410  1.000000
    COL0890  OBJ.FUNC 349.895100   ROW0410  -1.000000
    COL0891  ROW0111  1.000000   ROW0411  1.000000
    COL0891  ROW0414  -1.000000
    COL0892  OBJ.FUNC 102.145000   ROW0411  1.000000
    COL0893  OBJ.FUNC 102.145000   ROW0411  -1.000000
    COL0894  ROW0063  1.000000   ROW0412  1.000000
    COL0894  ROW0414  -1.000000
    COL0895  OBJ.FUNC 190.186400   ROW0412  1.000000
    COL0896  OBJ.FUNC 190.186400   ROW0412  -1.000000
    COL0897  ROW0413  1.000000   ROW0414  -1.000000
    COL0897  ROW0415  1.000000
    COL0898  OBJ.FUNC 559.284100   ROW0413  1.000000
    COL0899  OBJ.FUNC 559.284100   ROW0413  -1.000000
    COL0900  ROW0111  -0.533440   ROW0416  1.000000
    COL0901  ROW0065  1.000000   ROW0405  -0.787170
    COL0901  ROW0416  -0.776230
    COL0902  ROW0074  1.000000   ROW0398  1.000000
    COL0902  ROW0407  -1.032240   ROW0417  -0.283330
    COL0902  ROW0418  -0.243220   ROW0419  -0.115660
    COL0902  ROW0420  -0.060160   ROW0421  -0.096700
    COL0902  ROW0422  -0.056410   ROW0423  0.855490
    COL0903  OBJ.FUNC 45.787540   ROW0398  1.000000
    COL0904  OBJ.FUNC 45.787540   ROW0398  -1.000000
    COL0905  ROW0076  1.000000   ROW0417  1.000000
    COL0905  ROW0423  -1.000000
    COL0906  OBJ.FUNC 161.603100   ROW0417  1.000000
    COL0907  OBJ.FUNC 161.603100   ROW0417  -1.000000
    COL0908  ROW0077  1.000000   ROW0418  1.000000
    COL0908  ROW0423  -1.000000
    COL0909  OBJ.FUNC 188.253000   ROW0418  1.000000
    COL0910  OBJ.FUNC 188.253000   ROW0418  -1.000000
    COL0911  ROW0281  1.000000   ROW0419  1.000000
    COL0911  ROW0423  -1.000000
    COL0912  OBJ.FUNC 395.882800   ROW0419  1.000000
    COL0913  OBJ.FUNC 395.882800   ROW0419  -1.000000
    COL0914  ROW0238  1.000000   ROW0420  1.000000
    COL0914  ROW0423  -1.000000
    COL0915  OBJ.FUNC 761.035000   ROW0420  1.000000
    COL0916  OBJ.FUNC 761.035000   ROW0420  -1.000000
    COL0917  ROW0079  1.000000   ROW0421  1.000000
    COL0917  ROW0423  -1.000000
    COL0918  OBJ.FUNC 473.484900   ROW0421  1.000000
    COL0919  OBJ.FUNC 473.484900   ROW0421  -1.000000
    COL0920  ROW0422  1.000000   ROW0423  -1.000000
    COL0920  ROW0424  1.000000
    COL0921  OBJ.FUNC 811.688400   ROW0422  1.000000
    COL0922  OBJ.FUNC 811.688400   ROW0422  -1.000000
    COL0923  ROW0238  -0.274490   ROW0425  1.000000
    COL0924  ROW0083  1.000000   ROW0405  -0.787170
    COL0924  ROW0425  -0.267760
    COL0925  OBJ.FUNC 1.275630   ROW0405  1.000000
    COL0926  OBJ.FUNC 1.275630   ROW0405  -1.000000
    COL0927  ROW0240  1.000000   ROW0404  -1.000000
    COL0928  ROW0012  1.000000   ROW0426  -0.213590
    COL0928  ROW0427  -0.017620   ROW0428  -0.157250
    COL0928  ROW0429  -0.008880   ROW0430  -0.257100
    COL0928  ROW0431  -0.152300   ROW0432  -0.009280
    COL0928  ROW0433  -0.122900   ROW0434  -0.010400
    COL0928  ROW0435  1.000000   ROW0436  1.000000
    COL0928  ROW0437  0.117920   ROW0438  1.000000
    COL0929  ROW0103  -1.000000   ROW0426  1.000000
    COL0929  ROW0439  -1.000000
    COL0930  OBJ.FUNC 1.795840   ROW0426  1.000000
    COL0931  OBJ.FUNC 1.795840   ROW0426  -1.000000
    COL0932  ROW0040  -1.000000   ROW0427  1.000000
    COL0932  ROW0439  -1.000000
    COL0933  OBJ.FUNC 21.772260   ROW0427  1.000000
    COL0934  OBJ.FUNC 21.772260   ROW0427  -1.000000
    COL0935  ROW0048  -1.000000   ROW0428  1.000000
    COL0935  ROW0439  -1.000000
    COL0936  OBJ.FUNC 2.439290   ROW0428  1.000000
    COL0937  OBJ.FUNC 2.439290   ROW0428  -1.000000
    COL0938  ROW0048  0.957480   ROW0435  -1.000000
    COL0939  ROW0431  1.000000   ROW0435  -1.000000
    COL0940  OBJ.FUNC 2.518560   ROW0431  1.000000
    COL0941  OBJ.FUNC 2.518560   ROW0431  -1.000000
    COL0942  ROW0432  1.000000   ROW0435  -1.000000
    COL0943  OBJ.FUNC 41.353070   ROW0432  1.000000
    COL0944  OBJ.FUNC 41.353070   ROW0432  -1.000000
    COL0945  ROW0051  -1.000000   ROW0433  1.000000
    COL0945  ROW0435  -1.000000   ROW0440  1.000000
    COL0946  OBJ.FUNC 36.886760   ROW0433  1.000000
    COL0947  OBJ.FUNC 36.886760   ROW0433  -1.000000
    COL0948  ROW0053  -1.000000   ROW0434  1.000000
    COL0948  ROW0435  -1.000000   ROW0441  1.000000
    COL0949  OBJ.FUNC 3.120940   ROW0434  1.000000
    COL0950  OBJ.FUNC 3.120940   ROW0434  -1.000000
    COL0951  ROW0439  0.813940   ROW0442  -1.190010
    COL0952  ROW0436  -1.000000   ROW0442  1.000000
    COL0953  ROW0060  1.000000   ROW0429  1.000000
    COL0953  ROW0442  -1.190010   ROW0443  -0.054860
    COL0953  ROW0444  -0.658290   ROW0445  -0.136510
    COL0953  ROW0446  0.849660
    COL0954  OBJ.FUNC 43.200280   ROW0429  1.000000
    COL0955  OBJ.FUNC 43.200280   ROW0429  -1.000000
    COL0956  ROW0062  1.000000   ROW0443  1.000000
    COL0956  ROW0446  -1.000000
    COL0957  OBJ.FUNC 787.401600   ROW0443  1.000000
    COL0958  OBJ.FUNC 787.401600   ROW0443  -1.000000
    COL0959  ROW0063  1.000000   ROW0444  1.000000
    COL0959  ROW0446  -1.000000
    COL0960  OBJ.FUNC 65.625400   ROW0444  1.000000
    COL0961  OBJ.FUNC 65.625400   ROW0444  -1.000000
    COL0962  ROW0187  1.000000   ROW0445  1.000000
    COL0962  ROW0446  -1.000000
    COL0963  OBJ.FUNC 316.455700   ROW0445  1.000000
    COL0964  OBJ.FUNC 316.455700   ROW0445  -1.000000
    COL0965  ROW0186  -0.475050   ROW0447  1.000000
    COL0966  ROW0065  1.000000   ROW0437  -0.882080
    COL0966  ROW0447  -0.986440
    COL0967  ROW0074  1.000000   ROW0430  1.000000
    COL0967  ROW0442  -1.190010   ROW0448  -0.006020
    COL0967  ROW0449  -0.891080   ROW0450  -0.002900
    COL0967  ROW0451  -0.090290   ROW0452  0.990290
    COL0968  OBJ.FUNC 1.491920   ROW0430  1.000000
    COL0969  OBJ.FUNC 1.491920   ROW0430  -1.000000
    COL0970  ROW0075  1.000000   ROW0448  1.000000
    COL0970  ROW0452  -1.000000
    COL0971  OBJ.FUNC 247.770100   ROW0448  1.000000
    COL0972  OBJ.FUNC 247.770100   ROW0448  -1.000000
    COL0973  ROW0120  1.000000   ROW0449  1.000000
    COL0973  ROW0452  -1.000000
    COL0974  OBJ.FUNC 1.674280   ROW0449  1.000000
    COL0975  OBJ.FUNC 1.674280   ROW0449  -1.000000
    COL0976  ROW0119  1.000000   ROW0450  1.000000
    COL0976  ROW0452  -1.000000
    COL0977  OBJ.FUNC 514.933000   ROW0450  1.000000
    COL0978  OBJ.FUNC 514.933000   ROW0450  -1.000000
    COL0979  ROW0197  1.000000   ROW0451  1.000000
    COL0979  ROW0452  -1.000000
    COL0980  OBJ.FUNC 16.524560   ROW0451  1.000000
    COL0981  OBJ.FUNC 16.524560   ROW0451  -1.000000
    COL0982  ROW0197  -0.485950   ROW0453  1.000000
    COL0983  ROW0083  1.000000   ROW0437  -0.882080
    COL0983  ROW0453  -0.995770
    COL0984  OBJ.FUNC 0.338340   ROW0437  1.000000
    COL0985  OBJ.FUNC 0.338340   ROW0437  -1.000000
    COL0986  ROW0436  -1.000000   ROW0454  1.000000
    COL0987  ROW0013  1.000000   ROW0438  1.000000
    COL0987  ROW0455  -0.049930   ROW0456  -0.066590
    COL0987  ROW0457  -0.112750   ROW0458  -0.007370
    COL0987  ROW0459  -0.006580   ROW0460  -0.132810
    COL0987  ROW0461  -0.218610   ROW0462  -0.077500
    COL0987  ROW0463  -0.111920   ROW0464  -0.014810
    COL0987  ROW0465  -0.191550   ROW0466  -0.156140
    COL0987  ROW0467  1.000000   ROW0468  1.000000
    COL0987  ROW0469  0.318770
    COL0988  ROW0040  -1.000000   ROW0455  1.000000
    COL0988  ROW0470  -1.000000
    COL0989  OBJ.FUNC 7.224910   ROW0455  1.000000
    COL0990  OBJ.FUNC 7.224910   ROW0455  -1.000000
    COL0991  ROW0048  -1.000000   ROW0456  1.000000
    COL0991  ROW0470  -1.000000
    COL0992  OBJ.FUNC 5.417180   ROW0456  1.000000
    COL0993  OBJ.FUNC 5.417180   ROW0456  -1.000000
    COL0994  ROW0049  -1.000000   ROW0457  1.000000
    COL0994  ROW0470  -1.000000
    COL0995  OBJ.FUNC 3.199670   ROW0457  1.000000
    COL0996  OBJ.FUNC 3.199670   ROW0457  -1.000000
    COL0997  ROW0458  1.000000   ROW0470  -1.000000
    COL0997  ROW0471  -1.000000
    COL0998  OBJ.FUNC 48.942840   ROW0458  1.000000
    COL0999  OBJ.FUNC 48.942840   ROW0458  -1.000000
    COL1000  ROW0177  -1.000000   ROW0459  1.000000
    COL1000  ROW0470  -1.000000
    COL1001  OBJ.FUNC 54.824560   ROW0459  1.000000
    COL1002  OBJ.FUNC 54.824560   ROW0459  -1.000000
    COL1003  ROW0050  1.000000   ROW0460  1.000000
    COL1003  ROW0470  -1.000000
    COL1004  OBJ.FUNC 2.716360   ROW0460  1.000000
    COL1005  OBJ.FUNC 2.716360   ROW0460  -1.000000
    COL1006  ROW0049  0.946050   ROW0467  -1.000000
    COL1007  ROW0463  1.000000   ROW0467  -1.000000
    COL1008  OBJ.FUNC 3.223230   ROW0463  1.000000
    COL1009  OBJ.FUNC 3.223230   ROW0463  -1.000000
    COL1010  ROW0464  1.000000   ROW0467  -1.000000
    COL1011  OBJ.FUNC 24.355790   ROW0464  1.000000
    COL1012  OBJ.FUNC 24.355790   ROW0464  -1.000000
    COL1013  ROW0051  -1.000000   ROW0440  1.000000
    COL1013  ROW0465  1.000000   ROW0467  -1.000000
    COL1014  OBJ.FUNC 2.310480   ROW0465  1.000000
    COL1015  OBJ.FUNC 2.310480   ROW0465  -1.000000
    COL1016  ROW0053  -1.000000   ROW0441  1.000000
    COL1016  ROW0466  1.000000   ROW0467  -1.000000
    COL1017  OBJ.FUNC 1.883370   ROW0466  1.000000
    COL1018  OBJ.FUNC 1.883370   ROW0466  -1.000000
    COL1019  ROW0470  0.926400   ROW0472  -1.059910
    COL1020  ROW0468  -1.000000   ROW0472  1.000000
    COL1021  ROW0060  1.000000   ROW0461  1.000000
    COL1021  ROW0472  -1.059910   ROW0473  -0.074700
    COL1021  ROW0474  -0.246010   ROW0475  -0.016910
    COL1021  ROW0476  -0.034600   ROW0477  -0.006060
    COL1021  ROW0478  -0.008010   ROW0479  -0.671490
    COL1021  ROW0480  -0.008720   ROW0481  -0.005640
    COL1021  ROW0482  1.072140
    COL1022  OBJ.FUNC 1.650190   ROW0461  1.000000
    COL1023  OBJ.FUNC 1.650190   ROW0461  -1.000000
    COL1024  ROW0061  1.000000   ROW0473  1.000000
    COL1024  ROW0482  -1.000000
    COL1025  OBJ.FUNC 22.089680   ROW0473  1.000000
    COL1026  OBJ.FUNC 22.089680   ROW0473  -1.000000
    COL1027  ROW0112  1.000000   ROW0474  1.000000
    COL1027  ROW0482  -1.000000
    COL1028  OBJ.FUNC 6.707810   ROW0474  1.000000
    COL1029  OBJ.FUNC 6.707810   ROW0474  -1.000000
    COL1030  ROW0110  1.000000   ROW0475  1.000000
    COL1030  ROW0482  -1.000000
    COL1031  OBJ.FUNC 97.599070   ROW0475  1.000000
    COL1032  OBJ.FUNC 97.599070   ROW0475  -1.000000
    COL1033  ROW0062  1.000000   ROW0476  1.000000
    COL1033  ROW0482  -1.000000
    COL1034  OBJ.FUNC 47.691720   ROW0476  1.000000
    COL1035  OBJ.FUNC 47.691720   ROW0476  -1.000000
    COL1036  ROW0146  1.000000   ROW0477  1.000000
    COL1036  ROW0482  -1.000000
    COL1037  OBJ.FUNC 272.479600   ROW0477  1.000000
    COL1038  OBJ.FUNC 272.479600   ROW0477  -1.000000
    COL1039  ROW0111  1.000000   ROW0478  1.000000
    COL1039  ROW0482  -1.000000
    COL1040  OBJ.FUNC 205.930800   ROW0478  1.000000
    COL1041  OBJ.FUNC 205.930800   ROW0478  -1.000000
    COL1042  ROW0063  1.000000   ROW0479  1.000000
    COL1042  ROW0482  -1.000000
    COL1043  OBJ.FUNC 2.457510   ROW0479  1.000000
    COL1044  OBJ.FUNC 2.457510   ROW0479  -1.000000
    COL1045  ROW0480  1.000000   ROW0482  -1.000000
    COL1045  ROW0483  1.000000
    COL1046  OBJ.FUNC 189.322200   ROW0480  1.000000
    COL1047  OBJ.FUNC 189.322200   ROW0480  -1.000000
    COL1048  ROW0481  1.000000   ROW0482  -1.000000
    COL1048  ROW0484  1.000000
    COL1049  OBJ.FUNC 292.397700   ROW0481  1.000000
    COL1050  OBJ.FUNC 292.397700   ROW0481  -1.000000
    COL1051  ROW0063  -0.689900   ROW0485  1.000000
    COL1052  ROW0065  1.000000   ROW0469  -0.681230
    COL1052  ROW0485  -0.927740
    COL1053  ROW0074  1.000000   ROW0462  1.000000
    COL1053  ROW0472  -1.059910   ROW0486  -0.118730
    COL1053  ROW0487  -0.201310   ROW0488  -0.043130
    COL1053  ROW0489  -0.067330   ROW0490  -0.482280
    COL1053  ROW0491  -0.059480   ROW0492  0.972270
    COL1054  OBJ.FUNC 4.654970   ROW0462  1.000000
    COL1055  OBJ.FUNC 4.654970   ROW0462  -1.000000
    COL1056  ROW0075  1.000000   ROW0486  1.000000
    COL1056  ROW0492  -1.000000
    COL1057  OBJ.FUNC 39.206460   ROW0486  1.000000
    COL1058  OBJ.FUNC 39.206460   ROW0486  -1.000000
    COL1059  ROW0120  1.000000   ROW0487  1.000000
    COL1059  ROW0492  -1.000000
    COL1060  OBJ.FUNC 23.123530   ROW0487  1.000000
    COL1061  OBJ.FUNC 23.123530   ROW0487  -1.000000
    COL1062  ROW0077  1.000000   ROW0488  1.000000
    COL1062  ROW0492  -1.000000
    COL1063  OBJ.FUNC 107.921400   ROW0488  1.000000
    COL1064  OBJ.FUNC 107.921400   ROW0488  -1.000000
    COL1065  ROW0197  1.000000   ROW0489  1.000000
    COL1065  ROW0492  -1.000000
    COL1066  OBJ.FUNC 69.137170   ROW0489  1.000000
    COL1067  OBJ.FUNC 69.137170   ROW0489  -1.000000
    COL1068  ROW0079  1.000000   ROW0490  1.000000
    COL1068  ROW0492  -1.000000
    COL1069  OBJ.FUNC 9.651950   ROW0490  1.000000
    COL1070  OBJ.FUNC 9.651950   ROW0490  -1.000000
    COL1071  ROW0081  1.000000   ROW0491  1.000000
    COL1071  ROW0492  -1.000000
    COL1072  OBJ.FUNC 78.259510   ROW0491  1.000000
    COL1073  OBJ.FUNC 78.259510   ROW0491  -1.000000
    COL1074  ROW0079  -0.658130   ROW0493  1.000000
    COL1075  ROW0083  1.000000   ROW0469  -0.681230
    COL1075  ROW0493  -0.822120
    COL1076  OBJ.FUNC 0.245760   ROW0469  1.000000
    COL1077  OBJ.FUNC 0.245760   ROW0469  -1.000000
    COL1078  ROW0454  1.000000   ROW0468  -1.000000
    COL1079  ROW0014  1.000000   ROW0494  -0.039880
    COL1079  ROW0495  -0.077320   ROW0496  -0.186710
    COL1079  ROW0497  -0.032240   ROW0498  -0.166650
    COL1079  ROW0499  -0.105060   ROW0500  -0.030600
    COL1079  ROW0501  -0.294130   ROW0502  -0.024020
    COL1079  ROW0503  -0.130710   ROW0504  -0.132520
    COL1079  ROW0505  1.000000   ROW0506  1.000000
    COL1079  ROW0507  0.157400   ROW0508  1.000000
    COL1080  ROW0049  -1.000000   ROW0494  1.000000
    COL1080  ROW0509  -1.000000
    COL1081  OBJ.FUNC 13.001870   ROW0494  1.000000
    COL1082  OBJ.FUNC 13.001870   ROW0494  -1.000000
    COL1083  ROW0471  -1.000000   ROW0495  1.000000
    COL1083  ROW0509  -1.000000
    COL1084  OBJ.FUNC 6.706010   ROW0495  1.000000
    COL1085  OBJ.FUNC 6.706010   ROW0495  -1.000000
    COL1086  ROW0496  1.000000   ROW0509  -1.000000
    COL1086  ROW0510  -1.000000
    COL1087  OBJ.FUNC 2.777080   ROW0496  1.000000
    COL1088  OBJ.FUNC 2.777080   ROW0496  -1.000000
    COL1089  ROW0177  -1.000000   ROW0497  1.000000
    COL1089  ROW0509  -1.000000
    COL1090  OBJ.FUNC 16.084410   ROW0497  1.000000
    COL1091  OBJ.FUNC 16.084410   ROW0497  -1.000000
    COL1092  ROW0050  1.000000   ROW0498  1.000000
    COL1092  ROW0509  -1.000000
    COL1093  OBJ.FUNC 3.111350   ROW0498  1.000000
    COL1094  OBJ.FUNC 3.111350   ROW0498  -1.000000
    COL1095  ROW0471  0.909430   ROW0505  -1.000000
    COL1096  ROW0501  1.000000   ROW0505  -1.000000
    COL1097  OBJ.FUNC 1.762880   ROW0501  1.000000
    COL1098  OBJ.FUNC 1.762880   ROW0501  -1.000000
    COL1099  ROW0502  1.000000   ROW0505  -1.000000
    COL1100  OBJ.FUNC 21.586150   ROW0502  1.000000
    COL1101  OBJ.FUNC 21.586150   ROW0502  -1.000000
    COL1102  ROW0051  -1.000000   ROW0503  1.000000
    COL1102  ROW0505  -1.000000   ROW0511  1.000000
    COL1103  OBJ.FUNC 3.912640   ROW0503  1.000000
    COL1104  OBJ.FUNC 3.912640   ROW0503  -1.000000
    COL1105  ROW0053  -1.000000   ROW0504  1.000000
    COL1105  ROW0505  -1.000000   ROW0512  1.000000
    COL1106  OBJ.FUNC 3.966810   ROW0504  1.000000
    COL1107  OBJ.FUNC 3.966810   ROW0504  -1.000000
    COL1108  ROW0509  0.936090   ROW0513  -1.020710
    COL1109  ROW0506  -1.000000   ROW0513  1.000000
    COL1110  ROW0060  1.000000   ROW0499  1.000000
    COL1110  ROW0513  -1.020710   ROW0514  -0.050390
    COL1110  ROW0515  -0.027510   ROW0516  -0.159390
    COL1110  ROW0517  -0.143570   ROW0518  -0.540610
    COL1110  ROW0519  0.921470
    COL1111  OBJ.FUNC 4.935350   ROW0499  1.000000
    COL1112  OBJ.FUNC 4.935350   ROW0499  -1.000000
    COL1113  ROW0062  1.000000   ROW0514  1.000000
    COL1113  ROW0519  -1.000000
    COL1114  OBJ.FUNC 97.943190   ROW0514  1.000000
    COL1115  OBJ.FUNC 97.943190   ROW0514  -1.000000
    COL1116  ROW0111  1.000000   ROW0515  1.000000
    COL1116  ROW0519  -1.000000
    COL1117  OBJ.FUNC 179.404400   ROW0515  1.000000
    COL1118  OBJ.FUNC 179.404400   ROW0515  -1.000000
    COL1119  ROW0063  1.000000   ROW0516  1.000000
    COL1119  ROW0519  -1.000000
    COL1120  OBJ.FUNC 30.963590   ROW0516  1.000000
    COL1121  OBJ.FUNC 30.963590   ROW0516  -1.000000
    COL1122  ROW0483  1.000000   ROW0517  1.000000
    COL1122  ROW0519  -1.000000
    COL1123  OBJ.FUNC 34.376080   ROW0517  1.000000
    COL1124  OBJ.FUNC 34.376080   ROW0517  -1.000000
    COL1125  ROW0415  1.000000   ROW0518  1.000000
    COL1125  ROW0519  -1.000000
    COL1126  OBJ.FUNC 9.129250   ROW0518  1.000000
    COL1127  OBJ.FUNC 9.129250   ROW0518  -1.000000
    COL1128  ROW0483  -0.401520   ROW0520  1.000000
    COL1129  ROW0065  1.000000   ROW0507  -0.842600
    COL1129  ROW0520  -0.435860
    COL1130  ROW0074  1.000000   ROW0500  1.000000
    COL1130  ROW0513  -1.020710   ROW0521  -0.135570
    COL1130  ROW0522  -0.007660   ROW0523  -0.143780
    COL1130  ROW0524  -0.230000   ROW0525  -0.368630
    COL1130  ROW0526  0.885640
    COL1131  OBJ.FUNC 16.946860   ROW0500  1.000000
    COL1132  OBJ.FUNC 16.946860   ROW0500  -1.000000
    COL1133  ROW0077  1.000000   ROW0521  1.000000
    COL1133  ROW0526  -1.000000
    COL1134  OBJ.FUNC 125.000000   ROW0521  1.000000
    COL1135  OBJ.FUNC 125.000000   ROW0521  -1.000000
    COL1136  ROW0238  1.000000   ROW0522  1.000000
    COL1136  ROW0526  -1.000000
    COL1137  OBJ.FUNC 2212.389000   ROW0522  1.000000
    COL1138  OBJ.FUNC 2212.389000   ROW0522  -1.000000
    COL1139  ROW0079  1.000000   ROW0523  1.000000
    COL1139  ROW0526  -1.000000
    COL1140  OBJ.FUNC 117.868900   ROW0523  1.000000
    COL1141  OBJ.FUNC 117.868900   ROW0523  -1.000000
    COL1142  ROW0080  1.000000   ROW0524  1.000000
    COL1142  ROW0526  -1.000000
    COL1143  OBJ.FUNC 73.681110   ROW0524  1.000000
    COL1144  OBJ.FUNC 73.681110   ROW0524  -1.000000
    COL1145  ROW0424  1.000000   ROW0525  1.000000
    COL1145  ROW0526  -1.000000
    COL1146  OBJ.FUNC 45.972790   ROW0525  1.000000
    COL1147  OBJ.FUNC 45.972790   ROW0525  -1.000000
    COL1148  ROW0080  -0.208820   ROW0527  1.000000
    COL1149  ROW0083  1.000000   ROW0507  -0.842600
    COL1149  ROW0527  -0.525880
    COL1150  OBJ.FUNC 0.436900   ROW0507  1.000000
    COL1151  OBJ.FUNC 0.436900   ROW0507  -1.000000
    COL1152  ROW0506  -1.000000   ROW0528  1.000000
    COL1153  ROW0015  1.000000   ROW0508  1.000000
    COL1153  ROW0529  -0.039290   ROW0530  -0.038330
    COL1153  ROW0531  -0.025070   ROW0532  -0.111860
    COL1153  ROW0533  -0.011240   ROW0534  -0.125650
    COL1153  ROW0535  -0.224840   ROW0536  -0.079910
    COL1153  ROW0537  -0.085660   ROW0538  -0.020890
    COL1153  ROW0539  -0.122480   ROW0540  -0.092570
    COL1153  ROW0541  1.000000   ROW0542  1.000000
    COL1153  ROW0543  0.259560
    COL1154  ROW0040  -1.000000   ROW0529  1.000000
    COL1154  ROW0544  -1.000000
    COL1155  OBJ.FUNC 18.339200   ROW0529  1.000000
    COL1156  OBJ.FUNC 18.339200   ROW0529  -1.000000
    COL1157  ROW0049  -1.000000   ROW0530  1.000000
    COL1157  ROW0544  -1.000000
    COL1158  OBJ.FUNC 18.801230   ROW0530  1.000000
    COL1159  OBJ.FUNC 18.801230   ROW0530  -1.000000
    COL1160  ROW0471  -1.000000   ROW0531  1.000000
    COL1160  ROW0544  -1.000000
    COL1161  OBJ.FUNC 28.745540   ROW0531  1.000000
    COL1162  OBJ.FUNC 28.745540   ROW0531  -1.000000
    COL1163  ROW0510  -1.000000   ROW0532  1.000000
    COL1163  ROW0544  -1.000000
    COL1164  OBJ.FUNC 6.442050   ROW0532  1.000000
    COL1165  OBJ.FUNC 6.442050   ROW0532  -1.000000
    COL1166  ROW0177  -1.000000   ROW0533  1.000000
    COL1166  ROW0544  -1.000000
    COL1167  OBJ.FUNC 64.127230   ROW0533  1.000000
    COL1168  OBJ.FUNC 64.127230   ROW0533  -1.000000
    COL1169  ROW0050  1.000000   ROW0534  1.000000
    COL1169  ROW0544  -1.000000
    COL1170  OBJ.FUNC 5.735130   ROW0534  1.000000
    COL1171  OBJ.FUNC 5.735130   ROW0534  -1.000000
    COL1172  ROW0510  0.872900   ROW0541  -1.000000
    COL1173  ROW0537  1.000000   ROW0541  -1.000000
    COL1174  OBJ.FUNC 8.412840   ROW0537  1.000000
    COL1175  OBJ.FUNC 8.412840   ROW0537  -1.000000
    COL1176  ROW0538  1.000000   ROW0541  -1.000000
    COL1177  OBJ.FUNC 34.489890   ROW0538  1.000000
    COL1178  OBJ.FUNC 34.489890   ROW0538  -1.000000
    COL1179  ROW0051  -1.000000   ROW0511  1.000000
    COL1179  ROW0539  1.000000   ROW0541  -1.000000
    COL1180  OBJ.FUNC 7.784650   ROW0539  1.000000
    COL1181  OBJ.FUNC 7.784650   ROW0539  -1.000000
    COL1182  ROW0053  -1.000000   ROW0512  1.000000
    COL1182  ROW0540  1.000000   ROW0541  -1.000000
    COL1183  OBJ.FUNC 5.883460   ROW0540  1.000000
    COL1184  OBJ.FUNC 5.883460   ROW0540  -1.000000
    COL1185  ROW0544  0.924680   ROW0545  -1.068630
    COL1186  ROW0542  -1.000000   ROW0545  1.000000
    COL1187  ROW0060  1.000000   ROW0535  1.000000
    COL1187  ROW0545  -1.068630   ROW0546  -0.065370
    COL1187  ROW0547  -0.312700   ROW0548  -0.401160
    COL1187  ROW0549  -0.002530   ROW0550  -0.189440
    COL1187  ROW0551  0.971200
    COL1188  OBJ.FUNC 3.204920   ROW0535  1.000000
    COL1189  OBJ.FUNC 3.204920   ROW0535  -1.000000
    COL1190  ROW0062  1.000000   ROW0546  1.000000
    COL1190  ROW0551  -1.000000
    COL1191  OBJ.FUNC 49.024410   ROW0546  1.000000
    COL1192  OBJ.FUNC 49.024410   ROW0546  -1.000000
    COL1193  ROW0063  1.000000   ROW0547  1.000000
    COL1193  ROW0551  -1.000000
    COL1194  OBJ.FUNC 10.249260   ROW0547  1.000000
    COL1195  OBJ.FUNC 10.249260   ROW0547  -1.000000
    COL1196  ROW0415  1.000000   ROW0548  1.000000
    COL1196  ROW0551  -1.000000
    COL1197  OBJ.FUNC 7.989130   ROW0548  1.000000
    COL1198  OBJ.FUNC 7.989130   ROW0548  -1.000000
    COL1199  ROW0484  1.000000   ROW0549  1.000000
    COL1199  ROW0551  -1.000000
    COL1200  OBJ.FUNC 1269.036000   ROW0549  1.000000
    COL1201  OBJ.FUNC 1269.036000   ROW0549  -1.000000
    COL1202  ROW0187  1.000000   ROW0550  1.000000
    COL1202  ROW0551  -1.000000
    COL1203  OBJ.FUNC 16.917610   ROW0550  1.000000
    COL1204  OBJ.FUNC 16.917610   ROW0550  -1.000000
    COL1205  ROW0415  -0.829270   ROW0552  1.000000
    COL1206  ROW0065  1.000000   ROW0543  -0.740440
    COL1206  ROW0552  -0.795370
    COL1207  ROW0074  1.000000   ROW0536  1.000000
    COL1207  ROW0545  -1.068630   ROW0553  -0.195270
    COL1207  ROW0554  -0.631190   ROW0555  -0.059360
    COL1207  ROW0556  0.885820
    COL1208  OBJ.FUNC 9.017780   ROW0536  1.000000
    COL1209  OBJ.FUNC 9.017780   ROW0536  -1.000000
    COL1210  ROW0079  1.000000   ROW0553  1.000000
    COL1210  ROW0556  -1.000000
    COL1211  OBJ.FUNC 46.180850   ROW0553  1.000000
    COL1212  OBJ.FUNC 46.180850   ROW0553  -1.000000
    COL1213  ROW0424  1.000000   ROW0554  1.000000
    COL1213  ROW0556  -1.000000
    COL1214  OBJ.FUNC 14.286940   ROW0554  1.000000
    COL1215  OBJ.FUNC 14.286940   ROW0554  -1.000000
    COL1216  ROW0081  1.000000   ROW0555  1.000000
    COL1216  ROW0556  -1.000000
    COL1217  OBJ.FUNC 151.929500   ROW0555  1.000000
    COL1218  OBJ.FUNC 151.929500   ROW0555  -1.000000
    COL1219  ROW0424  -0.855140   ROW0557  1.000000
    COL1220  ROW0083  1.000000   ROW0543  -0.740440
    COL1220  ROW0557  -0.880100
    COL1221  OBJ.FUNC 0.533570   ROW0543  1.000000
    COL1222  OBJ.FUNC 0.533570   ROW0543  -1.000000
    COL1223  ROW0528  1.000000   ROW0542  -1.000000
    COL1224  ROW0558  -0.018070   ROW0559  -0.034260
    COL1224  ROW0560  -0.013060   ROW0561  -0.021630
    COL1224  ROW0562  -0.028950   ROW0563  -0.040320
    COL1224  ROW0564  -0.021320   ROW0565  -0.137880
    COL1224  ROW0566  -0.035060   ROW0567  -0.022430
    COL1224  ROW0568  -0.246670   ROW0569  -0.014620
    COL1224  ROW0570  -0.018210   ROW0571  -0.025430
    COL1224  ROW0572  1.000000   ROW0573  1.000000
    COL1224  ROW0574  0.069000
    COL1225  ROW0037  -1.000000
    COL1226  ROW0217  -1.000000
    COL1227  ROW0438  -1.000000
    COL1228  ROW0508  -1.000000
    COL1229  ROW0040  -1.000000   ROW0558  1.000000
    COL1229  ROW0575  -1.000000
    COL1230  OBJ.FUNC 78.864360   ROW0558  1.000000
    COL1231  OBJ.FUNC 78.864360   ROW0558  -1.000000
    COL1232  ROW0041  -1.000000   ROW0559  1.000000
    COL1232  ROW0575  -1.000000
    COL1233  OBJ.FUNC 41.597340   ROW0559  1.000000
    COL1234  OBJ.FUNC 41.597340   ROW0559  -1.000000
    COL1235  ROW0047  -1.000000   ROW0560  1.000000
    COL1235  ROW0575  -1.000000
    COL1236  OBJ.FUNC 109.098800   ROW0560  1.000000
    COL1237  OBJ.FUNC 109.098800   ROW0560  -1.000000
    COL1238  ROW0049  -1.000000   ROW0561  1.000000
    COL1238  ROW0575  -1.000000
    COL1239  OBJ.FUNC 65.876150   ROW0561  1.000000
    COL1240  OBJ.FUNC 65.876150   ROW0561  -1.000000
    COL1241  ROW0471  -1.000000   ROW0562  1.000000
    COL1241  ROW0575  -1.000000
    COL1242  OBJ.FUNC 49.231980   ROW0562  1.000000
    COL1243  OBJ.FUNC 49.231980   ROW0562  -1.000000
    COL1244  ROW0510  -1.000000   ROW0563  1.000000
    COL1244  ROW0575  -1.000000
    COL1245  OBJ.FUNC 35.350680   ROW0563  1.000000
    COL1246  OBJ.FUNC 35.350680   ROW0563  -1.000000
    COL1247  ROW0177  -1.000000   ROW0564  1.000000
    COL1247  ROW0575  -1.000000
    COL1248  OBJ.FUNC 66.844920   ROW0564  1.000000
    COL1249  OBJ.FUNC 66.844920   ROW0564  -1.000000
    COL1250  ROW0050  1.000000   ROW0565  1.000000
    COL1250  ROW0575  -1.000000
    COL1251  OBJ.FUNC 10.336770   ROW0565  1.000000
    COL1252  OBJ.FUNC 10.336770   ROW0565  -1.000000
    COL1253  ROW0177  0.886260   ROW0572  -1.000000
    COL1254  ROW0568  1.000000   ROW0572  -1.000000
    COL1255  OBJ.FUNC 5.777680   ROW0568  1.000000
    COL1256  OBJ.FUNC 5.777680   ROW0568  -1.000000
    COL1257  ROW0569  1.000000   ROW0572  -1.000000
    COL1258  OBJ.FUNC 97.465890   ROW0569  1.000000
    COL1259  OBJ.FUNC 97.465890   ROW0569  -1.000000
    COL1260  ROW0051  -1.000000   ROW0570  1.000000
    COL1260  ROW0572  -1.000000
    COL1261  ROW0052  -1.000000
    COL1262  ROW0219  -1.000000
    COL1263  ROW0440  -1.000000
    COL1264  ROW0511  -1.000000
    COL1265  OBJ.FUNC 56.053810   ROW0570  1.000000
    COL1266  OBJ.FUNC 56.053810   ROW0570  -1.000000
    COL1267  ROW0053  -1.000000   ROW0571  1.000000
    COL1267  ROW0572  -1.000000
    COL1268  ROW0054  -1.000000
    COL1269  ROW0220  -1.000000
    COL1270  ROW0441  -1.000000
    COL1271  ROW0512  -1.000000
    COL1272  OBJ.FUNC 78.247260   ROW0571  1.000000
    COL1273  OBJ.FUNC 78.247260   ROW0571  -1.000000
    COL1274  ROW0575  0.892450   ROW0576  -1.030170
    COL1275  ROW0573  -1.000000   ROW0576  1.000000
    COL1276  ROW0060  1.000000   ROW0566  1.000000
    COL1276  ROW0576  -1.030170   ROW0577  -0.125200
    COL1276  ROW0578  -0.069190   ROW0579  -0.148780
    COL1276  ROW0580  -0.235040   ROW0581  -0.040810
    COL1276  ROW0582  -0.116910   ROW0583  -0.027640
    COL1276  ROW0584  -0.137400   ROW0585  0.900980
    COL1277  OBJ.FUNC 40.650410   ROW0566  1.000000
    COL1278  OBJ.FUNC 40.650410   ROW0566  -1.000000
    COL1279  ROW0110  1.000000   ROW0577  1.000000
    COL1279  ROW0585  -1.000000
    COL1280  OBJ.FUNC 324.675300   ROW0577  1.000000
    COL1281  OBJ.FUNC 324.675300   ROW0577  -1.000000
    COL1282  ROW0062  1.000000   ROW0578  1.000000
    COL1282  ROW0585  -1.000000
    COL1283  OBJ.FUNC 587.544100   ROW0578  1.000000
    COL1284  OBJ.FUNC 587.544100   ROW0578  -1.000000
    COL1285  ROW0111  1.000000   ROW0579  1.000000
    COL1285  ROW0585  -1.000000
    COL1286  OBJ.FUNC 273.224000   ROW0579  1.000000
    COL1287  OBJ.FUNC 273.224000   ROW0579  -1.000000
    COL1288  ROW0063  1.000000   ROW0580  1.000000
    COL1288  ROW0585  -1.000000
    COL1289  OBJ.FUNC 172.950500   ROW0580  1.000000
    COL1290  OBJ.FUNC 172.950500   ROW0580  -1.000000
    COL1291  ROW0483  1.000000   ROW0581  1.000000
    COL1291  ROW0585  -1.000000
    COL1292  OBJ.FUNC 996.015900   ROW0581  1.000000
    COL1293  OBJ.FUNC 996.015900   ROW0581  -1.000000
    COL1294  ROW0415  1.000000   ROW0582  1.000000
    COL1294  ROW0585  -1.000000
    COL1295  OBJ.FUNC 347.705100   ROW0582  1.000000
    COL1296  OBJ.FUNC 347.705100   ROW0582  -1.000000
    COL1297  ROW0484  1.000000   ROW0583  1.000000
    COL1297  ROW0585  -1.000000
    COL1298  OBJ.FUNC 1470.588000   ROW0583  1.000000
    COL1299  OBJ.FUNC 1470.588000   ROW0583  -1.000000
    COL1300  ROW0187  1.000000   ROW0584  1.000000
    COL1300  ROW0585  -1.000000
    COL1301  OBJ.FUNC 295.858000   ROW0584  1.000000
    COL1302  OBJ.FUNC 295.858000   ROW0584  -1.000000
    COL1303  ROW0484  -0.299140   ROW0586  1.000000
    COL1304  ROW0065  1.000000   ROW0574  -0.931000
    COL1304  ROW0586  -0.550170
    COL1305  ROW0074  1.000000   ROW0567  1.000000
    COL1305  ROW0576  -1.030170   ROW0587  -0.144850
    COL1305  ROW0588  -0.220580   ROW0589  -0.059210
    COL1305  ROW0590  -0.017280   ROW0591  -0.054640
    COL1305  ROW0592  -0.124400   ROW0593  -0.117530
    COL1305  ROW0594  -0.073700   ROW0595  -0.064800
    COL1305  ROW0596  0.877000
    COL1306  OBJ.FUNC 63.532400   ROW0567  1.000000
    COL1307  OBJ.FUNC 63.532400   ROW0567  -1.000000
    COL1308  ROW0076  1.000000   ROW0587  1.000000
    COL1308  ROW0596  -1.000000
    COL1309  OBJ.FUNC 438.596500   ROW0587  1.000000
    COL1310  OBJ.FUNC 438.596500   ROW0587  -1.000000
    COL1311  ROW0077  1.000000   ROW0588  1.000000
    COL1311  ROW0596  -1.000000
    COL1312  OBJ.FUNC 288.018400   ROW0588  1.000000
    COL1313  OBJ.FUNC 288.018400   ROW0588  -1.000000
    COL1314  ROW0281  1.000000   ROW0589  1.000000
    COL1314  ROW0596  -1.000000
    COL1315  OBJ.FUNC 1072.961000   ROW0589  1.000000
    COL1316  OBJ.FUNC 1072.961000   ROW0589  -1.000000
    COL1317  ROW0238  1.000000   ROW0590  1.000000
    COL1317  ROW0596  -1.000000
    COL1318  OBJ.FUNC 3676.470000   ROW0590  1.000000
    COL1319  OBJ.FUNC 3676.470000   ROW0590  -1.000000
    COL1320  ROW0197  1.000000   ROW0591  1.000000
    COL1320  ROW0596  -1.000000
    COL1321  OBJ.FUNC 1162.791000   ROW0591  1.000000
    COL1322  OBJ.FUNC 1162.791000   ROW0591  -1.000000
    COL1323  ROW0079  1.000000   ROW0592  1.000000
    COL1323  ROW0596  -1.000000
    COL1324  OBJ.FUNC 510.725200   ROW0592  1.000000
    COL1325  OBJ.FUNC 510.725200   ROW0592  -1.000000
    COL1326  ROW0080  1.000000   ROW0593  1.000000
    COL1326  ROW0596  -1.000000
    COL1327  OBJ.FUNC 540.540500   ROW0593  1.000000
    COL1328  OBJ.FUNC 540.540500   ROW0593  -1.000000
    COL1329  ROW0594  1.000000   ROW0596  -1.000000
    COL1329  ROW0597  1.000000
    COL1330  OBJ.FUNC 862.069000   ROW0594  1.000000
    COL1331  OBJ.FUNC 862.069000   ROW0594  -1.000000
    COL1332  ROW0081  1.000000   ROW0595  1.000000
    COL1332  ROW0596  -1.000000
    COL1333  OBJ.FUNC 980.392200   ROW0595  1.000000
    COL1334  OBJ.FUNC 980.392200   ROW0595  -1.000000
    COL1335  ROW0597  -0.094620   ROW0598  1.000000
    COL1336  ROW0083  1.000000   ROW0574  -0.931000
    COL1336  ROW0598  -0.549780
    COL1337  OBJ.FUNC 1.326860   ROW0574  1.000000
    COL1338  OBJ.FUNC 1.326860   ROW0574  -1.000000
    COL1339  ROW0573  -1.000000
    COL1340  ROW0084  -1.000000
    COL1341  ROW0240  -1.000000
    COL1342  ROW0454  -1.000000
    COL1343  ROW0528  -1.000000
    COL1344  ROW0050  -0.085310   ROW0081  -0.002290
    COL1344  ROW0187  -0.003690   ROW0599  -0.003250
    COL1344  ROW0600  -0.013700   ROW0601  -0.008270
    COL1344  ROW0602  -0.002780   ROW0603  -0.006480
    COL1344  ROW0604  -0.003160   ROW0605  -0.002050
    COL1344  ROW0606  -0.000970   ROW0607  -0.004190
    COL1344  ROW0608  -0.023360   ROW0609  -0.043420
    COL1344  ROW0610  -0.006730   ROW0611  -0.006820
    COL1344  ROW0612  -0.005330   ROW0613  -0.502360
    COL1345  ROW0038  -1.000000   ROW0599  1.000000
    COL1346  OBJ.FUNC 22.370360   ROW0599  1.000000
    COL1347  OBJ.FUNC 22.370360   ROW0599  -1.000000
    COL1348  ROW0040  -1.000000   ROW0600  1.000000
    COL1349  OBJ.FUNC 5.311240   ROW0600  1.000000
    COL1350  OBJ.FUNC 5.311240   ROW0600  -1.000000
    COL1351  ROW0041  -1.000000   ROW0601  1.000000
    COL1352  OBJ.FUNC 8.793530   ROW0601  1.000000
    COL1353  OBJ.FUNC 8.793530   ROW0601  -1.000000
    COL1354  ROW0042  -1.000000   ROW0602  1.000000
    COL1355  OBJ.FUNC 26.173900   ROW0602  1.000000
    COL1356  OBJ.FUNC 26.173900   ROW0602  -1.000000
    COL1357  ROW0043  -1.000000   ROW0603  1.000000
    COL1358  OBJ.FUNC 11.227880   ROW0603  1.000000
    COL1359  OBJ.FUNC 11.227880   ROW0603  -1.000000
    COL1360  ROW0044  -1.000000   ROW0604  1.000000
    COL1361  OBJ.FUNC 23.031920   ROW0604  1.000000
    COL1362  OBJ.FUNC 23.031920   ROW0604  -1.000000
    COL1363  ROW0045  -1.000000   ROW0605  1.000000
    COL1364  OBJ.FUNC 35.481120   ROW0605  1.000000
    COL1365  OBJ.FUNC 35.481120   ROW0605  -1.000000
    COL1366  ROW0046  -1.000000   ROW0606  1.000000
    COL1367  OBJ.FUNC 75.120190   ROW0606  1.000000
    COL1368  OBJ.FUNC 75.120190   ROW0606  -1.000000
    COL1369  ROW0047  -1.000000   ROW0607  1.000000
    COL1370  OBJ.FUNC 17.386470   ROW0607  1.000000
    COL1371  OBJ.FUNC 17.386470   ROW0607  -1.000000
    COL1372  ROW0048  -1.000000   ROW0608  1.000000
    COL1373  OBJ.FUNC 3.114930   ROW0608  1.000000
    COL1374  OBJ.FUNC 3.114930   ROW0608  -1.000000
    COL1375  ROW0049  -1.000000   ROW0609  1.000000
    COL1376  OBJ.FUNC 1.675640   ROW0609  1.000000
    COL1377  OBJ.FUNC 1.675640   ROW0609  -1.000000
    COL1378  ROW0471  -1.000000   ROW0610  1.000000
    COL1379  OBJ.FUNC 10.806370   ROW0610  1.000000
    COL1380  OBJ.FUNC 10.806370   ROW0610  -1.000000
    COL1381  ROW0510  -1.000000   ROW0611  1.000000
    COL1382  OBJ.FUNC 10.670310   ROW0611  1.000000
    COL1383  OBJ.FUNC 10.670310   ROW0611  -1.000000
    COL1384  ROW0177  -1.000000   ROW0612  1.000000
    COL1385  OBJ.FUNC 13.653740   ROW0612  1.000000
    COL1386  OBJ.FUNC 13.653740   ROW0612  -1.000000
    COL1387  ROW0613  1.000000
    COL1388  OBJ.FUNC 0.144840   ROW0613  1.000000
    COL1389  OBJ.FUNC 0.144840   ROW0613  -1.000000
    COL1390  ROW0050  -0.085310   ROW0081  -0.002290
    COL1390  ROW0187  -0.003690   ROW0614  -0.012760
    COL1390  ROW0615  -0.014730   ROW0616  -0.038600
    COL1390  ROW0617  -0.005480   ROW0618  -0.008600
    COL1390  ROW0619  -0.007880   ROW0620  -0.008490
    COL1390  ROW0621  -0.002050   ROW0622  -0.008850
    COL1390  ROW0623  -0.022290   ROW0624  -0.014770
    COL1390  ROW0625  -0.026970   ROW0626  -0.017750
    COL1390  ROW0627  -0.012170   ROW0628  -0.285100
    COL1391  ROW0038  -1.000000   ROW0614  1.000000
    COL1392  OBJ.FUNC 18.186450   ROW0614  1.000000
    COL1393  OBJ.FUNC 18.186450   ROW0614  -1.000000
    COL1394  ROW0040  -1.000000   ROW0615  1.000000
    COL1395  OBJ.FUNC 15.752990   ROW0615  1.000000
    COL1396  OBJ.FUNC 15.752990   ROW0615  -1.000000
    COL1397  ROW0041  -1.000000   ROW0616  1.000000
    COL1398  OBJ.FUNC 6.013950   ROW0616  1.000000
    COL1399  OBJ.FUNC 6.013950   ROW0616  -1.000000
    COL1400  ROW0042  -1.000000   ROW0617  1.000000
    COL1401  OBJ.FUNC 42.340590   ROW0617  1.000000
    COL1402  OBJ.FUNC 42.340590   ROW0617  -1.000000
    COL1403  ROW0043  -1.000000   ROW0618  1.000000
    COL1404  OBJ.FUNC 26.981820   ROW0618  1.000000
    COL1405  OBJ.FUNC 26.981820   ROW0618  -1.000000
    COL1406  ROW0044  -1.000000   ROW0619  1.000000
    COL1407  OBJ.FUNC 29.472440   ROW0619  1.000000
    COL1408  OBJ.FUNC 29.472440   ROW0619  -1.000000
    COL1409  ROW0045  -1.000000   ROW0620  1.000000
    COL1410  OBJ.FUNC 27.338840   ROW0620  1.000000
    COL1411  OBJ.FUNC 27.338840   ROW0620  -1.000000
    COL1412  ROW0046  -1.000000   ROW0621  1.000000
    COL1413  OBJ.FUNC 113.353000   ROW0621  1.000000
    COL1414  OBJ.FUNC 113.353000   ROW0621  -1.000000
    COL1415  ROW0047  -1.000000   ROW0622  1.000000
    COL1416  OBJ.FUNC 26.241210   ROW0622  1.000000
    COL1417  OBJ.FUNC 26.241210   ROW0622  -1.000000
    COL1418  ROW0048  -1.000000   ROW0623  1.000000
    COL1419  OBJ.FUNC 10.411460   ROW0623  1.000000
    COL1420  OBJ.FUNC 10.411460   ROW0623  -1.000000
    COL1421  ROW0049  -1.000000   ROW0624  1.000000
    COL1422  OBJ.FUNC 15.715360   ROW0624  1.000000
    COL1423  OBJ.FUNC 15.715360   ROW0624  -1.000000
    COL1424  ROW0471  -1.000000   ROW0625  1.000000
    COL1425  OBJ.FUNC 8.606150   ROW0625  1.000000
    COL1426  OBJ.FUNC 8.606150   ROW0625  -1.000000
    COL1427  ROW0510  -1.000000   ROW0626  1.000000
    COL1428  OBJ.FUNC 13.075310   ROW0626  1.000000
    COL1429  OBJ.FUNC 13.075310   ROW0626  -1.000000
    COL1430  ROW0177  -1.000000   ROW0627  1.000000
    COL1431  OBJ.FUNC 19.069410   ROW0627  1.000000
    COL1432  OBJ.FUNC 19.069410   ROW0627  -1.000000
    COL1433  ROW0628  1.000000
    COL1434  OBJ.FUNC 0.814150   ROW0628  1.000000
    COL1435  OBJ.FUNC 0.814150   ROW0628  -1.000000
    COL1436  ROW0050  -0.085310   ROW0081  -0.002290
    COL1436  ROW0187  -0.003690   ROW0629  -0.026360
    COL1436  ROW0630  -0.018810   ROW0631  -0.002240
    COL1436  ROW0632  -0.016710   ROW0633  -0.007580
    COL1436  ROW0634  -0.089880   ROW0635  -0.020270
    COL1436  ROW0636  -0.011200   ROW0637  -0.007810
    COL1436  ROW0638  -0.105460
    COL1437  ROW0040  -1.000000   ROW0629  1.000000
    COL1438  OBJ.FUNC 15.787810   ROW0629  1.000000
    COL1439  OBJ.FUNC 15.787810   ROW0629  -1.000000
    COL1440  ROW0041  -1.000000   ROW0630  1.000000
    COL1441  OBJ.FUNC 22.125850   ROW0630  1.000000
    COL1442  OBJ.FUNC 22.125850   ROW0630  -1.000000
    COL1443  ROW0042  -1.000000   ROW0631  1.000000
    COL1444  OBJ.FUNC 185.391200   ROW0631  1.000000
    COL1445  OBJ.FUNC 185.391200   ROW0631  -1.000000
    COL1446  ROW0043  -1.000000   ROW0632  1.000000
    COL1447  OBJ.FUNC 24.906600   ROW0632  1.000000
    COL1448  OBJ.FUNC 24.906600   ROW0632  -1.000000
    COL1449  ROW0044  -1.000000   ROW0633  1.000000
    COL1450  OBJ.FUNC 54.914880   ROW0633  1.000000
    COL1451  OBJ.FUNC 54.914880   ROW0633  -1.000000
    COL1452  ROW0048  -1.000000   ROW0634  1.000000
    COL1453  OBJ.FUNC 4.630190   ROW0634  1.000000
    COL1454  OBJ.FUNC 4.630190   ROW0634  -1.000000
    COL1455  ROW0049  -1.000000   ROW0635  1.000000
    COL1456  OBJ.FUNC 20.527980   ROW0635  1.000000
    COL1457  OBJ.FUNC 20.527980   ROW0635  -1.000000
    COL1458  ROW0471  -1.000000   ROW0636  1.000000
    COL1459  OBJ.FUNC 37.155380   ROW0636  1.000000
    COL1460  OBJ.FUNC 37.155380   ROW0636  -1.000000
    COL1461  ROW0177  -1.000000   ROW0637  1.000000
    COL1462  OBJ.FUNC 53.276500   ROW0637  1.000000
    COL1463  OBJ.FUNC 53.276500   ROW0637  -1.000000
    COL1464  ROW0638  1.000000
    COL1465  OBJ.FUNC 3.945960   ROW0638  1.000000
    COL1466  OBJ.FUNC 3.945960   ROW0638  -1.000000
    COL1467  ROW0050  -0.085310   ROW0081  -0.002290
    COL1467  ROW0187  -0.003690   ROW0639  -0.020800
    COL1467  ROW0640  -0.016920   ROW0641  -0.013030
    COL1467  ROW0642  -0.030340   ROW0643  -0.008080
    COL1467  ROW0644  -0.031500   ROW0645  -0.006620
    COL1467  ROW0646  -0.072220
    COL1468  ROW0040  -1.000000   ROW0639  1.000000
    COL1469  OBJ.FUNC 125.912900   ROW0639  1.000000
    COL1470  OBJ.FUNC 125.912900   ROW0639  -1.000000
    COL1471  ROW0044  -1.000000   ROW0640  1.000000
    COL1472  OBJ.FUNC 154.750900   ROW0640  1.000000
    COL1473  OBJ.FUNC 154.750900   ROW0640  -1.000000
    COL1474  ROW0045  -1.000000   ROW0641  1.000000
    COL1475  OBJ.FUNC 201.045400   ROW0641  1.000000
    COL1476  OBJ.FUNC 201.045400   ROW0641  -1.000000
    COL1477  ROW0048  -1.000000   ROW0642  1.000000
    COL1478  OBJ.FUNC 86.311070   ROW0642  1.000000
    COL1479  OBJ.FUNC 86.311070   ROW0642  -1.000000
    COL1480  ROW0049  -1.000000   ROW0643  1.000000
    COL1481  OBJ.FUNC 324.044100   ROW0643  1.000000
    COL1482  OBJ.FUNC 324.044100   ROW0643  -1.000000
    COL1483  ROW0471  -1.000000   ROW0644  1.000000
    COL1484  OBJ.FUNC 83.139340   ROW0644  1.000000
    COL1485  OBJ.FUNC 83.139340   ROW0644  -1.000000
    COL1486  ROW0177  -1.000000   ROW0645  1.000000
    COL1487  OBJ.FUNC 395.569600   ROW0645  1.000000
    COL1488  OBJ.FUNC 395.569600   ROW0645  -1.000000
    COL1489  ROW0646  1.000000
    COL1490  OBJ.FUNC 36.263420   ROW0646  1.000000
    COL1491  OBJ.FUNC 36.263420   ROW0646  -1.000000
    COL1492  ROW0050  -0.085310   ROW0081  -0.002290
    COL1492  ROW0187  -0.003690   ROW0647  -0.011960
    COL1492  ROW0648  -0.030090   ROW0649  -0.039930
    COL1492  ROW0650  -0.002940   ROW0651  -0.011650
    COL1492  ROW0652  -0.002650   ROW0653  -0.006020
    COL1492  ROW0654  -0.048880   ROW0655  -0.010680
    COL1492  ROW0656  -0.029100   ROW0657  -0.014450
    COL1492  ROW0658  -0.008490   ROW0659  -0.246720
    COL1493  ROW0038  -1.000000   ROW0647  1.000000
    COL1494  OBJ.FUNC 35.398230   ROW0647  1.000000
    COL1495  OBJ.FUNC 35.398230   ROW0647  -1.000000
    COL1496  ROW0103  -1.000000   ROW0648  1.000000
    COL1497  OBJ.FUNC 14.074600   ROW0648  1.000000
    COL1498  OBJ.FUNC 14.074600   ROW0648  -1.000000
    COL1499  ROW0040  -1.000000   ROW0649  1.000000
    COL1500  OBJ.FUNC 10.604450   ROW0649  1.000000
    COL1501  OBJ.FUNC 10.604450   ROW0649  -1.000000
    COL1502  ROW0042  -1.000000   ROW0650  1.000000
    COL1503  OBJ.FUNC 144.133800   ROW0650  1.000000
    COL1504  OBJ.FUNC 144.133800   ROW0650  -1.000000
    COL1505  ROW0044  -1.000000   ROW0651  1.000000
    COL1506  OBJ.FUNC 36.355700   ROW0651  1.000000
    COL1507  OBJ.FUNC 36.355700   ROW0651  -1.000000
    COL1508  ROW0045  -1.000000   ROW0652  1.000000
    COL1509  OBJ.FUNC 159.591400   ROW0652  1.000000
    COL1510  OBJ.FUNC 159.591400   ROW0652  -1.000000
    COL1511  ROW0047  -1.000000   ROW0653  1.000000
    COL1512  OBJ.FUNC 70.313600   ROW0653  1.000000
    COL1513  OBJ.FUNC 70.313600   ROW0653  -1.000000
    COL1514  ROW0048  -1.000000   ROW0654  1.000000
    COL1515  OBJ.FUNC 8.663260   ROW0654  1.000000
    COL1516  OBJ.FUNC 8.663260   ROW0654  -1.000000
    COL1517  ROW0049  -1.000000   ROW0655  1.000000
    COL1518  OBJ.FUNC 39.632210   ROW0655  1.000000
    COL1519  OBJ.FUNC 39.632210   ROW0655  -1.000000
    COL1520  ROW0471  -1.000000   ROW0656  1.000000
    COL1521  OBJ.FUNC 14.552230   ROW0656  1.000000
    COL1522  OBJ.FUNC 14.552230   ROW0656  -1.000000
    COL1523  ROW0510  -1.000000   ROW0657  1.000000
    COL1524  OBJ.FUNC 29.308320   ROW0657  1.000000
    COL1525  OBJ.FUNC 29.308320   ROW0657  -1.000000
    COL1526  ROW0177  -1.000000   ROW0658  1.000000
    COL1527  OBJ.FUNC 49.900200   ROW0658  1.000000
    COL1528  OBJ.FUNC 49.900200   ROW0658  -1.000000
    COL1529  ROW0659  1.000000
    COL1530  OBJ.FUNC 1.716270   ROW0659  1.000000
    COL1531  OBJ.FUNC 1.716270   ROW0659  -1.000000
    COL1532  ROW0050  -0.085310   ROW0081  -0.002290
    COL1532  ROW0187  -0.003690   ROW0660  -0.003970
    COL1532  ROW0661  -0.012420   ROW0662  -0.021560
    COL1532  ROW0663  -0.002990   ROW0664  -0.003360
    COL1532  ROW0665  -0.009040   ROW0666  -0.001540
    COL1532  ROW0667  -0.001290   ROW0668  -0.004830
    COL1532  ROW0669  -0.024710   ROW0670  -0.008360
    COL1532  ROW0671  -0.031460   ROW0672  -0.007940
    COL1532  ROW0673  -0.276710
    COL1533  ROW0038  -1.000000   ROW0660  1.000000
    COL1534  OBJ.FUNC 68.064250   ROW0660  1.000000
    COL1535  OBJ.FUNC 68.064250   ROW0660  -1.000000
    COL1536  ROW0103  -1.000000   ROW0661  1.000000
    COL1537  OBJ.FUNC 21.734410   ROW0661  1.000000
    COL1538  OBJ.FUNC 21.734410   ROW0661  -1.000000
    COL1539  ROW0040  -1.000000   ROW0662  1.000000
    COL1540  OBJ.FUNC 12.515650   ROW0662  1.000000
    COL1541  OBJ.FUNC 12.515650   ROW0662  -1.000000
    COL1542  ROW0042  -1.000000   ROW0663  1.000000
    COL1543  OBJ.FUNC 90.171330   ROW0663  1.000000
    COL1544  OBJ.FUNC 90.171330   ROW0663  -1.000000
    COL1545  ROW0043  -1.000000   ROW0664  1.000000
    COL1546  OBJ.FUNC 80.385850   ROW0664  1.000000
    COL1547  OBJ.FUNC 80.385850   ROW0664  -1.000000
    COL1548  ROW0044  -1.000000   ROW0665  1.000000
    COL1549  OBJ.FUNC 29.843620   ROW0665  1.000000
    COL1550  OBJ.FUNC 29.843620   ROW0665  -1.000000
    COL1551  ROW0045  -1.000000   ROW0666  1.000000
    COL1552  OBJ.FUNC 175.192700   ROW0666  1.000000
    COL1553  OBJ.FUNC 175.192700   ROW0666  -1.000000
    COL1554  ROW0046  -1.000000   ROW0667  1.000000
    COL1555  OBJ.FUNC 209.117500   ROW0667  1.000000
    COL1556  OBJ.FUNC 209.117500   ROW0667  -1.000000
    COL1557  ROW0047  -1.000000   ROW0668  1.000000
    COL1558  OBJ.FUNC 55.890900   ROW0668  1.000000
    COL1559  OBJ.FUNC 55.890900   ROW0668  -1.000000
    COL1560  ROW0048  -1.000000   ROW0669  1.000000
    COL1561  OBJ.FUNC 10.921560   ROW0669  1.000000
    COL1562  OBJ.FUNC 10.921560   ROW0669  -1.000000
    COL1563  ROW0049  -1.000000   ROW0670  1.000000
    COL1564  OBJ.FUNC 32.280970   ROW0670  1.000000
    COL1565  OBJ.FUNC 32.280970   ROW0670  -1.000000
    COL1566  ROW0471  -1.000000   ROW0671  1.000000
    COL1567  OBJ.FUNC 8.579420   ROW0671  1.000000
    COL1568  OBJ.FUNC 8.579420   ROW0671  -1.000000
    COL1569  ROW0177  -1.000000   ROW0672  1.000000
    COL1570  OBJ.FUNC 33.990480   ROW0672  1.000000
    COL1571  OBJ.FUNC 33.990480   ROW0672  -1.000000
    COL1572  ROW0673  1.000000
    COL1573  OBJ.FUNC 0.975340   ROW0673  1.000000
    COL1574  OBJ.FUNC 0.975340   ROW0673  -1.000000
    COL1575  ROW0050  -0.085310   ROW0081  -0.002290
    COL1575  ROW0187  -0.003690   ROW0674  -0.002850
    COL1575  ROW0675  -0.019050   ROW0676  -0.001690
    COL1575  ROW0677  -0.005440   ROW0678  -0.001820
    COL1575  ROW0679  -0.001060   ROW0680  -0.004250
    COL1575  ROW0681  -0.016170   ROW0682  -0.009340
    COL1575  ROW0683  -0.020570   ROW0684  -0.019840
    COL1575  ROW0685  -0.008900   ROW0686  -0.258480
    COL1576  ROW0038  -1.000000   ROW0674  1.000000
    COL1577  OBJ.FUNC 94.161960   ROW0674  1.000000
    COL1578  OBJ.FUNC 94.161960   ROW0674  -1.000000
    COL1579  ROW0040  -1.000000   ROW0675  1.000000
    COL1580  OBJ.FUNC 14.100400   ROW0675  1.000000
    COL1581  OBJ.FUNC 14.100400   ROW0675  -1.000000
    COL1582  ROW0042  -1.000000   ROW0676  1.000000
    COL1583  OBJ.FUNC 159.185000   ROW0676  1.000000
    COL1584  OBJ.FUNC 159.185000   ROW0676  -1.000000
    COL1585  ROW0043  -1.000000   ROW0677  1.000000
    COL1586  OBJ.FUNC 49.411990   ROW0677  1.000000
    COL1587  OBJ.FUNC 49.411990   ROW0677  -1.000000
    COL1588  ROW0045  -1.000000   ROW0678  1.000000
    COL1589  OBJ.FUNC 147.710500   ROW0678  1.000000
    COL1590  OBJ.FUNC 147.710500   ROW0678  -1.000000
    COL1591  ROW0046  -1.000000   ROW0679  1.000000
    COL1592  OBJ.FUNC 252.780600   ROW0679  1.000000
    COL1593  OBJ.FUNC 252.780600   ROW0679  -1.000000
    COL1594  ROW0047  -1.000000   ROW0680  1.000000
    COL1595  OBJ.FUNC 63.155240   ROW0680  1.000000
    COL1596  OBJ.FUNC 63.155240   ROW0680  -1.000000
    COL1597  ROW0048  -1.000000   ROW0681  1.000000
    COL1598  OBJ.FUNC 16.610190   ROW0681  1.000000
    COL1599  OBJ.FUNC 16.610190   ROW0681  -1.000000
    COL1600  ROW0049  -1.000000   ROW0682  1.000000
    COL1601  OBJ.FUNC 28.770360   ROW0682  1.000000
    COL1602  OBJ.FUNC 28.770360   ROW0682  -1.000000
    COL1603  ROW0471  -1.000000   ROW0683  1.000000
    COL1604  OBJ.FUNC 13.056880   ROW0683  1.000000
    COL1605  OBJ.FUNC 13.056880   ROW0683  -1.000000
    COL1606  ROW0510  -1.000000   ROW0684  1.000000
    COL1607  OBJ.FUNC 13.541330   ROW0684  1.000000
    COL1608  OBJ.FUNC 13.541330   ROW0684  -1.000000
    COL1609  ROW0177  -1.000000   ROW0685  1.000000
    COL1610  OBJ.FUNC 30.175010   ROW0685  1.000000
    COL1611  OBJ.FUNC 30.175010   ROW0685  -1.000000
    COL1612  ROW0686  1.000000
    COL1613  OBJ.FUNC 1.039330   ROW0686  1.000000
    COL1614  OBJ.FUNC 1.039330   ROW0686  -1.000000
    COL1615  ROW0060  -0.574340   ROW0065  -1.000000
    COL1615  ROW0687  -1.000000
    COL1616  ROW0074  -0.565300   ROW0083  -1.000000
    COL1616  ROW0688  -1.000000
    COL1617  ROW0051  1.000000   ROW0687  1.000000
    COL1618  ROW0687  -1.000000
    COL1619  ROW0053  1.000000   ROW0688  1.000000
    COL1620  ROW0688  -1.000000
    NEGCOL161851760 ROW0687  1.000000
    NEGCOL162051761 ROW0688  1.000000
RHS
    RHS      ROW0002  41293.600000
    RHS      ROW0003  53631.800000
    RHS      ROW0004  73140.000000
    RHS      ROW0005  105985.000000
    RHS      ROW0006  72970.400000
    RHS      ROW0007  88367.100000
    RHS      ROW0008  41523.900000
    RHS      ROW0009  54531.400000
    RHS      ROW0010  29348.700000
    RHS      ROW0011  30854.400000
    RHS      ROW0012  130354.200000
    RHS      ROW0013  138598.800000
    RHS      ROW0014  96428.400000
    RHS      ROW0015  69385.600000
BOUNDS
ENDATA
