NAME          NESM
ROWS
 N  SHORTAGE
 E  RCAPP11 
 E  RCAPP12 
 E  RCAPP13 
 E  RCAPP14 
 E  RCAPP15 
 E  RCAPP16 
 E  RCAPP17 
 E  RCAPP18 
 E  RCAPP21 
 E  RCAPP22 
 E  RCAPP23 
 E  RCAPP24 
 E  RCAPP25 
 E  RCAPP26 
 E  RCAPP27 
 E  RCAPP28 
 E  RCAPP31 
 E  RCAPP32 
 E  RCAPP33 
 E  RCAPP34 
 E  RCAPP35 
 E  RCAPP36 
 E  RCAPP37 
 E  RCAPP38 
 E  RCAPP41 
 E  RCAPP42 
 E  RCAPP43 
 E  RCAPP44 
 E  RCAPP45 
 E  RCAPP46 
 E  RCAPP47 
 E  RCAPP48 
 E  RCAPP51 
 E  RCAPP52 
 E  RCAPP53 
 E  RCAPP54 
 E  RCAPP55 
 E  RCAPP56 
 E  RCAPP57 
 E  RCAPP58 
 E  ERCPP11L
 E  ERCPP12L
 E  ERCPP13L
 E  ERCPP14L
 E  ERCPP15L
 E  ERCPP16L
 E  ERCPP17L
 E  ERCPP18L
 E  ERCPP21L
 E  ERCPP22L
 E  ERCPP23L
 E  ERCPP24L
 E  ERCPP25L
 E  ERCPP26L
 E  ERCPP27L
 E  ERCPP28L
 E  ERCPP31L
 E  ERCPP32L
 E  ERCPP33L
 E  ERCPP34L
 E  ERCPP35L
 E  ERCPP36L
 E  ERCPP37L
 E  ERCPP38L
 E  ERCPP41L
 E  ERCPP42L
 E  ERCPP43L
 E  ERCPP44L
 E  ERCPP45L
 E  ERCPP46L
 E  ERCPP47L
 E  ERCPP48L
 E  ERCPP51L
 E  ERCPP52L
 E  ERCPP53L
 E  ERCPP54L
 E  ERCPP55L
 E  ERCPP56L
 E  ERCPP57L
 E  ERCPP58L
 E  ERCPP11G
 E  ERCPP12G
 E  ERCPP13G
 E  ERCPP14G
 E  ERCPP15G
 E  ERCPP16G
 E  ERCPP17G
 E  ERCPP18G
 E  ERCPP21G
 E  ERCPP22G
 E  ERCPP23G
 E  ERCPP24G
 E  ERCPP25G
 E  ERCPP26G
 E  ERCPP27G
 E  ERCPP28G
 E  ERCPP31G
 E  ERCPP32G
 E  ERCPP33G
 E  ERCPP34G
 E  ERCPP35G
 E  ERCPP36G
 E  ERCPP37G
 E  ERCPP38G
 E  ERCPP41G
 E  ERCPP42G
 E  ERCPP43G
 E  ERCPP44G
 E  ERCPP45G
 E  ERCPP46G
 E  ERCPP47G
 E  ERCPP48G
 E  ERCPP51G
 E  ERCPP52G
 E  ERCPP53G
 E  ERCPP54G
 E  ERCPP55G
 E  ERCPP56G
 E  ERCPP57G
 E  ERCPP58G
 E  TRCP1L  
 E  TRCP2L  
 E  TRCP3L  
 E  TRCP4L  
 E  TRCP5L  
 E  TRCP6L  
 E  TRCP7L  
 E  TRCP1G  
 E  TRCP2G  
 E  TRCP3G  
 E  TRCP4G  
 E  TRCP5G  
 E  TRCP6G  
 E  TRCP7G  
 E  QCRP11  
 E  QCRP12  
 E  QCRP13  
 E  QCRP14  
 E  QCRP15  
 E  QCRP16  
 E  QCRP17  
 E  QCRP18  
 E  QCRP21  
 E  QCRP22  
 E  QCRP23  
 E  QCRP24  
 E  QCRP25  
 E  QCRP26  
 E  QCRP27  
 E  QCRP28  
 E  QCRP31  
 E  QCRP32  
 E  QCRP33  
 E  QCRP34  
 E  QCRP35  
 E  QCRP36  
 E  QCRP37  
 E  QCRP38  
 E  QCRP41  
 E  QCRP42  
 E  QCRP43  
 E  QCRP44  
 E  QCRP45  
 E  QCRP46  
 E  QCRP47  
 E  QCRP48  
 E  QCRP51  
 E  QCRP52  
 E  QCRP53  
 E  QCRP54  
 E  QCRP55  
 E  QCRP56  
 E  QCRP57  
 E  QCRP58  
 E  QGLP11  
 E  QGLP12  
 E  QGLP13  
 E  QGLP14  
 E  QGLP15  
 E  QGLP16  
 E  QGLP17  
 E  QGLP18  
 E  QGLP21  
 E  QGLP22  
 E  QGLP23  
 E  QGLP24  
 E  QGLP25  
 E  QGLP26  
 E  QGLP27  
 E  QGLP28  
 E  QGLP31  
 E  QGLP32  
 E  QGLP33  
 E  QGLP34  
 E  QGLP35  
 E  QGLP36  
 E  QGLP37  
 E  QGLP38  
 E  QGLP41  
 E  QGLP42  
 E  QGLP43  
 E  QGLP44  
 E  QGLP45  
 E  QGLP46  
 E  QGLP47  
 E  QGLP48  
 E  QGLP51  
 E  QGLP52  
 E  QGLP53  
 E  QGLP54  
 E  QGLP55  
 E  QGLP56  
 E  QGLP57  
 E  QGLP58  
 E  QUNP11  
 E  QUNP12  
 E  QUNP13  
 E  QUNP14  
 E  QUNP15  
 E  QUNP16  
 E  QUNP17  
 E  QUNP18  
 E  QUNP21  
 E  QUNP22  
 E  QUNP23  
 E  QUNP24  
 E  QUNP25  
 E  QUNP26  
 E  QUNP27  
 E  QUNP28  
 E  QUNP31  
 E  QUNP32  
 E  QUNP33  
 E  QUNP34  
 E  QUNP35  
 E  QUNP36  
 E  QUNP37  
 E  QUNP38  
 E  QUNP41  
 E  QUNP42  
 E  QUNP43  
 E  QUNP44  
 E  QUNP45  
 E  QUNP46  
 E  QUNP47  
 E  QUNP48  
 E  QUNP51  
 E  QUNP52  
 E  QUNP53  
 E  QUNP54  
 E  QUNP55  
 E  QUNP56  
 E  QUNP57  
 E  QUNP58  
 E  QGAP11  
 E  QGAP12  
 E  QGAP13  
 E  QGAP14  
 E  QGAP15  
 E  QGAP16  
 E  QGAP17  
 E  QGAP18  
 E  QGAP21  
 E  QGAP22  
 E  QGAP23  
 E  QGAP24  
 E  QGAP25  
 E  QGAP26  
 E  QGAP27  
 E  QGAP28  
 E  QGAP31  
 E  QGAP32  
 E  QGAP33  
 E  QGAP34  
 E  QGAP35  
 E  QGAP36  
 E  QGAP37  
 E  QGAP38  
 E  QGAP41  
 E  QGAP42  
 E  QGAP43  
 E  QGAP44  
 E  QGAP45  
 E  QGAP46  
 E  QGAP47  
 E  QGAP48  
 E  QGAP51  
 E  QGAP52  
 E  QGAP53  
 E  QGAP54  
 E  QGAP55  
 E  QGAP56  
 E  QGAP57  
 E  QGAP58  
 E  QDSP11  
 E  QDSP12  
 E  QDSP13  
 E  QDSP14  
 E  QDSP15  
 E  QDSP16  
 E  QDSP17  
 E  QDSP18  
 E  QDSP21  
 E  QDSP22  
 E  QDSP23  
 E  QDSP24  
 E  QDSP25  
 E  QDSP26  
 E  QDSP27  
 E  QDSP28  
 E  QDSP31  
 E  QDSP32  
 E  QDSP33  
 E  QDSP34  
 E  QDSP35  
 E  QDSP36  
 E  QDSP37  
 E  QDSP38  
 E  QDSP41  
 E  QDSP42  
 E  QDSP43  
 E  QDSP44  
 E  QDSP45  
 E  QDSP46  
 E  QDSP47  
 E  QDSP48  
 E  QDSP51  
 E  QDSP52  
 E  QDSP53  
 E  QDSP54  
 E  QDSP55  
 E  QDSP56  
 E  QDSP57  
 E  QDSP58  
 E  QRSP11  
 E  QRSP12  
 E  QRSP13  
 E  QRSP14  
 E  QRSP15  
 E  QRSP16  
 E  QRSP17  
 E  QRSP18  
 E  QRSP21  
 E  QRSP22  
 E  QRSP23  
 E  QRSP24  
 E  QRSP25  
 E  QRSP26  
 E  QRSP27  
 E  QRSP28  
 E  QRSP31  
 E  QRSP32  
 E  QRSP33  
 E  QRSP34  
 E  QRSP35  
 E  QRSP36  
 E  QRSP37  
 E  QRSP38  
 E  QRSP41  
 E  QRSP42  
 E  QRSP43  
 E  QRSP44  
 E  QRSP45  
 E  QRSP46  
 E  QRSP47  
 E  QRSP48  
 E  QRSP51  
 E  QRSP52  
 E  QRSP53  
 E  QRSP54  
 E  QRSP55  
 E  QRSP56  
 E  QRSP57  
 E  QRSP58  
 E  QKJP11  
 E  QKJP12  
 E  QKJP13  
 E  QKJP14  
 E  QKJP15  
 E  QKJP16  
 E  QKJP17  
 E  QKJP18  
 E  QKJP21  
 E  QKJP22  
 E  QKJP23  
 E  QKJP24  
 E  QKJP25  
 E  QKJP26  
 E  QKJP27  
 E  QKJP28  
 E  QKJP31  
 E  QKJP32  
 E  QKJP33  
 E  QKJP34  
 E  QKJP35  
 E  QKJP36  
 E  QKJP37  
 E  QKJP38  
 E  QKJP41  
 E  QKJP42  
 E  QKJP43  
 E  QKJP44  
 E  QKJP45  
 E  QKJP46  
 E  QKJP47  
 E  QKJP48  
 E  QKJP51  
 E  QKJP52  
 E  QKJP53  
 E  QKJP54  
 E  QKJP55  
 E  QKJP56  
 E  QKJP57  
 E  QKJP58  
 E  QNJP11  
 E  QNJP12  
 E  QNJP13  
 E  QNJP14  
 E  QNJP15  
 E  QNJP16  
 E  QNJP17  
 E  QNJP18  
 E  QNJP21  
 E  QNJP22  
 E  QNJP23  
 E  QNJP24  
 E  QNJP25  
 E  QNJP26  
 E  QNJP27  
 E  QNJP28  
 E  QNJP31  
 E  QNJP32  
 E  QNJP33  
 E  QNJP34  
 E  QNJP35  
 E  QNJP36  
 E  QNJP37  
 E  QNJP38  
 E  QNJP41  
 E  QNJP42  
 E  QNJP43  
 E  QNJP44  
 E  QNJP45  
 E  QNJP46  
 E  QNJP47  
 E  QNJP48  
 E  QNJP51  
 E  QNJP52  
 E  QNJP53  
 E  QNJP54  
 E  QNJP55  
 E  QNJP56  
 E  QNJP57  
 E  QNJP58  
 E  QPFP11  
 E  QPFP12  
 E  QPFP13  
 E  QPFP14  
 E  QPFP15  
 E  QPFP16  
 E  QPFP17  
 E  QPFP18  
 E  QPFP21  
 E  QPFP22  
 E  QPFP23  
 E  QPFP24  
 E  QPFP25  
 E  QPFP26  
 E  QPFP27  
 E  QPFP28  
 E  QPFP31  
 E  QPFP32  
 E  QPFP33  
 E  QPFP34  
 E  QPFP35  
 E  QPFP36  
 E  QPFP37  
 E  QPFP38  
 E  QPFP41  
 E  QPFP42  
 E  QPFP43  
 E  QPFP44  
 E  QPFP45  
 E  QPFP46  
 E  QPFP47  
 E  QPFP48  
 E  QPFP51  
 E  QPFP52  
 E  QPFP53  
 E  QPFP54  
 E  QPFP55  
 E  QPFP56  
 E  QPFP57  
 E  QPFP58  
 E  QLPP11  
 E  QLPP12  
 E  QLPP13  
 E  QLPP14  
 E  QLPP15  
 E  QLPP16  
 E  QLPP17  
 E  QLPP18  
 E  QLPP21  
 E  QLPP22  
 E  QLPP23  
 E  QLPP24  
 E  QLPP25  
 E  QLPP26  
 E  QLPP27  
 E  QLPP28  
 E  QLPP31  
 E  QLPP32  
 E  QLPP33  
 E  QLPP34  
 E  QLPP35  
 E  QLPP36  
 E  QLPP37  
 E  QLPP38  
 E  QLPP41  
 E  QLPP42  
 E  QLPP43  
 E  QLPP44  
 E  QLPP45  
 E  QLPP46  
 E  QLPP47  
 E  QLPP48  
 E  QLPP51  
 E  QLPP52  
 E  QLPP53  
 E  QLPP54  
 E  QLPP55  
 E  QLPP56  
 E  QLPP57  
 E  QLPP58  
 E  QOTP11  
 E  QOTP12  
 E  QOTP13  
 E  QOTP14  
 E  QOTP15  
 E  QOTP16  
 E  QOTP17  
 E  QOTP18  
 E  QOTP21  
 E  QOTP22  
 E  QOTP23  
 E  QOTP24  
 E  QOTP25  
 E  QOTP26  
 E  QOTP27  
 E  QOTP28  
 E  QOTP31  
 E  QOTP32  
 E  QOTP33  
 E  QOTP34  
 E  QOTP35  
 E  QOTP36  
 E  QOTP37  
 E  QOTP38  
 E  QOTP41  
 E  QOTP42  
 E  QOTP43  
 E  QOTP44  
 E  QOTP45  
 E  QOTP46  
 E  QOTP47  
 E  QOTP48  
 E  QOTP51  
 E  QOTP52  
 E  QOTP53  
 E  QOTP54  
 E  QOTP55  
 E  QOTP56  
 E  QOTP57  
 E  QOTP58  
 E  AP1P21  
 E  AP1P22  
 E  AP1P23  
 E  AP1P24  
 E  AP1P25  
 E  AP1P26  
 E  AP1P27  
 E  AP1P28  
 E  AP1P31  
 E  AP1P32  
 E  AP1P33  
 E  AP1P34  
 E  AP1P35  
 E  AP1P36  
 E  AP1P37  
 E  AP1P38  
 E  AP1P51  
 E  AP1P52  
 E  AP1P53  
 E  AP1P54  
 E  AP1P55  
 E  AP1P56  
 E  AP1P57  
 E  AP1P58  
 E  AP2P11  
 E  AP2P12  
 E  AP2P13  
 E  AP2P14  
 E  AP2P15  
 E  AP2P16  
 E  AP2P17  
 E  AP2P18  
 E  AP2P31  
 E  AP2P32  
 E  AP2P33  
 E  AP2P34  
 E  AP2P35  
 E  AP2P36  
 E  AP2P37  
 E  AP2P38  
 E  AP2P41  
 E  AP2P42  
 E  AP2P43  
 E  AP2P44  
 E  AP2P45  
 E  AP2P46  
 E  AP2P47  
 E  AP2P48  
 E  AP3P21  
 E  AP3P22  
 E  AP3P23  
 E  AP3P24  
 E  AP3P25  
 E  AP3P26  
 E  AP3P27  
 E  AP3P28  
 E  AP4P21  
 E  AP4P22  
 E  AP4P23  
 E  AP4P24  
 E  AP4P25  
 E  AP4P26  
 E  AP4P27  
 E  AP4P28  
 E  AP4P31  
 E  AP4P32  
 E  AP4P33  
 E  AP4P34  
 E  AP4P35  
 E  AP4P36  
 E  AP4P37  
 E  AP4P38  
 E  AP5P31  
 E  AP5P32  
 E  AP5P33  
 E  AP5P34  
 E  AP5P35  
 E  AP5P36  
 E  AP5P37  
 E  AP5P38  
 E  AP5P41  
 E  AP5P42  
 E  AP5P43  
 E  AP5P44  
 E  AP5P45  
 E  AP5P46  
 E  AP5P47  
 E  AP5P48  
 E  UPBROW0 
 E  LOBROW1 
 E  UPBROW2 
 E  LOBROW3 
 E  UPBROW4 
 E  LOBROW5 
 E  UPBROW6 
 E  LOBROW7 
 E  UPBROW8 
 E  LOBROW9 
 E  UPBROW10
 E  LOBROW11
 E  UPBROW12
 E  LOBROW13
 E  UPBROW14
 E  LOBROW15
 E  UPBROW16
 E  LOBROW17
 E  UPBROW18
 E  LOBROW19
 E  UPBROW20
 E  LOBROW21
 E  UPBROW22
 E  LOBROW23
 E  UPBROW24
 E  LOBROW25
 E  UPBROW26
 E  LOBROW27
 E  UPBROW28
 E  LOBROW29
 E  UPBROW30
 E  LOBROW31
 E  UPBROW32
 E  LOBROW33
 E  UPBROW34
 E  LOBROW35
 E  UPBROW36
 E  LOBROW37
 E  UPBROW38
 E  LOBROW39
 E  UPBROW40
 E  LOBROW41
 E  UPBROW42
 E  LOBROW43
 E  UPBROW44
 E  LOBROW45
 E  UPBROW46
 E  LOBROW47
 E  UPBROW48
 E  LOBROW49
 E  UPBROW50
 E  LOBROW51
 E  UPBROW52
 E  LOBROW53
 E  UPBROW54
 E  LOBROW55
 E  UPBROW56
 E  LOBROW57
 E  UPBROW58
 E  LOBROW59
 E  UPBROW60
 E  LOBROW61
 E  UPBROW62
 E  LOBROW63
 E  UPBROW64
 E  LOBROW65
 E  UPBROW66
 E  LOBROW67
 E  UPBROW68
 E  LOBROW69
 E  UPBROW70
 E  LOBROW71
 E  UPBROW72
 E  LOBROW73
 E  UPBROW74
 E  LOBROW75
 E  UPBROW76
 E  LOBROW77
 E  UPBROW78
 E  LOBROW79
 E  UPBROW80
 E  LOBROW81
 E  UPBROW82
 E  LOBROW83
 E  UPBROW84
 E  LOBROW85
 E  UPBROW86
 E  LOBROW87
 E  UPBROW88
 E  LOBROW89
 E  UPBROW90
 E  LOBROW91
 E  UPBROW92
 E  LOBROW93
 E  UPBROW94
 E  LOBROW95
 E  UPBROW96
 E  LOBROW97
 E  UPBROW98
 E  LOBROW99
 E  UPBROW100
 E  LOBROW101
 E  UPBROW102
 E  LOBROW103
 E  UPBROW104
 E  LOBROW105
 E  UPBROW106
 E  LOBROW107
 E  UPBROW108
 E  LOBROW109
 E  UPBROW110
 E  LOBROW111
 E  UPBROW112
 E  LOBROW113
 E  UPBROW114
 E  LOBROW115
 E  UPBROW116
 E  LOBROW117
 E  UPBROW118
 E  LOBROW119
 E  UPBROW120
 E  LOBROW121
 E  UPBROW122
 E  LOBROW123
 E  UPBROW124
 E  LOBROW125
 E  UPBROW126
 E  LOBROW127
 E  UPBROW128
 E  LOBROW129
 E  UPBROW130
 E  LOBROW131
 E  UPBROW132
 E  LOBROW133
 E  UPBROW134
 E  LOBROW135
 E  UPBROW136
 E  LOBROW137
 E  UPBROW138
 E  LOBROW139
 E  UPBROW140
 E  LOBROW141
 E  UPBROW142
 E  LOBROW143
 E  UPBROW144
 E  LOBROW145
 E  UPBROW146
 E  LOBROW147
 E  UPBROW148
 E  LOBROW149
 E  UPBROW150
 E  LOBROW151
 E  UPBROW152
 E  LOBROW153
 E  UPBROW154
 E  LOBROW155
 E  UPBROW156
 E  LOBROW157
 E  UPBROW158
 E  LOBROW159
 E  UPBROW160
 E  LOBROW161
 E  UPBROW162
 E  LOBROW163
 E  UPBROW164
 E  LOBROW165
 E  UPBROW166
 E  LOBROW167
 E  UPBROW168
 E  LOBROW169
 E  UPBROW170
 E  LOBROW171
 E  UPBROW172
 E  LOBROW173
 E  UPBROW174
 E  LOBROW175
 E  UPBROW176
 E  LOBROW177
 E  UPBROW178
 E  LOBROW179
 E  UPBROW180
 E  LOBROW181
 E  UPBROW182
 E  LOBROW183
 E  UPBROW184
 E  LOBROW185
 E  UPBROW186
 E  LOBROW187
 E  UPBROW188
 E  LOBROW189
 E  UPBROW190
 E  LOBROW191
 E  UPBROW192
 E  LOBROW193
 E  UPBROW194
 E  LOBROW195
 E  UPBROW196
 E  LOBROW197
 E  UPBROW198
 E  LOBROW199
 E  UPBROW200
 E  LOBROW201
 E  UPBROW202
 E  LOBROW203
 E  UPBROW204
 E  LOBROW205
 E  UPBROW206
 E  LOBROW207
 E  UPBROW208
 E  LOBROW209
 E  UPBROW210
 E  LOBROW211
 E  UPBROW212
 E  LOBROW213
 E  UPBROW214
 E  LOBROW215
 E  UPBROW216
 E  LOBROW217
 E  UPBROW218
 E  LOBROW219
 E  UPBROW220
 E  LOBROW221
 E  UPBROW222
 E  LOBROW223
 E  UPBROW224
 E  LOBROW225
 E  UPBROW226
 E  LOBROW227
 E  UPBROW228
 E  LOBROW229
 E  UPBROW230
 E  LOBROW231
 E  UPBROW232
 E  LOBROW233
 E  UPBROW234
 E  LOBROW235
 E  UPBROW236
 E  LOBROW237
 E  UPBROW238
 E  LOBROW239
 E  UPBROW240
 E  LOBROW241
 E  UPBROW242
 E  LOBROW243
 E  UPBROW244
 E  LOBROW245
 E  UPBROW246
 E  LOBROW247
 E  UPBROW248
 E  LOBROW249
 E  UPBROW250
 E  LOBROW251
 E  UPBROW252
 E  LOBROW253
 E  UPBROW254
 E  LOBROW255
 E  UPBROW256
 E  LOBROW257
 E  UPBROW258
 E  LOBROW259
 E  UPBROW260
 E  LOBROW261
 E  UPBROW262
 E  LOBROW263
 E  UPBROW264
 E  LOBROW265
 E  UPBROW266
 E  LOBROW267
 E  UPBROW268
 E  LOBROW269
 E  UPBROW270
 E  LOBROW271
 E  UPBROW272
 E  LOBROW273
 E  UPBROW274
 E  LOBROW275
 E  UPBROW276
 E  LOBROW277
 E  UPBROW278
 E  LOBROW279
 E  UPBROW280
 E  LOBROW281
 E  UPBROW282
 E  LOBROW283
 E  UPBROW284
 E  LOBROW285
 E  UPBROW286
 E  LOBROW287
 E  UPBROW288
 E  LOBROW289
 E  UPBROW290
 E  LOBROW291
 E  UPBROW292
 E  LOBROW293
 E  UPBROW294
 E  LOBROW295
 E  UPBROW296
 E  LOBROW297
 E  UPBROW298
 E  LOBROW299
 E  UPBROW300
 E  LOBROW301
 E  UPBROW302
 E  LOBROW303
 E  UPBROW304
 E  LOBROW305
 E  UPBROW306
 E  LOBROW307
 E  UPBROW308
 E  LOBROW309
 E  UPBROW310
 E  LOBROW311
 E  UPBROW312
 E  LOBROW313
 E  UPBROW314
 E  LOBROW315
 E  UPBROW316
 E  LOBROW317
 E  UPBROW318
 E  LOBROW319
 E  UPBROW320
 E  LOBROW321
 E  UPBROW322
 E  LOBROW323
 E  UPBROW324
 E  LOBROW325
 E  UPBROW326
 E  LOBROW327
 E  UPBROW328
 E  LOBROW329
 E  UPBROW330
 E  LOBROW331
 E  UPBROW332
 E  LOBROW333
 E  UPBROW334
 E  LOBROW335
 E  UPBROW336
 E  LOBROW337
 E  UPBROW338
 E  LOBROW339
 E  UPBROW340
 E  LOBROW341
 E  UPBROW342
 E  LOBROW343
 E  UPBROW344
 E  LOBROW345
 E  UPBROW346
 E  LOBROW347
 E  UPBROW348
 E  LOBROW349
 E  UPBROW350
 E  LOBROW351
 E  UPBROW352
 E  LOBROW353
 E  UPBROW354
 E  LOBROW355
 E  UPBROW356
 E  LOBROW357
 E  UPBROW358
 E  LOBROW359
 E  UPBROW360
 E  LOBROW361
 E  UPBROW362
 E  LOBROW363
 E  UPBROW364
 E  LOBROW365
 E  UPBROW366
 E  LOBROW367
 E  UPBROW368
 E  LOBROW369
 E  UPBROW370
 E  LOBROW371
 E  UPBROW372
 E  LOBROW373
 E  UPBROW374
 E  LOBROW375
 E  UPBROW376
 E  LOBROW377
 E  UPBROW378
 E  LOBROW379
 E  UPBROW380
 E  LOBROW381
 E  UPBROW382
 E  LOBROW383
 E  UPBROW384
 E  LOBROW385
 E  UPBROW386
 E  LOBROW387
 E  UPBROW388
 E  LOBROW389
 E  UPBROW390
 E  LOBROW391
 E  UPBROW392
 E  LOBROW393
 E  UPBROW394
 E  LOBROW395
 E  UPBROW396
 E  LOBROW397
 E  UPBROW398
 E  LOBROW399
 E  UPBROW400
 E  LOBROW401
 E  UPBROW402
 E  LOBROW403
 E  UPBROW404
 E  LOBROW405
 E  UPBROW406
 E  LOBROW407
 E  UPBROW408
 E  LOBROW409
 E  UPBROW410
 E  LOBROW411
 E  UPBROW412
 E  LOBROW413
 E  UPBROW414
 E  LOBROW415
 E  UPBROW416
 E  LOBROW417
 E  UPBROW418
 E  LOBROW419
 E  UPBROW420
 E  LOBROW421
 E  UPBROW422
 E  LOBROW423
 E  UPBROW424
 E  LOBROW425
 E  UPBROW426
 E  LOBROW427
 E  UPBROW428
 E  LOBROW429
 E  UPBROW430
 E  LOBROW431
 E  UPBROW432
 E  LOBROW433
 E  UPBROW434
 E  LOBROW435
 E  UPBROW436
 E  LOBROW437
 E  UPBROW438
 E  LOBROW439
 E  UPBROW440
 E  LOBROW441
 E  UPBROW442
 E  LOBROW443
 E  UPBROW444
 E  LOBROW445
 E  UPBROW446
 E  LOBROW447
 E  UPBROW448
 E  LOBROW449
 E  UPBROW450
 E  LOBROW451
 E  UPBROW452
 E  LOBROW453
 E  UPBROW454
 E  LOBROW455
 E  UPBROW456
 E  LOBROW457
 E  UPBROW458
 E  LOBROW459
 E  UPBROW460
 E  LOBROW461
 E  UPBROW462
 E  LOBROW463
 E  UPBROW464
 E  LOBROW465
 E  UPBROW466
 E  LOBROW467
 E  UPBROW468
 E  LOBROW469
 E  UPBROW470
 E  LOBROW471
 E  UPBROW472
 E  LOBROW473
 E  UPBROW474
 E  LOBROW475
 E  UPBROW476
 E  LOBROW477
 E  UPBROW478
 E  LOBROW479
 E  UPBROW480
 E  LOBROW481
 E  UPBROW482
 E  LOBROW483
 E  UPBROW484
 E  LOBROW485
 E  UPBROW486
 E  LOBROW487
 E  UPBROW488
 E  LOBROW489
 E  UPBROW490
 E  LOBROW491
 E  UPBROW492
 E  LOBROW493
 E  UPBROW494
 E  LOBROW495
 E  UPBROW496
 E  LOBROW497
 E  UPBROW498
 E  LOBROW499
 E  UPBROW500
 E  LOBROW501
 E  UPBROW502
 E  LOBROW503
 E  UPBROW504
 E  LOBROW505
 E  UPBROW506
 E  LOBROW507
 E  UPBROW508
 E  LOBROW509
 E  UPBROW510
 E  LOBROW511
 E  UPBROW512
 E  LOBROW513
 E  UPBROW514
 E  LOBROW515
 E  UPBROW516
 E  LOBROW517
 E  UPBROW518
 E  LOBROW519
 E  UPBROW520
 E  LOBROW521
 E  UPBROW522
 E  LOBROW523
 E  UPBROW524
 E  LOBROW525
 E  UPBROW526
 E  LOBROW527
 E  UPBROW528
 E  LOBROW529
 E  UPBROW530
 E  LOBROW531
 E  UPBROW532
 E  LOBROW533
 E  UPBROW534
 E  LOBROW535
 E  UPBROW536
 E  LOBROW537
 E  UPBROW538
 E  LOBROW539
 E  UPBROW540
 E  LOBROW541
 E  UPBROW542
 E  LOBROW543
 E  UPBROW544
 E  LOBROW545
 E  UPBROW546
 E  LOBROW547
 E  UPBROW548
 E  LOBROW549
 E  UPBROW550
 E  LOBROW551
 E  UPBROW552
 E  LOBROW553
 E  UPBROW554
 E  LOBROW555
 E  UPBROW556
 E  LOBROW557
 E  UPBROW558
 E  LOBROW559
 E  UPBROW560
 E  LOBROW561
 E  UPBROW562
 E  LOBROW563
 E  UPBROW564
 E  LOBROW565
 E  UPBROW566
 E  LOBROW567
 E  UPBROW568
 E  LOBROW569
 E  UPBROW570
 E  LOBROW571
 E  UPBROW572
 E  LOBROW573
 E  UPBROW574
 E  LOBROW575
 E  UPBROW576
 E  LOBROW577
 E  UPBROW578
 E  LOBROW579
 E  UPBROW580
 E  LOBROW581
 E  UPBROW582
 E  LOBROW583
 E  UPBROW584
 E  LOBROW585
 E  UPBROW586
 E  LOBROW587
 E  UPBROW588
 E  LOBROW589
 E  UPBROW590
 E  LOBROW591
 E  UPBROW592
 E  LOBROW593
 E  UPBROW594
 E  LOBROW595
 E  UPBROW596
 E  LOBROW597
 E  UPBROW598
 E  LOBROW599
 E  UPBROW600
 E  LOBROW601
 E  UPBROW602
 E  LOBROW603
 E  UPBROW604
 E  LOBROW605
 E  UPBROW606
 E  LOBROW607
 E  UPBROW608
 E  LOBROW609
 E  UPBROW610
 E  LOBROW611
 E  UPBROW612
 E  LOBROW613
 E  UPBROW614
 E  LOBROW615
 E  UPBROW616
 E  LOBROW617
 E  UPBROW618
 E  LOBROW619
 E  UPBROW620
 E  LOBROW621
 E  UPBROW622
 E  LOBROW623
 E  UPBROW624
 E  LOBROW625
 E  UPBROW626
 E  LOBROW627
 E  UPBROW628
 E  LOBROW629
 E  UPBROW630
 E  LOBROW631
 E  UPBROW632
 E  LOBROW633
 E  UPBROW634
 E  LOBROW635
 E  UPBROW636
 E  LOBROW637
 E  UPBROW638
 E  LOBROW639
 E  UPBROW640
 E  LOBROW641
 E  UPBROW642
 E  LOBROW643
 E  UPBROW644
 E  LOBROW645
 E  UPBROW646
 E  LOBROW647
 E  UPBROW648
 E  LOBROW649
 E  UPBROW650
 E  LOBROW651
 E  UPBROW652
 E  LOBROW653
 E  UPBROW654
 E  LOBROW655
 E  UPBROW656
 E  LOBROW657
 E  UPBROW658
 E  LOBROW659
 E  UPBROW660
 E  LOBROW661
 E  UPBROW662
 E  LOBROW663
 E  UPBROW664
 E  LOBROW665
 E  UPBROW666
 E  LOBROW667
 E  UPBROW668
 E  LOBROW669
 E  UPBROW670
 E  LOBROW671
 E  UPBROW672
 E  LOBROW673
 E  UPBROW674
 E  LOBROW675
 E  UPBROW676
 E  LOBROW677
 E  UPBROW678
 E  LOBROW679
 E  LOBROW680
 E  UPBROW681
 E  LOBROW682
 E  UPBROW683
 E  LOBROW684
 E  UPBROW685
 E  LOBROW686
 E  UPBROW687
 E  LOBROW688
 E  UPBROW689
 E  LOBROW690
 E  UPBROW691
 E  LOBROW692
 E  UPBROW693
 E  LOBROW694
 E  UPBROW695
 E  LOBROW696
 E  UPBROW697
 E  LOBROW698
 E  UPBROW699
 E  LOBROW700
 E  UPBROW701
 E  LOBROW702
 E  UPBROW703
 E  LOBROW704
 E  UPBROW705
 E  LOBROW706
 E  UPBROW707
 E  LOBROW708
 E  UPBROW709
 E  LOBROW710
 E  UPBROW711
 E  LOBROW712
 E  UPBROW713
 E  LOBROW714
 E  UPBROW715
 E  LOBROW716
 E  UPBROW717
 E  LOBROW718
 E  UPBROW719
 E  LOBROW720
 E  UPBROW721
 E  LOBROW722
 E  UPBROW723
 E  LOBROW724
 E  UPBROW725
 E  LOBROW726
 E  UPBROW727
 E  LOBROW728
 E  UPBROW729
 E  LOBROW730
 E  UPBROW731
 E  LOBROW732
 E  UPBROW733
 E  LOBROW734
 E  UPBROW735
 E  LOBROW736
 E  UPBROW737
 E  LOBROW738
 E  UPBROW739
 E  LOBROW740
 E  UPBROW741
 E  LOBROW742
 E  UPBROW743
 E  LOBROW744
 E  UPBROW745
 E  LOBROW746
 E  UPBROW747
 E  LOBROW748
 E  UPBROW749
 E  LOBROW750
 E  UPBROW751
 E  LOBROW752
 E  UPBROW753
 E  LOBROW754
 E  UPBROW755
 E  LOBROW756
 E  UPBROW757
 E  LOBROW758
 E  UPBROW759
 E  LOBROW760
 E  UPBROW761
 E  LOBROW762
 E  UPBROW763
 E  LOBROW764
 E  UPBROW765
 E  LOBROW766
 E  UPBROW767
 E  LOBROW768
 E  UPBROW769
 E  LOBROW770
 E  UPBROW771
 E  LOBROW772
 E  UPBROW773
 E  LOBROW774
 E  UPBROW775
 E  LOBROW776
 E  UPBROW777
 E  LOBROW778
 E  UPBROW779
 E  LOBROW780
 E  UPBROW781
 E  LOBROW782
 E  UPBROW783
 E  LOBROW784
 E  UPBROW785
 E  LOBROW786
 E  UPBROW787
 E  LOBROW788
 E  UPBROW789
 E  LOBROW790
 E  UPBROW791
 E  LOBROW792
 E  UPBROW793
 E  LOBROW794
 E  UPBROW795
 E  LOBROW796
 E  UPBROW797
 E  LOBROW798
 E  UPBROW799
 E  LOBROW800
 E  UPBROW801
 E  LOBROW802
 E  UPBROW803
 E  LOBROW804
 E  UPBROW805
 E  LOBROW806
 E  UPBROW807
 E  LOBROW808
 E  UPBROW809
 E  LOBROW810
 E  UPBROW811
 E  LOBROW812
 E  UPBROW813
 E  LOBROW814
 E  UPBROW815
 E  LOBROW816
 E  UPBROW817
 E  LOBROW818
 E  UPBROW819
 E  LOBROW820
 E  UPBROW821
 E  LOBROW822
 E  UPBROW823
 E  LOBROW824
 E  UPBROW825
 E  LOBROW826
 E  UPBROW827
 E  LOBROW828
 E  UPBROW829
 E  LOBROW830
 E  UPBROW831
 E  LOBROW832
 E  UPBROW833
 E  LOBROW834
 E  UPBROW835
 E  LOBROW836
 E  UPBROW837
 E  LOBROW838
 E  UPBROW839
 E  LOBROW840
 E  UPBROW841
 E  LOBROW842
 E  UPBROW843
 E  LOBROW844
 E  UPBROW845
 E  LOBROW846
 E  UPBROW847
 E  LOBROW848
 E  UPBROW849
 E  LOBROW850
 E  UPBROW851
 E  LOBROW852
 E  UPBROW853
 E  LOBROW854
 E  UPBROW855
 E  LOBROW856
 E  UPBROW857
 E  LOBROW858
 E  UPBROW859
 E  LOBROW860
 E  UPBROW861
 E  LOBROW862
 E  UPBROW863
 E  LOBROW864
 E  UPBROW865
 E  LOBROW866
 E  UPBROW867
 E  LOBROW868
 E  UPBROW869
 E  LOBROW870
 E  UPBROW871
 E  LOBROW872
 E  UPBROW873
 E  LOBROW874
 E  UPBROW875
 E  LOBROW876
 E  UPBROW877
 E  LOBROW878
 E  UPBROW879
 E  LOBROW880
 E  UPBROW881
 E  LOBROW882
 E  UPBROW883
 E  LOBROW884
 E  UPBROW885
 E  LOBROW886
 E  UPBROW887
 E  LOBROW888
 E  UPBROW889
 E  LOBROW890
 E  UPBROW891
 E  LOBROW892
 E  UPBROW893
 E  LOBROW894
 E  UPBROW895
 E  LOBROW896
 E  UPBROW897
 E  LOBROW898
 E  UPBROW899
 E  LOBROW900
 E  UPBROW901
 E  LOBROW902
 E  UPBROW903
 E  LOBROW904
 E  UPBROW905
 E  LOBROW906
 E  UPBROW907
 E  LOBROW908
 E  UPBROW909
 E  LOBROW910
 E  UPBROW911
 E  LOBROW912
 E  UPBROW913
 E  LOBROW914
 E  UPBROW915
 E  LOBROW916
 E  UPBROW917
 E  LOBROW918
 E  UPBROW919
 E  LOBROW920
 E  UPBROW921
 E  LOBROW922
 E  UPBROW923
 E  LOBROW924
 E  UPBROW925
 E  LOBROW926
 E  UPBROW927
 E  LOBROW928
 E  UPBROW929
 E  LOBROW930
 E  UPBROW931
 E  LOBROW932
 E  UPBROW933
 E  LOBROW934
 E  UPBROW935
 E  LOBROW936
 E  UPBROW937
 E  LOBROW938
 E  UPBROW939
 E  LOBROW940
 E  UPBROW941
 E  LOBROW942
 E  UPBROW943
 E  LOBROW944
 E  UPBROW945
 E  LOBROW946
 E  UPBROW947
 E  LOBROW948
 E  UPBROW949
 E  LOBROW950
 E  UPBROW951
 E  LOBROW952
 E  UPBROW953
 E  LOBROW954
 E  UPBROW955
 E  LOBROW956
 E  UPBROW957
 E  LOBROW958
 E  UPBROW959
 E  LOBROW960
 E  UPBROW961
 E  LOBROW962
 E  UPBROW963
 E  LOBROW964
 E  UPBROW965
 E  LOBROW966
 E  UPBROW967
 E  LOBROW968
 E  UPBROW969
 E  LOBROW970
 E  UPBROW971
 E  LOBROW972
 E  UPBROW973
 E  LOBROW974
 E  UPBROW975
 E  LOBROW976
 E  UPBROW977
 E  LOBROW978
 E  UPBROW979
 E  LOBROW980
 E  UPBROW981
 E  LOBROW982
 E  UPBROW983
 E  LOBROW984
 E  UPBROW985
 E  LOBROW986
 E  UPBROW987
 E  LOBROW988
 E  UPBROW989
 E  LOBROW990
 E  UPBROW991
 E  LOBROW992
 E  UPBROW993
 E  LOBROW994
 E  UPBROW995
 E  LOBROW996
 E  UPBROW997
 E  LOBROW998
 E  UPBROW999
 E  LOBROW1000
 E  UPBROW1001
 E  LOBROW1002
 E  UPBROW1003
 E  LOBROW1004
 E  UPBROW1005
 E  LOBROW1006
 E  UPBROW1007
 E  LOBROW1008
 E  UPBROW1009
 E  LOBROW1010
 E  UPBROW1011
 E  LOBROW1012
 E  UPBROW1013
 E  LOBROW1014
 E  UPBROW1015
 E  LOBROW1016
 E  UPBROW1017
 E  LOBROW1018
 E  UPBROW1019
 E  LOBROW1020
 E  UPBROW1021
 E  LOBROW1022
 E  UPBROW1023
 E  LOBROW1024
 E  UPBROW1025
 E  LOBROW1026
 E  UPBROW1027
 E  LOBROW1028
 E  UPBROW1029
 E  LOBROW1030
 E  UPBROW1031
 E  LOBROW1032
 E  UPBROW1033
 E  LOBROW1034
 E  UPBROW1035
 E  LOBROW1036
 E  UPBROW1037
 E  LOBROW1038
 E  UPBROW1039
 E  LOBROW1040
 E  UPBROW1041
 E  LOBROW1042
 E  UPBROW1043
 E  LOBROW1044
 E  UPBROW1045
 E  LOBROW1046
 E  UPBROW1047
 E  LOBROW1048
 E  UPBROW1049
 E  LOBROW1050
 E  UPBROW1051
 E  LOBROW1052
 E  UPBROW1053
 E  LOBROW1054
 E  UPBROW1055
 E  LOBROW1056
 E  UPBROW1057
 E  LOBROW1058
 E  UPBROW1059
 E  LOBROW1060
 E  UPBROW1061
 E  LOBROW1062
 E  UPBROW1063
 E  LOBROW1064
 E  UPBROW1065
 E  LOBROW1066
 E  UPBROW1067
 E  LOBROW1068
 E  UPBROW1069
 E  LOBROW1070
 E  UPBROW1071
 E  LOBROW1072
 E  UPBROW1073
 E  LOBROW1074
 E  UPBROW1075
 E  LOBROW1076
 E  UPBROW1077
 E  LOBROW1078
 E  UPBROW1079
 E  LOBROW1080
 E  UPBROW1081
 E  LOBROW1082
 E  UPBROW1083
 E  LOBROW1084
 E  UPBROW1085
 E  LOBROW1086
 E  UPBROW1087
 E  LOBROW1088
 E  UPBROW1089
 E  LOBROW1090
 E  UPBROW1091
 E  LOBROW1092
 E  UPBROW1093
 E  LOBROW1094
 E  UPBROW1095
 E  LOBROW1096
 E  UPBROW1097
 E  LOBROW1098
 E  UPBROW1099
 E  LOBROW1100
 E  UPBROW1101
 E  LOBROW1102
 E  UPBROW1103
 E  LOBROW1104
 E  UPBROW1105
 E  LOBROW1106
 E  UPBROW1107
 E  LOBROW1108
 E  UPBROW1109
 E  LOBROW1110
 E  UPBROW1111
 E  LOBROW1112
 E  UPBROW1113
 E  LOBROW1114
 E  UPBROW1115
 E  LOBROW1116
 E  UPBROW1117
 E  LOBROW1118
 E  UPBROW1119
 E  LOBROW1120
 E  UPBROW1121
 E  LOBROW1122
 E  UPBROW1123
 E  LOBROW1124
 E  UPBROW1125
 E  LOBROW1126
 E  UPBROW1127
 E  LOBROW1128
 E  UPBROW1129
 E  LOBROW1130
 E  UPBROW1131
 E  LOBROW1132
 E  UPBROW1133
 E  LOBROW1134
 E  UPBROW1135
 E  LOBROW1136
 E  UPBROW1137
 E  LOBROW1138
 E  UPBROW1139
 E  LOBROW1140
 E  UPBROW1141
 E  LOBROW1142
 E  UPBROW1143
 E  LOBROW1144
 E  UPBROW1145
 E  LOBROW1146
 E  UPBROW1147
 E  LOBROW1148
 E  UPBROW1149
 E  LOBROW1150
 E  UPBROW1151
 E  LOBROW1152
 E  UPBROW1153
 E  LOBROW1154
 E  UPBROW1155
 E  LOBROW1156
 E  UPBROW1157
 E  LOBROW1158
 E  UPBROW1159
 E  LOBROW1160
 E  UPBROW1161
 E  LOBROW1162
 E  UPBROW1163
 E  LOBROW1164
 E  UPBROW1165
 E  LOBROW1166
 E  UPBROW1167
 E  LOBROW1168
 E  UPBROW1169
 E  LOBROW1170
 E  UPBROW1171
 E  LOBROW1172
 E  UPBROW1173
 E  LOBROW1174
 E  UPBROW1175
 E  LOBROW1176
 E  UPBROW1177
 E  LOBROW1178
 E  UPBROW1179
 E  LOBROW1180
 E  UPBROW1181
 E  LOBROW1182
 E  UPBROW1183
 E  LOBROW1184
 E  UPBROW1185
 E  LOBROW1186
 E  UPBROW1187
 E  LOBROW1188
 E  UPBROW1189
 E  LOBROW1190
 E  UPBROW1191
 E  LOBROW1192
 E  UPBROW1193
 E  LOBROW1194
 E  UPBROW1195
 E  LOBROW1196
 E  UPBROW1197
 E  LOBROW1198
 E  UPBROW1199
 E  LOBROW1200
 E  UPBROW1201
 E  LOBROW1202
 E  UPBROW1203
 E  LOBROW1204
 E  UPBROW1205
 E  LOBROW1206
 E  UPBROW1207
 E  LOBROW1208
 E  UPBROW1209
 E  LOBROW1210
 E  UPBROW1211
 E  LOBROW1212
 E  UPBROW1213
 E  LOBROW1214
 E  UPBROW1215
 E  LOBROW1216
 E  UPBROW1217
 E  LOBROW1218
 E  UPBROW1219
 E  LOBROW1220
 E  UPBROW1221
 E  LOBROW1222
 E  UPBROW1223
 E  LOBROW1224
 E  UPBROW1225
 E  LOBROW1226
 E  UPBROW1227
 E  LOBROW1228
 E  UPBROW1229
 E  LOBROW1230
 E  UPBROW1231
 E  LOBROW1232
 E  UPBROW1233
 E  LOBROW1234
 E  UPBROW1235
 E  LOBROW1236
 E  UPBROW1237
 E  LOBROW1238
 E  UPBROW1239
 E  LOBROW1240
 E  UPBROW1241
 E  LOBROW1242
 E  UPBROW1243
 E  LOBROW1244
 E  UPBROW1245
 E  LOBROW1246
 E  UPBROW1247
 E  LOBROW1248
 E  UPBROW1249
 E  LOBROW1250
 E  UPBROW1251
 E  LOBROW1252
 E  UPBROW1253
 E  LOBROW1254
 E  UPBROW1255
 E  LOBROW1256
 E  UPBROW1257
 E  LOBROW1258
 E  UPBROW1259
 E  LOBROW1260
 E  UPBROW1261
 E  LOBROW1262
 E  UPBROW1263
 E  LOBROW1264
 E  UPBROW1265
 E  LOBROW1266
 E  UPBROW1267
 E  LOBROW1268
 E  UPBROW1269
 E  LOBROW1270
 E  UPBROW1271
 E  LOBROW1272
 E  UPBROW1273
 E  LOBROW1274
 E  UPBROW1275
 E  LOBROW1276
 E  UPBROW1277
 E  LOBROW1278
 E  UPBROW1279
 E  LOBROW1280
 E  UPBROW1281
 E  LOBROW1282
 E  UPBROW1283
 E  LOBROW1284
 E  UPBROW1285
 E  LOBROW1286
 E  UPBROW1287
 E  LOBROW1288
 E  UPBROW1289
 E  LOBROW1290
 E  UPBROW1291
 E  LOBROW1292
 E  UPBROW1293
 E  LOBROW1294
 E  UPBROW1295
 E  LOBROW1296
 E  UPBROW1297
 E  LOBROW1298
 E  UPBROW1299
 E  LOBROW1300
 E  UPBROW1301
 E  LOBROW1302
 E  UPBROW1303
 E  LOBROW1304
 E  UPBROW1305
 E  LOBROW1306
 E  UPBROW1307
 E  LOBROW1308
 E  UPBROW1309
 E  LOBROW1310
 E  UPBROW1311
 E  LOBROW1312
 E  UPBROW1313
 E  LOBROW1314
 E  UPBROW1315
 E  LOBROW1316
 E  UPBROW1317
 E  LOBROW1318
 E  UPBROW1319
 E  LOBROW1320
 E  UPBROW1321
 E  LOBROW1322
 E  UPBROW1323
 E  LOBROW1324
 E  UPBROW1325
 E  LOBROW1326
 E  UPBROW1327
 E  LOBROW1328
 E  UPBROW1329
 E  LOBROW1330
 E  UPBROW1331
 E  LOBROW1332
 E  UPBROW1333
 E  LOBROW1334
 E  UPBROW1335
 E  LOBROW1336
 E  UPBROW1337
 E  LOBROW1338
 E  UPBROW1339
 E  LOBROW1340
 E  UPBROW1341
 E  LOBROW1342
 E  UPBROW1343
 E  LOBROW1344
 E  UPBROW1345
 E  LOBROW1346
 E  UPBROW1347
 E  LOBROW1348
 E  UPBROW1349
 E  LOBROW1350
 E  UPBROW1351
 E  LOBROW1352
 E  UPBROW1353
 E  LOBROW1354
 E  UPBROW1355
 E  LOBROW1356
 E  UPBROW1357
 E  LOBROW1358
 E  UPBROW1359
 E  LOBROW1360
 E  UPBROW1361
 E  LOBROW1362
 E  UPBROW1363
 E  LOBROW1364
 E  UPBROW1365
 E  LOBROW1366
 E  UPBROW1367
 E  LOBROW1368
 E  UPBROW1369
 E  LOBROW1370
 E  UPBROW1371
 E  LOBROW1372
 E  UPBROW1373
 E  LOBROW1374
 E  UPBROW1375
 E  LOBROW1376
 E  UPBROW1377
 E  LOBROW1378
 E  UPBROW1379
 E  LOBROW1380
 E  UPBROW1381
 E  LOBROW1382
 E  UPBROW1383
 E  LOBROW1384
 E  UPBROW1385
 E  LOBROW1386
 E  UPBROW1387
 E  LOBROW1388
 E  UPBROW1389
 E  LOBROW1390
 E  UPBROW1391
 E  LOBROW1392
 E  UPBROW1393
 E  LOBROW1394
 E  UPBROW1395
 E  LOBROW1396
 E  UPBROW1397
 E  LOBROW1398
 E  UPBROW1399
 E  LOBROW1400
 E  LOBROW1401
 E  LOBROW1402
 E  LOBROW1403
 E  LOBROW1404
 E  LOBROW1405
 E  LOBROW1406
 E  LOBROW1407
 E  LOBROW1408
 E  LOBROW1409
 E  LOBROW1410
 E  LOBROW1411
 E  LOBROW1412
 E  LOBROW1413
 E  LOBROW1414
 E  LOBROW1415
 E  LOBROW1416
 E  LOBROW1417
 E  LOBROW1418
 E  LOBROW1419
 E  LOBROW1420
 E  LOBROW1421
 E  LOBROW1422
 E  LOBROW1423
 E  LOBROW1424
 E  LOBROW1425
 E  LOBROW1426
 E  LOBROW1427
 E  LOBROW1428
 E  LOBROW1429
 E  LOBROW1430
 E  LOBROW1431
 E  LOBROW1432
 E  LOBROW1433
 E  LOBROW1434
 E  LOBROW1435
 E  LOBROW1436
 E  LOBROW1437
 E  LOBROW1438
 E  LOBROW1439
 E  LOBROW1440
 E  UPBROW1441
 E  LOBROW1442
 E  UPBROW1443
 E  LOBROW1444
 E  UPBROW1445
 E  LOBROW1446
 E  UPBROW1447
 E  LOBROW1448
 E  UPBROW1449
 E  LOBROW1450
 E  UPBROW1451
 E  LOBROW1452
 E  UPBROW1453
 E  LOBROW1454
 E  UPBROW1455
 E  LOBROW1456
 E  UPBROW1457
 E  LOBROW1458
 E  UPBROW1459
 E  LOBROW1460
 E  UPBROW1461
 E  LOBROW1462
 E  UPBROW1463
 E  LOBROW1464
 E  UPBROW1465
 E  LOBROW1466
 E  UPBROW1467
 E  LOBROW1468
 E  UPBROW1469
 E  LOBROW1470
 E  UPBROW1471
 E  LOBROW1472
 E  UPBROW1473
 E  LOBROW1474
 E  UPBROW1475
 E  LOBROW1476
 E  UPBROW1477
 E  LOBROW1478
 E  UPBROW1479
 E  LOBROW1480
 E  UPBROW1481
 E  LOBROW1482
 E  UPBROW1483
 E  LOBROW1484
 E  UPBROW1485
 E  LOBROW1486
 E  UPBROW1487
 E  LOBROW1488
 E  UPBROW1489
 E  LOBROW1490
 E  UPBROW1491
 E  LOBROW1492
 E  UPBROW1493
 E  LOBROW1494
 E  UPBROW1495
 E  LOBROW1496
 E  UPBROW1497
 E  LOBROW1498
 E  UPBROW1499
 E  LOBROW1500
 E  UPBROW1501
 E  LOBROW1502
 E  UPBROW1503
 E  LOBROW1504
 E  UPBROW1505
 E  LOBROW1506
 E  UPBROW1507
 E  LOBROW1508
 E  UPBROW1509
 E  LOBROW1510
 E  UPBROW1511
 E  LOBROW1512
 E  UPBROW1513
 E  LOBROW1514
 E  UPBROW1515
 E  LOBROW1516
 E  UPBROW1517
 E  LOBROW1518
 E  UPBROW1519
 E  LOBROW1520
 E  UPBROW1521
 E  LOBROW1522
 E  UPBROW1523
 E  LOBROW1524
 E  UPBROW1525
 E  LOBROW1526
 E  UPBROW1527
 E  LOBROW1528
 E  UPBROW1529
 E  LOBROW1530
 E  UPBROW1531
 E  LOBROW1532
 E  UPBROW1533
 E  LOBROW1534
 E  UPBROW1535
 E  LOBROW1536
 E  UPBROW1537
 E  LOBROW1538
 E  UPBROW1539
 E  LOBROW1540
 E  UPBROW1541
 E  LOBROW1542
 E  UPBROW1543
 E  LOBROW1544
 E  UPBROW1545
 E  LOBROW1546
 E  UPBROW1547
 E  LOBROW1548
 E  UPBROW1549
 E  LOBROW1550
 E  UPBROW1551
 E  LOBROW1552
 E  UPBROW1553
 E  LOBROW1554
 E  UPBROW1555
 E  LOBROW1556
 E  UPBROW1557
 E  LOBROW1558
 E  UPBROW1559
 E  LOBROW1560
 E  UPBROW1561
 E  LOBROW1562
 E  UPBROW1563
 E  LOBROW1564
 E  UPBROW1565
 E  LOBROW1566
 E  UPBROW1567
 E  LOBROW1568
 E  UPBROW1569
 E  LOBROW1570
 E  UPBROW1571
 E  LOBROW1572
 E  UPBROW1573
 E  LOBROW1574
 E  UPBROW1575
 E  LOBROW1576
 E  UPBROW1577
 E  LOBROW1578
 E  UPBROW1579
 E  LOBROW1580
 E  UPBROW1581
 E  LOBROW1582
 E  UPBROW1583
 E  LOBROW1584
 E  UPBROW1585
 E  LOBROW1586
 E  UPBROW1587
 E  LOBROW1588
 E  UPBROW1589
 E  LOBROW1590
 E  UPBROW1591
 E  LOBROW1592
 E  UPBROW1593
 E  LOBROW1594
 E  UPBROW1595
 E  LOBROW1596
 E  UPBROW1597
 E  LOBROW1598
 E  UPBROW1599
 E  LOBROW1600
 E  UPBROW1601
 E  LOBROW1602
 E  UPBROW1603
 E  LOBROW1604
 E  UPBROW1605
 E  LOBROW1606
 E  UPBROW1607
 E  LOBROW1608
 E  UPBROW1609
 E  LOBROW1610
 E  UPBROW1611
 E  LOBROW1612
 E  UPBROW1613
 E  LOBROW1614
 E  UPBROW1615
 E  LOBROW1616
 E  UPBROW1617
 E  LOBROW1618
 E  UPBROW1619
 E  LOBROW1620
 E  UPBROW1621
 E  LOBROW1622
 E  UPBROW1623
 E  LOBROW1624
 E  UPBROW1625
 E  LOBROW1626
 E  UPBROW1627
 E  LOBROW1628
 E  UPBROW1629
 E  LOBROW1630
 E  UPBROW1631
 E  LOBROW1632
 E  UPBROW1633
 E  LOBROW1634
 E  UPBROW1635
 E  LOBROW1636
 E  UPBROW1637
 E  LOBROW1638
 E  UPBROW1639
 E  LOBROW1640
 E  UPBROW1641
 E  LOBROW1642
 E  UPBROW1643
 E  LOBROW1644
 E  UPBROW1645
 E  LOBROW1646
 E  UPBROW1647
 E  LOBROW1648
 E  UPBROW1649
 E  LOBROW1650
 E  UPBROW1651
 E  LOBROW1652
 E  UPBROW1653
 E  LOBROW1654
 E  UPBROW1655
 E  LOBROW1656
 E  UPBROW1657
 E  LOBROW1658
 E  UPBROW1659
 E  LOBROW1660
 E  UPBROW1661
 E  LOBROW1662
 E  UPBROW1663
 E  LOBROW1664
 E  UPBROW1665
 E  LOBROW1666
 E  UPBROW1667
 E  LOBROW1668
 E  UPBROW1669
 E  LOBROW1670
 E  UPBROW1671
 E  LOBROW1672
 E  UPBROW1673
 E  LOBROW1674
 E  UPBROW1675
 E  LOBROW1676
 E  UPBROW1677
 E  LOBROW1678
 E  UPBROW1679
 E  LOBROW1680
 E  UPBROW1681
 E  LOBROW1682
 E  UPBROW1683
 E  LOBROW1684
 E  UPBROW1685
 E  LOBROW1686
 E  UPBROW1687
 E  LOBROW1688
 E  UPBROW1689
 E  LOBROW1690
 E  UPBROW1691
 E  LOBROW1692
 E  UPBROW1693
 E  LOBROW1694
 E  UPBROW1695
 E  LOBROW1696
 E  UPBROW1697
 E  LOBROW1698
 E  UPBROW1699
 E  LOBROW1700
 E  UPBROW1701
 E  LOBROW1702
 E  UPBROW1703
 E  LOBROW1704
 E  UPBROW1705
 E  LOBROW1706
 E  UPBROW1707
 E  LOBROW1708
 E  UPBROW1709
 E  LOBROW1710
 E  UPBROW1711
 E  LOBROW1712
 E  UPBROW1713
 E  LOBROW1714
 E  UPBROW1715
 E  LOBROW1716
 E  UPBROW1717
 E  LOBROW1718
 E  UPBROW1719
 E  LOBROW1720
 E  UPBROW1721
 E  LOBROW1722
 E  UPBROW1723
 E  LOBROW1724
 E  UPBROW1725
 E  LOBROW1726
 E  UPBROW1727
 E  LOBROW1728
 E  UPBROW1729
 E  LOBROW1730
 E  UPBROW1731
 E  LOBROW1732
 E  UPBROW1733
 E  LOBROW1734
 E  UPBROW1735
 E  LOBROW1736
 E  UPBROW1737
 E  LOBROW1738
 E  UPBROW1739
 E  LOBROW1740
 E  UPBROW1741
 E  LOBROW1742
 E  UPBROW1743
 E  LOBROW1744
 E  UPBROW1745
 E  LOBROW1746
 E  UPBROW1747
 E  LOBROW1748
 E  UPBROW1749
 E  LOBROW1750
 E  UPBROW1751
 E  LOBROW1752
 E  UPBROW1753
 E  LOBROW1754
 E  UPBROW1755
 E  LOBROW1756
 E  UPBROW1757
 E  LOBROW1758
 E  UPBROW1759
 E  LOBROW1760
 E  LOBROW1761
 E  LOBROW1762
 E  LOBROW1763
 E  LOBROW1764
 E  LOBROW1765
 E  LOBROW1766
 E  LOBROW1767
 E  LOBROW1768
 E  LOBROW1769
 E  LOBROW1770
 E  LOBROW1771
 E  LOBROW1772
 E  LOBROW1773
 E  LOBROW1774
 E  LOBROW1775
 E  LOBROW1776
 E  LOBROW1777
 E  LOBROW1778
 E  LOBROW1779
 E  LOBROW1780
 E  LOBROW1781
 E  LOBROW1782
 E  LOBROW1783
 E  LOBROW1784
 E  LOBROW1785
 E  LOBROW1786
 E  LOBROW1787
 E  LOBROW1788
 E  LOBROW1789
 E  LOBROW1790
 E  LOBROW1791
 E  LOBROW1792
 E  LOBROW1793
 E  LOBROW1794
 E  LOBROW1795
 E  LOBROW1796
 E  LOBROW1797
 E  LOBROW1798
 E  LOBROW1799
 E  LOBROW1800
 E  LOBROW1801
 E  LOBROW1802
 E  LOBROW1803
 E  LOBROW1804
 E  LOBROW1805
 E  LOBROW1806
 E  LOBROW1807
 E  LOBROW1808
 E  LOBROW1809
 E  LOBROW1810
 E  LOBROW1811
 E  LOBROW1812
 E  LOBROW1813
 E  LOBROW1814
 E  LOBROW1815
 E  LOBROW1816
 E  LOBROW1817
 E  LOBROW1818
 E  LOBROW1819
 E  LOBROW1820
 E  LOBROW1821
 E  LOBROW1822
 E  LOBROW1823
 E  LOBROW1824
 E  LOBROW1825
 E  LOBROW1826
 E  LOBROW1827
 E  LOBROW1828
 E  LOBROW1829
 E  LOBROW1830
 E  LOBROW1831
 E  LOBROW1832
 E  LOBROW1833
 E  LOBROW1834
 E  LOBROW1835
 E  LOBROW1836
 E  LOBROW1837
 E  LOBROW1838
 E  LOBROW1839
 E  LOBROW1840
 E  LOBROW1841
 E  LOBROW1842
 E  LOBROW1843
 E  LOBROW1844
 E  LOBROW1845
 E  LOBROW1846
 E  LOBROW1847
 E  LOBROW1848
 E  LOBROW1849
 E  LOBROW1850
 E  LOBROW1851
 E  LOBROW1852
 E  LOBROW1853
 E  LOBROW1854
 E  LOBROW1855
 E  LOBROW1856
 E  LOBROW1857
 E  LOBROW1858
 E  LOBROW1859
 E  LOBROW1860
 E  LOBROW1861
 E  LOBROW1862
 E  LOBROW1863
 E  LOBROW1864
 E  LOBROW1865
 E  LOBROW1866
 E  LOBROW1867
 E  LOBROW1868
 E  LOBROW1869
 E  LOBROW1870
 E  LOBROW1871
 E  LOBROW1872
 E  LOBROW1873
 E  LOBROW1874
 E  LOBROW1875
 E  LOBROW1876
 E  LOBROW1877
 E  LOBROW1878
 E  LOBROW1879
 E  LOBROW1880
 E  LOBROW1881
 E  LOBROW1882
 E  LOBROW1883
 E  LOBROW1884
 E  LOBROW1885
 E  LOBROW1886
 E  LOBROW1887
 E  LOBROW1888
 E  LOBROW1889
 E  LOBROW1890
 E  LOBROW1891
 E  LOBROW1892
 E  LOBROW1893
 E  LOBROW1894
 E  LOBROW1895
 E  LOBROW1896
 E  LOBROW1897
 E  LOBROW1898
 E  LOBROW1899
 E  LOBROW1900
 E  LOBROW1901
 E  LOBROW1902
 E  LOBROW1903
 E  LOBROW1904
 E  LOBROW1905
 E  LOBROW1906
 E  LOBROW1907
 E  LOBROW1908
 E  LOBROW1909
 E  LOBROW1910
 E  LOBROW1911
 E  LOBROW1912
 E  LOBROW1913
 E  LOBROW1914
 E  LOBROW1915
 E  LOBROW1916
 E  LOBROW1917
 E  LOBROW1918
 E  LOBROW1919
 E  LOBROW1920
 E  UPBROW1921
 E  LOBROW1922
 E  UPBROW1923
 E  LOBROW1924
 E  UPBROW1925
 E  LOBROW1926
 E  UPBROW1927
 E  LOBROW1928
 E  UPBROW1929
 E  LOBROW1930
 E  UPBROW1931
 E  LOBROW1932
 E  UPBROW1933
 E  LOBROW1934
 E  UPBROW1935
 E  LOBROW1936
 E  UPBROW1937
 E  LOBROW1938
 E  UPBROW1939
 E  LOBROW1940
 E  UPBROW1941
 E  LOBROW1942
 E  UPBROW1943
 E  LOBROW1944
 E  UPBROW1945
 E  LOBROW1946
 E  UPBROW1947
 E  LOBROW1948
 E  UPBROW1949
 E  LOBROW1950
 E  UPBROW1951
 E  LOBROW1952
 E  UPBROW1953
 E  LOBROW1954
 E  UPBROW1955
 E  LOBROW1956
 E  UPBROW1957
 E  LOBROW1958
 E  UPBROW1959
 E  LOBROW1960
 E  UPBROW1961
 E  LOBROW1962
 E  UPBROW1963
 E  LOBROW1964
 E  UPBROW1965
 E  LOBROW1966
 E  UPBROW1967
 E  LOBROW1968
 E  UPBROW1969
 E  LOBROW1970
 E  UPBROW1971
 E  LOBROW1972
 E  UPBROW1973
 E  LOBROW1974
 E  UPBROW1975
 E  LOBROW1976
 E  UPBROW1977
 E  LOBROW1978
 E  UPBROW1979
 E  LOBROW1980
 E  UPBROW1981
 E  LOBROW1982
 E  UPBROW1983
 E  LOBROW1984
 E  UPBROW1985
 E  LOBROW1986
 E  UPBROW1987
 E  LOBROW1988
 E  UPBROW1989
 E  LOBROW1990
 E  UPBROW1991
 E  LOBROW1992
 E  UPBROW1993
 E  LOBROW1994
 E  UPBROW1995
 E  LOBROW1996
 E  UPBROW1997
 E  LOBROW1998
 E  UPBROW1999
 E  LOBROW2000
 E  LOBROW2001
 E  LOBROW2002
 E  LOBROW2003
 E  LOBROW2004
 E  LOBROW2005
 E  LOBROW2006
 E  LOBROW2007
 E  LOBROW2008
 E  LOBROW2009
 E  LOBROW2010
 E  LOBROW2011
 E  LOBROW2012
 E  LOBROW2013
 E  LOBROW2014
 E  LOBROW2015
 E  LOBROW2016
 E  LOBROW2017
 E  LOBROW2018
 E  LOBROW2019
 E  LOBROW2020
 E  LOBROW2021
 E  LOBROW2022
 E  LOBROW2023
 E  LOBROW2024
 E  LOBROW2025
 E  LOBROW2026
 E  LOBROW2027
 E  LOBROW2028
 E  LOBROW2029
 E  LOBROW2030
 E  LOBROW2031
 E  LOBROW2032
 E  LOBROW2033
 E  LOBROW2034
 E  LOBROW2035
 E  LOBROW2036
 E  LOBROW2037
 E  LOBROW2038
 E  LOBROW2039
 E  LOBROW2040
 E  LOBROW2041
 E  LOBROW2042
 E  LOBROW2043
 E  LOBROW2044
 E  LOBROW2045
 E  LOBROW2046
 E  LOBROW2047
 E  LOBROW2048
 E  LOBROW2049
 E  LOBROW2050
 E  LOBROW2051
 E  LOBROW2052
 E  LOBROW2053
 E  LOBROW2054
 E  LOBROW2055
 E  LOBROW2056
 E  LOBROW2057
 E  LOBROW2058
 E  LOBROW2059
 E  LOBROW2060
 E  LOBROW2061
 E  LOBROW2062
 E  LOBROW2063
 E  LOBROW2064
 E  LOBROW2065
 E  LOBROW2066
 E  LOBROW2067
 E  LOBROW2068
 E  LOBROW2069
 E  LOBROW2070
 E  LOBROW2071
 E  LOBROW2072
 E  LOBROW2073
 E  LOBROW2074
 E  LOBROW2075
 E  LOBROW2076
 E  LOBROW2077
 E  LOBROW2078
 E  LOBROW2079
 E  LOBROW2080
 E  LOBROW2081
 E  LOBROW2082
 E  LOBROW2083
 E  LOBROW2084
 E  LOBROW2085
 E  LOBROW2086
 E  LOBROW2087
 E  LOBROW2088
 E  LOBROW2089
 E  LOBROW2090
 E  LOBROW2091
 E  LOBROW2092
 E  LOBROW2093
 E  LOBROW2094
 E  LOBROW2095
 E  LOBROW2096
 E  LOBROW2097
 E  LOBROW2098
 E  LOBROW2099
 E  LOBROW2100
 E  LOBROW2101
 E  LOBROW2102
 E  LOBROW2103
 E  LOBROW2104
 E  LOBROW2105
 E  LOBROW2106
 E  LOBROW2107
 E  LOBROW2108
 E  LOBROW2109
 E  LOBROW2110
 E  LOBROW2111
 E  LOBROW2112
 E  LOBROW2113
 E  LOBROW2114
 E  LOBROW2115
 E  LOBROW2116
 E  LOBROW2117
 E  LOBROW2118
 E  LOBROW2119
 E  LOBROW2120
 E  LOBROW2121
 E  LOBROW2122
 E  LOBROW2123
 E  LOBROW2124
 E  LOBROW2125
 E  LOBROW2126
 E  LOBROW2127
 E  LOBROW2128
 E  LOBROW2129
 E  LOBROW2130
 E  LOBROW2131
 E  LOBROW2132
 E  LOBROW2133
 E  LOBROW2134
 E  LOBROW2135
 E  LOBROW2136
 E  LOBROW2137
 E  LOBROW2138
 E  LOBROW2139
 E  LOBROW2140
 E  LOBROW2141
 E  LOBROW2142
 E  LOBROW2143
 E  LOBROW2144
 E  LOBROW2145
 E  LOBROW2146
 E  LOBROW2147
 E  LOBROW2148
 E  LOBROW2149
 E  LOBROW2150
 E  LOBROW2151
 E  LOBROW2152
 E  LOBROW2153
 E  LOBROW2154
 E  LOBROW2155
 E  LOBROW2156
 E  LOBROW2157
 E  LOBROW2158
 E  LOBROW2159
 E  LOBROW2160
 E  LOBROW2161
 E  LOBROW2162
 E  LOBROW2163
 E  LOBROW2164
 E  LOBROW2165
 E  LOBROW2166
 E  LOBROW2167
 E  LOBROW2168
 E  LOBROW2169
 E  LOBROW2170
 E  LOBROW2171
 E  LOBROW2172
 E  LOBROW2173
 E  LOBROW2174
 E  LOBROW2175
 E  LOBROW2176
 E  LOBROW2177
 E  LOBROW2178
 E  LOBROW2179
 E  LOBROW2180
 E  LOBROW2181
 E  LOBROW2182
 E  LOBROW2183
 E  LOBROW2184
 E  LOBROW2185
 E  LOBROW2186
 E  LOBROW2187
 E  LOBROW2188
 E  LOBROW2189
 E  LOBROW2190
 E  LOBROW2191
 E  LOBROW2192
 E  LOBROW2193
 E  LOBROW2194
 E  LOBROW2195
 E  LOBROW2196
 E  LOBROW2197
 E  LOBROW2198
 E  LOBROW2199
 E  LOBROW2200
 E  LOBROW2201
 E  LOBROW2202
 E  LOBROW2203
 E  LOBROW2204
 E  LOBROW2205
 E  LOBROW2206
 E  LOBROW2207
 E  LOBROW2208
 E  LOBROW2209
 E  LOBROW2210
 E  LOBROW2211
 E  LOBROW2212
 E  LOBROW2213
 E  LOBROW2214
 E  LOBROW2215
 E  LOBROW2216
 E  LOBROW2217
 E  LOBROW2218
 E  LOBROW2219
 E  LOBROW2220
 E  LOBROW2221
 E  LOBROW2222
 E  LOBROW2223
 E  LOBROW2224
 E  LOBROW2225
 E  LOBROW2226
 E  LOBROW2227
 E  LOBROW2228
 E  LOBROW2229
 E  LOBROW2230
 E  LOBROW2231
 E  LOBROW2232
 E  LOBROW2233
 E  LOBROW2234
 E  LOBROW2235
 E  LOBROW2236
 E  LOBROW2237
 E  LOBROW2238
 E  LOBROW2239
 E  LOBROW2240
 E  LOBROW2241
 E  LOBROW2242
 E  LOBROW2243
 E  LOBROW2244
 E  LOBROW2245
 E  LOBROW2246
 E  LOBROW2247
 E  LOBROW2248
 E  LOBROW2249
 E  LOBROW2250
 E  LOBROW2251
 E  LOBROW2252
 E  LOBROW2253
 E  LOBROW2254
 E  LOBROW2255
 E  LOBROW2256
 E  LOBROW2257
 E  LOBROW2258
 E  LOBROW2259
 E  LOBROW2260
 E  LOBROW2261
 E  LOBROW2262
 E  LOBROW2263
 E  LOBROW2264
 E  LOBROW2265
 E  LOBROW2266
 E  LOBROW2267
 E  LOBROW2268
 E  LOBROW2269
 E  LOBROW2270
 E  LOBROW2271
 E  LOBROW2272
 E  LOBROW2273
 E  LOBROW2274
 E  LOBROW2275
 E  LOBROW2276
 E  LOBROW2277
 E  LOBROW2278
 E  LOBROW2279
 E  LOBROW2280
 E  LOBROW2281
 E  LOBROW2282
 E  LOBROW2283
 E  LOBROW2284
 E  LOBROW2285
 E  LOBROW2286
 E  LOBROW2287
 E  LOBROW2288
 E  LOBROW2289
 E  LOBROW2290
 E  LOBROW2291
 E  LOBROW2292
 E  LOBROW2293
 E  LOBROW2294
 E  LOBROW2295
 E  LOBROW2296
 E  LOBROW2297
 E  LOBROW2298
 E  LOBROW2299
 E  LOBROW2300
 E  LOBROW2301
 E  LOBROW2302
 E  LOBROW2303
 E  LOBROW2304
 E  LOBROW2305
 E  LOBROW2306
 E  LOBROW2307
 E  LOBROW2308
 E  LOBROW2309
 E  LOBROW2310
 E  LOBROW2311
 E  LOBROW2312
 E  LOBROW2313
 E  LOBROW2314
 E  LOBROW2315
 E  LOBROW2316
 E  LOBROW2317
 E  LOBROW2318
 E  LOBROW2319
 E  LOBROW2320
 E  LOBROW2321
 E  LOBROW2322
 E  LOBROW2323
 E  LOBROW2324
 E  LOBROW2325
 E  LOBROW2326
 E  LOBROW2327
 E  LOBROW2328
 E  LOBROW2329
 E  LOBROW2330
 E  LOBROW2331
 E  LOBROW2332
 E  LOBROW2333
 E  LOBROW2334
 E  LOBROW2335
 E  LOBROW2336
 E  LOBROW2337
 E  LOBROW2338
 E  LOBROW2339
 E  LOBROW2340
 E  LOBROW2341
 E  LOBROW2342
 E  LOBROW2343
 E  LOBROW2344
 E  LOBROW2345
 E  LOBROW2346
 E  LOBROW2347
 E  LOBROW2348
 E  LOBROW2349
 E  LOBROW2350
 E  LOBROW2351
 E  LOBROW2352
 E  LOBROW2353
 E  LOBROW2354
 E  LOBROW2355
 E  LOBROW2356
 E  LOBROW2357
 E  LOBROW2358
 E  LOBROW2359
 E  LOBROW2360
 E  LOBROW2361
 E  LOBROW2362
 E  LOBROW2363
 E  LOBROW2364
 E  LOBROW2365
 E  LOBROW2366
 E  LOBROW2367
 E  LOBROW2368
 E  LOBROW2369
 E  LOBROW2370
 E  LOBROW2371
 E  LOBROW2372
 E  LOBROW2373
 E  LOBROW2374
 E  LOBROW2375
 E  LOBROW2376
 E  LOBROW2377
 E  LOBROW2378
 E  LOBROW2379
 E  LOBROW2380
 E  LOBROW2381
 E  LOBROW2382
 E  LOBROW2383
 E  LOBROW2384
 E  LOBROW2385
 E  LOBROW2386
 E  LOBROW2387
 E  LOBROW2388
 E  LOBROW2389
 E  LOBROW2390
 E  LOBROW2391
 E  LOBROW2392
 E  LOBROW2393
 E  LOBROW2394
 E  LOBROW2395
 E  LOBROW2396
 E  LOBROW2397
 E  LOBROW2398
 E  LOBROW2399
 E  LOBROW2400
 E  LOBROW2401
 E  LOBROW2402
 E  LOBROW2403
 E  LOBROW2404
 E  LOBROW2405
 E  LOBROW2406
 E  LOBROW2407
 E  LOBROW2408
 E  LOBROW2409
 E  LOBROW2410
 E  LOBROW2411
 E  LOBROW2412
 E  LOBROW2413
 E  LOBROW2414
 E  LOBROW2415
 E  LOBROW2416
 E  LOBROW2417
 E  LOBROW2418
 E  LOBROW2419
 E  LOBROW2420
 E  LOBROW2421
 E  LOBROW2422
 E  LOBROW2423
 E  LOBROW2424
 E  LOBROW2425
 E  LOBROW2426
 E  LOBROW2427
 E  LOBROW2428
 E  LOBROW2429
 E  LOBROW2430
 E  LOBROW2431
 E  LOBROW2432
 E  LOBROW2433
 E  LOBROW2434
 E  LOBROW2435
 E  LOBROW2436
 E  LOBROW2437
 E  LOBROW2438
 E  LOBROW2439
 E  LOBROW2440
 E  LOBROW2441
 E  LOBROW2442
 E  LOBROW2443
 E  LOBROW2444
 E  LOBROW2445
 E  LOBROW2446
 E  LOBROW2447
 E  LOBROW2448
 E  LOBROW2449
 E  LOBROW2450
 E  LOBROW2451
 E  LOBROW2452
 E  LOBROW2453
 E  LOBROW2454
 E  LOBROW2455
 E  LOBROW2456
 E  LOBROW2457
 E  LOBROW2458
 E  LOBROW2459
 E  LOBROW2460
 E  LOBROW2461
 E  LOBROW2462
 E  LOBROW2463
 E  LOBROW2464
 E  LOBROW2465
 E  LOBROW2466
 E  LOBROW2467
 E  LOBROW2468
 E  LOBROW2469
 E  LOBROW2470
 E  LOBROW2471
 E  LOBROW2472
 E  LOBROW2473
 E  LOBROW2474
 E  LOBROW2475
 E  LOBROW2476
 E  LOBROW2477
 E  LOBROW2478
 E  LOBROW2479
 E  LOBROW2480
 E  LOBROW2481
 E  LOBROW2482
 E  LOBROW2483
 E  LOBROW2484
 E  LOBROW2485
 E  LOBROW2486
 E  LOBROW2487
 E  LOBROW2488
 E  LOBROW2489
 E  LOBROW2490
 E  LOBROW2491
 E  LOBROW2492
 E  LOBROW2493
 E  LOBROW2494
 E  LOBROW2495
 E  LOBROW2496
 E  LOBROW2497
 E  LOBROW2498
 E  LOBROW2499
 E  LOBROW2500
 E  LOBROW2501
 E  LOBROW2502
 E  LOBROW2503
 E  LOBROW2504
 E  LOBROW2505
 E  LOBROW2506
 E  LOBROW2507
 E  LOBROW2508
 E  LOBROW2509
 E  LOBROW2510
 E  LOBROW2511
 E  LOBROW2512
 E  LOBROW2513
 E  LOBROW2514
 E  LOBROW2515
 E  LOBROW2516
 E  LOBROW2517
 E  LOBROW2518
 E  LOBROW2519
 E  LOBROW2520
 E  LOBROW2521
 E  LOBROW2522
 E  LOBROW2523
 E  LOBROW2524
 E  LOBROW2525
 E  LOBROW2526
 E  LOBROW2527
 E  LOBROW2528
 E  LOBROW2529
 E  LOBROW2530
 E  LOBROW2531
 E  LOBROW2532
 E  LOBROW2533
 E  LOBROW2534
 E  LOBROW2535
 E  LOBROW2536
 E  LOBROW2537
 E  LOBROW2538
 E  LOBROW2539
 E  LOBROW2540
 E  LOBROW2541
 E  LOBROW2542
 E  LOBROW2543
 E  LOBROW2544
 E  LOBROW2545
 E  LOBROW2546
 E  LOBROW2547
 E  LOBROW2548
 E  LOBROW2549
 E  LOBROW2550
 E  LOBROW2551
 E  LOBROW2552
 E  LOBROW2553
 E  LOBROW2554
 E  LOBROW2555
 E  LOBROW2556
 E  LOBROW2557
 E  LOBROW2558
 E  LOBROW2559
 E  LOBROW2560
 E  LOBROW2561
 E  LOBROW2562
 E  LOBROW2563
 E  LOBROW2564
 E  LOBROW2565
 E  LOBROW2566
 E  LOBROW2567
 E  LOBROW2568
 E  LOBROW2569
 E  LOBROW2570
 E  LOBROW2571
 E  LOBROW2572
 E  LOBROW2573
 E  LOBROW2574
 E  LOBROW2575
 E  LOBROW2576
 E  LOBROW2577
 E  LOBROW2578
 E  LOBROW2579
 E  LOBROW2580
 E  LOBROW2581
 E  LOBROW2582
 E  LOBROW2583
 E  LOBROW2584
 E  LOBROW2585
 E  LOBROW2586
 E  LOBROW2587
 E  LOBROW2588
 E  LOBROW2589
 E  LOBROW2590
 E  LOBROW2591
 E  LOBROW2592
 E  LOBROW2593
 E  LOBROW2594
 E  LOBROW2595
 E  LOBROW2596
 E  LOBROW2597
 E  LOBROW2598
 E  LOBROW2599
 E  LOBROW2600
 E  LOBROW2601
 E  LOBROW2602
 E  LOBROW2603
 E  LOBROW2604
 E  LOBROW2605
 E  LOBROW2606
 E  LOBROW2607
 E  LOBROW2608
 E  LOBROW2609
 E  LOBROW2610
 E  LOBROW2611
 E  LOBROW2612
 E  LOBROW2613
 E  LOBROW2614
 E  LOBROW2615
 E  LOBROW2616
 E  LOBROW2617
 E  LOBROW2618
 E  LOBROW2619
 E  LOBROW2620
 E  LOBROW2621
 E  LOBROW2622
 E  LOBROW2623
 E  LOBROW2624
 E  LOBROW2625
 E  LOBROW2626
 E  LOBROW2627
 E  LOBROW2628
 E  LOBROW2629
 E  LOBROW2630
 E  LOBROW2631
 E  LOBROW2632
 E  LOBROW2633
 E  LOBROW2634
 E  LOBROW2635
 E  LOBROW2636
 E  LOBROW2637
 E  LOBROW2638
 E  LOBROW2639
 E  LOBROW2640
 E  LOBROW2641
 E  LOBROW2642
 E  LOBROW2643
 E  LOBROW2644
 E  LOBROW2645
 E  LOBROW2646
 E  LOBROW2647
 E  LOBROW2648
 E  LOBROW2649
 E  LOBROW2650
 E  LOBROW2651
 E  LOBROW2652
 E  LOBROW2653
 E  LOBROW2654
 E  LOBROW2655
 E  LOBROW2656
 E  LOBROW2657
 E  LOBROW2658
 E  LOBROW2659
 E  LOBROW2660
 E  LOBROW2661
 E  LOBROW2662
 E  LOBROW2663
 E  LOBROW2664
 E  LOBROW2665
 E  LOBROW2666
 E  LOBROW2667
 E  LOBROW2668
 E  LOBROW2669
 E  LOBROW2670
 E  LOBROW2671
 E  LOBROW2672
 E  LOBROW2673
 E  LOBROW2674
 E  LOBROW2675
 E  LOBROW2676
 E  LOBROW2677
 E  LOBROW2678
 E  LOBROW2679
 E  LOBROW2680
 E  LOBROW2681
 E  LOBROW2682
 E  LOBROW2683
 E  LOBROW2684
 E  LOBROW2685
 E  LOBROW2686
 E  LOBROW2687
 E  LOBROW2688
 E  LOBROW2689
 E  LOBROW2690
 E  LOBROW2691
 E  LOBROW2692
 E  LOBROW2693
 E  LOBROW2694
 E  LOBROW2695
 E  LOBROW2696
 E  LOBROW2697
 E  LOBROW2698
 E  LOBROW2699
 E  LOBROW2700
 E  LOBROW2701
 E  LOBROW2702
 E  LOBROW2703
 E  LOBROW2704
 E  LOBROW2705
 E  LOBROW2706
 E  LOBROW2707
 E  LOBROW2708
 E  LOBROW2709
 E  LOBROW2710
 E  LOBROW2711
 E  LOBROW2712
 E  LOBROW2713
 E  LOBROW2714
 E  LOBROW2715
 E  LOBROW2716
 E  LOBROW2717
 E  LOBROW2718
 E  LOBROW2719
 E  LOBROW2720
 E  LOBROW2721
 E  LOBROW2722
 E  LOBROW2723
 E  LOBROW2724
 E  LOBROW2725
 E  LOBROW2726
 E  LOBROW2727
 E  LOBROW2728
 E  LOBROW2729
 E  LOBROW2730
 E  LOBROW2731
 E  LOBROW2732
 E  LOBROW2733
 E  LOBROW2734
 E  LOBROW2735
 E  LOBROW2736
 E  LOBROW2737
 E  LOBROW2738
 E  LOBROW2739
 E  LOBROW2740
 E  LOBROW2741
 E  LOBROW2742
 E  LOBROW2743
 E  LOBROW2744
 E  LOBROW2745
 E  LOBROW2746
 E  LOBROW2747
 E  LOBROW2748
 E  LOBROW2749
 E  LOBROW2750
 E  LOBROW2751
 E  LOBROW2752
 E  LOBROW2753
 E  LOBROW2754
 E  LOBROW2755
 E  LOBROW2756
 E  LOBROW2757
 E  LOBROW2758
 E  LOBROW2759
 E  LOBROW2760
 E  LOBROW2761
 E  LOBROW2762
 E  LOBROW2763
 E  LOBROW2764
 E  LOBROW2765
 E  LOBROW2766
 E  LOBROW2767
 E  LOBROW2768
 E  LOBROW2769
 E  LOBROW2770
 E  LOBROW2771
 E  LOBROW2772
 E  LOBROW2773
 E  LOBROW2774
 E  LOBROW2775
 E  LOBROW2776
 E  LOBROW2777
 E  LOBROW2778
 E  LOBROW2779
 E  LOBROW2780
 E  LOBROW2781
 E  LOBROW2782
 E  LOBROW2783
 E  LOBROW2784
 E  LOBROW2785
 E  LOBROW2786
 E  LOBROW2787
 E  LOBROW2788
 E  LOBROW2789
 E  LOBROW2790
 E  LOBROW2791
 E  LOBROW2792
 E  LOBROW2793
 E  LOBROW2794
 E  LOBROW2795
 E  LOBROW2796
 E  LOBROW2797
 E  LOBROW2798
 E  LOBROW2799
 E  LOBROW2800
 E  LOBROW2801
 E  LOBROW2802
 E  LOBROW2803
 E  LOBROW2804
 E  LOBROW2805
 E  LOBROW2806
 E  LOBROW2807
 E  LOBROW2808
 E  LOBROW2809
 E  LOBROW2810
 E  LOBROW2811
 E  LOBROW2812
 E  LOBROW2813
 E  LOBROW2814
 E  LOBROW2815
 E  LOBROW2816
 E  LOBROW2817
 E  LOBROW2818
 E  LOBROW2819
 E  LOBROW2820
 E  LOBROW2821
 E  LOBROW2822
 E  LOBROW2823
 E  LOBROW2824
 E  LOBROW2825
 E  LOBROW2826
 E  LOBROW2827
 E  LOBROW2828
 E  LOBROW2829
 E  LOBROW2830
 E  LOBROW2831
 E  LOBROW2832
 E  LOBROW2833
 E  LOBROW2834
 E  LOBROW2835
 E  LOBROW2836
 E  LOBROW2837
 E  LOBROW2838
 E  LOBROW2839
 E  LOBROW2840
 E  LOBROW2841
 E  LOBROW2842
 E  LOBROW2843
 E  LOBROW2844
 E  LOBROW2845
 E  LOBROW2846
 E  LOBROW2847
 E  LOBROW2848
 E  LOBROW2849
 E  LOBROW2850
 E  LOBROW2851
 E  LOBROW2852
 E  LOBROW2853
 E  LOBROW2854
 E  LOBROW2855
 E  LOBROW2856
 E  LOBROW2857
 E  LOBROW2858
 E  LOBROW2859
 E  LOBROW2860
 E  LOBROW2861
 E  LOBROW2862
 E  LOBROW2863
 E  LOBROW2864
 E  LOBROW2865
 E  LOBROW2866
 E  LOBROW2867
 E  LOBROW2868
 E  LOBROW2869
 E  LOBROW2870
 E  LOBROW2871
 E  LOBROW2872
 E  LOBROW2873
 E  LOBROW2874
 E  LOBROW2875
 E  LOBROW2876
 E  LOBROW2877
 E  LOBROW2878
 E  LOBROW2879
 E  LOBROW2880
 E  LOBROW2881
 E  LOBROW2882
 E  LOBROW2883
 E  LOBROW2884
 E  LOBROW2885
 E  LOBROW2886
 E  LOBROW2887
 E  LOBROW2888
 E  LOBROW2889
 E  LOBROW2890
 E  LOBROW2891
 E  LOBROW2892
 E  LOBROW2893
 E  LOBROW2894
 E  LOBROW2895
 E  LOBROW2896
 E  LOBROW2897
 E  LOBROW2898
 E  LOBROW2899
 E  LOBROW2900
 E  LOBROW2901
 E  LOBROW2902
 E  LOBROW2903
 E  LOBROW2904
 E  LOBROW2905
 E  LOBROW2906
 E  LOBROW2907
 E  LOBROW2908
 E  LOBROW2909
 E  LOBROW2910
 E  LOBROW2911
 E  LOBROW2912
 E  LOBROW2913
 E  LOBROW2914
 E  LOBROW2915
 E  LOBROW2916
 E  LOBROW2917
 E  LOBROW2918
 E  LOBROW2919
 E  LOBROW2920
 E  LOBROW2921
 E  LOBROW2922
 E  LOBROW2923
 E  LOBROW2924
 E  LOBROW2925
 E  LOBROW2926
 E  LOBROW2927
 E  LOBROW2928
 E  LOBROW2929
 E  LOBROW2930
 E  LOBROW2931
 E  LOBROW2932
 E  LOBROW2933
 E  LOBROW2934
 E  LOBROW2935
 E  LOBROW2936
 E  LOBROW2937
 E  LOBROW2938
 E  LOBROW2939
 E  LOBROW2940
 E  LOBROW2941
 E  LOBROW2942
 E  LOBROW2943
 E  LOBROW2944
 E  LOBROW2945
 E  LOBROW2946
 E  LOBROW2947
 E  LOBROW2948
 E  LOBROW2949
 E  LOBROW2950
 E  LOBROW2951
 E  LOBROW2952
 E  LOBROW2953
 E  LOBROW2954
 E  LOBROW2955
 E  LOBROW2956
 E  LOBROW2957
 E  LOBROW2958
 E  LOBROW2959
 E  UPBROW2960
 E  UPBROW2961
 E  UPBROW2962
 E  UPBROW2963
 E  UPBROW2964
 E  UPBROW2965
 E  UPBROW2966
 E  UPBROW2967
 E  UPBROW2968
 E  UPBROW2969
 E  UPBROW2970
 E  UPBROW2971
 E  UPBROW2972
 E  UPBROW2973
 E  UPBROW2974
 E  UPBROW2975
 E  UPBROW2976
 E  UPBROW2977
 E  UPBROW2978
 E  UPBROW2979
 E  UPBROW2980
 E  UPBROW2981
 E  UPBROW2982
 E  UPBROW2983
 E  UPBROW2984
 E  UPBROW2985
 E  UPBROW2986
 E  UPBROW2987
 E  UPBROW2988
 E  UPBROW2989
 E  UPBROW2990
 E  UPBROW2991
 E  UPBROW2992
 E  UPBROW2993
 E  UPBROW2994
 E  UPBROW2995
 E  UPBROW2996
 E  UPBROW2997
 E  UPBROW2998
 E  UPBROW2999
 E  LOBROW3000
 E  UPBROW3001
 E  LOBROW3002
 E  UPBROW3003
 E  LOBROW3004
 E  UPBROW3005
 E  LOBROW3006
 E  UPBROW3007
 E  LOBROW3008
 E  UPBROW3009
 E  LOBROW3010
 E  UPBROW3011
 E  LOBROW3012
 E  UPBROW3013
 E  LOBROW3014
 E  UPBROW3015
 E  LOBROW3016
 E  UPBROW3017
 E  LOBROW3018
 E  UPBROW3019
 E  LOBROW3020
 E  UPBROW3021
 E  LOBROW3022
 E  UPBROW3023
 E  LOBROW3024
 E  UPBROW3025
 E  LOBROW3026
 E  UPBROW3027
 E  LOBROW3028
 E  UPBROW3029
 E  LOBROW3030
 E  UPBROW3031
 E  LOBROW3032
 E  UPBROW3033
 E  LOBROW3034
 E  UPBROW3035
 E  LOBROW3036
 E  UPBROW3037
 E  LOBROW3038
 E  UPBROW3039
 E  LOBROW3040
 E  UPBROW3041
 E  LOBROW3042
 E  UPBROW3043
 E  LOBROW3044
 E  UPBROW3045
 E  LOBROW3046
 E  UPBROW3047
 E  LOBROW3048
 E  UPBROW3049
 E  LOBROW3050
 E  UPBROW3051
 E  LOBROW3052
 E  UPBROW3053
 E  LOBROW3054
 E  UPBROW3055
 E  LOBROW3056
 E  UPBROW3057
 E  LOBROW3058
 E  UPBROW3059
 E  LOBROW3060
 E  UPBROW3061
 E  LOBROW3062
 E  UPBROW3063
 E  LOBROW3064
 E  UPBROW3065
 E  LOBROW3066
 E  UPBROW3067
 E  LOBROW3068
 E  UPBROW3069
 E  LOBROW3070
 E  UPBROW3071
 E  LOBROW3072
 E  UPBROW3073
 E  LOBROW3074
 E  UPBROW3075
 E  LOBROW3076
 E  UPBROW3077
 E  LOBROW3078
 E  UPBROW3079
 E  LOBROW3080
 E  UPBROW3081
 E  LOBROW3082
 E  UPBROW3083
 E  LOBROW3084
 E  UPBROW3085
 E  LOBROW3086
 E  UPBROW3087
 E  LOBROW3088
 E  UPBROW3089
 E  LOBROW3090
 E  UPBROW3091
 E  LOBROW3092
 E  UPBROW3093
 E  LOBROW3094
 E  UPBROW3095
 E  LOBROW3096
 E  UPBROW3097
 E  LOBROW3098
 E  UPBROW3099
 E  LOBROW3100
 E  UPBROW3101
 E  LOBROW3102
 E  UPBROW3103
 E  LOBROW3104
 E  UPBROW3105
 E  LOBROW3106
 E  UPBROW3107
 E  LOBROW3108
 E  UPBROW3109
 E  LOBROW3110
 E  UPBROW3111
 E  LOBROW3112
 E  UPBROW3113
 E  LOBROW3114
 E  UPBROW3115
 E  LOBROW3116
 E  UPBROW3117
 E  LOBROW3118
 E  UPBROW3119
 E  LOBROW3120
 E  UPBROW3121
 E  LOBROW3122
 E  UPBROW3123
 E  LOBROW3124
 E  UPBROW3125
 E  LOBROW3126
 E  UPBROW3127
 E  LOBROW3128
 E  UPBROW3129
 E  LOBROW3130
 E  UPBROW3131
 E  LOBROW3132
 E  UPBROW3133
 E  LOBROW3134
 E  UPBROW3135
 E  LOBROW3136
 E  UPBROW3137
 E  LOBROW3138
 E  UPBROW3139
 E  LOBROW3140
 E  UPBROW3141
 E  LOBROW3142
 E  UPBROW3143
 E  LOBROW3144
 E  UPBROW3145
 E  LOBROW3146
 E  UPBROW3147
 E  LOBROW3148
 E  UPBROW3149
 E  LOBROW3150
 E  UPBROW3151
 E  LOBROW3152
 E  UPBROW3153
 E  LOBROW3154
 E  UPBROW3155
 E  LOBROW3156
 E  UPBROW3157
 E  LOBROW3158
 E  UPBROW3159
 E  LOBROW3160
 E  UPBROW3161
 E  LOBROW3162
 E  UPBROW3163
 E  LOBROW3164
 E  UPBROW3165
 E  LOBROW3166
 E  UPBROW3167
 E  LOBROW3168
 E  UPBROW3169
 E  LOBROW3170
 E  UPBROW3171
 E  LOBROW3172
 E  UPBROW3173
 E  LOBROW3174
 E  UPBROW3175
 E  LOBROW3176
 E  UPBROW3177
 E  LOBROW3178
 E  UPBROW3179
 E  LOBROW3180
 E  UPBROW3181
 E  LOBROW3182
 E  UPBROW3183
 E  LOBROW3184
 E  UPBROW3185
 E  LOBROW3186
 E  UPBROW3187
 E  LOBROW3188
 E  UPBROW3189
 E  LOBROW3190
 E  UPBROW3191
 E  LOBROW3192
 E  UPBROW3193
 E  LOBROW3194
 E  UPBROW3195
 E  LOBROW3196
 E  UPBROW3197
 E  LOBROW3198
 E  UPBROW3199
 E  LOBROW3200
 E  UPBROW3201
 E  LOBROW3202
 E  UPBROW3203
 E  LOBROW3204
 E  UPBROW3205
 E  LOBROW3206
 E  UPBROW3207
 E  LOBROW3208
 E  UPBROW3209
 E  LOBROW3210
 E  UPBROW3211
 E  LOBROW3212
 E  UPBROW3213
 E  LOBROW3214
 E  UPBROW3215
 E  LOBROW3216
 E  UPBROW3217
 E  LOBROW3218
 E  UPBROW3219
 E  LOBROW3220
 E  UPBROW3221
 E  LOBROW3222
 E  UPBROW3223
 E  LOBROW3224
 E  UPBROW3225
 E  LOBROW3226
 E  UPBROW3227
 E  LOBROW3228
 E  UPBROW3229
 E  LOBROW3230
 E  UPBROW3231
 E  LOBROW3232
 E  UPBROW3233
 E  LOBROW3234
 E  UPBROW3235
 E  LOBROW3236
 E  UPBROW3237
 E  LOBROW3238
 E  UPBROW3239
 E  LOBROW3240
 E  UPBROW3241
 E  LOBROW3242
 E  UPBROW3243
 E  LOBROW3244
 E  UPBROW3245
 E  LOBROW3246
 E  UPBROW3247
 E  LOBROW3248
 E  UPBROW3249
 E  LOBROW3250
 E  UPBROW3251
 E  LOBROW3252
 E  UPBROW3253
 E  LOBROW3254
 E  UPBROW3255
 E  LOBROW3256
 E  UPBROW3257
 E  LOBROW3258
 E  UPBROW3259
 E  LOBROW3260
 E  UPBROW3261
 E  LOBROW3262
 E  UPBROW3263
 E  LOBROW3264
 E  UPBROW3265
 E  LOBROW3266
 E  UPBROW3267
 E  LOBROW3268
 E  UPBROW3269
 E  LOBROW3270
 E  UPBROW3271
 E  LOBROW3272
 E  UPBROW3273
 E  LOBROW3274
 E  UPBROW3275
 E  LOBROW3276
 E  UPBROW3277
 E  LOBROW3278
 E  UPBROW3279
 E  LOBROW3280
 E  UPBROW3281
 E  LOBROW3282
 E  UPBROW3283
 E  LOBROW3284
 E  UPBROW3285
 E  LOBROW3286
 E  UPBROW3287
 E  LOBROW3288
 E  UPBROW3289
 E  LOBROW3290
 E  UPBROW3291
 E  LOBROW3292
 E  UPBROW3293
 E  LOBROW3294
 E  UPBROW3295
 E  LOBROW3296
 E  UPBROW3297
 E  LOBROW3298
 E  UPBROW3299
 E  LOBROW3300
 E  UPBROW3301
 E  LOBROW3302
 E  UPBROW3303
 E  LOBROW3304
 E  UPBROW3305
 E  LOBROW3306
 E  UPBROW3307
 E  LOBROW3308
 E  UPBROW3309
 E  LOBROW3310
 E  UPBROW3311
 E  LOBROW3312
 E  UPBROW3313
 E  LOBROW3314
 E  UPBROW3315
 E  LOBROW3316
 E  UPBROW3317
 E  LOBROW3318
 E  UPBROW3319
 E  LOBROW3320
 E  UPBROW3321
 E  LOBROW3322
 E  UPBROW3323
 E  LOBROW3324
 E  UPBROW3325
 E  LOBROW3326
 E  UPBROW3327
 E  LOBROW3328
 E  UPBROW3329
 E  LOBROW3330
 E  UPBROW3331
 E  LOBROW3332
 E  UPBROW3333
 E  LOBROW3334
 E  UPBROW3335
 E  LOBROW3336
 E  UPBROW3337
 E  LOBROW3338
 E  UPBROW3339
 E  LOBROW3340
 E  UPBROW3341
 E  LOBROW3342
 E  UPBROW3343
 E  LOBROW3344
 E  UPBROW3345
 E  LOBROW3346
 E  UPBROW3347
 E  LOBROW3348
 E  UPBROW3349
 E  LOBROW3350
 E  UPBROW3351
 E  LOBROW3352
 E  UPBROW3353
 E  LOBROW3354
 E  UPBROW3355
 E  LOBROW3356
 E  UPBROW3357
 E  LOBROW3358
 E  UPBROW3359
 E  LOBROW3360
 E  UPBROW3361
 E  LOBROW3362
 E  UPBROW3363
 E  LOBROW3364
 E  UPBROW3365
 E  LOBROW3366
 E  UPBROW3367
 E  LOBROW3368
 E  UPBROW3369
 E  LOBROW3370
 E  UPBROW3371
 E  LOBROW3372
 E  UPBROW3373
 E  LOBROW3374
 E  UPBROW3375
 E  LOBROW3376
 E  UPBROW3377
 E  LOBROW3378
 E  UPBROW3379
 E  LOBROW3380
 E  UPBROW3381
 E  LOBROW3382
 E  UPBROW3383
 E  LOBROW3384
 E  UPBROW3385
 E  LOBROW3386
 E  UPBROW3387
 E  LOBROW3388
 E  UPBROW3389
 E  LOBROW3390
 E  UPBROW3391
 E  LOBROW3392
 E  UPBROW3393
 E  LOBROW3394
 E  UPBROW3395
 E  LOBROW3396
 E  UPBROW3397
 E  LOBROW3398
 E  UPBROW3399
 E  LOBROW3400
 E  UPBROW3401
 E  LOBROW3402
 E  UPBROW3403
 E  LOBROW3404
 E  UPBROW3405
 E  LOBROW3406
 E  UPBROW3407
 E  LOBROW3408
 E  UPBROW3409
 E  LOBROW3410
 E  UPBROW3411
 E  LOBROW3412
 E  UPBROW3413
 E  LOBROW3414
 E  UPBROW3415
 E  LOBROW3416
 E  UPBROW3417
 E  LOBROW3418
 E  UPBROW3419
 E  LOBROW3420
 E  UPBROW3421
 E  LOBROW3422
 E  UPBROW3423
 E  LOBROW3424
 E  UPBROW3425
 E  LOBROW3426
 E  UPBROW3427
 E  LOBROW3428
 E  UPBROW3429
 E  LOBROW3430
 E  UPBROW3431
 E  LOBROW3432
 E  UPBROW3433
 E  LOBROW3434
 E  UPBROW3435
 E  LOBROW3436
 E  UPBROW3437
 E  LOBROW3438
 E  UPBROW3439
 E  LOBROW3440
 E  UPBROW3441
 E  LOBROW3442
 E  UPBROW3443
 E  LOBROW3444
 E  UPBROW3445
 E  LOBROW3446
 E  UPBROW3447
 E  LOBROW3448
 E  UPBROW3449
 E  LOBROW3450
 E  UPBROW3451
 E  LOBROW3452
 E  UPBROW3453
 E  LOBROW3454
 E  UPBROW3455
 E  LOBROW3456
 E  UPBROW3457
 E  LOBROW3458
 E  UPBROW3459
 E  LOBROW3460
 E  UPBROW3461
 E  LOBROW3462
 E  UPBROW3463
 E  LOBROW3464
 E  UPBROW3465
 E  LOBROW3466
 E  UPBROW3467
 E  LOBROW3468
 E  UPBROW3469
 E  LOBROW3470
 E  UPBROW3471
 E  LOBROW3472
 E  UPBROW3473
 E  LOBROW3474
 E  UPBROW3475
 E  LOBROW3476
 E  UPBROW3477
 E  LOBROW3478
 E  UPBROW3479
 E  LOBROW3480
 E  UPBROW3481
 E  LOBROW3482
 E  UPBROW3483
 E  LOBROW3484
 E  UPBROW3485
 E  LOBROW3486
 E  UPBROW3487
 E  LOBROW3488
 E  UPBROW3489
 E  LOBROW3490
 E  UPBROW3491
 E  LOBROW3492
 E  UPBROW3493
 E  LOBROW3494
 E  UPBROW3495
 E  LOBROW3496
 E  UPBROW3497
 E  LOBROW3498
 E  UPBROW3499
 E  LOBROW3500
 E  UPBROW3501
 E  LOBROW3502
 E  UPBROW3503
 E  LOBROW3504
 E  UPBROW3505
 E  LOBROW3506
 E  UPBROW3507
 E  LOBROW3508
 E  UPBROW3509
 E  LOBROW3510
 E  UPBROW3511
 E  LOBROW3512
 E  UPBROW3513
 E  LOBROW3514
 E  UPBROW3515
 E  LOBROW3516
 E  UPBROW3517
 E  LOBROW3518
 E  UPBROW3519
 E  LOBROW3520
 E  UPBROW3521
 E  LOBROW3522
 E  UPBROW3523
 E  LOBROW3524
 E  UPBROW3525
 E  LOBROW3526
 E  UPBROW3527
 E  LOBROW3528
 E  UPBROW3529
 E  LOBROW3530
 E  UPBROW3531
 E  LOBROW3532
 E  UPBROW3533
 E  LOBROW3534
 E  UPBROW3535
 E  LOBROW3536
 E  UPBROW3537
 E  LOBROW3538
 E  UPBROW3539
 E  LOBROW3540
 E  UPBROW3541
 E  LOBROW3542
 E  UPBROW3543
 E  LOBROW3544
 E  UPBROW3545
 E  LOBROW3546
 E  UPBROW3547
 E  LOBROW3548
 E  UPBROW3549
 E  LOBROW3550
 E  UPBROW3551
 E  LOBROW3552
 E  UPBROW3553
 E  LOBROW3554
 E  UPBROW3555
 E  LOBROW3556
 E  UPBROW3557
 E  LOBROW3558
 E  UPBROW3559
 E  LOBROW3560
 E  UPBROW3561
 E  LOBROW3562
 E  UPBROW3563
 E  LOBROW3564
 E  UPBROW3565
 E  LOBROW3566
 E  UPBROW3567
 E  LOBROW3568
 E  UPBROW3569
 E  LOBROW3570
 E  UPBROW3571
 E  LOBROW3572
 E  UPBROW3573
 E  LOBROW3574
 E  UPBROW3575
 E  LOBROW3576
 E  UPBROW3577
 E  LOBROW3578
 E  UPBROW3579
 E  LOBROW3580
 E  UPBROW3581
 E  LOBROW3582
 E  UPBROW3583
 E  LOBROW3584
 E  UPBROW3585
 E  LOBROW3586
 E  UPBROW3587
 E  LOBROW3588
 E  UPBROW3589
 E  LOBROW3590
 E  UPBROW3591
 E  LOBROW3592
 E  UPBROW3593
 E  LOBROW3594
 E  UPBROW3595
 E  LOBROW3596
 E  UPBROW3597
 E  LOBROW3598
 E  UPBROW3599
 E  LOBROW3600
 E  UPBROW3601
 E  LOBROW3602
 E  UPBROW3603
 E  LOBROW3604
 E  UPBROW3605
 E  LOBROW3606
 E  UPBROW3607
 E  LOBROW3608
 E  UPBROW3609
 E  LOBROW3610
 E  UPBROW3611
 E  LOBROW3612
 E  UPBROW3613
 E  LOBROW3614
 E  UPBROW3615
 E  LOBROW3616
 E  UPBROW3617
 E  LOBROW3618
 E  UPBROW3619
 E  LOBROW3620
 E  UPBROW3621
 E  LOBROW3622
 E  UPBROW3623
 E  LOBROW3624
 E  UPBROW3625
 E  LOBROW3626
 E  UPBROW3627
 E  LOBROW3628
 E  UPBROW3629
 E  LOBROW3630
 E  UPBROW3631
 E  LOBROW3632
 E  UPBROW3633
 E  LOBROW3634
 E  UPBROW3635
 E  LOBROW3636
 E  UPBROW3637
 E  LOBROW3638
 E  UPBROW3639
 E  LOBROW3640
 E  UPBROW3641
 E  LOBROW3642
 E  UPBROW3643
 E  LOBROW3644
 E  UPBROW3645
 E  LOBROW3646
 E  UPBROW3647
 E  LOBROW3648
 E  UPBROW3649
 E  LOBROW3650
 E  UPBROW3651
 E  LOBROW3652
 E  UPBROW3653
 E  LOBROW3654
 E  UPBROW3655
 E  LOBROW3656
 E  UPBROW3657
 E  LOBROW3658
 E  UPBROW3659
 E  LOBROW3660
 E  UPBROW3661
 E  LOBROW3662
 E  UPBROW3663
 E  LOBROW3664
 E  UPBROW3665
 E  LOBROW3666
 E  UPBROW3667
 E  LOBROW3668
 E  UPBROW3669
 E  LOBROW3670
 E  UPBROW3671
 E  LOBROW3672
 E  UPBROW3673
 E  LOBROW3674
 E  UPBROW3675
 E  LOBROW3676
 E  UPBROW3677
 E  LOBROW3678
 E  UPBROW3679
 E  LOBROW3680
 E  UPBROW3681
 E  LOBROW3682
 E  UPBROW3683
 E  LOBROW3684
 E  UPBROW3685
 E  LOBROW3686
 E  UPBROW3687
 E  LOBROW3688
 E  UPBROW3689
 E  LOBROW3690
 E  UPBROW3691
 E  LOBROW3692
 E  UPBROW3693
 E  LOBROW3694
 E  UPBROW3695
 E  LOBROW3696
 E  UPBROW3697
 E  LOBROW3698
 E  UPBROW3699
 E  LOBROW3700
 E  UPBROW3701
 E  LOBROW3702
 E  UPBROW3703
 E  LOBROW3704
 E  UPBROW3705
 E  LOBROW3706
 E  UPBROW3707
 E  LOBROW3708
 E  UPBROW3709
 E  LOBROW3710
 E  UPBROW3711
 E  LOBROW3712
 E  UPBROW3713
 E  LOBROW3714
 E  UPBROW3715
 E  LOBROW3716
 E  UPBROW3717
 E  LOBROW3718
 E  UPBROW3719
 E  LOBROW3720
 E  UPBROW3721
 E  LOBROW3722
 E  UPBROW3723
 E  LOBROW3724
 E  UPBROW3725
 E  LOBROW3726
 E  UPBROW3727
 E  LOBROW3728
 E  UPBROW3729
 E  LOBROW3730
 E  UPBROW3731
 E  LOBROW3732
 E  UPBROW3733
 E  LOBROW3734
 E  UPBROW3735
 E  LOBROW3736
 E  UPBROW3737
 E  LOBROW3738
 E  UPBROW3739
 E  LOBROW3740
 E  UPBROW3741
 E  LOBROW3742
 E  UPBROW3743
 E  LOBROW3744
 E  UPBROW3745
 E  LOBROW3746
 E  UPBROW3747
 E  LOBROW3748
 E  UPBROW3749
 E  LOBROW3750
 E  UPBROW3751
 E  LOBROW3752
 E  UPBROW3753
 E  LOBROW3754
 E  UPBROW3755
 E  LOBROW3756
 E  UPBROW3757
 E  LOBROW3758
 E  UPBROW3759
 E  LOBROW3760
 E  UPBROW3761
 E  LOBROW3762
 E  UPBROW3763
 E  LOBROW3764
 E  UPBROW3765
 E  LOBROW3766
 E  UPBROW3767
 E  LOBROW3768
 E  UPBROW3769
 E  LOBROW3770
 E  UPBROW3771
 E  LOBROW3772
 E  UPBROW3773
 E  LOBROW3774
 E  UPBROW3775
 E  LOBROW3776
 E  UPBROW3777
 E  LOBROW3778
 E  UPBROW3779
 E  LOBROW3780
 E  UPBROW3781
 E  LOBROW3782
 E  UPBROW3783
 E  LOBROW3784
 E  UPBROW3785
 E  LOBROW3786
 E  UPBROW3787
 E  LOBROW3788
 E  UPBROW3789
 E  LOBROW3790
 E  UPBROW3791
 E  LOBROW3792
 E  UPBROW3793
 E  LOBROW3794
 E  UPBROW3795
 E  LOBROW3796
 E  UPBROW3797
 E  LOBROW3798
 E  UPBROW3799
 E  LOBROW3800
 E  UPBROW3801
 E  LOBROW3802
 E  UPBROW3803
 E  LOBROW3804
 E  UPBROW3805
 E  LOBROW3806
 E  UPBROW3807
 E  LOBROW3808
 E  UPBROW3809
 E  LOBROW3810
 E  UPBROW3811
 E  LOBROW3812
 E  UPBROW3813
 E  LOBROW3814
 E  UPBROW3815
 E  LOBROW3816
 E  UPBROW3817
 E  LOBROW3818
 E  UPBROW3819
 E  LOBROW3820
 E  UPBROW3821
 E  LOBROW3822
 E  UPBROW3823
 E  LOBROW3824
 E  UPBROW3825
 E  LOBROW3826
 E  UPBROW3827
 E  LOBROW3828
 E  UPBROW3829
 E  LOBROW3830
 E  UPBROW3831
 E  LOBROW3832
 E  UPBROW3833
 E  LOBROW3834
 E  UPBROW3835
 E  LOBROW3836
 E  UPBROW3837
 E  LOBROW3838
 E  UPBROW3839
 E  LOBROW3840
 E  UPBROW3841
 E  LOBROW3842
 E  UPBROW3843
 E  LOBROW3844
 E  UPBROW3845
 E  LOBROW3846
 E  UPBROW3847
 E  LOBROW3848
 E  UPBROW3849
 E  LOBROW3850
 E  UPBROW3851
 E  LOBROW3852
 E  UPBROW3853
 E  LOBROW3854
 E  UPBROW3855
 E  LOBROW3856
 E  UPBROW3857
 E  LOBROW3858
 E  UPBROW3859
 E  LOBROW3860
 E  UPBROW3861
 E  LOBROW3862
 E  UPBROW3863
 E  LOBROW3864
 E  UPBROW3865
 E  LOBROW3866
 E  UPBROW3867
 E  LOBROW3868
 E  UPBROW3869
 E  LOBROW3870
 E  UPBROW3871
 E  LOBROW3872
 E  UPBROW3873
 E  LOBROW3874
 E  UPBROW3875
 E  LOBROW3876
 E  UPBROW3877
 E  LOBROW3878
 E  UPBROW3879
 E  LOBROW3880
 E  UPBROW3881
 E  LOBROW3882
 E  UPBROW3883
 E  LOBROW3884
 E  UPBROW3885
 E  LOBROW3886
 E  UPBROW3887
 E  LOBROW3888
 E  UPBROW3889
 E  LOBROW3890
 E  UPBROW3891
 E  LOBROW3892
 E  UPBROW3893
 E  LOBROW3894
 E  UPBROW3895
 E  LOBROW3896
 E  UPBROW3897
 E  LOBROW3898
 E  UPBROW3899
 E  LOBROW3900
 E  UPBROW3901
 E  LOBROW3902
 E  UPBROW3903
 E  LOBROW3904
 E  UPBROW3905
 E  LOBROW3906
 E  UPBROW3907
 E  LOBROW3908
 E  UPBROW3909
 E  LOBROW3910
 E  UPBROW3911
 E  LOBROW3912
 E  UPBROW3913
 E  LOBROW3914
 E  UPBROW3915
 E  LOBROW3916
 E  UPBROW3917
 E  LOBROW3918
 E  UPBROW3919
 E  LOBROW3920
 E  UPBROW3921
 E  LOBROW3922
 E  UPBROW3923
 E  LOBROW3924
 E  UPBROW3925
 E  LOBROW3926
 E  UPBROW3927
 E  LOBROW3928
 E  UPBROW3929
 E  LOBROW3930
 E  UPBROW3931
 E  LOBROW3932
 E  UPBROW3933
 E  LOBROW3934
 E  UPBROW3935
 E  LOBROW3936
 E  UPBROW3937
 E  LOBROW3938
 E  UPBROW3939
 E  LOBROW3940
 E  UPBROW3941
 E  LOBROW3942
 E  UPBROW3943
 E  LOBROW3944
 E  UPBROW3945
 E  LOBROW3946
 E  UPBROW3947
 E  LOBROW3948
 E  UPBROW3949
 E  LOBROW3950
 E  UPBROW3951
 E  LOBROW3952
 E  UPBROW3953
 E  LOBROW3954
 E  UPBROW3955
 E  LOBROW3956
 E  UPBROW3957
 E  LOBROW3958
 E  UPBROW3959
 E  LOBROW3960
 E  UPBROW3961
 E  LOBROW3962
 E  UPBROW3963
 E  LOBROW3964
 E  UPBROW3965
 E  LOBROW3966
 E  UPBROW3967
 E  LOBROW3968
 E  UPBROW3969
 E  LOBROW3970
 E  UPBROW3971
 E  LOBROW3972
 E  UPBROW3973
 E  LOBROW3974
 E  UPBROW3975
 E  LOBROW3976
 E  UPBROW3977
 E  LOBROW3978
 E  UPBROW3979
 E  LOBROW3980
 E  UPBROW3981
 E  LOBROW3982
 E  UPBROW3983
 E  LOBROW3984
 E  UPBROW3985
 E  LOBROW3986
 E  UPBROW3987
 E  LOBROW3988
 E  UPBROW3989
 E  LOBROW3990
 E  UPBROW3991
 E  LOBROW3992
 E  UPBROW3993
 E  LOBROW3994
 E  UPBROW3995
 E  LOBROW3996
 E  UPBROW3997
 E  LOBROW3998
 E  UPBROW3999
 E  LOBROW4000
 E  UPBROW4001
 E  LOBROW4002
 E  UPBROW4003
 E  LOBROW4004
 E  UPBROW4005
 E  LOBROW4006
 E  UPBROW4007
 E  LOBROW4008
 E  UPBROW4009
 E  LOBROW4010
 E  UPBROW4011
 E  LOBROW4012
 E  UPBROW4013
 E  LOBROW4014
 E  UPBROW4015
 E  LOBROW4016
 E  UPBROW4017
 E  LOBROW4018
 E  UPBROW4019
 E  LOBROW4020
 E  UPBROW4021
 E  LOBROW4022
 E  UPBROW4023
 E  LOBROW4024
 E  UPBROW4025
 E  LOBROW4026
 E  UPBROW4027
 E  LOBROW4028
 E  UPBROW4029
 E  LOBROW4030
 E  UPBROW4031
 E  LOBROW4032
 E  UPBROW4033
 E  LOBROW4034
 E  UPBROW4035
 E  LOBROW4036
 E  UPBROW4037
 E  LOBROW4038
 E  UPBROW4039
 E  LOBROW4040
 E  UPBROW4041
 E  LOBROW4042
 E  UPBROW4043
 E  LOBROW4044
 E  UPBROW4045
 E  LOBROW4046
 E  UPBROW4047
 E  LOBROW4048
 E  UPBROW4049
 E  LOBROW4050
 E  UPBROW4051
 E  LOBROW4052
 E  UPBROW4053
 E  LOBROW4054
 E  UPBROW4055
 E  LOBROW4056
 E  UPBROW4057
 E  LOBROW4058
 E  UPBROW4059
 E  LOBROW4060
 E  UPBROW4061
 E  LOBROW4062
 E  UPBROW4063
 E  LOBROW4064
 E  UPBROW4065
 E  LOBROW4066
 E  UPBROW4067
 E  LOBROW4068
 E  UPBROW4069
 E  LOBROW4070
 E  UPBROW4071
 E  LOBROW4072
 E  UPBROW4073
 E  LOBROW4074
 E  UPBROW4075
 E  LOBROW4076
 E  UPBROW4077
 E  LOBROW4078
 E  UPBROW4079
 E  LOBROW4080
 E  UPBROW4081
 E  LOBROW4082
 E  UPBROW4083
 E  LOBROW4084
 E  UPBROW4085
 E  LOBROW4086
 E  UPBROW4087
 E  LOBROW4088
 E  UPBROW4089
 E  LOBROW4090
 E  UPBROW4091
 E  LOBROW4092
 E  UPBROW4093
 E  LOBROW4094
 E  UPBROW4095
 E  LOBROW4096
 E  UPBROW4097
 E  LOBROW4098
 E  UPBROW4099
 E  LOBROW4100
 E  UPBROW4101
 E  LOBROW4102
 E  UPBROW4103
 E  LOBROW4104
 E  UPBROW4105
 E  LOBROW4106
 E  UPBROW4107
 E  LOBROW4108
 E  UPBROW4109
 E  LOBROW4110
 E  UPBROW4111
 E  LOBROW4112
 E  UPBROW4113
 E  LOBROW4114
 E  UPBROW4115
 E  LOBROW4116
 E  UPBROW4117
 E  LOBROW4118
 E  UPBROW4119
 E  LOBROW4120
 E  UPBROW4121
 E  LOBROW4122
 E  UPBROW4123
 E  LOBROW4124
 E  UPBROW4125
 E  LOBROW4126
 E  UPBROW4127
 E  LOBROW4128
 E  UPBROW4129
 E  LOBROW4130
 E  UPBROW4131
 E  LOBROW4132
 E  UPBROW4133
 E  LOBROW4134
 E  UPBROW4135
 E  LOBROW4136
 E  UPBROW4137
 E  LOBROW4138
 E  UPBROW4139
 E  LOBROW4140
 E  UPBROW4141
 E  LOBROW4142
 E  UPBROW4143
 E  LOBROW4144
 E  UPBROW4145
 E  LOBROW4146
 E  UPBROW4147
 E  LOBROW4148
 E  UPBROW4149
 E  LOBROW4150
 E  UPBROW4151
 E  LOBROW4152
 E  UPBROW4153
 E  LOBROW4154
 E  UPBROW4155
 E  LOBROW4156
 E  UPBROW4157
 E  LOBROW4158
 E  UPBROW4159
 E  LOBROW4160
 E  UPBROW4161
 E  LOBROW4162
 E  UPBROW4163
 E  LOBROW4164
 E  UPBROW4165
 E  LOBROW4166
 E  UPBROW4167
 E  LOBROW4168
 E  UPBROW4169
 E  LOBROW4170
 E  UPBROW4171
 E  LOBROW4172
 E  UPBROW4173
 E  LOBROW4174
 E  UPBROW4175
 E  LOBROW4176
 E  UPBROW4177
 E  LOBROW4178
 E  UPBROW4179
 E  LOBROW4180
 E  UPBROW4181
 E  LOBROW4182
 E  UPBROW4183
 E  LOBROW4184
 E  UPBROW4185
 E  LOBROW4186
 E  UPBROW4187
 E  LOBROW4188
 E  UPBROW4189
 E  LOBROW4190
 E  UPBROW4191
 E  LOBROW4192
 E  UPBROW4193
 E  LOBROW4194
 E  UPBROW4195
 E  LOBROW4196
 E  UPBROW4197
 E  LOBROW4198
 E  UPBROW4199
 E  LOBROW4200
 E  UPBROW4201
 E  LOBROW4202
 E  UPBROW4203
 E  LOBROW4204
 E  UPBROW4205
 E  LOBROW4206
 E  UPBROW4207
 E  LOBROW4208
 E  UPBROW4209
 E  LOBROW4210
 E  UPBROW4211
 E  LOBROW4212
 E  UPBROW4213
 E  LOBROW4214
 E  UPBROW4215
COLUMNS
    ICRP11   QCRP11   1.000000   SHORTAGE 0.000728
    ICRP11   UPBROW0  1.000000   LOBROW1  1.000000
    ICRP12   QCRP12   1.000000   SHORTAGE 0.000652
    ICRP12   UPBROW2  1.000000   LOBROW3  1.000000
    ICRP13   QCRP13   1.000000   SHORTAGE 0.000652
    ICRP13   UPBROW4  1.000000   LOBROW5  1.000000
    ICRP14   QCRP14   1.000000   SHORTAGE 0.000652
    ICRP14   UPBROW6  1.000000   LOBROW7  1.000000
    ICRP15   QCRP15   1.000000   SHORTAGE 0.000653
    ICRP15   UPBROW8  1.000000   LOBROW9  1.000000
    ICRP16   QCRP16   1.000000   SHORTAGE 0.000804
    ICRP16   UPBROW10 1.000000   LOBROW11 1.000000
    ICRP17   QCRP17   1.000000   SHORTAGE 0.000728
    ICRP17   UPBROW12 1.000000   LOBROW13 1.000000
    ICRP18   QCRP18   1.000000   SHORTAGE 0.000652
    ICRP18   UPBROW14 1.000000   LOBROW15 1.000000
    IGLP11   QGLP11   1.000000   SHORTAGE 0.190476
    IGLP11   UPBROW16 1.000000   LOBROW17 1.000000
    IGLP12   QGLP12   1.000000   SHORTAGE 0.190476
    IGLP12   UPBROW18 1.000000   LOBROW19 1.000000
    IGLP13   QGLP13   1.000000   SHORTAGE 0.190476
    IGLP13   UPBROW20 1.000000   LOBROW21 1.000000
    IGLP14   QGLP14   1.000000   SHORTAGE 0.190476
    IGLP14   UPBROW22 1.000000   LOBROW23 1.000000
    IGLP15   QGLP15   1.000000   SHORTAGE 0.190476
    IGLP15   UPBROW24 1.000000   LOBROW25 1.000000
    IGLP16   QGLP16   1.000000   SHORTAGE 0.190476
    IGLP16   UPBROW26 1.000000   LOBROW27 1.000000
    IGLP17   QGLP17   1.000000   SHORTAGE 0.190476
    IGLP17   UPBROW28 1.000000   LOBROW29 1.000000
    IGLP18   QGLP18   1.000000   SHORTAGE 0.190476
    IGLP18   UPBROW30 1.000000   LOBROW31 1.000000
    IUNP11   QUNP11   1.000000   SHORTAGE 0.010241
    IUNP11   UPBROW32 1.000000   LOBROW33 1.000000
    IUNP12   QUNP12   1.000000   SHORTAGE 0.008818
    IUNP12   UPBROW34 1.000000   LOBROW35 1.000000
    IUNP13   QUNP13   1.000000   SHORTAGE 0.008818
    IUNP13   UPBROW36 1.000000   LOBROW37 1.000000
    IUNP14   QUNP14   1.000000   SHORTAGE 0.008818
    IUNP14   UPBROW38 1.000000   LOBROW39 1.000000
    IUNP15   QUNP15   1.000000   SHORTAGE 0.007270
    IUNP15   UPBROW40 1.000000   LOBROW41 1.000000
    IUNP16   QUNP16   1.000000   SHORTAGE 0.009430
    IUNP16   UPBROW42 1.000000   LOBROW43 1.000000
    IUNP17   QUNP17   1.000000   SHORTAGE 0.010241
    IUNP17   UPBROW44 1.000000   LOBROW45 1.000000
    IUNP18   QUNP18   1.000000   SHORTAGE 0.008818
    IUNP18   UPBROW46 1.000000   LOBROW47 1.000000
    IGAP11   QGAP11   1.000000   SHORTAGE 0.006028
    IGAP11   UPBROW48 1.000000   LOBROW49 1.000000
    IGAP12   QGAP12   1.000000   SHORTAGE 0.006901
    IGAP12   UPBROW50 1.000000   LOBROW51 1.000000
    IGAP13   QGAP13   1.000000   SHORTAGE 0.006901
    IGAP13   UPBROW52 1.000000   LOBROW53 1.000000
    IGAP14   QGAP14   1.000000   SHORTAGE 0.006901
    IGAP14   UPBROW54 1.000000   LOBROW55 1.000000
    IGAP15   QGAP15   1.000000   SHORTAGE 0.005176
    IGAP15   UPBROW56 1.000000   LOBROW57 1.000000
    IGAP16   QGAP16   1.000000   SHORTAGE 0.005952
    IGAP16   UPBROW58 1.000000   LOBROW59 1.000000
    IGAP17   QGAP17   1.000000   SHORTAGE 0.006028
    IGAP17   UPBROW60 1.000000   LOBROW61 1.000000
    IGAP18   QGAP18   1.000000   SHORTAGE 0.006901
    IGAP18   UPBROW62 1.000000   LOBROW63 1.000000
    IDSP11   QDSP11   1.000000   SHORTAGE 0.004252
    IDSP11   UPBROW64 1.000000   LOBROW65 1.000000
    IDSP12   QDSP12   1.000000   SHORTAGE 0.003635
    IDSP12   UPBROW66 1.000000   LOBROW67 1.000000
    IDSP13   QDSP13   1.000000   SHORTAGE 0.003635
    IDSP13   UPBROW68 1.000000   LOBROW69 1.000000
    IDSP14   QDSP14   1.000000   SHORTAGE 0.003635
    IDSP14   UPBROW70 1.000000   LOBROW71 1.000000
    IDSP15   QDSP15   1.000000   SHORTAGE 0.002215
    IDSP15   UPBROW72 1.000000   LOBROW73 1.000000
    IDSP16   QDSP16   1.000000   SHORTAGE 0.001481
    IDSP16   UPBROW74 1.000000   LOBROW75 1.000000
    IDSP17   QDSP17   1.000000   SHORTAGE 0.004252
    IDSP17   UPBROW76 1.000000   LOBROW77 1.000000
    IDSP18   QDSP18   1.000000   SHORTAGE 0.003635
    IDSP18   UPBROW78 1.000000   LOBROW79 1.000000
    IRSP11   QRSP11   1.000000   SHORTAGE 0.000568
    IRSP11   UPBROW80 1.000000   LOBROW81 1.000000
    IRSP12   QRSP12   1.000000   SHORTAGE 0.000560
    IRSP12   UPBROW82 1.000000   LOBROW83 1.000000
    IRSP13   QRSP13   1.000000   SHORTAGE 0.000560
    IRSP13   UPBROW84 1.000000   LOBROW85 1.000000
    IRSP14   QRSP14   1.000000   SHORTAGE 0.000560
    IRSP14   UPBROW86 1.000000   LOBROW87 1.000000
    IRSP15   QRSP15   1.000000   SHORTAGE 0.000493
    IRSP15   UPBROW88 1.000000   LOBROW89 1.000000
    IRSP16   QRSP16   1.000000   SHORTAGE 0.000451
    IRSP16   UPBROW90 1.000000   LOBROW91 1.000000
    IRSP17   QRSP17   1.000000   SHORTAGE 0.000568
    IRSP17   UPBROW92 1.000000   LOBROW93 1.000000
    IRSP18   QRSP18   1.000000   SHORTAGE 0.000560
    IRSP18   UPBROW94 1.000000   LOBROW95 1.000000
    IKJP11   QKJP11   1.000000   SHORTAGE 0.008210
    IKJP11   UPBROW96 1.000000   LOBROW97 1.000000
    IKJP12   QKJP12   1.000000   SHORTAGE 0.008140
    IKJP12   UPBROW98 1.000000   LOBROW99 1.000000
    IKJP13   QKJP13   1.000000   SHORTAGE 0.008140
    IKJP13   UPBROW100 1.000000   LOBROW101 1.000000
    IKJP14   QKJP14   1.000000   SHORTAGE 0.008140
    IKJP14   UPBROW102 1.000000   LOBROW103 1.000000
    IKJP15   QKJP15   1.000000   SHORTAGE 0.008354
    IKJP15   UPBROW104 1.000000   LOBROW105 1.000000
    IKJP16   QKJP16   1.000000   SHORTAGE 0.010352
    IKJP16   UPBROW106 1.000000   LOBROW107 1.000000
    IKJP17   QKJP17   1.000000   SHORTAGE 0.008210
    IKJP17   UPBROW108 1.000000   LOBROW109 1.000000
    IKJP18   QKJP18   1.000000   SHORTAGE 0.008140
    IKJP18   UPBROW110 1.000000   LOBROW111 1.000000
    INJP11   QNJP11   1.000000   SHORTAGE 0.028011
    INJP11   UPBROW112 1.000000   LOBROW113 1.000000
    INJP12   QNJP12   1.000000   SHORTAGE 0.017007
    INJP12   UPBROW114 1.000000   LOBROW115 1.000000
    INJP13   QNJP13   1.000000   SHORTAGE 0.017007
    INJP13   UPBROW116 1.000000   LOBROW117 1.000000
    INJP14   QNJP14   1.000000   SHORTAGE 0.017007
    INJP14   UPBROW118 1.000000   LOBROW119 1.000000
    INJP15   QNJP15   1.000000   SHORTAGE 0.020704
    INJP15   UPBROW120 1.000000   LOBROW121 1.000000
    INJP16   QNJP16   1.000000   SHORTAGE 0.031746
    INJP16   UPBROW122 1.000000   LOBROW123 1.000000
    INJP17   QNJP17   1.000000   SHORTAGE 0.028011
    INJP17   UPBROW124 1.000000   LOBROW125 1.000000
    INJP18   QNJP18   1.000000   SHORTAGE 0.017007
    INJP18   UPBROW126 1.000000   LOBROW127 1.000000
    IPFP11   QPFP11   1.000000   SHORTAGE 0.476191
    IPFP11   UPBROW128 1.000000   LOBROW129 1.000000
    IPFP15   QPFP15   1.000000   SHORTAGE 0.190476
    IPFP15   UPBROW130 1.000000   LOBROW131 1.000000
    IPFP16   QPFP16   1.000000   SHORTAGE 0.317461
    IPFP16   UPBROW132 1.000000   LOBROW133 1.000000
    IPFP17   QPFP17   1.000000   SHORTAGE 0.476191
    IPFP17   UPBROW134 1.000000   LOBROW135 1.000000
    ILPP11   QLPP11   1.000000   SHORTAGE 0.063492
    ILPP11   UPBROW136 1.000000   LOBROW137 1.000000
    ILPP12   QLPP12   1.000000   SHORTAGE 0.052910
    ILPP12   UPBROW138 1.000000   LOBROW139 1.000000
    ILPP13   QLPP13   1.000000   SHORTAGE 0.052910
    ILPP13   UPBROW140 1.000000   LOBROW141 1.000000
    ILPP14   QLPP14   1.000000   SHORTAGE 0.052910
    ILPP14   UPBROW142 1.000000   LOBROW143 1.000000
    ILPP15   QLPP15   1.000000   SHORTAGE 0.026455
    ILPP15   UPBROW144 1.000000   LOBROW145 1.000000
    ILPP16   QLPP16   1.000000   SHORTAGE 0.019048
    ILPP16   UPBROW146 1.000000   LOBROW147 1.000000
    ILPP17   QLPP17   1.000000   SHORTAGE 0.063492
    ILPP17   UPBROW148 1.000000   LOBROW149 1.000000
    ILPP18   QLPP18   1.000000   SHORTAGE 0.052910
    ILPP18   UPBROW150 1.000000   LOBROW151 1.000000
    IOTP11   QOTP11   1.000000   SHORTAGE 0.021645
    IOTP11   UPBROW152 1.000000   LOBROW153 1.000000
    IOTP12   QOTP12   1.000000   SHORTAGE 0.017969
    IOTP12   UPBROW154 1.000000   LOBROW155 1.000000
    IOTP13   QOTP13   1.000000   SHORTAGE 0.017969
    IOTP13   UPBROW156 1.000000   LOBROW157 1.000000
    IOTP14   QOTP14   1.000000   SHORTAGE 0.017969
    IOTP14   UPBROW158 1.000000   LOBROW159 1.000000
    IOTP15   QOTP15   1.000000   SHORTAGE 0.019048
    IOTP15   UPBROW160 1.000000   LOBROW161 1.000000
    IOTP16   QOTP16   1.000000   SHORTAGE 0.015117
    IOTP16   UPBROW162 1.000000   LOBROW163 1.000000
    IOTP17   QOTP17   1.000000   SHORTAGE 0.021645
    IOTP17   UPBROW164 1.000000   LOBROW165 1.000000
    IOTP18   QOTP18   1.000000   SHORTAGE 0.017969
    IOTP18   UPBROW166 1.000000   LOBROW167 1.000000
    ICRP21   QCRP21   1.000000   SHORTAGE 0.001243
    ICRP21   UPBROW168 1.000000   LOBROW169 1.000000
    ICRP22   QCRP22   1.000000   SHORTAGE 0.001240
    ICRP22   UPBROW170 1.000000   LOBROW171 1.000000
    ICRP23   QCRP23   1.000000   SHORTAGE 0.001240
    ICRP23   UPBROW172 1.000000   LOBROW173 1.000000
    ICRP24   QCRP24   1.000000   SHORTAGE 0.001240
    ICRP24   UPBROW174 1.000000   LOBROW175 1.000000
    ICRP25   QCRP25   1.000000   SHORTAGE 0.001328
    ICRP25   UPBROW176 1.000000   LOBROW177 1.000000
    ICRP26   QCRP26   1.000000   SHORTAGE 0.001237
    ICRP26   UPBROW178 1.000000   LOBROW179 1.000000
    ICRP27   QCRP27   1.000000   SHORTAGE 0.001243
    ICRP27   UPBROW180 1.000000   LOBROW181 1.000000
    ICRP28   QCRP28   1.000000   SHORTAGE 0.001240
    ICRP28   UPBROW182 1.000000   LOBROW183 1.000000
    IGLP21   QGLP21   1.000000   SHORTAGE 0.014652
    IGLP21   UPBROW184 1.000000   LOBROW185 1.000000
    IGLP22   QGLP22   1.000000   SHORTAGE 0.014652
    IGLP22   UPBROW186 1.000000   LOBROW187 1.000000
    IGLP23   QGLP23   1.000000   SHORTAGE 0.014652
    IGLP23   UPBROW188 1.000000   LOBROW189 1.000000
    IGLP24   QGLP24   1.000000   SHORTAGE 0.014652
    IGLP24   UPBROW190 1.000000   LOBROW191 1.000000
    IGLP25   QGLP25   1.000000   SHORTAGE 0.014652
    IGLP25   UPBROW192 1.000000   LOBROW193 1.000000
    IGLP26   QGLP26   1.000000   SHORTAGE 0.014652
    IGLP26   UPBROW194 1.000000   LOBROW195 1.000000
    IGLP27   QGLP27   1.000000   SHORTAGE 0.014652
    IGLP27   UPBROW196 1.000000   LOBROW197 1.000000
    IGLP28   QGLP28   1.000000   SHORTAGE 0.014652
    IGLP28   UPBROW198 1.000000   LOBROW199 1.000000
    IUNP21   QUNP21   1.000000   SHORTAGE 0.158730
    IUNP21   UPBROW200 1.000000   LOBROW201 1.000000
    IUNP22   QUNP22   1.000000   SHORTAGE 0.158730
    IUNP22   UPBROW202 1.000000   LOBROW203 1.000000
    IUNP23   QUNP23   1.000000   SHORTAGE 0.158730
    IUNP23   UPBROW204 1.000000   LOBROW205 1.000000
    IUNP24   QUNP24   1.000000   SHORTAGE 0.158730
    IUNP24   UPBROW206 1.000000   LOBROW207 1.000000
    IUNP25   QUNP25   1.000000   SHORTAGE 0.136055
    IUNP25   UPBROW208 1.000000   LOBROW209 1.000000
    IUNP26   QUNP26   1.000000   SHORTAGE 0.136055
    IUNP26   UPBROW210 1.000000   LOBROW211 1.000000
    IUNP27   QUNP27   1.000000   SHORTAGE 0.158730
    IUNP27   UPBROW212 1.000000   LOBROW213 1.000000
    IUNP28   QUNP28   1.000000   SHORTAGE 0.158730
    IUNP28   UPBROW214 1.000000   LOBROW215 1.000000
    IGAP21   QGAP21   1.000000   SHORTAGE 0.158730
    IGAP21   UPBROW216 1.000000   LOBROW217 1.000000
    IGAP22   QGAP22   1.000000   SHORTAGE 0.238095
    IGAP22   UPBROW218 1.000000   LOBROW219 1.000000
    IGAP23   QGAP23   1.000000   SHORTAGE 0.238095
    IGAP23   UPBROW220 1.000000   LOBROW221 1.000000
    IGAP24   QGAP24   1.000000   SHORTAGE 0.238095
    IGAP24   UPBROW222 1.000000   LOBROW223 1.000000
    IGAP25   QGAP25   1.000000   SHORTAGE 0.317461
    IGAP25   UPBROW224 1.000000   LOBROW225 1.000000
    IGAP26   QGAP26   1.000000   SHORTAGE 0.317461
    IGAP26   UPBROW226 1.000000   LOBROW227 1.000000
    IGAP27   QGAP27   1.000000   SHORTAGE 0.158730
    IGAP27   UPBROW228 1.000000   LOBROW229 1.000000
    IGAP28   QGAP28   1.000000   SHORTAGE 0.238095
    IGAP28   UPBROW230 1.000000   LOBROW231 1.000000
    IDSP21   QDSP21   1.000000   SHORTAGE 0.079365
    IDSP21   UPBROW232 1.000000   LOBROW233 1.000000
    IDSP22   QDSP22   1.000000   SHORTAGE 0.056022
    IDSP22   UPBROW234 1.000000   LOBROW235 1.000000
    IDSP23   QDSP23   1.000000   SHORTAGE 0.056022
    IDSP23   UPBROW236 1.000000   LOBROW237 1.000000
    IDSP24   QDSP24   1.000000   SHORTAGE 0.056022
    IDSP24   UPBROW238 1.000000   LOBROW239 1.000000
    IDSP25   QDSP25   1.000000   SHORTAGE 0.238095
    IDSP25   UPBROW240 1.000000   LOBROW241 1.000000
    IDSP26   QDSP26   1.000000   SHORTAGE 0.136055
    IDSP26   UPBROW242 1.000000   LOBROW243 1.000000
    IDSP27   QDSP27   1.000000   SHORTAGE 0.079365
    IDSP27   UPBROW244 1.000000   LOBROW245 1.000000
    IDSP28   QDSP28   1.000000   SHORTAGE 0.056023
    IDSP28   UPBROW246 1.000000   LOBROW247 1.000000
    IRSP21   QRSP21   1.000000   SHORTAGE 0.043290
    IRSP21   UPBROW248 1.000000   LOBROW249 1.000000
    IRSP22   QRSP22   1.000000   SHORTAGE 0.031746
    IRSP22   UPBROW250 1.000000   LOBROW251 1.000000
    IRSP23   QRSP23   1.000000   SHORTAGE 0.031746
    IRSP23   UPBROW252 1.000000   LOBROW253 1.000000
    IRSP24   QRSP24   1.000000   SHORTAGE 0.031746
    IRSP24   UPBROW254 1.000000   LOBROW255 1.000000
    IRSP25   QRSP25   1.000000   SHORTAGE 0.029762
    IRSP25   UPBROW256 1.000000   LOBROW257 1.000000
    IRSP26   QRSP26   1.000000   SHORTAGE 0.047619
    IRSP26   UPBROW258 1.000000   LOBROW259 1.000000
    IRSP27   QRSP27   1.000000   SHORTAGE 0.043290
    IRSP27   UPBROW260 1.000000   LOBROW261 1.000000
    IRSP28   QRSP28   1.000000   SHORTAGE 0.031746
    IRSP28   UPBROW262 1.000000   LOBROW263 1.000000
    IKJP21   QKJP21   1.000000   SHORTAGE 0.079365
    IKJP21   UPBROW264 1.000000   LOBROW265 1.000000
    IKJP22   QKJP22   1.000000   SHORTAGE 0.073260
    IKJP22   UPBROW266 1.000000   LOBROW267 1.000000
    IKJP23   QKJP23   1.000000   SHORTAGE 0.073260
    IKJP23   UPBROW268 1.000000   LOBROW269 1.000000
    IKJP24   QKJP24   1.000000   SHORTAGE 0.073260
    IKJP24   UPBROW270 1.000000   LOBROW271 1.000000
    IKJP25   QKJP25   1.000000   SHORTAGE 0.095238
    IKJP25   UPBROW272 1.000000   LOBROW273 1.000000
    IKJP26   QKJP26   1.000000   SHORTAGE 0.119048
    IKJP26   UPBROW274 1.000000   LOBROW275 1.000000
    IKJP27   QKJP27   1.000000   SHORTAGE 0.079365
    IKJP27   UPBROW276 1.000000   LOBROW277 1.000000
    IKJP28   QKJP28   1.000000   SHORTAGE 0.073260
    IKJP28   UPBROW278 1.000000   LOBROW279 1.000000
    ILPP21   QLPP21   1.000000   SHORTAGE 0.022148
    ILPP21   UPBROW280 1.000000   LOBROW281 1.000000
    ILPP22   QLPP22   1.000000   SHORTAGE 0.025063
    ILPP22   UPBROW282 1.000000   LOBROW283 1.000000
    ILPP23   QLPP23   1.000000   SHORTAGE 0.025063
    ILPP23   UPBROW284 1.000000   LOBROW285 1.000000
    ILPP24   QLPP24   1.000000   SHORTAGE 0.025063
    ILPP24   UPBROW286 1.000000   LOBROW287 1.000000
    ILPP25   QLPP25   1.000000   SHORTAGE 0.014006
    ILPP25   UPBROW288 1.000000   LOBROW289 1.000000
    ILPP26   QLPP26   1.000000   SHORTAGE 0.010823
    ILPP26   UPBROW290 1.000000   LOBROW291 1.000000
    ILPP27   QLPP27   1.000000   SHORTAGE 0.022148
    ILPP27   UPBROW292 1.000000   LOBROW293 1.000000
    ILPP28   QLPP28   1.000000   SHORTAGE 0.025063
    ILPP28   UPBROW294 1.000000   LOBROW295 1.000000
    IOTP21   QOTP21   1.000000   SHORTAGE 0.952382
    IOTP21   UPBROW296 1.000000   LOBROW297 1.000000
    IOTP22   QOTP22   1.000000   SHORTAGE 0.952382
    IOTP22   UPBROW298 1.000000   LOBROW299 1.000000
    IOTP23   QOTP23   1.000000   SHORTAGE 0.952382
    IOTP23   UPBROW300 1.000000   LOBROW301 1.000000
    IOTP24   QOTP24   1.000000   SHORTAGE 0.952382
    IOTP24   UPBROW302 1.000000   LOBROW303 1.000000
    IOTP25   QOTP25   1.000000   SHORTAGE 0.476191
    IOTP25   UPBROW304 1.000000   LOBROW305 1.000000
    IOTP26   QOTP26   1.000000   SHORTAGE 0.158730
    IOTP26   UPBROW306 1.000000   LOBROW307 1.000000
    IOTP27   QOTP27   1.000000   SHORTAGE 0.952383
    IOTP27   UPBROW308 1.000000   LOBROW309 1.000000
    IOTP28   QOTP28   1.000000   SHORTAGE 0.952383
    IOTP28   UPBROW310 1.000000   LOBROW311 1.000000
    ICRP31   QCRP31   1.000000   SHORTAGE 0.002273
    ICRP31   UPBROW312 1.000000   LOBROW313 1.000000
    ICRP32   QCRP32   1.000000   SHORTAGE 0.001821
    ICRP32   UPBROW314 1.000000   LOBROW315 1.000000
    ICRP33   QCRP33   1.000000   SHORTAGE 0.001821
    ICRP33   UPBROW316 1.000000   LOBROW317 1.000000
    ICRP34   QCRP34   1.000000   SHORTAGE 0.001821
    ICRP34   UPBROW318 1.000000   LOBROW319 1.000000
    ICRP35   QCRP35   1.000000   SHORTAGE 0.001479
    ICRP35   UPBROW320 1.000000   LOBROW321 1.000000
    ICRP36   QCRP36   1.000000   SHORTAGE 0.003489
    ICRP36   UPBROW322 1.000000   LOBROW323 1.000000
    ICRP37   QCRP37   1.000000   SHORTAGE 0.002273
    ICRP37   UPBROW324 1.000000   LOBROW325 1.000000
    ICRP38   QCRP38   1.000000   SHORTAGE 0.001821
    ICRP38   UPBROW326 1.000000   LOBROW327 1.000000
    IUNP31   QUNP31   1.000000   SHORTAGE 0.019841
    IUNP31   UPBROW328 1.000000   LOBROW329 1.000000
    IUNP32   QUNP32   1.000000   SHORTAGE 0.015873
    IUNP32   UPBROW330 1.000000   LOBROW331 1.000000
    IUNP33   QUNP33   1.000000   SHORTAGE 0.015873
    IUNP33   UPBROW332 1.000000   LOBROW333 1.000000
    IUNP34   QUNP34   1.000000   SHORTAGE 0.015873
    IUNP34   UPBROW334 1.000000   LOBROW335 1.000000
    IUNP35   QUNP35   1.000000   SHORTAGE 0.015613
    IUNP35   UPBROW336 1.000000   LOBROW337 1.000000
    IUNP36   QUNP36   1.000000   SHORTAGE 0.018674
    IUNP36   UPBROW338 1.000000   LOBROW339 1.000000
    IUNP37   QUNP37   1.000000   SHORTAGE 0.019841
    IUNP37   UPBROW340 1.000000   LOBROW341 1.000000
    IUNP38   QUNP38   1.000000   SHORTAGE 0.015873
    IUNP38   UPBROW342 1.000000   LOBROW343 1.000000
    IGAP31   QGAP31   1.000000   SHORTAGE 0.068027
    IGAP31   UPBROW344 1.000000   LOBROW345 1.000000
    IGAP32   QGAP32   1.000000   SHORTAGE 0.032841
    IGAP32   UPBROW346 1.000000   LOBROW347 1.000000
    IGAP33   QGAP33   1.000000   SHORTAGE 0.032841
    IGAP33   UPBROW348 1.000000   LOBROW349 1.000000
    IGAP34   QGAP34   1.000000   SHORTAGE 0.032841
    IGAP34   UPBROW350 1.000000   LOBROW351 1.000000
    IGAP35   QGAP35   1.000000   SHORTAGE 0.052910
    IGAP35   UPBROW352 1.000000   LOBROW353 1.000000
    IGAP36   QGAP36   1.000000   SHORTAGE 0.052910
    IGAP36   UPBROW354 1.000000   LOBROW355 1.000000
    IGAP37   QGAP37   1.000000   SHORTAGE 0.068027
    IGAP37   UPBROW356 1.000000   LOBROW357 1.000000
    IGAP38   QGAP38   1.000000   SHORTAGE 0.032841
    IGAP38   UPBROW358 1.000000   LOBROW359 1.000000
    IDSP31   QDSP31   1.000000   SHORTAGE 0.025740
    IDSP31   UPBROW360 1.000000   LOBROW361 1.000000
    IDSP32   QDSP32   1.000000   SHORTAGE 0.012870
    IDSP32   UPBROW362 1.000000   LOBROW363 1.000000
    IDSP33   QDSP33   1.000000   SHORTAGE 0.012870
    IDSP33   UPBROW364 1.000000   LOBROW365 1.000000
    IDSP34   QDSP34   1.000000   SHORTAGE 0.012870
    IDSP34   UPBROW366 1.000000   LOBROW367 1.000000
    IDSP35   QDSP35   1.000000   SHORTAGE 0.018674
    IDSP35   UPBROW368 1.000000   LOBROW369 1.000000
    IDSP36   QDSP36   1.000000   SHORTAGE 0.031746
    IDSP36   UPBROW370 1.000000   LOBROW371 1.000000
    IDSP37   QDSP37   1.000000   SHORTAGE 0.025740
    IDSP37   UPBROW372 1.000000   LOBROW373 1.000000
    IDSP38   QDSP38   1.000000   SHORTAGE 0.012870
    IDSP38   UPBROW374 1.000000   LOBROW375 1.000000
    IRSP31   QRSP31   1.000000   SHORTAGE 0.020704
    IRSP31   UPBROW376 1.000000   LOBROW377 1.000000
    IRSP32   QRSP32   1.000000   SHORTAGE 0.020704
    IRSP32   UPBROW378 1.000000   LOBROW379 1.000000
    IRSP33   QRSP33   1.000000   SHORTAGE 0.020704
    IRSP33   UPBROW380 1.000000   LOBROW381 1.000000
    IRSP34   QRSP34   1.000000   SHORTAGE 0.020704
    IRSP34   UPBROW382 1.000000   LOBROW383 1.000000
    IRSP35   QRSP35   1.000000   SHORTAGE 0.014881
    IRSP35   UPBROW384 1.000000   LOBROW385 1.000000
    IRSP36   QRSP36   1.000000   SHORTAGE 0.019048
    IRSP36   UPBROW386 1.000000   LOBROW387 1.000000
    IRSP37   QRSP37   1.000000   SHORTAGE 0.020704
    IRSP37   UPBROW388 1.000000   LOBROW389 1.000000
    IRSP38   QRSP38   1.000000   SHORTAGE 0.020704
    IRSP38   UPBROW390 1.000000   LOBROW391 1.000000
    IKJP31   QKJP31   1.000000   SHORTAGE 0.023229
    IKJP31   UPBROW392 1.000000   LOBROW393 1.000000
    IKJP32   QKJP32   1.000000   SHORTAGE 0.050125
    IKJP32   UPBROW394 1.000000   LOBROW395 1.000000
    IKJP33   QKJP33   1.000000   SHORTAGE 0.050125
    IKJP33   UPBROW396 1.000000   LOBROW397 1.000000
    IKJP34   QKJP34   1.000000   SHORTAGE 0.050125
    IKJP34   UPBROW398 1.000000   LOBROW399 1.000000
    IKJP35   QKJP35   1.000000   SHORTAGE 0.043290
    IKJP35   UPBROW400 1.000000   LOBROW401 1.000000
    IKJP36   QKJP36   1.000000   SHORTAGE 0.043290
    IKJP36   UPBROW402 1.000000   LOBROW403 1.000000
    IKJP37   QKJP37   1.000000   SHORTAGE 0.023229
    IKJP37   UPBROW404 1.000000   LOBROW405 1.000000
    IKJP38   QKJP38   1.000000   SHORTAGE 0.050125
    IKJP38   UPBROW406 1.000000   LOBROW407 1.000000
    IPFP31   QPFP31   1.000000   SHORTAGE 0.047619
    IPFP31   UPBROW408 1.000000   LOBROW409 1.000000
    IPFP32   QPFP32   1.000000   SHORTAGE 0.035273
    IPFP32   UPBROW410 1.000000   LOBROW411 1.000000
    IPFP33   QPFP33   1.000000   SHORTAGE 0.035273
    IPFP33   UPBROW412 1.000000   LOBROW413 1.000000
    IPFP34   QPFP34   1.000000   SHORTAGE 0.035273
    IPFP34   UPBROW414 1.000000   LOBROW415 1.000000
    IPFP35   QPFP35   1.000000   SHORTAGE 0.050125
    IPFP35   UPBROW416 1.000000   LOBROW417 1.000000
    IPFP36   QPFP36   1.000000   SHORTAGE 0.043290
    IPFP36   UPBROW418 1.000000   LOBROW419 1.000000
    IPFP37   QPFP37   1.000000   SHORTAGE 0.047619
    IPFP37   UPBROW420 1.000000   LOBROW421 1.000000
    IPFP38   QPFP38   1.000000   SHORTAGE 0.035273
    IPFP38   UPBROW422 1.000000   LOBROW423 1.000000
    ILPP31   QLPP31   1.000000   SHORTAGE 0.022676
    ILPP31   UPBROW424 1.000000   LOBROW425 1.000000
    ILPP32   QLPP32   1.000000   SHORTAGE 0.015613
    ILPP32   UPBROW426 1.000000   LOBROW427 1.000000
    ILPP33   QLPP33   1.000000   SHORTAGE 0.015613
    ILPP33   UPBROW428 1.000000   LOBROW429 1.000000
    ILPP34   QLPP34   1.000000   SHORTAGE 0.015613
    ILPP34   UPBROW430 1.000000   LOBROW431 1.000000
    ILPP35   QLPP35   1.000000   SHORTAGE 0.022148
    ILPP35   UPBROW432 1.000000   LOBROW433 1.000000
    ILPP36   QLPP36   1.000000   SHORTAGE 0.017007
    ILPP36   UPBROW434 1.000000   LOBROW435 1.000000
    ILPP37   QLPP37   1.000000   SHORTAGE 0.022676
    ILPP37   UPBROW436 1.000000   LOBROW437 1.000000
    ILPP38   QLPP38   1.000000   SHORTAGE 0.015613
    ILPP38   UPBROW438 1.000000   LOBROW439 1.000000
    IOTP31   QOTP31   1.000000   SHORTAGE 0.136055
    IOTP31   UPBROW440 1.000000   LOBROW441 1.000000
    IOTP32   QOTP32   1.000000   SHORTAGE 0.105820
    IOTP32   UPBROW442 1.000000   LOBROW443 1.000000
    IOTP33   QOTP33   1.000000   SHORTAGE 0.105820
    IOTP33   UPBROW444 1.000000   LOBROW445 1.000000
    IOTP34   QOTP34   1.000000   SHORTAGE 0.105820
    IOTP34   UPBROW446 1.000000   LOBROW447 1.000000
    IOTP35   QOTP35   1.000000   SHORTAGE 0.119048
    IOTP35   UPBROW448 1.000000   LOBROW449 1.000000
    IOTP36   QOTP36   1.000000   SHORTAGE 0.086580
    IOTP36   UPBROW450 1.000000   LOBROW451 1.000000
    IOTP37   QOTP37   1.000000   SHORTAGE 0.136055
    IOTP37   UPBROW452 1.000000   LOBROW453 1.000000
    IOTP38   QOTP38   1.000000   SHORTAGE 0.105820
    IOTP38   UPBROW454 1.000000   LOBROW455 1.000000
    ICRP41   QCRP41   1.000000   SHORTAGE 0.017316
    ICRP41   UPBROW456 1.000000   LOBROW457 1.000000
    ICRP42   QCRP42   1.000000   SHORTAGE 0.017969
    ICRP42   UPBROW458 1.000000   LOBROW459 1.000000
    ICRP43   QCRP43   1.000000   SHORTAGE 0.017969
    ICRP43   UPBROW460 1.000000   LOBROW461 1.000000
    ICRP44   QCRP44   1.000000   SHORTAGE 0.017969
    ICRP44   UPBROW462 1.000000   LOBROW463 1.000000
    ICRP45   QCRP45   1.000000   SHORTAGE 0.014006
    ICRP45   UPBROW464 1.000000   LOBROW465 1.000000
    ICRP46   QCRP46   1.000000   SHORTAGE 0.016420
    ICRP46   UPBROW466 1.000000   LOBROW467 1.000000
    ICRP47   QCRP47   1.000000   SHORTAGE 0.017316
    ICRP47   UPBROW468 1.000000   LOBROW469 1.000000
    ICRP48   QCRP48   1.000000   SHORTAGE 0.017969
    ICRP48   UPBROW470 1.000000   LOBROW471 1.000000
    IGLP41   QGLP41   1.000000   SHORTAGE 0.031746
    IGLP41   UPBROW472 1.000000   LOBROW473 1.000000
    IGLP42   QGLP42   1.000000   SHORTAGE 0.031746
    IGLP42   UPBROW474 1.000000   LOBROW475 1.000000
    IGLP43   QGLP43   1.000000   SHORTAGE 0.031746
    IGLP43   UPBROW476 1.000000   LOBROW477 1.000000
    IGLP44   QGLP44   1.000000   SHORTAGE 0.031746
    IGLP44   UPBROW478 1.000000   LOBROW479 1.000000
    IGLP45   QGLP45   1.000000   SHORTAGE 0.031746
    IGLP45   UPBROW480 1.000000   LOBROW481 1.000000
    IGLP46   QGLP46   1.000000   SHORTAGE 0.031746
    IGLP46   UPBROW482 1.000000   LOBROW483 1.000000
    IGLP47   QGLP47   1.000000   SHORTAGE 0.031746
    IGLP47   UPBROW484 1.000000   LOBROW485 1.000000
    IGLP48   QGLP48   1.000000   SHORTAGE 0.031746
    IGLP48   UPBROW486 1.000000   LOBROW487 1.000000
    IGAP41   QGAP41   1.000000   SHORTAGE 0.476191
    IGAP41   UPBROW488 1.000000   LOBROW489 1.000000
    IGAP42   QGAP42   1.000000   SHORTAGE 0.317461
    IGAP42   UPBROW490 1.000000   LOBROW491 1.000000
    IGAP43   QGAP43   1.000000   SHORTAGE 0.317461
    IGAP43   UPBROW492 1.000000   LOBROW493 1.000000
    IGAP44   QGAP44   1.000000   SHORTAGE 0.317461
    IGAP44   UPBROW494 1.000000   LOBROW495 1.000000
    IGAP45   QGAP45   1.000000   SHORTAGE 0.317461
    IGAP45   UPBROW496 1.000000   LOBROW497 1.000000
    IGAP46   QGAP46   1.000000   SHORTAGE 0.317461
    IGAP46   UPBROW498 1.000000   LOBROW499 1.000000
    IGAP47   QGAP47   1.000000   SHORTAGE 0.476191
    IGAP47   UPBROW500 1.000000   LOBROW501 1.000000
    IGAP48   QGAP48   1.000000   SHORTAGE 0.317461
    IGAP48   UPBROW502 1.000000   LOBROW503 1.000000
    IDSP45   QDSP45   1.000000   SHORTAGE 0.476191
    IDSP45   UPBROW504 1.000000   LOBROW505 1.000000
    IDSP46   QDSP46   1.000000   SHORTAGE 0.952383
    IDSP46   UPBROW506 1.000000   LOBROW507 1.000000
    IRSP46   QRSP46   1.000000   SHORTAGE 0.952383
    IRSP46   UPBROW508 1.000000   LOBROW509 1.000000
    ILPP41   QLPP41   1.000000   SHORTAGE 0.073260
    ILPP41   UPBROW510 1.000000   LOBROW511 1.000000
    ILPP42   QLPP42   1.000000   SHORTAGE 0.073260
    ILPP42   UPBROW512 1.000000   LOBROW513 1.000000
    ILPP43   QLPP43   1.000000   SHORTAGE 0.073260
    ILPP43   UPBROW514 1.000000   LOBROW515 1.000000
    ILPP44   QLPP44   1.000000   SHORTAGE 0.073260
    ILPP44   UPBROW516 1.000000   LOBROW517 1.000000
    ILPP45   QLPP45   1.000000   SHORTAGE 0.038095
    ILPP45   UPBROW518 1.000000   LOBROW519 1.000000
    ILPP46   QLPP46   1.000000   SHORTAGE 0.028011
    ILPP46   UPBROW520 1.000000   LOBROW521 1.000000
    ILPP47   QLPP47   1.000000   SHORTAGE 0.073260
    ILPP47   UPBROW522 1.000000   LOBROW523 1.000000
    ILPP48   QLPP48   1.000000   SHORTAGE 0.073260
    ILPP48   UPBROW524 1.000000   LOBROW525 1.000000
    IOTP41   QOTP41   1.000000   SHORTAGE 0.476191
    IOTP41   UPBROW526 1.000000   LOBROW527 1.000000
    IOTP47   QOTP47   1.000000   SHORTAGE 0.476191
    IOTP47   UPBROW528 1.000000   LOBROW529 1.000000
    ICRP51   QCRP51   1.000000   SHORTAGE 0.001153
    ICRP51   UPBROW530 1.000000   LOBROW531 1.000000
    ICRP52   QCRP52   1.000000   SHORTAGE 0.000950
    ICRP52   UPBROW532 1.000000   LOBROW533 1.000000
    ICRP53   QCRP53   1.000000   SHORTAGE 0.000950
    ICRP53   UPBROW534 1.000000   LOBROW535 1.000000
    ICRP54   QCRP54   1.000000   SHORTAGE 0.000950
    ICRP54   UPBROW536 1.000000   LOBROW537 1.000000
    ICRP55   QCRP55   1.000000   SHORTAGE 0.001070
    ICRP55   UPBROW538 1.000000   LOBROW539 1.000000
    ICRP56   QCRP56   1.000000   SHORTAGE 0.001035
    ICRP56   UPBROW540 1.000000   LOBROW541 1.000000
    ICRP57   QCRP57   1.000000   SHORTAGE 0.001153
    ICRP57   UPBROW542 1.000000   LOBROW543 1.000000
    ICRP58   QCRP58   1.000000   SHORTAGE 0.000950
    ICRP58   UPBROW544 1.000000   LOBROW545 1.000000
    IGLP51   QGLP51   1.000000   SHORTAGE 0.095238
    IGLP51   UPBROW546 1.000000   LOBROW547 1.000000
    IGLP52   QGLP52   1.000000   SHORTAGE 0.095238
    IGLP52   UPBROW548 1.000000   LOBROW549 1.000000
    IGLP53   QGLP53   1.000000   SHORTAGE 0.095238
    IGLP53   UPBROW550 1.000000   LOBROW551 1.000000
    IGLP54   QGLP54   1.000000   SHORTAGE 0.095238
    IGLP54   UPBROW552 1.000000   LOBROW553 1.000000
    IGLP55   QGLP55   1.000000   SHORTAGE 0.095238
    IGLP55   UPBROW554 1.000000   LOBROW555 1.000000
    IGLP56   QGLP56   1.000000   SHORTAGE 0.095238
    IGLP56   UPBROW556 1.000000   LOBROW557 1.000000
    IGLP57   QGLP57   1.000000   SHORTAGE 0.095238
    IGLP57   UPBROW558 1.000000   LOBROW559 1.000000
    IGLP58   QGLP58   1.000000   SHORTAGE 0.095238
    IGLP58   UPBROW560 1.000000   LOBROW561 1.000000
    IUNP51   QUNP51   1.000000   SHORTAGE 0.014215
    IUNP51   UPBROW562 1.000000   LOBROW563 1.000000
    IUNP52   QUNP52   1.000000   SHORTAGE 0.017316
    IUNP52   UPBROW564 1.000000   LOBROW565 1.000000
    IUNP53   QUNP53   1.000000   SHORTAGE 0.017316
    IUNP53   UPBROW566 1.000000   LOBROW567 1.000000
    IUNP54   QUNP54   1.000000   SHORTAGE 0.017316
    IUNP54   UPBROW568 1.000000   LOBROW569 1.000000
    IUNP55   QUNP55   1.000000   SHORTAGE 0.020263
    IUNP55   UPBROW570 1.000000   LOBROW571 1.000000
    IUNP56   QUNP56   1.000000   SHORTAGE 0.011204
    IUNP56   UPBROW572 1.000000   LOBROW573 1.000000
    IUNP57   QUNP57   1.000000   SHORTAGE 0.014215
    IUNP57   UPBROW574 1.000000   LOBROW575 1.000000
    IUNP58   QUNP58   1.000000   SHORTAGE 0.017316
    IUNP58   UPBROW576 1.000000   LOBROW577 1.000000
    IGAP51   QGAP51   1.000000   SHORTAGE 0.317461
    IGAP51   UPBROW578 1.000000   LOBROW579 1.000000
    IGAP52   QGAP52   1.000000   SHORTAGE 0.105820
    IGAP52   UPBROW580 1.000000   LOBROW581 1.000000
    IGAP53   QGAP53   1.000000   SHORTAGE 0.105820
    IGAP53   UPBROW582 1.000000   LOBROW583 1.000000
    IGAP54   QGAP54   1.000000   SHORTAGE 0.105820
    IGAP54   UPBROW584 1.000000   LOBROW585 1.000000
    IGAP55   QGAP55   1.000000   SHORTAGE 0.105820
    IGAP55   UPBROW586 1.000000   LOBROW587 1.000000
    IGAP56   QGAP56   1.000000   SHORTAGE 0.136055
    IGAP56   UPBROW588 1.000000   LOBROW589 1.000000
    IGAP57   QGAP57   1.000000   SHORTAGE 0.317461
    IGAP57   UPBROW590 1.000000   LOBROW591 1.000000
    IGAP58   QGAP58   1.000000   SHORTAGE 0.105820
    IGAP58   UPBROW592 1.000000   LOBROW593 1.000000
    IDSP51   QDSP51   1.000000   SHORTAGE 0.119048
    IDSP51   UPBROW594 1.000000   LOBROW595 1.000000
    IDSP52   QDSP52   1.000000   SHORTAGE 0.027211
    IDSP52   UPBROW596 1.000000   LOBROW597 1.000000
    IDSP53   QDSP53   1.000000   SHORTAGE 0.027211
    IDSP53   UPBROW598 1.000000   LOBROW599 1.000000
    IDSP54   QDSP54   1.000000   SHORTAGE 0.027211
    IDSP54   UPBROW600 1.000000   LOBROW601 1.000000
    IDSP55   QDSP55   1.000000   SHORTAGE 0.043290
    IDSP55   UPBROW602 1.000000   LOBROW603 1.000000
    IDSP56   QDSP56   1.000000   SHORTAGE 0.105820
    IDSP56   UPBROW604 1.000000   LOBROW605 1.000000
    IDSP57   QDSP57   1.000000   SHORTAGE 0.119048
    IDSP57   UPBROW606 1.000000   LOBROW607 1.000000
    IDSP58   QDSP58   1.000000   SHORTAGE 0.027211
    IDSP58   UPBROW608 1.000000   LOBROW609 1.000000
    IRSP51   QRSP51   1.000000   SHORTAGE 0.022676
    IRSP51   UPBROW610 1.000000   LOBROW611 1.000000
    IRSP52   QRSP52   1.000000   SHORTAGE 0.008140
    IRSP52   UPBROW612 1.000000   LOBROW613 1.000000
    IRSP53   QRSP53   1.000000   SHORTAGE 0.008140
    IRSP53   UPBROW614 1.000000   LOBROW615 1.000000
    IRSP54   QRSP54   1.000000   SHORTAGE 0.008140
    IRSP54   UPBROW616 1.000000   LOBROW617 1.000000
    IRSP55   QRSP55   1.000000   SHORTAGE 0.017969
    IRSP55   UPBROW618 1.000000   LOBROW619 1.000000
    IRSP56   QRSP56   1.000000   SHORTAGE 0.008818
    IRSP56   UPBROW620 1.000000   LOBROW621 1.000000
    IRSP57   QRSP57   1.000000   SHORTAGE 0.022676
    IRSP57   UPBROW622 1.000000   LOBROW623 1.000000
    IRSP58   QRSP58   1.000000   SHORTAGE 0.008140
    IRSP58   UPBROW624 1.000000   LOBROW625 1.000000
    IKJP51   QKJP51   1.000000   SHORTAGE 0.010582
    IKJP51   UPBROW626 1.000000   LOBROW627 1.000000
    IKJP52   QKJP52   1.000000   SHORTAGE 0.015361
    IKJP52   UPBROW628 1.000000   LOBROW629 1.000000
    IKJP53   QKJP53   1.000000   SHORTAGE 0.015361
    IKJP53   UPBROW630 1.000000   LOBROW631 1.000000
    IKJP54   QKJP54   1.000000   SHORTAGE 0.015361
    IKJP54   UPBROW632 1.000000   LOBROW633 1.000000
    IKJP55   QKJP55   1.000000   SHORTAGE 0.008210
    IKJP55   UPBROW634 1.000000   LOBROW635 1.000000
    IKJP56   QKJP56   1.000000   SHORTAGE 0.008818
    IKJP56   UPBROW636 1.000000   LOBROW637 1.000000
    IKJP57   QKJP57   1.000000   SHORTAGE 0.010582
    IKJP57   UPBROW638 1.000000   LOBROW639 1.000000
    IKJP58   QKJP58   1.000000   SHORTAGE 0.015361
    IKJP58   UPBROW640 1.000000   LOBROW641 1.000000
    INJP51   QNJP51   1.000000   SHORTAGE 0.028860
    INJP51   UPBROW642 1.000000   LOBROW643 1.000000
    INJP52   QNJP52   1.000000   SHORTAGE 0.068027
    INJP52   UPBROW644 1.000000   LOBROW645 1.000000
    INJP53   QNJP53   1.000000   SHORTAGE 0.068027
    INJP53   UPBROW646 1.000000   LOBROW647 1.000000
    INJP54   QNJP54   1.000000   SHORTAGE 0.068027
    INJP54   UPBROW648 1.000000   LOBROW649 1.000000
    INJP55   QNJP55   1.000000   SHORTAGE 0.028011
    INJP55   UPBROW650 1.000000   LOBROW651 1.000000
    INJP56   QNJP56   1.000000   SHORTAGE 0.039683
    INJP56   UPBROW652 1.000000   LOBROW653 1.000000
    INJP57   QNJP57   1.000000   SHORTAGE 0.028860
    INJP57   UPBROW654 1.000000   LOBROW655 1.000000
    INJP58   QNJP58   1.000000   SHORTAGE 0.068027
    INJP58   UPBROW656 1.000000   LOBROW657 1.000000
    ILPP51   QLPP51   1.000000   SHORTAGE 0.068027
    ILPP51   UPBROW658 1.000000   LOBROW659 1.000000
    ILPP52   QLPP52   1.000000   SHORTAGE 0.063492
    ILPP52   UPBROW660 1.000000   LOBROW661 1.000000
    ILPP53   QLPP53   1.000000   SHORTAGE 0.063492
    ILPP53   UPBROW662 1.000000   LOBROW663 1.000000
    ILPP54   QLPP54   1.000000   SHORTAGE 0.063492
    ILPP54   UPBROW664 1.000000   LOBROW665 1.000000
    ILPP55   QLPP55   1.000000   SHORTAGE 0.020704
    ILPP55   UPBROW666 1.000000   LOBROW667 1.000000
    ILPP56   QLPP56   1.000000   SHORTAGE 0.023810
    ILPP56   UPBROW668 1.000000   LOBROW669 1.000000
    ILPP57   QLPP57   1.000000   SHORTAGE 0.068027
    ILPP57   UPBROW670 1.000000   LOBROW671 1.000000
    ILPP58   QLPP58   1.000000   SHORTAGE 0.063492
    ILPP58   UPBROW672 1.000000   LOBROW673 1.000000
    IOTP51   QOTP51   1.000000   SHORTAGE 0.317461
    IOTP51   UPBROW674 1.000000   LOBROW675 1.000000
    IOTP56   QOTP56   1.000000   SHORTAGE 0.952383
    IOTP56   UPBROW676 1.000000   LOBROW677 1.000000
    IOTP57   QOTP57   1.000000   SHORTAGE 0.317461
    IOTP57   UPBROW678 1.000000   LOBROW679 1.000000
    SGAP11   QGAP11   1.000000   SHORTAGE 0.042922
    SGAP11   LOBROW680 1.000000   UPBROW681 1.000000
    SGAP12   QGAP12   1.000000   SHORTAGE 0.041501
    SGAP12   LOBROW682 1.000000   UPBROW683 1.000000
    SGAP13   QGAP13   1.000000   SHORTAGE 0.041012
    SGAP13   LOBROW684 1.000000   UPBROW685 1.000000
    SGAP14   QGAP14   1.000000   SHORTAGE 0.045475
    SGAP14   LOBROW686 1.000000   UPBROW687 1.000000
    SGAP15   QGAP15   1.000000   SHORTAGE 0.044630
    SGAP15   LOBROW688 1.000000   UPBROW689 1.000000
    SGAP16   QGAP16   1.000000   SHORTAGE 0.045732
    SGAP16   LOBROW690 1.000000   UPBROW691 1.000000
    SGAP17   QGAP17   1.000000   SHORTAGE 0.043230
    SGAP17   LOBROW692 1.000000   UPBROW693 1.000000
    SGAP18   QGAP18   1.000000   SHORTAGE 0.041967
    SGAP18   LOBROW694 1.000000   UPBROW695 1.000000
    SDSP11   QDSP11   1.000000   SHORTAGE 0.105943
    SDSP11   LOBROW696 1.000000   UPBROW697 1.000000
    SDSP12   QDSP12   1.000000   SHORTAGE 0.121803
    SDSP12   LOBROW698 1.000000   UPBROW699 1.000000
    SDSP13   QDSP13   1.000000   SHORTAGE 0.123903
    SDSP13   LOBROW700 1.000000   UPBROW701 1.000000
    SDSP14   QDSP14   1.000000   SHORTAGE 0.105097
    SDSP14   LOBROW702 1.000000   UPBROW703 1.000000
    SDSP15   QDSP15   1.000000   SHORTAGE 0.056636
    SDSP15   LOBROW704 1.000000   UPBROW705 1.000000
    SDSP16   QDSP16   1.000000   SHORTAGE 0.051169
    SDSP16   LOBROW706 1.000000   UPBROW707 1.000000
    SDSP17   QDSP17   1.000000   SHORTAGE 0.095686
    SDSP17   LOBROW708 1.000000   UPBROW709 1.000000
    SDSP18   QDSP18   1.000000   SHORTAGE 0.126176
    SDSP18   LOBROW710 1.000000   UPBROW711 1.000000
    SRSP11   QRSP11   1.000000   SHORTAGE 0.068029
    SRSP11   LOBROW712 1.000000   UPBROW713 1.000000
    SRSP12   QRSP12   1.000000   SHORTAGE 0.068368
    SRSP12   LOBROW714 1.000000   UPBROW715 1.000000
    SRSP13   QRSP13   1.000000   SHORTAGE 0.067060
    SRSP13   LOBROW716 1.000000   UPBROW717 1.000000
    SRSP14   QRSP14   1.000000   SHORTAGE 0.065677
    SRSP14   LOBROW718 1.000000   UPBROW719 1.000000
    SRSP15   QRSP15   1.000000   SHORTAGE 0.056014
    SRSP15   LOBROW720 1.000000   UPBROW721 1.000000
    SRSP16   QRSP16   1.000000   SHORTAGE 0.049583
    SRSP16   LOBROW722 1.000000   UPBROW723 1.000000
    SRSP17   QRSP17   1.000000   SHORTAGE 0.060566
    SRSP17   LOBROW724 1.000000   UPBROW725 1.000000
    SRSP18   QRSP18   1.000000   SHORTAGE 0.058763
    SRSP18   LOBROW726 1.000000   UPBROW727 1.000000
    SKJP11   QKJP11   1.000000   SHORTAGE 0.290366
    SKJP11   LOBROW728 1.000000   UPBROW729 1.000000
    SKJP12   QKJP12   1.000000   SHORTAGE 0.278039
    SKJP12   LOBROW730 1.000000   UPBROW731 1.000000
    SKJP13   QKJP13   1.000000   SHORTAGE 0.294091
    SKJP13   LOBROW732 1.000000   UPBROW733 1.000000
    SKJP14   QKJP14   1.000000   SHORTAGE 0.307517
    SKJP14   LOBROW734 1.000000   UPBROW735 1.000000
    SKJP15   QKJP15   1.000000   SHORTAGE 0.269799
    SKJP15   LOBROW736 1.000000   UPBROW737 1.000000
    SKJP16   QKJP16   1.000000   SHORTAGE 0.303657
    SKJP16   LOBROW738 1.000000   UPBROW739 1.000000
    SKJP17   QKJP17   1.000000   SHORTAGE 0.299918
    SKJP17   LOBROW740 1.000000   UPBROW741 1.000000
    SKJP18   QKJP18   1.000000   SHORTAGE 0.300486
    SKJP18   LOBROW742 1.000000   UPBROW743 1.000000
    SNJP11   QNJP11   1.000000   SHORTAGE 1.400392
    SNJP11   LOBROW744 1.000000   UPBROW745 1.000000
    SNJP12   QNJP12   1.000000   SHORTAGE 1.497574
    SNJP12   LOBROW746 1.000000   UPBROW747 1.000000
    SNJP13   QNJP13   1.000000   SHORTAGE 1.385371
    SNJP13   LOBROW748 1.000000   UPBROW749 1.000000
    SNJP14   QNJP14   1.000000   SHORTAGE 1.300112
    SNJP14   LOBROW750 1.000000   UPBROW751 1.000000
    SNJP15   QNJP15   1.000000   SHORTAGE 1.362556
    SNJP15   LOBROW752 1.000000   UPBROW753 1.000000
    SNJP16   QNJP16   1.000000   SHORTAGE 1.904313
    SNJP16   LOBROW754 1.000000   UPBROW755 1.000000
    SNJP17   QNJP17   1.000000   SHORTAGE 1.584533
    SNJP17   LOBROW756 1.000000   UPBROW757 1.000000
    SNJP18   QNJP18   1.000000   SHORTAGE 1.487161
    SNJP18   LOBROW758 1.000000   UPBROW759 1.000000
    SPFP11   QPFP11   1.000000   SHORTAGE 3.867002
    SPFP11   LOBROW760 1.000000   UPBROW761 1.000000
    SPFP12   QPFP12   1.000000   SHORTAGE 4.007075
    SPFP12   LOBROW762 1.000000   UPBROW763 1.000000
    SPFP13   QPFP13   1.000000   SHORTAGE 3.863661
    SPFP13   LOBROW764 1.000000   UPBROW765 1.000000
    SPFP14   QPFP14   1.000000   SHORTAGE 3.645254
    SPFP14   LOBROW766 1.000000   UPBROW767 1.000000
    SPFP15   QPFP15   1.000000   SHORTAGE 4.117707
    SPFP15   LOBROW768 1.000000   UPBROW769 1.000000
    SPFP16   QPFP16   1.000000   SHORTAGE 4.522805
    SPFP16   LOBROW770 1.000000   UPBROW771 1.000000
    SPFP17   QPFP17   1.000000   SHORTAGE 4.975281
    SPFP17   LOBROW772 1.000000   UPBROW773 1.000000
    SPFP18   QPFP18   1.000000   SHORTAGE 4.667463
    SPFP18   LOBROW774 1.000000   UPBROW775 1.000000
    SLPP11   QLPP11   1.000000   SHORTAGE 1.956604
    SLPP11   LOBROW776 1.000000   UPBROW777 1.000000
    SLPP12   QLPP12   1.000000   SHORTAGE 2.520732
    SLPP12   LOBROW778 1.000000   UPBROW779 1.000000
    SLPP13   QLPP13   1.000000   SHORTAGE 1.616884
    SLPP13   LOBROW780 1.000000   UPBROW781 1.000000
    SLPP14   QLPP14   1.000000   SHORTAGE 1.910111
    SLPP14   LOBROW782 1.000000   UPBROW783 1.000000
    SLPP15   QLPP15   1.000000   SHORTAGE 1.079723
    SLPP15   LOBROW784 1.000000   UPBROW785 1.000000
    SLPP16   QLPP16   1.000000   SHORTAGE 0.862312
    SLPP16   LOBROW786 1.000000   UPBROW787 1.000000
    SLPP17   QLPP17   1.000000   SHORTAGE 1.787529
    SLPP17   LOBROW788 1.000000   UPBROW789 1.000000
    SLPP18   QLPP18   1.000000   SHORTAGE 2.122541
    SLPP18   LOBROW790 1.000000   UPBROW791 1.000000
    SOTP11   QOTP11   1.000000   SHORTAGE 0.200847
    SOTP11   LOBROW792 1.000000   UPBROW793 1.000000
    SOTP12   QOTP12   1.000000   SHORTAGE 0.198400
    SOTP12   LOBROW794 1.000000   UPBROW795 1.000000
    SOTP13   QOTP13   1.000000   SHORTAGE 0.173619
    SOTP13   LOBROW796 1.000000   UPBROW797 1.000000
    SOTP14   QOTP14   1.000000   SHORTAGE 0.176282
    SOTP14   LOBROW798 1.000000   UPBROW799 1.000000
    SOTP15   QOTP15   1.000000   SHORTAGE 0.173935
    SOTP15   LOBROW800 1.000000   UPBROW801 1.000000
    SOTP16   QOTP16   1.000000   SHORTAGE 0.198675
    SOTP16   LOBROW802 1.000000   UPBROW803 1.000000
    SOTP17   QOTP17   1.000000   SHORTAGE 0.216820
    SOTP17   LOBROW804 1.000000   UPBROW805 1.000000
    SOTP18   QOTP18   1.000000   SHORTAGE 0.193858
    SOTP18   LOBROW806 1.000000   UPBROW807 1.000000
    SGAP21   QGAP21   1.000000   SHORTAGE 0.041226
    SGAP21   LOBROW808 1.000000   UPBROW809 1.000000
    SGAP22   QGAP22   1.000000   SHORTAGE 0.040764
    SGAP22   LOBROW810 1.000000   UPBROW811 1.000000
    SGAP23   QGAP23   1.000000   SHORTAGE 0.041920
    SGAP23   LOBROW812 1.000000   UPBROW813 1.000000
    SGAP24   QGAP24   1.000000   SHORTAGE 0.042370
    SGAP24   LOBROW814 1.000000   UPBROW815 1.000000
    SGAP25   QGAP25   1.000000   SHORTAGE 0.042867
    SGAP25   LOBROW816 1.000000   UPBROW817 1.000000
    SGAP26   QGAP26   1.000000   SHORTAGE 0.045297
    SGAP26   LOBROW818 1.000000   UPBROW819 1.000000
    SGAP27   QGAP27   1.000000   SHORTAGE 0.043257
    SGAP27   LOBROW820 1.000000   UPBROW821 1.000000
    SGAP28   QGAP28   1.000000   SHORTAGE 0.041077
    SGAP28   LOBROW822 1.000000   UPBROW823 1.000000
    SDSP21   QDSP21   1.000000   SHORTAGE 0.135364
    SDSP21   LOBROW824 1.000000   UPBROW825 1.000000
    SDSP22   QDSP22   1.000000   SHORTAGE 0.144170
    SDSP22   LOBROW826 1.000000   UPBROW827 1.000000
    SDSP23   QDSP23   1.000000   SHORTAGE 0.145178
    SDSP23   LOBROW828 1.000000   UPBROW829 1.000000
    SDSP24   QDSP24   1.000000   SHORTAGE 0.128645
    SDSP24   LOBROW830 1.000000   UPBROW831 1.000000
    SDSP25   QDSP25   1.000000   SHORTAGE 0.096215
    SDSP25   LOBROW832 1.000000   UPBROW833 1.000000
    SDSP26   QDSP26   1.000000   SHORTAGE 0.097597
    SDSP26   LOBROW834 1.000000   UPBROW835 1.000000
    SDSP27   QDSP27   1.000000   SHORTAGE 0.134700
    SDSP27   LOBROW836 1.000000   UPBROW837 1.000000
    SDSP28   QDSP28   1.000000   SHORTAGE 0.150560
    SDSP28   LOBROW838 1.000000   UPBROW839 1.000000
    SRSP21   QRSP21   1.000000   SHORTAGE 0.738768
    SRSP21   LOBROW840 1.000000   UPBROW841 1.000000
    SRSP22   QRSP22   1.000000   SHORTAGE 0.724765
    SRSP22   LOBROW842 1.000000   UPBROW843 1.000000
    SRSP23   QRSP23   1.000000   SHORTAGE 0.723766
    SRSP23   LOBROW844 1.000000   UPBROW845 1.000000
    SRSP24   QRSP24   1.000000   SHORTAGE 0.667013
    SRSP24   LOBROW846 1.000000   UPBROW847 1.000000
    SRSP25   QRSP25   1.000000   SHORTAGE 0.455460
    SRSP25   LOBROW848 1.000000   UPBROW849 1.000000
    SRSP26   QRSP26   1.000000   SHORTAGE 0.360969
    SRSP26   LOBROW850 1.000000   UPBROW851 1.000000
    SRSP27   QRSP27   1.000000   SHORTAGE 0.601866
    SRSP27   LOBROW852 1.000000   UPBROW853 1.000000
    SRSP28   QRSP28   1.000000   SHORTAGE 0.617634
    SRSP28   LOBROW854 1.000000   UPBROW855 1.000000
    SKJP21   QKJP21   1.000000   SHORTAGE 0.587280
    SKJP21   LOBROW856 1.000000   UPBROW857 1.000000
    SKJP22   QKJP22   1.000000   SHORTAGE 0.600250
    SKJP22   LOBROW858 1.000000   UPBROW859 1.000000
    SKJP23   QKJP23   1.000000   SHORTAGE 0.541785
    SKJP23   LOBROW860 1.000000   UPBROW861 1.000000
    SKJP24   QKJP24   1.000000   SHORTAGE 0.576090
    SKJP24   LOBROW862 1.000000   UPBROW863 1.000000
    SKJP25   QKJP25   1.000000   SHORTAGE 0.545560
    SKJP25   LOBROW864 1.000000   UPBROW865 1.000000
    SKJP26   QKJP26   1.000000   SHORTAGE 0.623117
    SKJP26   LOBROW866 1.000000   UPBROW867 1.000000
    SKJP27   QKJP27   1.000000   SHORTAGE 0.593664
    SKJP27   LOBROW868 1.000000   UPBROW869 1.000000
    SKJP28   QKJP28   1.000000   SHORTAGE 0.587370
    SKJP28   LOBROW870 1.000000   UPBROW871 1.000000
    SNJP21   QNJP21   1.000000   SHORTAGE 2.135651
    SNJP21   LOBROW872 1.000000   UPBROW873 1.000000
    SNJP22   QNJP22   1.000000   SHORTAGE 2.503467
    SNJP22   LOBROW874 1.000000   UPBROW875 1.000000
    SNJP23   QNJP23   1.000000   SHORTAGE 1.961360
    SNJP23   LOBROW876 1.000000   UPBROW877 1.000000
    SNJP24   QNJP24   1.000000   SHORTAGE 2.008818
    SNJP24   LOBROW878 1.000000   UPBROW879 1.000000
    SNJP25   QNJP25   1.000000   SHORTAGE 2.131426
    SNJP25   LOBROW880 1.000000   UPBROW881 1.000000
    SNJP26   QNJP26   1.000000   SHORTAGE 2.884248
    SNJP26   LOBROW882 1.000000   UPBROW883 1.000000
    SNJP27   QNJP27   1.000000   SHORTAGE 2.233119
    SNJP27   LOBROW884 1.000000   UPBROW885 1.000000
    SNJP28   QNJP28   1.000000   SHORTAGE 2.290745
    SNJP28   LOBROW886 1.000000   UPBROW887 1.000000
    SPFP21   QPFP21   1.000000   SHORTAGE 2.338903
    SPFP21   LOBROW888 1.000000   UPBROW889 1.000000
    SPFP22   QPFP22   1.000000   SHORTAGE 2.358767
    SPFP22   LOBROW890 1.000000   UPBROW891 1.000000
    SPFP23   QPFP23   1.000000   SHORTAGE 2.583843
    SPFP23   LOBROW892 1.000000   UPBROW893 1.000000
    SPFP24   QPFP24   1.000000   SHORTAGE 2.483714
    SPFP24   LOBROW894 1.000000   UPBROW895 1.000000
    SPFP25   QPFP25   1.000000   SHORTAGE 2.411227
    SPFP25   LOBROW896 1.000000   UPBROW897 1.000000
    SPFP26   QPFP26   1.000000   SHORTAGE 3.232235
    SPFP26   LOBROW898 1.000000   UPBROW899 1.000000
    SPFP27   QPFP27   1.000000   SHORTAGE 3.068479
    SPFP27   LOBROW900 1.000000   UPBROW901 1.000000
    SPFP28   QPFP28   1.000000   SHORTAGE 3.008929
    SPFP28   LOBROW902 1.000000   UPBROW903 1.000000
    SLPP21   QLPP21   1.000000   SHORTAGE 0.945674
    SLPP21   LOBROW904 1.000000   UPBROW905 1.000000
    SLPP22   QLPP22   1.000000   SHORTAGE 0.952305
    SLPP22   LOBROW906 1.000000   UPBROW907 1.000000
    SLPP23   QLPP23   1.000000   SHORTAGE 0.684869
    SLPP23   LOBROW908 1.000000   UPBROW909 1.000000
    SLPP24   QLPP24   1.000000   SHORTAGE 0.503628
    SLPP24   LOBROW910 1.000000   UPBROW911 1.000000
    SLPP25   QLPP25   1.000000   SHORTAGE 0.302744
    SLPP25   LOBROW912 1.000000   UPBROW913 1.000000
    SLPP26   QLPP26   1.000000   SHORTAGE 0.302429
    SLPP26   LOBROW914 1.000000   UPBROW915 1.000000
    SLPP27   QLPP27   1.000000   SHORTAGE 0.756157
    SLPP27   LOBROW916 1.000000   UPBROW917 1.000000
    SLPP28   QLPP28   1.000000   SHORTAGE 0.733835
    SLPP28   LOBROW918 1.000000   UPBROW919 1.000000
    SOTP21   QOTP21   1.000000   SHORTAGE 0.139226
    SOTP21   LOBROW920 1.000000   UPBROW921 1.000000
    SOTP22   QOTP22   1.000000   SHORTAGE 0.139610
    SOTP22   LOBROW922 1.000000   UPBROW923 1.000000
    SOTP23   QOTP23   1.000000   SHORTAGE 0.134405
    SOTP23   LOBROW924 1.000000   UPBROW925 1.000000
    SOTP24   QOTP24   1.000000   SHORTAGE 0.131937
    SOTP24   LOBROW926 1.000000   UPBROW927 1.000000
    SOTP25   QOTP25   1.000000   SHORTAGE 0.166475
    SOTP25   LOBROW928 1.000000   UPBROW929 1.000000
    SOTP26   QOTP26   1.000000   SHORTAGE 0.189306
    SOTP26   LOBROW930 1.000000   UPBROW931 1.000000
    SOTP27   QOTP27   1.000000   SHORTAGE 0.172532
    SOTP27   LOBROW932 1.000000   UPBROW933 1.000000
    SOTP28   QOTP28   1.000000   SHORTAGE 0.143900
    SOTP28   LOBROW934 1.000000   UPBROW935 1.000000
    SGAP31   QGAP31   1.000000   SHORTAGE 0.098408
    SGAP31   LOBROW936 1.000000   UPBROW937 1.000000
    SGAP32   QGAP32   1.000000   SHORTAGE 0.110154
    SGAP32   LOBROW938 1.000000   UPBROW939 1.000000
    SGAP33   QGAP33   1.000000   SHORTAGE 0.112998
    SGAP33   LOBROW940 1.000000   UPBROW941 1.000000
    SGAP34   QGAP34   1.000000   SHORTAGE 0.107351
    SGAP34   LOBROW942 1.000000   UPBROW943 1.000000
    SGAP35   QGAP35   1.000000   SHORTAGE 0.110596
    SGAP35   LOBROW944 1.000000   UPBROW945 1.000000
    SGAP36   QGAP36   1.000000   SHORTAGE 0.117872
    SGAP36   LOBROW946 1.000000   UPBROW947 1.000000
    SGAP37   QGAP37   1.000000   SHORTAGE 0.101398
    SGAP37   LOBROW948 1.000000   UPBROW949 1.000000
    SGAP38   QGAP38   1.000000   SHORTAGE 0.108524
    SGAP38   LOBROW950 1.000000   UPBROW951 1.000000
    SDSP31   QDSP31   1.000000   SHORTAGE 0.365088
    SDSP31   LOBROW952 1.000000   UPBROW953 1.000000
    SDSP32   QDSP32   1.000000   SHORTAGE 0.322364
    SDSP32   LOBROW954 1.000000   UPBROW955 1.000000
    SDSP33   QDSP33   1.000000   SHORTAGE 0.279879
    SDSP33   LOBROW956 1.000000   UPBROW957 1.000000
    SDSP34   QDSP34   1.000000   SHORTAGE 0.368307
    SDSP34   LOBROW958 1.000000   UPBROW959 1.000000
    SDSP35   QDSP35   1.000000   SHORTAGE 0.406243
    SDSP35   LOBROW960 1.000000   UPBROW961 1.000000
    SDSP36   QDSP36   1.000000   SHORTAGE 0.347410
    SDSP36   LOBROW962 1.000000   UPBROW963 1.000000
    SDSP37   QDSP37   1.000000   SHORTAGE 0.378428
    SDSP37   LOBROW964 1.000000   UPBROW965 1.000000
    SDSP38   QDSP38   1.000000   SHORTAGE 0.343701
    SDSP38   LOBROW966 1.000000   UPBROW967 1.000000
    SRSP31   QRSP31   1.000000   SHORTAGE 0.821396
    SRSP31   LOBROW968 1.000000   UPBROW969 1.000000
    SRSP32   QRSP32   1.000000   SHORTAGE 1.057258
    SRSP32   LOBROW970 1.000000   UPBROW971 1.000000
    SRSP33   QRSP33   1.000000   SHORTAGE 1.027539
    SRSP33   LOBROW972 1.000000   UPBROW973 1.000000
    SRSP34   QRSP34   1.000000   SHORTAGE 1.544542
    SRSP34   LOBROW974 1.000000   UPBROW975 1.000000
    SRSP35   QRSP35   1.000000   SHORTAGE 1.176682
    SRSP35   LOBROW976 1.000000   UPBROW977 1.000000
    SRSP36   QRSP36   1.000000   SHORTAGE 0.821343
    SRSP36   LOBROW978 1.000000   UPBROW979 1.000000
    SRSP37   QRSP37   1.000000   SHORTAGE 0.855421
    SRSP37   LOBROW980 1.000000   UPBROW981 1.000000
    SRSP38   QRSP38   1.000000   SHORTAGE 1.021416
    SRSP38   LOBROW982 1.000000   UPBROW983 1.000000
    SKJP31   QKJP31   1.000000   SHORTAGE 1.253822
    SKJP31   LOBROW984 1.000000   UPBROW985 1.000000
    SKJP32   QKJP32   1.000000   SHORTAGE 2.829305
    SKJP32   LOBROW986 1.000000   UPBROW987 1.000000
    SKJP33   QKJP33   1.000000   SHORTAGE 1.552544
    SKJP33   LOBROW988 1.000000   UPBROW989 1.000000
    SKJP34   QKJP34   1.000000   SHORTAGE 1.494153
    SKJP34   LOBROW990 1.000000   UPBROW991 1.000000
    SKJP35   QKJP35   1.000000   SHORTAGE 2.864847
    SKJP35   LOBROW992 1.000000   UPBROW993 1.000000
    SKJP36   QKJP36   1.000000   SHORTAGE 2.336103
    SKJP36   LOBROW994 1.000000   UPBROW995 1.000000
    SKJP37   QKJP37   1.000000   SHORTAGE 1.517638
    SKJP37   LOBROW996 1.000000   UPBROW997 1.000000
    SKJP38   QKJP38   1.000000   SHORTAGE 1.855346
    SKJP38   LOBROW998 1.000000   UPBROW999 1.000000
    SNJP31   QNJP31   1.000000   SHORTAGE 2.710982
    SNJP31   LOBROW1000 1.000000   UPBROW1001 1.000000
    SNJP32   QNJP32   1.000000   SHORTAGE 3.053005
    SNJP32   LOBROW1002 1.000000   UPBROW1003 1.000000
    SNJP33   QNJP33   1.000000   SHORTAGE 1.951006
    SNJP33   LOBROW1004 1.000000   UPBROW1005 1.000000
    SNJP34   QNJP34   1.000000   SHORTAGE 2.540846
    SNJP34   LOBROW1006 1.000000   UPBROW1007 1.000000
    SNJP35   QNJP35   1.000000   SHORTAGE 1.951686
    SNJP35   LOBROW1008 1.000000   UPBROW1009 1.000000
    SNJP36   QNJP36   1.000000   SHORTAGE 2.895353
    SNJP36   LOBROW1010 1.000000   UPBROW1011 1.000000
    SNJP37   QNJP37   1.000000   SHORTAGE 2.316819
    SNJP37   LOBROW1012 1.000000   UPBROW1013 1.000000
    SNJP38   QNJP38   1.000000   SHORTAGE 2.612369
    SNJP38   LOBROW1014 1.000000   UPBROW1015 1.000000
    SPFP31   QPFP31   1.000000   SHORTAGE 0.383791
    SPFP31   LOBROW1016 1.000000   UPBROW1017 1.000000
    SPFP32   QPFP32   1.000000   SHORTAGE 0.388972
    SPFP32   LOBROW1018 1.000000   UPBROW1019 1.000000
    SPFP33   QPFP33   1.000000   SHORTAGE 0.393441
    SPFP33   LOBROW1020 1.000000   UPBROW1021 1.000000
    SPFP34   QPFP34   1.000000   SHORTAGE 0.406982
    SPFP34   LOBROW1022 1.000000   UPBROW1023 1.000000
    SPFP35   QPFP35   1.000000   SHORTAGE 0.374914
    SPFP35   LOBROW1024 1.000000   UPBROW1025 1.000000
    SPFP36   QPFP36   1.000000   SHORTAGE 0.469041
    SPFP36   LOBROW1026 1.000000   UPBROW1027 1.000000
    SPFP37   QPFP37   1.000000   SHORTAGE 0.476975
    SPFP37   LOBROW1028 1.000000   UPBROW1029 1.000000
    SPFP38   QPFP38   1.000000   SHORTAGE 0.482227
    SPFP38   LOBROW1030 1.000000   UPBROW1031 1.000000
    SLPP31   QLPP31   1.000000   SHORTAGE 0.147104
    SLPP31   LOBROW1032 1.000000   UPBROW1033 1.000000
    SLPP32   QLPP32   1.000000   SHORTAGE 0.148964
    SLPP32   LOBROW1034 1.000000   UPBROW1035 1.000000
    SLPP33   QLPP33   1.000000   SHORTAGE 0.141099
    SLPP33   LOBROW1036 1.000000   UPBROW1037 1.000000
    SLPP34   QLPP34   1.000000   SHORTAGE 0.141578
    SLPP34   LOBROW1038 1.000000   UPBROW1039 1.000000
    SLPP35   QLPP35   1.000000   SHORTAGE 0.112385
    SLPP35   LOBROW1040 1.000000   UPBROW1041 1.000000
    SLPP36   QLPP36   1.000000   SHORTAGE 0.118451
    SLPP36   LOBROW1042 1.000000   UPBROW1043 1.000000
    SLPP37   QLPP37   1.000000   SHORTAGE 0.147462
    SLPP37   LOBROW1044 1.000000   UPBROW1045 1.000000
    SLPP38   QLPP38   1.000000   SHORTAGE 0.155481
    SLPP38   LOBROW1046 1.000000   UPBROW1047 1.000000
    SOTP31   QOTP31   1.000000   SHORTAGE 0.146473
    SOTP31   LOBROW1048 1.000000   UPBROW1049 1.000000
    SOTP32   QOTP32   1.000000   SHORTAGE 0.144475
    SOTP32   LOBROW1050 1.000000   UPBROW1051 1.000000
    SOTP33   QOTP33   1.000000   SHORTAGE 0.155518
    SOTP33   LOBROW1052 1.000000   UPBROW1053 1.000000
    SOTP34   QOTP34   1.000000   SHORTAGE 0.149003
    SOTP34   LOBROW1054 1.000000   UPBROW1055 1.000000
    SOTP35   QOTP35   1.000000   SHORTAGE 0.156615
    SOTP35   LOBROW1056 1.000000   UPBROW1057 1.000000
    SOTP36   QOTP36   1.000000   SHORTAGE 0.162772
    SOTP36   LOBROW1058 1.000000   UPBROW1059 1.000000
    SOTP37   QOTP37   1.000000   SHORTAGE 0.162689
    SOTP37   LOBROW1060 1.000000   UPBROW1061 1.000000
    SOTP38   QOTP38   1.000000   SHORTAGE 0.159005
    SOTP38   LOBROW1062 1.000000   UPBROW1063 1.000000
    SGAP41   QGAP41   1.000000   SHORTAGE 0.424270
    SGAP41   LOBROW1064 1.000000   UPBROW1065 1.000000
    SGAP42   QGAP42   1.000000   SHORTAGE 0.418891
    SGAP42   LOBROW1066 1.000000   UPBROW1067 1.000000
    SGAP43   QGAP43   1.000000   SHORTAGE 0.412766
    SGAP43   LOBROW1068 1.000000   UPBROW1069 1.000000
    SGAP44   QGAP44   1.000000   SHORTAGE 0.461357
    SGAP44   LOBROW1070 1.000000   UPBROW1071 1.000000
    SGAP45   QGAP45   1.000000   SHORTAGE 0.520667
    SGAP45   LOBROW1072 1.000000   UPBROW1073 1.000000
    SGAP46   QGAP46   1.000000   SHORTAGE 0.573742
    SGAP46   LOBROW1074 1.000000   UPBROW1075 1.000000
    SGAP47   QGAP47   1.000000   SHORTAGE 0.465412
    SGAP47   LOBROW1076 1.000000   UPBROW1077 1.000000
    SGAP48   QGAP48   1.000000   SHORTAGE 0.423850
    SGAP48   LOBROW1078 1.000000   UPBROW1079 1.000000
    SDSP41   QDSP41   1.000000   SHORTAGE 1.078725
    SDSP41   LOBROW1080 1.000000   UPBROW1081 1.000000
    SDSP42   QDSP42   1.000000   SHORTAGE 1.137658
    SDSP42   LOBROW1082 1.000000   UPBROW1083 1.000000
    SDSP43   QDSP43   1.000000   SHORTAGE 1.156430
    SDSP43   LOBROW1084 1.000000   UPBROW1085 1.000000
    SDSP44   QDSP44   1.000000   SHORTAGE 0.975050
    SDSP44   LOBROW1086 1.000000   UPBROW1087 1.000000
    SDSP45   QDSP45   1.000000   SHORTAGE 0.953421
    SDSP45   LOBROW1088 1.000000   UPBROW1089 1.000000
    SDSP46   QDSP46   1.000000   SHORTAGE 1.265409
    SDSP46   LOBROW1090 1.000000   UPBROW1091 1.000000
    SDSP47   QDSP47   1.000000   SHORTAGE 1.157717
    SDSP47   LOBROW1092 1.000000   UPBROW1093 1.000000
    SDSP48   QDSP48   1.000000   SHORTAGE 1.175497
    SDSP48   LOBROW1094 1.000000   UPBROW1095 1.000000
    SRSP41   QRSP41   1.000000   SHORTAGE 5.290408
    SRSP41   LOBROW1096 1.000000   UPBROW1097 1.000000
    SRSP42   QRSP42   1.000000   SHORTAGE 5.696161
    SRSP42   LOBROW1098 1.000000   UPBROW1099 1.000000
    SRSP43   QRSP43   1.000000   SHORTAGE 5.655583
    SRSP43   LOBROW1100 1.000000   UPBROW1101 1.000000
    SRSP44   QRSP44   1.000000   SHORTAGE 4.676943
    SRSP44   LOBROW1102 1.000000   UPBROW1103 1.000000
    SRSP45   QRSP45   1.000000   SHORTAGE 3.471739
    SRSP45   LOBROW1104 1.000000   UPBROW1105 1.000000
    SRSP46   QRSP46   1.000000   SHORTAGE 3.508228
    SRSP46   LOBROW1106 1.000000   UPBROW1107 1.000000
    SRSP47   QRSP47   1.000000   SHORTAGE 4.618144
    SRSP47   LOBROW1108 1.000000   UPBROW1109 1.000000
    SRSP48   QRSP48   1.000000   SHORTAGE 4.652681
    SRSP48   LOBROW1110 1.000000   UPBROW1111 1.000000
    SKJP41   QKJP41   1.000000   SHORTAGE 4.018650
    SKJP41   LOBROW1112 1.000000   UPBROW1113 1.000000
    SKJP42   QKJP42   1.000000   SHORTAGE 4.059778
    SKJP42   LOBROW1114 1.000000   UPBROW1115 1.000000
    SKJP43   QKJP43   1.000000   SHORTAGE 3.827916
    SKJP43   LOBROW1116 1.000000   UPBROW1117 1.000000
    SKJP44   QKJP44   1.000000   SHORTAGE 4.143216
    SKJP44   LOBROW1118 1.000000   UPBROW1119 1.000000
    SKJP45   QKJP45   1.000000   SHORTAGE 4.223039
    SKJP45   LOBROW1120 1.000000   UPBROW1121 1.000000
    SKJP46   QKJP46   1.000000   SHORTAGE 5.022708
    SKJP46   LOBROW1122 1.000000   UPBROW1123 1.000000
    SKJP47   QKJP47   1.000000   SHORTAGE 4.561891
    SKJP47   LOBROW1124 1.000000   UPBROW1125 1.000000
    SKJP48   QKJP48   1.000000   SHORTAGE 4.114079
    SKJP48   LOBROW1126 1.000000   UPBROW1127 1.000000
    SNJP41   QNJP41   1.000000   SHORTAGE 10.864693
    SNJP41   LOBROW1128 1.000000   UPBROW1129 1.000000
    SNJP42   QNJP42   1.000000   SHORTAGE 15.848481
    SNJP42   LOBROW1130 1.000000   UPBROW1131 1.000000
    SNJP43   QNJP43   1.000000   SHORTAGE 12.500811
    SNJP43   LOBROW1132 1.000000   UPBROW1133 1.000000
    SNJP44   QNJP44   1.000000   SHORTAGE 12.710386
    SNJP44   LOBROW1134 1.000000   UPBROW1135 1.000000
    SNJP45   QNJP45   1.000000   SHORTAGE 14.751899
    SNJP45   LOBROW1136 1.000000   UPBROW1137 1.000000
    SNJP46   QNJP46   1.000000   SHORTAGE 16.315689
    SNJP46   LOBROW1138 1.000000   UPBROW1139 1.000000
    SNJP47   QNJP47   1.000000   SHORTAGE 14.224612
    SNJP47   LOBROW1140 1.000000   UPBROW1141 1.000000
    SNJP48   QNJP48   1.000000   SHORTAGE 14.534360
    SNJP48   LOBROW1142 1.000000   UPBROW1143 1.000000
    SPFP41   QPFP41   1.000000   SHORTAGE 132.454391
    SPFP41   LOBROW1144 1.000000   UPBROW1145 1.000000
    SPFP42   QPFP42   1.000000   SHORTAGE 128.826324
    SPFP42   LOBROW1146 1.000000   UPBROW1147 1.000000
    SPFP43   QPFP43   1.000000   SHORTAGE 179.887390
    SPFP43   LOBROW1148 1.000000   UPBROW1149 1.000000
    SPFP44   QPFP44   1.000000   SHORTAGE 93.472702
    SPFP44   LOBROW1150 1.000000   UPBROW1151 1.000000
    SPFP45   QPFP45   1.000000   SHORTAGE 99.601715
    SPFP45   LOBROW1152 1.000000   UPBROW1153 1.000000
    SPFP46   QPFP46   1.000000   SHORTAGE 163.531006
    SPFP46   LOBROW1154 1.000000   UPBROW1155 1.000000
    SPFP47   QPFP47   1.000000   SHORTAGE 175.102890
    SPFP47   LOBROW1156 1.000000   UPBROW1157 1.000000
    SPFP48   QPFP48   1.000000   SHORTAGE 152.657501
    SPFP48   LOBROW1158 1.000000   UPBROW1159 1.000000
    SLPP41   QLPP41   1.000000   SHORTAGE 2.525610
    SLPP41   LOBROW1160 1.000000   UPBROW1161 1.000000
    SLPP42   QLPP42   1.000000   SHORTAGE 2.741940
    SLPP42   LOBROW1162 1.000000   UPBROW1163 1.000000
    SLPP43   QLPP43   1.000000   SHORTAGE 2.841696
    SLPP43   LOBROW1164 1.000000   UPBROW1165 1.000000
    SLPP44   QLPP44   1.000000   SHORTAGE 2.679461
    SLPP44   LOBROW1166 1.000000   UPBROW1167 1.000000
    SLPP45   QLPP45   1.000000   SHORTAGE 2.269223
    SLPP45   LOBROW1168 1.000000   UPBROW1169 1.000000
    SLPP46   QLPP46   1.000000   SHORTAGE 2.038697
    SLPP46   LOBROW1170 1.000000   UPBROW1171 1.000000
    SLPP47   QLPP47   1.000000   SHORTAGE 2.408115
    SLPP47   LOBROW1172 1.000000   UPBROW1173 1.000000
    SLPP48   QLPP48   1.000000   SHORTAGE 2.973405
    SLPP48   LOBROW1174 1.000000   UPBROW1175 1.000000
    SOTP41   QOTP41   1.000000   SHORTAGE 0.953439
    SOTP41   LOBROW1176 1.000000   UPBROW1177 1.000000
    SOTP42   QOTP42   1.000000   SHORTAGE 0.918975
    SOTP42   LOBROW1178 1.000000   UPBROW1179 1.000000
    SOTP43   QOTP43   1.000000   SHORTAGE 0.862331
    SOTP43   LOBROW1180 1.000000   UPBROW1181 1.000000
    SOTP44   QOTP44   1.000000   SHORTAGE 0.991844
    SOTP44   LOBROW1182 1.000000   UPBROW1183 1.000000
    SOTP45   QOTP45   1.000000   SHORTAGE 1.587003
    SOTP45   LOBROW1184 1.000000   UPBROW1185 1.000000
    SOTP46   QOTP46   1.000000   SHORTAGE 2.045012
    SOTP46   LOBROW1186 1.000000   UPBROW1187 1.000000
    SOTP47   QOTP47   1.000000   SHORTAGE 1.332575
    SOTP47   LOBROW1188 1.000000   UPBROW1189 1.000000
    SOTP48   QOTP48   1.000000   SHORTAGE 0.979551
    SOTP48   LOBROW1190 1.000000   UPBROW1191 1.000000
    SGAP51   QGAP51   1.000000   SHORTAGE 0.096837
    SGAP51   LOBROW1192 1.000000   UPBROW1193 1.000000
    SGAP52   QGAP52   1.000000   SHORTAGE 0.097491
    SGAP52   LOBROW1194 1.000000   UPBROW1195 1.000000
    SGAP53   QGAP53   1.000000   SHORTAGE 0.096903
    SGAP53   LOBROW1196 1.000000   UPBROW1197 1.000000
    SGAP54   QGAP54   1.000000   SHORTAGE 0.099646
    SGAP54   LOBROW1198 1.000000   UPBROW1199 1.000000
    SGAP55   QGAP55   1.000000   SHORTAGE 0.103060
    SGAP55   LOBROW1200 1.000000   UPBROW1201 1.000000
    SGAP56   QGAP56   1.000000   SHORTAGE 0.109768
    SGAP56   LOBROW1202 1.000000   UPBROW1203 1.000000
    SGAP57   QGAP57   1.000000   SHORTAGE 0.097755
    SGAP57   LOBROW1204 1.000000   UPBROW1205 1.000000
    SGAP58   QGAP58   1.000000   SHORTAGE 0.096591
    SGAP58   LOBROW1206 1.000000   UPBROW1207 1.000000
    SDSP51   QDSP51   1.000000   SHORTAGE 0.363977
    SDSP51   LOBROW1208 1.000000   UPBROW1209 1.000000
    SDSP52   QDSP52   1.000000   SHORTAGE 0.329748
    SDSP52   LOBROW1210 1.000000   UPBROW1211 1.000000
    SDSP53   QDSP53   1.000000   SHORTAGE 0.375465
    SDSP53   LOBROW1212 1.000000   UPBROW1213 1.000000
    SDSP54   QDSP54   1.000000   SHORTAGE 0.360883
    SDSP54   LOBROW1214 1.000000   UPBROW1215 1.000000
    SDSP55   QDSP55   1.000000   SHORTAGE 0.307729
    SDSP55   LOBROW1216 1.000000   UPBROW1217 1.000000
    SDSP56   QDSP56   1.000000   SHORTAGE 0.347006
    SDSP56   LOBROW1218 1.000000   UPBROW1219 1.000000
    SDSP57   QDSP57   1.000000   SHORTAGE 0.383292
    SDSP57   LOBROW1220 1.000000   UPBROW1221 1.000000
    SDSP58   QDSP58   1.000000   SHORTAGE 0.382779
    SDSP58   LOBROW1222 1.000000   UPBROW1223 1.000000
    SRSP51   QRSP51   1.000000   SHORTAGE 0.353326
    SRSP51   LOBROW1224 1.000000   UPBROW1225 1.000000
    SRSP52   QRSP52   1.000000   SHORTAGE 0.387263
    SRSP52   LOBROW1226 1.000000   UPBROW1227 1.000000
    SRSP53   QRSP53   1.000000   SHORTAGE 0.357619
    SRSP53   LOBROW1228 1.000000   UPBROW1229 1.000000
    SRSP54   QRSP54   1.000000   SHORTAGE 0.394697
    SRSP54   LOBROW1230 1.000000   UPBROW1231 1.000000
    SRSP55   QRSP55   1.000000   SHORTAGE 0.283776
    SRSP55   LOBROW1232 1.000000   UPBROW1233 1.000000
    SRSP56   QRSP56   1.000000   SHORTAGE 0.255831
    SRSP56   LOBROW1234 1.000000   UPBROW1235 1.000000
    SRSP57   QRSP57   1.000000   SHORTAGE 0.317001
    SRSP57   LOBROW1236 1.000000   UPBROW1237 1.000000
    SRSP58   QRSP58   1.000000   SHORTAGE 0.332294
    SRSP58   LOBROW1238 1.000000   UPBROW1239 1.000000
    SKJP51   QKJP51   1.000000   SHORTAGE 0.388063
    SKJP51   LOBROW1240 1.000000   UPBROW1241 1.000000
    SKJP52   QKJP52   1.000000   SHORTAGE 0.400376
    SKJP52   LOBROW1242 1.000000   UPBROW1243 1.000000
    SKJP53   QKJP53   1.000000   SHORTAGE 0.425787
    SKJP53   LOBROW1244 1.000000   UPBROW1245 1.000000
    SKJP54   QKJP54   1.000000   SHORTAGE 0.398143
    SKJP54   LOBROW1246 1.000000   UPBROW1247 1.000000
    SKJP55   QKJP55   1.000000   SHORTAGE 0.397663
    SKJP55   LOBROW1248 1.000000   UPBROW1249 1.000000
    SKJP56   QKJP56   1.000000   SHORTAGE 0.439598
    SKJP56   LOBROW1250 1.000000   UPBROW1251 1.000000
    SKJP57   QKJP57   1.000000   SHORTAGE 0.434184
    SKJP57   LOBROW1252 1.000000   UPBROW1253 1.000000
    SKJP58   QKJP58   1.000000   SHORTAGE 0.418847
    SKJP58   LOBROW1254 1.000000   UPBROW1255 1.000000
    SNJP51   QNJP51   1.000000   SHORTAGE 1.339123
    SNJP51   LOBROW1256 1.000000   UPBROW1257 1.000000
    SNJP52   QNJP52   1.000000   SHORTAGE 1.510204
    SNJP52   LOBROW1258 1.000000   UPBROW1259 1.000000
    SNJP53   QNJP53   1.000000   SHORTAGE 1.524928
    SNJP53   LOBROW1260 1.000000   UPBROW1261 1.000000
    SNJP54   QNJP54   1.000000   SHORTAGE 1.097956
    SNJP54   LOBROW1262 1.000000   UPBROW1263 1.000000
    SNJP55   QNJP55   1.000000   SHORTAGE 1.045207
    SNJP55   LOBROW1264 1.000000   UPBROW1265 1.000000
    SNJP56   QNJP56   1.000000   SHORTAGE 1.386017
    SNJP56   LOBROW1266 1.000000   UPBROW1267 1.000000
    SNJP57   QNJP57   1.000000   SHORTAGE 1.352881
    SNJP57   LOBROW1268 1.000000   UPBROW1269 1.000000
    SNJP58   QNJP58   1.000000   SHORTAGE 1.450454
    SNJP58   LOBROW1270 1.000000   UPBROW1271 1.000000
    SPFP51   QPFP51   1.000000   SHORTAGE 3.439886
    SPFP51   LOBROW1272 1.000000   UPBROW1273 1.000000
    SPFP52   QPFP52   1.000000   SHORTAGE 4.590393
    SPFP52   LOBROW1274 1.000000   UPBROW1275 1.000000
    SPFP53   QPFP53   1.000000   SHORTAGE 4.049901
    SPFP53   LOBROW1276 1.000000   UPBROW1277 1.000000
    SPFP54   QPFP54   1.000000   SHORTAGE 3.172182
    SPFP54   LOBROW1278 1.000000   UPBROW1279 1.000000
    SPFP55   QPFP55   1.000000   SHORTAGE 4.253501
    SPFP55   LOBROW1280 1.000000   UPBROW1281 1.000000
    SPFP56   QPFP56   1.000000   SHORTAGE 5.834763
    SPFP56   LOBROW1282 1.000000   UPBROW1283 1.000000
    SPFP57   QPFP57   1.000000   SHORTAGE 4.527940
    SPFP57   LOBROW1284 1.000000   UPBROW1285 1.000000
    SPFP58   QPFP58   1.000000   SHORTAGE 4.691695
    SPFP58   LOBROW1286 1.000000   UPBROW1287 1.000000
    SLPP51   QLPP51   1.000000   SHORTAGE 1.701782
    SLPP51   LOBROW1288 1.000000   UPBROW1289 1.000000
    SLPP52   QLPP52   1.000000   SHORTAGE 1.573605
    SLPP52   LOBROW1290 1.000000   UPBROW1291 1.000000
    SLPP53   QLPP53   1.000000   SHORTAGE 1.660325
    SLPP53   LOBROW1292 1.000000   UPBROW1293 1.000000
    SLPP54   QLPP54   1.000000   SHORTAGE 1.576273
    SLPP54   LOBROW1294 1.000000   UPBROW1295 1.000000
    SLPP55   QLPP55   1.000000   SHORTAGE 1.201875
    SLPP55   LOBROW1296 1.000000   UPBROW1297 1.000000
    SLPP56   QLPP56   1.000000   SHORTAGE 1.349604
    SLPP56   LOBROW1298 1.000000   UPBROW1299 1.000000
    SLPP57   QLPP57   1.000000   SHORTAGE 1.467562
    SLPP57   LOBROW1300 1.000000   UPBROW1301 1.000000
    SLPP58   QLPP58   1.000000   SHORTAGE 1.729532
    SLPP58   LOBROW1302 1.000000   UPBROW1303 1.000000
    SOTP51   QOTP51   1.000000   SHORTAGE 0.272299
    SOTP51   LOBROW1304 1.000000   UPBROW1305 1.000000
    SOTP52   QOTP52   1.000000   SHORTAGE 0.268307
    SOTP52   LOBROW1306 1.000000   UPBROW1307 1.000000
    SOTP53   QOTP53   1.000000   SHORTAGE 0.272460
    SOTP53   LOBROW1308 1.000000   UPBROW1309 1.000000
    SOTP54   QOTP54   1.000000   SHORTAGE 0.319648
    SOTP54   LOBROW1310 1.000000   UPBROW1311 1.000000
    SOTP55   QOTP55   1.000000   SHORTAGE 0.299527
    SOTP55   LOBROW1312 1.000000   UPBROW1313 1.000000
    SOTP56   QOTP56   1.000000   SHORTAGE 0.353151
    SOTP56   LOBROW1314 1.000000   UPBROW1315 1.000000
    SOTP57   QOTP57   1.000000   SHORTAGE 0.306309
    SOTP57   LOBROW1316 1.000000   UPBROW1317 1.000000
    SOTP58   QOTP58   1.000000   SHORTAGE 0.302816
    SOTP58   LOBROW1318 1.000000   UPBROW1319 1.000000
    ROTP5P38 AP5P38   1.000000   QOTP58   1.000000
    ROTP5P38 QOTP38   -1.000000   LOBROW4214 1.000000
    ROTP5P38 UPBROW4215 1.000000
    ROTP5P37 AP5P37   1.000000   QOTP57   1.000000
    ROTP5P37 QOTP37   -1.000000   LOBROW4212 1.000000
    ROTP5P37 UPBROW4213 1.000000
    ROTP5P36 AP5P36   1.000000   QOTP56   1.000000
    ROTP5P36 QOTP36   -1.000000   LOBROW4210 1.000000
    ROTP5P36 UPBROW4211 1.000000
    ROTP5P35 AP5P35   1.000000   QOTP55   1.000000
    ROTP5P35 QOTP35   -1.000000   LOBROW4208 1.000000
    ROTP5P35 UPBROW4209 1.000000
    ROTP5P34 AP5P34   1.000000   QOTP54   1.000000
    ROTP5P34 QOTP34   -1.000000   LOBROW4206 1.000000
    ROTP5P34 UPBROW4207 1.000000
    ROTP5P33 AP5P33   1.000000   QOTP53   1.000000
    ROTP5P33 QOTP33   -1.000000   LOBROW4204 1.000000
    ROTP5P33 UPBROW4205 1.000000
    ROTP5P32 AP5P32   1.000000   QOTP52   1.000000
    ROTP5P32 QOTP32   -1.000000   LOBROW4202 1.000000
    ROTP5P32 UPBROW4203 1.000000
    ROTP5P31 AP5P31   1.000000   QOTP51   1.000000
    ROTP5P31 QOTP31   -1.000000   LOBROW4200 1.000000
    ROTP5P31 UPBROW4201 1.000000
    ROTP4P38 AP4P38   1.000000   QOTP48   1.000000
    ROTP4P38 QOTP38   -1.000000   LOBROW4198 1.000000
    ROTP4P38 UPBROW4199 1.000000
    ROTP4P37 AP4P37   1.000000   QOTP47   1.000000
    ROTP4P37 QOTP37   -1.000000   LOBROW4196 1.000000
    ROTP4P37 UPBROW4197 1.000000
    ROTP4P36 AP4P36   1.000000   QOTP46   1.000000
    ROTP4P36 QOTP36   -1.000000   LOBROW4194 1.000000
    ROTP4P36 UPBROW4195 1.000000
    ROTP4P35 AP4P35   1.000000   QOTP45   1.000000
    ROTP4P35 QOTP35   -1.000000   LOBROW4192 1.000000
    ROTP4P35 UPBROW4193 1.000000
    ROTP4P34 AP4P34   1.000000   QOTP44   1.000000
    ROTP4P34 QOTP34   -1.000000   LOBROW4190 1.000000
    ROTP4P34 UPBROW4191 1.000000
    ROTP4P33 AP4P33   1.000000   QOTP43   1.000000
    ROTP4P33 QOTP33   -1.000000   LOBROW4188 1.000000
    ROTP4P33 UPBROW4189 1.000000
    ROTP4P32 AP4P32   1.000000   QOTP42   1.000000
    ROTP4P32 QOTP32   -1.000000   LOBROW4186 1.000000
    ROTP4P32 UPBROW4187 1.000000
    ROTP4P31 AP4P31   1.000000   QOTP41   1.000000
    ROTP4P31 QOTP31   -1.000000   LOBROW4184 1.000000
    ROTP4P31 UPBROW4185 1.000000
    ROTP2P48 AP2P48   1.000000   QOTP28   1.000000
    ROTP2P48 QOTP48   -1.000000   LOBROW4182 1.000000
    ROTP2P48 UPBROW4183 1.000000
    ROTP2P47 AP2P47   1.000000   QOTP27   1.000000
    ROTP2P47 QOTP47   -1.000000   LOBROW4180 1.000000
    ROTP2P47 UPBROW4181 1.000000
    ROTP2P46 AP2P46   1.000000   QOTP26   1.000000
    ROTP2P46 QOTP46   -1.000000   LOBROW4178 1.000000
    ROTP2P46 UPBROW4179 1.000000
    ROTP2P45 AP2P45   1.000000   QOTP25   1.000000
    ROTP2P45 QOTP45   -1.000000   LOBROW4176 1.000000
    ROTP2P45 UPBROW4177 1.000000
    ROTP2P44 AP2P44   1.000000   QOTP24   1.000000
    ROTP2P44 QOTP44   -1.000000   LOBROW4174 1.000000
    ROTP2P44 UPBROW4175 1.000000
    ROTP2P43 AP2P43   1.000000   QOTP23   1.000000
    ROTP2P43 QOTP43   -1.000000   LOBROW4172 1.000000
    ROTP2P43 UPBROW4173 1.000000
    ROTP2P42 AP2P42   1.000000   QOTP22   1.000000
    ROTP2P42 QOTP42   -1.000000   LOBROW4170 1.000000
    ROTP2P42 UPBROW4171 1.000000
    ROTP2P41 AP2P41   1.000000   QOTP21   1.000000
    ROTP2P41 QOTP41   -1.000000   LOBROW4168 1.000000
    ROTP2P41 UPBROW4169 1.000000
    ROTP2P38 AP2P38   1.000000   QOTP28   1.000000
    ROTP2P38 QOTP38   -1.000000   LOBROW4166 1.000000
    ROTP2P38 UPBROW4167 1.000000
    ROTP2P37 AP2P37   1.000000   QOTP27   1.000000
    ROTP2P37 QOTP37   -1.000000   LOBROW4164 1.000000
    ROTP2P37 UPBROW4165 1.000000
    ROTP2P36 AP2P36   1.000000   QOTP26   1.000000
    ROTP2P36 QOTP36   -1.000000   LOBROW4162 1.000000
    ROTP2P36 UPBROW4163 1.000000
    ROTP2P35 AP2P35   1.000000   QOTP25   1.000000
    ROTP2P35 QOTP35   -1.000000   LOBROW4160 1.000000
    ROTP2P35 UPBROW4161 1.000000
    ROTP2P34 AP2P34   1.000000   QOTP24   1.000000
    ROTP2P34 QOTP34   -1.000000   LOBROW4158 1.000000
    ROTP2P34 UPBROW4159 1.000000
    ROTP2P33 AP2P33   1.000000   QOTP23   1.000000
    ROTP2P33 QOTP33   -1.000000   LOBROW4156 1.000000
    ROTP2P33 UPBROW4157 1.000000
    ROTP2P32 AP2P32   1.000000   QOTP22   1.000000
    ROTP2P32 QOTP32   -1.000000   LOBROW4154 1.000000
    ROTP2P32 UPBROW4155 1.000000
    ROTP2P31 AP2P31   1.000000   QOTP21   1.000000
    ROTP2P31 QOTP31   -1.000000   LOBROW4152 1.000000
    ROTP2P31 UPBROW4153 1.000000
    ROTP2P18 AP2P18   1.000000   QOTP28   1.000000
    ROTP2P18 QOTP18   -1.000000   LOBROW4150 1.000000
    ROTP2P18 UPBROW4151 1.000000
    ROTP2P17 AP2P17   1.000000   QOTP27   1.000000
    ROTP2P17 QOTP17   -1.000000   LOBROW4148 1.000000
    ROTP2P17 UPBROW4149 1.000000
    ROTP2P16 AP2P16   1.000000   QOTP26   1.000000
    ROTP2P16 QOTP16   -1.000000   LOBROW4146 1.000000
    ROTP2P16 UPBROW4147 1.000000
    ROTP2P15 AP2P15   1.000000   QOTP25   1.000000
    ROTP2P15 QOTP15   -1.000000   LOBROW4144 1.000000
    ROTP2P15 UPBROW4145 1.000000
    ROTP2P14 AP2P14   1.000000   QOTP24   1.000000
    ROTP2P14 QOTP14   -1.000000   LOBROW4142 1.000000
    ROTP2P14 UPBROW4143 1.000000
    ROTP2P13 AP2P13   1.000000   QOTP23   1.000000
    ROTP2P13 QOTP13   -1.000000   LOBROW4140 1.000000
    ROTP2P13 UPBROW4141 1.000000
    ROTP2P12 AP2P12   1.000000   QOTP22   1.000000
    ROTP2P12 QOTP12   -1.000000   LOBROW4138 1.000000
    ROTP2P12 UPBROW4139 1.000000
    ROTP2P11 AP2P11   1.000000   QOTP21   1.000000
    ROTP2P11 QOTP11   -1.000000   LOBROW4136 1.000000
    ROTP2P11 UPBROW4137 1.000000
    ROTP1P58 AP1P58   1.000000   QOTP18   1.000000
    ROTP1P58 QOTP58   -1.000000   LOBROW4134 1.000000
    ROTP1P58 UPBROW4135 1.000000
    ROTP1P57 AP1P57   1.000000   QOTP17   1.000000
    ROTP1P57 QOTP57   -1.000000   LOBROW4132 1.000000
    ROTP1P57 UPBROW4133 1.000000
    ROTP1P56 AP1P56   1.000000   QOTP16   1.000000
    ROTP1P56 QOTP56   -1.000000   LOBROW4130 1.000000
    ROTP1P56 UPBROW4131 1.000000
    ROTP1P55 AP1P55   1.000000   QOTP15   1.000000
    ROTP1P55 QOTP55   -1.000000   LOBROW4128 1.000000
    ROTP1P55 UPBROW4129 1.000000
    ROTP1P54 AP1P54   1.000000   QOTP14   1.000000
    ROTP1P54 QOTP54   -1.000000   LOBROW4126 1.000000
    ROTP1P54 UPBROW4127 1.000000
    ROTP1P53 AP1P53   1.000000   QOTP13   1.000000
    ROTP1P53 QOTP53   -1.000000   LOBROW4124 1.000000
    ROTP1P53 UPBROW4125 1.000000
    ROTP1P52 AP1P52   1.000000   QOTP12   1.000000
    ROTP1P52 QOTP52   -1.000000   LOBROW4122 1.000000
    ROTP1P52 UPBROW4123 1.000000
    ROTP1P51 AP1P51   1.000000   QOTP11   1.000000
    ROTP1P51 QOTP51   -1.000000   LOBROW4120 1.000000
    ROTP1P51 UPBROW4121 1.000000
    ROTP1P38 AP1P38   1.000000   QOTP18   1.000000
    ROTP1P38 QOTP38   -1.000000   LOBROW4118 1.000000
    ROTP1P38 UPBROW4119 1.000000
    ROTP1P37 AP1P37   1.000000   QOTP17   1.000000
    ROTP1P37 QOTP37   -1.000000   LOBROW4116 1.000000
    ROTP1P37 UPBROW4117 1.000000
    ROTP1P36 AP1P36   1.000000   QOTP16   1.000000
    ROTP1P36 QOTP36   -1.000000   LOBROW4114 1.000000
    ROTP1P36 UPBROW4115 1.000000
    ROTP1P35 AP1P35   1.000000   QOTP15   1.000000
    ROTP1P35 QOTP35   -1.000000   LOBROW4112 1.000000
    ROTP1P35 UPBROW4113 1.000000
    ROTP1P34 AP1P34   1.000000   QOTP14   1.000000
    ROTP1P34 QOTP34   -1.000000   LOBROW4110 1.000000
    ROTP1P34 UPBROW4111 1.000000
    ROTP1P33 AP1P33   1.000000   QOTP13   1.000000
    ROTP1P33 QOTP33   -1.000000   LOBROW4108 1.000000
    ROTP1P33 UPBROW4109 1.000000
    ROTP1P32 AP1P32   1.000000   QOTP12   1.000000
    ROTP1P32 QOTP32   -1.000000   LOBROW4106 1.000000
    ROTP1P32 UPBROW4107 1.000000
    ROTP1P31 AP1P31   1.000000   QOTP11   1.000000
    ROTP1P31 QOTP31   -1.000000   LOBROW4104 1.000000
    ROTP1P31 UPBROW4105 1.000000
    ROTP1P28 AP1P28   1.000000   QOTP18   1.000000
    ROTP1P28 QOTP28   -1.000000   LOBROW4102 1.000000
    ROTP1P28 UPBROW4103 1.000000
    ROTP1P27 AP1P27   1.000000   QOTP17   1.000000
    ROTP1P27 QOTP27   -1.000000   LOBROW4100 1.000000
    ROTP1P27 UPBROW4101 1.000000
    ROTP1P26 AP1P26   1.000000   QOTP16   1.000000
    ROTP1P26 QOTP26   -1.000000   LOBROW4098 1.000000
    ROTP1P26 UPBROW4099 1.000000
    ROTP1P25 AP1P25   1.000000   QOTP15   1.000000
    ROTP1P25 QOTP25   -1.000000   LOBROW4096 1.000000
    ROTP1P25 UPBROW4097 1.000000
    ROTP1P24 AP1P24   1.000000   QOTP14   1.000000
    ROTP1P24 QOTP24   -1.000000   LOBROW4094 1.000000
    ROTP1P24 UPBROW4095 1.000000
    ROTP1P23 AP1P23   1.000000   QOTP13   1.000000
    ROTP1P23 QOTP23   -1.000000   LOBROW4092 1.000000
    ROTP1P23 UPBROW4093 1.000000
    ROTP1P22 AP1P22   1.000000   QOTP12   1.000000
    ROTP1P22 QOTP22   -1.000000   LOBROW4090 1.000000
    ROTP1P22 UPBROW4091 1.000000
    ROTP1P21 AP1P21   1.000000   QOTP11   1.000000
    ROTP1P21 QOTP21   -1.000000   LOBROW4088 1.000000
    ROTP1P21 UPBROW4089 1.000000
    RLPP2P38 AP2P38   1.000000   QLPP28   1.000000
    RLPP2P38 QLPP38   -1.000000   LOBROW4086 1.000000
    RLPP2P38 UPBROW4087 1.000000
    RLPP2P37 AP2P37   1.000000   QLPP27   1.000000
    RLPP2P37 QLPP37   -1.000000   LOBROW4084 1.000000
    RLPP2P37 UPBROW4085 1.000000
    RLPP2P36 AP2P36   1.000000   QLPP26   1.000000
    RLPP2P36 QLPP36   -1.000000   LOBROW4082 1.000000
    RLPP2P36 UPBROW4083 1.000000
    RLPP2P35 AP2P35   1.000000   QLPP25   1.000000
    RLPP2P35 QLPP35   -1.000000   LOBROW4080 1.000000
    RLPP2P35 UPBROW4081 1.000000
    RLPP2P34 AP2P34   1.000000   QLPP24   1.000000
    RLPP2P34 QLPP34   -1.000000   LOBROW4078 1.000000
    RLPP2P34 UPBROW4079 1.000000
    RLPP2P33 AP2P33   1.000000   QLPP23   1.000000
    RLPP2P33 QLPP33   -1.000000   LOBROW4076 1.000000
    RLPP2P33 UPBROW4077 1.000000
    RLPP2P32 AP2P32   1.000000   QLPP22   1.000000
    RLPP2P32 QLPP32   -1.000000   LOBROW4074 1.000000
    RLPP2P32 UPBROW4075 1.000000
    RLPP2P31 AP2P31   1.000000   QLPP21   1.000000
    RLPP2P31 QLPP31   -1.000000   LOBROW4072 1.000000
    RLPP2P31 UPBROW4073 1.000000
    RLPP1P38 AP1P38   1.000000   QLPP18   1.000000
    RLPP1P38 QLPP38   -1.000000   LOBROW4070 1.000000
    RLPP1P38 UPBROW4071 1.000000
    RLPP1P37 AP1P37   1.000000   QLPP17   1.000000
    RLPP1P37 QLPP37   -1.000000   LOBROW4068 1.000000
    RLPP1P37 UPBROW4069 1.000000
    RLPP1P36 AP1P36   1.000000   QLPP16   1.000000
    RLPP1P36 QLPP36   -1.000000   LOBROW4066 1.000000
    RLPP1P36 UPBROW4067 1.000000
    RLPP1P35 AP1P35   1.000000   QLPP15   1.000000
    RLPP1P35 QLPP35   -1.000000   LOBROW4064 1.000000
    RLPP1P35 UPBROW4065 1.000000
    RLPP1P34 AP1P34   1.000000   QLPP14   1.000000
    RLPP1P34 QLPP34   -1.000000   LOBROW4062 1.000000
    RLPP1P34 UPBROW4063 1.000000
    RLPP1P33 AP1P33   1.000000   QLPP13   1.000000
    RLPP1P33 QLPP33   -1.000000   LOBROW4060 1.000000
    RLPP1P33 UPBROW4061 1.000000
    RLPP1P32 AP1P32   1.000000   QLPP12   1.000000
    RLPP1P32 QLPP32   -1.000000   LOBROW4058 1.000000
    RLPP1P32 UPBROW4059 1.000000
    RLPP1P31 AP1P31   1.000000   QLPP11   1.000000
    RLPP1P31 QLPP31   -1.000000   LOBROW4056 1.000000
    RLPP1P31 UPBROW4057 1.000000
    RPFP5P38 AP5P38   1.000000   QPFP58   1.000000
    RPFP5P38 QPFP38   -1.000000   LOBROW4054 1.000000
    RPFP5P38 UPBROW4055 1.000000
    RPFP5P37 AP5P37   1.000000   QPFP57   1.000000
    RPFP5P37 QPFP37   -1.000000   LOBROW4052 1.000000
    RPFP5P37 UPBROW4053 1.000000
    RPFP5P36 AP5P36   1.000000   QPFP56   1.000000
    RPFP5P36 QPFP36   -1.000000   LOBROW4050 1.000000
    RPFP5P36 UPBROW4051 1.000000
    RPFP5P35 AP5P35   1.000000   QPFP55   1.000000
    RPFP5P35 QPFP35   -1.000000   LOBROW4048 1.000000
    RPFP5P35 UPBROW4049 1.000000
    RPFP5P34 AP5P34   1.000000   QPFP54   1.000000
    RPFP5P34 QPFP34   -1.000000   LOBROW4046 1.000000
    RPFP5P34 UPBROW4047 1.000000
    RPFP5P33 AP5P33   1.000000   QPFP53   1.000000
    RPFP5P33 QPFP33   -1.000000   LOBROW4044 1.000000
    RPFP5P33 UPBROW4045 1.000000
    RPFP5P32 AP5P32   1.000000   QPFP52   1.000000
    RPFP5P32 QPFP32   -1.000000   LOBROW4042 1.000000
    RPFP5P32 UPBROW4043 1.000000
    RPFP5P31 AP5P31   1.000000   QPFP51   1.000000
    RPFP5P31 QPFP31   -1.000000   LOBROW4040 1.000000
    RPFP5P31 UPBROW4041 1.000000
    RPFP2P38 AP2P38   1.000000   QPFP28   1.000000
    RPFP2P38 QPFP38   -1.000000   LOBROW4038 1.000000
    RPFP2P38 UPBROW4039 1.000000
    RPFP2P37 AP2P37   1.000000   QPFP27   1.000000
    RPFP2P37 QPFP37   -1.000000   LOBROW4036 1.000000
    RPFP2P37 UPBROW4037 1.000000
    RPFP2P36 AP2P36   1.000000   QPFP26   1.000000
    RPFP2P36 QPFP36   -1.000000   LOBROW4034 1.000000
    RPFP2P36 UPBROW4035 1.000000
    RPFP2P35 AP2P35   1.000000   QPFP25   1.000000
    RPFP2P35 QPFP35   -1.000000   LOBROW4032 1.000000
    RPFP2P35 UPBROW4033 1.000000
    RPFP2P34 AP2P34   1.000000   QPFP24   1.000000
    RPFP2P34 QPFP34   -1.000000   LOBROW4030 1.000000
    RPFP2P34 UPBROW4031 1.000000
    RPFP2P33 AP2P33   1.000000   QPFP23   1.000000
    RPFP2P33 QPFP33   -1.000000   LOBROW4028 1.000000
    RPFP2P33 UPBROW4029 1.000000
    RPFP2P32 AP2P32   1.000000   QPFP22   1.000000
    RPFP2P32 QPFP32   -1.000000   LOBROW4026 1.000000
    RPFP2P32 UPBROW4027 1.000000
    RPFP2P31 AP2P31   1.000000   QPFP21   1.000000
    RPFP2P31 QPFP31   -1.000000   LOBROW4024 1.000000
    RPFP2P31 UPBROW4025 1.000000
    RPFP1P38 AP1P38   1.000000   QPFP18   1.000000
    RPFP1P38 QPFP38   -1.000000   LOBROW4022 1.000000
    RPFP1P38 UPBROW4023 1.000000
    RPFP1P37 AP1P37   1.000000   QPFP17   1.000000
    RPFP1P37 QPFP37   -1.000000   LOBROW4020 1.000000
    RPFP1P37 UPBROW4021 1.000000
    RPFP1P36 AP1P36   1.000000   QPFP16   1.000000
    RPFP1P36 QPFP36   -1.000000   LOBROW4018 1.000000
    RPFP1P36 UPBROW4019 1.000000
    RPFP1P35 AP1P35   1.000000   QPFP15   1.000000
    RPFP1P35 QPFP35   -1.000000   LOBROW4016 1.000000
    RPFP1P35 UPBROW4017 1.000000
    RPFP1P34 AP1P34   1.000000   QPFP14   1.000000
    RPFP1P34 QPFP34   -1.000000   LOBROW4014 1.000000
    RPFP1P34 UPBROW4015 1.000000
    RPFP1P33 AP1P33   1.000000   QPFP13   1.000000
    RPFP1P33 QPFP33   -1.000000   LOBROW4012 1.000000
    RPFP1P33 UPBROW4013 1.000000
    RPFP1P32 AP1P32   1.000000   QPFP12   1.000000
    RPFP1P32 QPFP32   -1.000000   LOBROW4010 1.000000
    RPFP1P32 UPBROW4011 1.000000
    RPFP1P31 AP1P31   1.000000   QPFP11   1.000000
    RPFP1P31 QPFP31   -1.000000   LOBROW4008 1.000000
    RPFP1P31 UPBROW4009 1.000000
    RNJP5P48 AP5P48   1.000000   QNJP58   1.000000
    RNJP5P48 QNJP48   -1.000000   LOBROW4006 1.000000
    RNJP5P48 UPBROW4007 1.000000
    RNJP5P47 AP5P47   1.000000   QNJP57   1.000000
    RNJP5P47 QNJP47   -1.000000   LOBROW4004 1.000000
    RNJP5P47 UPBROW4005 1.000000
    RNJP5P46 AP5P46   1.000000   QNJP56   1.000000
    RNJP5P46 QNJP46   -1.000000   LOBROW4002 1.000000
    RNJP5P46 UPBROW4003 1.000000
    RNJP5P45 AP5P45   1.000000   QNJP55   1.000000
    RNJP5P45 QNJP45   -1.000000   LOBROW4000 1.000000
    RNJP5P45 UPBROW4001 1.000000
    RNJP5P44 AP5P44   1.000000   QNJP54   1.000000
    RNJP5P44 QNJP44   -1.000000   LOBROW3998 1.000000
    RNJP5P44 UPBROW3999 1.000000
    RNJP5P43 AP5P43   1.000000   QNJP53   1.000000
    RNJP5P43 QNJP43   -1.000000   LOBROW3996 1.000000
    RNJP5P43 UPBROW3997 1.000000
    RNJP5P42 AP5P42   1.000000   QNJP52   1.000000
    RNJP5P42 QNJP42   -1.000000   LOBROW3994 1.000000
    RNJP5P42 UPBROW3995 1.000000
    RNJP5P41 AP5P41   1.000000   QNJP51   1.000000
    RNJP5P41 QNJP41   -1.000000   LOBROW3992 1.000000
    RNJP5P41 UPBROW3993 1.000000
    RNJP5P38 AP5P38   1.000000   QNJP58   1.000000
    RNJP5P38 QNJP38   -1.000000   LOBROW3990 1.000000
    RNJP5P38 UPBROW3991 1.000000
    RNJP5P37 AP5P37   1.000000   QNJP57   1.000000
    RNJP5P37 QNJP37   -1.000000   LOBROW3988 1.000000
    RNJP5P37 UPBROW3989 1.000000
    RNJP5P36 AP5P36   1.000000   QNJP56   1.000000
    RNJP5P36 QNJP36   -1.000000   LOBROW3986 1.000000
    RNJP5P36 UPBROW3987 1.000000
    RNJP5P35 AP5P35   1.000000   QNJP55   1.000000
    RNJP5P35 QNJP35   -1.000000   LOBROW3984 1.000000
    RNJP5P35 UPBROW3985 1.000000
    RNJP5P34 AP5P34   1.000000   QNJP54   1.000000
    RNJP5P34 QNJP34   -1.000000   LOBROW3982 1.000000
    RNJP5P34 UPBROW3983 1.000000
    RNJP5P33 AP5P33   1.000000   QNJP53   1.000000
    RNJP5P33 QNJP33   -1.000000   LOBROW3980 1.000000
    RNJP5P33 UPBROW3981 1.000000
    RNJP5P32 AP5P32   1.000000   QNJP52   1.000000
    RNJP5P32 QNJP32   -1.000000   LOBROW3978 1.000000
    RNJP5P32 UPBROW3979 1.000000
    RNJP5P31 AP5P31   1.000000   QNJP51   1.000000
    RNJP5P31 QNJP31   -1.000000   LOBROW3976 1.000000
    RNJP5P31 UPBROW3977 1.000000
    RNJP3P28 AP3P28   1.000000   QNJP38   1.000000
    RNJP3P28 QNJP28   -1.000000   LOBROW3974 1.000000
    RNJP3P28 UPBROW3975 1.000000
    RNJP3P27 AP3P27   1.000000   QNJP37   1.000000
    RNJP3P27 QNJP27   -1.000000   LOBROW3972 1.000000
    RNJP3P27 UPBROW3973 1.000000
    RNJP3P26 AP3P26   1.000000   QNJP36   1.000000
    RNJP3P26 QNJP26   -1.000000   LOBROW3970 1.000000
    RNJP3P26 UPBROW3971 1.000000
    RNJP3P25 AP3P25   1.000000   QNJP35   1.000000
    RNJP3P25 QNJP25   -1.000000   LOBROW3968 1.000000
    RNJP3P25 UPBROW3969 1.000000
    RNJP3P24 AP3P24   1.000000   QNJP34   1.000000
    RNJP3P24 QNJP24   -1.000000   LOBROW3966 1.000000
    RNJP3P24 UPBROW3967 1.000000
    RNJP3P23 AP3P23   1.000000   QNJP33   1.000000
    RNJP3P23 QNJP23   -1.000000   LOBROW3964 1.000000
    RNJP3P23 UPBROW3965 1.000000
    RNJP3P22 AP3P22   1.000000   QNJP32   1.000000
    RNJP3P22 QNJP22   -1.000000   LOBROW3962 1.000000
    RNJP3P22 UPBROW3963 1.000000
    RNJP3P21 AP3P21   1.000000   QNJP31   1.000000
    RNJP3P21 QNJP21   -1.000000   LOBROW3960 1.000000
    RNJP3P21 UPBROW3961 1.000000
    RNJP2P48 AP2P48   1.000000   QNJP28   1.000000
    RNJP2P48 QNJP48   -1.000000   LOBROW3958 1.000000
    RNJP2P48 UPBROW3959 1.000000
    RNJP2P47 AP2P47   1.000000   QNJP27   1.000000
    RNJP2P47 QNJP47   -1.000000   LOBROW3956 1.000000
    RNJP2P47 UPBROW3957 1.000000
    RNJP2P46 AP2P46   1.000000   QNJP26   1.000000
    RNJP2P46 QNJP46   -1.000000   LOBROW3954 1.000000
    RNJP2P46 UPBROW3955 1.000000
    RNJP2P45 AP2P45   1.000000   QNJP25   1.000000
    RNJP2P45 QNJP45   -1.000000   LOBROW3952 1.000000
    RNJP2P45 UPBROW3953 1.000000
    RNJP2P44 AP2P44   1.000000   QNJP24   1.000000
    RNJP2P44 QNJP44   -1.000000   LOBROW3950 1.000000
    RNJP2P44 UPBROW3951 1.000000
    RNJP2P43 AP2P43   1.000000   QNJP23   1.000000
    RNJP2P43 QNJP43   -1.000000   LOBROW3948 1.000000
    RNJP2P43 UPBROW3949 1.000000
    RNJP2P42 AP2P42   1.000000   QNJP22   1.000000
    RNJP2P42 QNJP42   -1.000000   LOBROW3946 1.000000
    RNJP2P42 UPBROW3947 1.000000
    XSP11    RCAPP11  1.000000   ERCPP11L 0.563380
    XSP11    ERCPP51L -0.563380   ERCPP11G -0.563380
    XSP11    ERCPP51G 0.563380   SHORTAGE 1000.000000
    XSP11    LOBROW1320 1.000000   UPBROW1321 1.000000
    XSP12    RCAPP12  1.000000   ERCPP12L 0.563380
    XSP12    ERCPP52L -0.563380   ERCPP12G -0.563380
    XSP12    ERCPP52G 0.563380   SHORTAGE 1000.000000
    XSP12    LOBROW1322 1.000000   UPBROW1323 1.000000
    XSP13    RCAPP13  1.000000   ERCPP13L 0.563380
    XSP13    ERCPP53L -0.563380   ERCPP13G -0.563380
    XSP13    ERCPP53G 0.563380   SHORTAGE 1000.000000
    XSP13    LOBROW1324 1.000000   UPBROW1325 1.000000
    XSP14    RCAPP14  1.000000   ERCPP14L 0.563380
    XSP14    ERCPP54L -0.563380   ERCPP14G -0.563380
    XSP14    ERCPP54G 0.563380   SHORTAGE 1000.000000
    XSP14    LOBROW1326 1.000000   UPBROW1327 1.000000
    XSP15    RCAPP15  1.000000   ERCPP15L 0.563380
    XSP15    ERCPP55L -0.563380   ERCPP15G -0.563380
    XSP15    ERCPP55G 0.563380   SHORTAGE 1000.000000
    XSP15    LOBROW1328 1.000000   UPBROW1329 1.000000
    XSP16    RCAPP16  1.000000   ERCPP16L 0.563380
    XSP16    ERCPP56L -0.563380   ERCPP16G -0.563380
    XSP16    ERCPP56G 0.563380   SHORTAGE 1000.000000
    XSP16    LOBROW1330 1.000000   UPBROW1331 1.000000
    XSP17    RCAPP17  1.000000   ERCPP17L 0.563380
    XSP17    ERCPP57L -0.563380   ERCPP17G -0.563380
    XSP17    ERCPP57G 0.563380   SHORTAGE 1000.000000
    XSP17    LOBROW1332 1.000000   UPBROW1333 1.000000
    XSP18    RCAPP18  1.000000   ERCPP18L 0.563380
    XSP18    ERCPP58L -0.563380   ERCPP18G -0.563380
    XSP18    ERCPP58G 0.563380   SHORTAGE 1000.000000
    XSP18    LOBROW1334 1.000000   UPBROW1335 1.000000
    XSP21    RCAPP21  1.000000   ERCPP21L 0.243783
    XSP21    ERCPP11L -0.243783   ERCPP21G -0.243783
    XSP21    ERCPP11G 0.243783   SHORTAGE 1000.000000
    XSP21    LOBROW1336 1.000000   UPBROW1337 1.000000
    XSP22    RCAPP22  1.000000   ERCPP22L 0.243783
    XSP22    ERCPP12L -0.243783   ERCPP22G -0.243783
    XSP22    ERCPP12G 0.243783   SHORTAGE 1000.000000
    XSP22    LOBROW1338 1.000000   UPBROW1339 1.000000
    XSP23    RCAPP23  1.000000   ERCPP23L 0.243783
    XSP23    ERCPP13L -0.243783   ERCPP23G -0.243783
    XSP23    ERCPP13G 0.243783   SHORTAGE 1000.000000
    XSP23    LOBROW1340 1.000000   UPBROW1341 1.000000
    XSP24    RCAPP24  1.000000   ERCPP24L 0.243783
    XSP24    ERCPP14L -0.243783   ERCPP24G -0.243783
    XSP24    ERCPP14G 0.243783   SHORTAGE 1000.000000
    XSP24    LOBROW1342 1.000000   UPBROW1343 1.000000
    XSP25    RCAPP25  1.000000   ERCPP25L 0.243783
    XSP25    ERCPP15L -0.243783   ERCPP25G -0.243783
    XSP25    ERCPP15G 0.243783   SHORTAGE 1000.000000
    XSP25    LOBROW1344 1.000000   UPBROW1345 1.000000
    XSP26    RCAPP26  1.000000   ERCPP26L 0.243783
    XSP26    ERCPP16L -0.243783   ERCPP26G -0.243783
    XSP26    ERCPP16G 0.243783   SHORTAGE 1000.000000
    XSP26    LOBROW1346 1.000000   UPBROW1347 1.000000
    XSP27    RCAPP27  1.000000   ERCPP27L 0.243783
    XSP27    ERCPP17L -0.243783   ERCPP27G -0.243783
    XSP27    ERCPP17G 0.243783   SHORTAGE 1000.000000
    XSP27    LOBROW1348 1.000000   UPBROW1349 1.000000
    XSP28    RCAPP28  1.000000   ERCPP28L 0.243783
    XSP28    ERCPP18L -0.243783   ERCPP28G -0.243783
    XSP28    ERCPP18G 0.243783   SHORTAGE 1000.000000
    XSP28    LOBROW1350 1.000000   UPBROW1351 1.000000
    XSP31    RCAPP31  1.000000   ERCPP31L 0.160720
    XSP31    ERCPP21L -0.160720   ERCPP31G -0.160720
    XSP31    ERCPP21G 0.160720   TRCP1G   -0.160720
    XSP31    TRCP1L   0.160720   SHORTAGE 1000.000000
    XSP31    LOBROW1352 1.000000   UPBROW1353 1.000000
    XSP32    RCAPP32  1.000000   ERCPP32L 0.160720
    XSP32    ERCPP22L -0.160720   ERCPP32G -0.160720
    XSP32    ERCPP22G 0.160720   TRCP2G   -0.160720
    XSP32    TRCP1L   -0.160720   TRCP2L   0.160720
    XSP32    TRCP1G   0.160720   SHORTAGE 1000.000000
    XSP32    LOBROW1354 1.000000   UPBROW1355 1.000000
    XSP33    RCAPP33  1.000000   ERCPP33L 0.160720
    XSP33    ERCPP23L -0.160720   ERCPP33G -0.160720
    XSP33    ERCPP23G 0.160720   TRCP3G   -0.160720
    XSP33    TRCP2L   -0.160720   TRCP3L   0.160720
    XSP33    TRCP2G   0.160720   SHORTAGE 1000.000000
    XSP33    LOBROW1356 1.000000   UPBROW1357 1.000000
    XSP34    RCAPP34  1.000000   ERCPP34L 0.160720
    XSP34    ERCPP24L -0.160720   ERCPP34G -0.160720
    XSP34    ERCPP24G 0.160720   TRCP4G   -0.160720
    XSP34    TRCP3L   -0.160720   TRCP4L   0.160720
    XSP34    TRCP3G   0.160720   SHORTAGE 1000.000000
    XSP34    LOBROW1358 1.000000   UPBROW1359 1.000000
    XSP35    RCAPP35  1.000000   ERCPP35L 0.160720
    XSP35    ERCPP25L -0.160720   ERCPP35G -0.160720
    XSP35    ERCPP25G 0.160720   TRCP5G   -0.160720
    XSP35    TRCP4L   -0.160720   TRCP5L   0.160720
    XSP35    TRCP4G   0.160720   SHORTAGE 1000.000000
    XSP35    LOBROW1360 1.000000   UPBROW1361 1.000000
    XSP36    RCAPP36  1.000000   ERCPP36L 0.160720
    XSP36    ERCPP26L -0.160720   ERCPP36G -0.160720
    XSP36    ERCPP26G 0.160720   TRCP6G   -0.160720
    XSP36    TRCP5L   -0.160720   TRCP6L   0.160720
    XSP36    TRCP5G   0.160720   SHORTAGE 1000.000000
    XSP36    LOBROW1362 1.000000   UPBROW1363 1.000000
    XSP37    RCAPP37  1.000000   ERCPP37L 0.160720
    XSP37    ERCPP27L -0.160720   ERCPP37G -0.160720
    XSP37    ERCPP27G 0.160720   TRCP7G   -0.160720
    XSP37    TRCP6L   -0.160720   TRCP7L   0.160720
    XSP37    TRCP6G   0.160720   SHORTAGE 1000.000000
    XSP37    LOBROW1364 1.000000   UPBROW1365 1.000000
    XSP38    RCAPP38  1.000000   ERCPP38L 0.160720
    XSP38    ERCPP28L -0.160720   ERCPP38G -0.160720
    XSP38    ERCPP28G 0.160720   TRCP7L   -0.160720
    XSP38    TRCP7G   0.160720   SHORTAGE 1000.000000
    XSP38    LOBROW1366 1.000000   UPBROW1367 1.000000
    XSP41    RCAPP41  1.000000   ERCPP41L 1.811594
    XSP41    ERCPP31L -1.811594   ERCPP41G -1.811594
    XSP41    ERCPP31G 1.811594   SHORTAGE 1000.000000
    XSP41    LOBROW1368 1.000000   UPBROW1369 1.000000
    XSP42    RCAPP42  1.000000   ERCPP42L 1.811594
    XSP42    ERCPP32L -1.811594   ERCPP42G -1.811594
    XSP42    ERCPP32G 1.811594   SHORTAGE 1000.000000
    XSP42    LOBROW1370 1.000000   UPBROW1371 1.000000
    XSP43    RCAPP43  1.000000   ERCPP43L 1.811594
    XSP43    ERCPP33L -1.811594   ERCPP43G -1.811594
    XSP43    ERCPP33G 1.811594   SHORTAGE 1000.000000
    XSP43    LOBROW1372 1.000000   UPBROW1373 1.000000
    XSP44    RCAPP44  1.000000   ERCPP44L 1.811594
    XSP44    ERCPP34L -1.811594   ERCPP44G -1.811594
    XSP44    ERCPP34G 1.811594   SHORTAGE 1000.000000
    XSP44    LOBROW1374 1.000000   UPBROW1375 1.000000
    XSP45    RCAPP45  1.000000   ERCPP45L 1.811594
    XSP45    ERCPP35L -1.811594   ERCPP45G -1.811594
    XSP45    ERCPP35G 1.811594   SHORTAGE 1000.000000
    XSP45    LOBROW1376 1.000000   UPBROW1377 1.000000
    XSP46    RCAPP46  1.000000   ERCPP46L 1.811594
    XSP46    ERCPP36L -1.811594   ERCPP46G -1.811594
    XSP46    ERCPP36G 1.811594   SHORTAGE 1000.000000
    XSP46    LOBROW1378 1.000000   UPBROW1379 1.000000
    XSP47    RCAPP47  1.000000   ERCPP47L 1.811594
    XSP47    ERCPP37L -1.811594   ERCPP47G -1.811594
    XSP47    ERCPP37G 1.811594   SHORTAGE 1000.000000
    XSP47    LOBROW1380 1.000000   UPBROW1381 1.000000
    XSP48    RCAPP48  1.000000   ERCPP48L 1.811594
    XSP48    ERCPP38L -1.811594   ERCPP48G -1.811594
    XSP48    ERCPP38G 1.811594   SHORTAGE 1000.000000
    XSP48    LOBROW1382 1.000000   UPBROW1383 1.000000
    XSP51    RCAPP51  1.000000   ERCPP51L 0.420875
    XSP51    ERCPP41L -0.420875   ERCPP51G -0.420875
    XSP51    ERCPP41G 0.420875   SHORTAGE 1000.000000
    XSP51    LOBROW1384 1.000000   UPBROW1385 1.000000
    XSP52    RCAPP52  1.000000   ERCPP52L 0.420875
    XSP52    ERCPP42L -0.420875   ERCPP52G -0.420875
    XSP52    ERCPP42G 0.420875   SHORTAGE 1000.000000
    XSP52    LOBROW1386 1.000000   UPBROW1387 1.000000
    XSP53    RCAPP53  1.000000   ERCPP53L 0.420875
    XSP53    ERCPP43L -0.420875   ERCPP53G -0.420875
    XSP53    ERCPP43G 0.420875   SHORTAGE 1000.000000
    XSP53    LOBROW1388 1.000000   UPBROW1389 1.000000
    XSP54    RCAPP54  1.000000   ERCPP54L 0.420875
    XSP54    ERCPP44L -0.420875   ERCPP54G -0.420875
    XSP54    ERCPP44G 0.420875   SHORTAGE 1000.000000
    XSP54    LOBROW1390 1.000000   UPBROW1391 1.000000
    XSP55    RCAPP55  1.000000   ERCPP55L 0.420875
    XSP55    ERCPP45L -0.420875   ERCPP55G -0.420875
    XSP55    ERCPP45G 0.420875   SHORTAGE 1000.000000
    XSP55    LOBROW1392 1.000000   UPBROW1393 1.000000
    XSP56    RCAPP56  1.000000   ERCPP56L 0.420875
    XSP56    ERCPP46L -0.420875   ERCPP56G -0.420875
    XSP56    ERCPP46G 0.420875   SHORTAGE 1000.000000
    XSP56    LOBROW1394 1.000000   UPBROW1395 1.000000
    XSP57    RCAPP57  1.000000   ERCPP57L 0.420875
    XSP57    ERCPP47L -0.420875   ERCPP57G -0.420875
    XSP57    ERCPP47G 0.420875   SHORTAGE 1000.000000
    XSP57    LOBROW1396 1.000000   UPBROW1397 1.000000
    XSP58    RCAPP58  1.000000   ERCPP58L 0.420875
    XSP58    ERCPP48L -0.420875   ERCPP58G -0.420875
    XSP58    ERCPP48G 0.420875   SHORTAGE 1000.000000
    XSP58    LOBROW1398 1.000000   UPBROW1399 1.000000
    STKCRP11 QCRP12   32.258057   QCRP11   -33.333328
    STKCRP11 LOBROW1400 1.000000
    STKCRP12 QCRP13   32.258057   QCRP12   -32.258057
    STKCRP12 LOBROW1401 1.000000
    STKCRP13 QCRP14   33.333328   QCRP13   -32.258057
    STKCRP13 LOBROW1402 1.000000
    STKCRP14 QCRP15   10.869565   QCRP14   -33.333328
    STKCRP14 LOBROW1403 1.000000
    STKCRP15 QCRP16   10.989011   QCRP15   -10.869565
    STKCRP15 LOBROW1404 1.000000
    STKCRP16 QCRP17   10.989011   QCRP16   -10.989011
    STKCRP16 LOBROW1405 1.000000
    STKCRP17 QCRP18   10.869565   QCRP17   -10.989011
    STKCRP17 LOBROW1406 1.000000
    STKCRP18 QCRP18   -10.869565   LOBROW1407 1.000000
    STKCRP21 QCRP22   32.258057   QCRP21   -33.333328
    STKCRP21 LOBROW1408 1.000000
    STKCRP22 QCRP23   32.258057   QCRP22   -32.258057
    STKCRP22 LOBROW1409 1.000000
    STKCRP23 QCRP24   33.333328   QCRP23   -32.258057
    STKCRP23 LOBROW1410 1.000000
    STKCRP24 QCRP25   10.869565   QCRP24   -33.333328
    STKCRP24 LOBROW1411 1.000000
    STKCRP25 QCRP26   10.989011   QCRP25   -10.869565
    STKCRP25 LOBROW1412 1.000000
    STKCRP26 QCRP27   10.989011   QCRP26   -10.989011
    STKCRP26 LOBROW1413 1.000000
    STKCRP27 QCRP28   10.869565   QCRP27   -10.989011
    STKCRP27 LOBROW1414 1.000000
    STKCRP28 QCRP28   -10.869565   LOBROW1415 1.000000
    STKCRP31 QCRP32   32.258057   QCRP31   -33.333328
    STKCRP31 LOBROW1416 1.000000
    STKCRP32 QCRP33   32.258057   QCRP32   -32.258057
    STKCRP32 LOBROW1417 1.000000
    STKCRP33 QCRP34   33.333328   QCRP33   -32.258057
    STKCRP33 LOBROW1418 1.000000
    STKCRP34 QCRP35   10.869565   QCRP34   -33.333328
    STKCRP34 LOBROW1419 1.000000
    STKCRP35 QCRP36   10.989011   QCRP35   -10.869565
    STKCRP35 LOBROW1420 1.000000
    STKCRP36 QCRP37   10.989011   QCRP36   -10.989011
    STKCRP36 LOBROW1421 1.000000
    STKCRP37 QCRP38   10.869565   QCRP37   -10.989011
    STKCRP37 LOBROW1422 1.000000
    STKCRP38 QCRP38   -10.869565   LOBROW1423 1.000000
    STKCRP41 QCRP42   32.258057   QCRP41   -33.333328
    STKCRP41 LOBROW1424 1.000000
    STKCRP42 QCRP43   32.258057   QCRP42   -32.258057
    STKCRP42 LOBROW1425 1.000000
    STKCRP43 QCRP44   33.333328   QCRP43   -32.258057
    STKCRP43 LOBROW1426 1.000000
    STKCRP44 QCRP45   10.869565   QCRP44   -33.333328
    STKCRP44 LOBROW1427 1.000000
    STKCRP45 QCRP46   10.989011   QCRP45   -10.869565
    STKCRP45 LOBROW1428 1.000000
    STKCRP46 QCRP47   10.989011   QCRP46   -10.989011
    STKCRP46 LOBROW1429 1.000000
    STKCRP47 QCRP48   10.869565   QCRP47   -10.989011
    STKCRP47 LOBROW1430 1.000000
    STKCRP48 QCRP48   -10.869565   LOBROW1431 1.000000
    STKCRP51 QCRP52   32.258057   QCRP51   -33.333328
    STKCRP51 LOBROW1432 1.000000
    STKCRP52 QCRP53   32.258057   QCRP52   -32.258057
    STKCRP52 LOBROW1433 1.000000
    STKCRP53 QCRP54   33.333328   QCRP53   -32.258057
    STKCRP53 LOBROW1434 1.000000
    STKCRP54 QCRP55   10.869565   QCRP54   -33.333328
    STKCRP54 LOBROW1435 1.000000
    STKCRP55 QCRP56   10.989011   QCRP55   -10.869565
    STKCRP55 LOBROW1436 1.000000
    STKCRP56 QCRP57   10.989011   QCRP56   -10.989011
    STKCRP56 LOBROW1437 1.000000
    STKCRP57 QCRP58   10.869565   QCRP57   -10.989011
    STKCRP57 LOBROW1438 1.000000
    STKCRP58 QCRP58   -10.869565   LOBROW1439 1.000000
    STKGLP11 QGLP12   32.258057   QGLP11   -33.333328
    STKGLP11 LOBROW1440 1.000000   UPBROW1441 1.000000
    STKGLP12 QGLP13   32.258057   QGLP12   -32.258057
    STKGLP12 LOBROW1442 1.000000   UPBROW1443 1.000000
    STKGLP13 QGLP14   33.333328   QGLP13   -32.258057
    STKGLP13 LOBROW1444 1.000000   UPBROW1445 1.000000
    STKGLP14 QGLP15   10.869565   QGLP14   -33.333328
    STKGLP14 LOBROW1446 1.000000   UPBROW1447 1.000000
    STKGLP15 QGLP16   10.989011   QGLP15   -10.869565
    STKGLP15 LOBROW1448 1.000000   UPBROW1449 1.000000
    STKGLP16 QGLP17   10.989011   QGLP16   -10.989011
    STKGLP16 LOBROW1450 1.000000   UPBROW1451 1.000000
    STKGLP17 QGLP18   10.869565   QGLP17   -10.989011
    STKGLP17 LOBROW1452 1.000000   UPBROW1453 1.000000
    STKGLP18 QGLP18   -10.869565   LOBROW1454 1.000000
    STKGLP18 UPBROW1455 1.000000
    STKGLP21 QGLP22   32.258057   QGLP21   -33.333328
    STKGLP21 LOBROW1456 1.000000   UPBROW1457 1.000000
    STKGLP22 QGLP23   32.258057   QGLP22   -32.258057
    STKGLP22 LOBROW1458 1.000000   UPBROW1459 1.000000
    STKGLP23 QGLP24   33.333328   QGLP23   -32.258057
    STKGLP23 LOBROW1460 1.000000   UPBROW1461 1.000000
    STKGLP24 QGLP25   10.869565   QGLP24   -33.333328
    STKGLP24 LOBROW1462 1.000000   UPBROW1463 1.000000
    STKGLP25 QGLP26   10.989011   QGLP25   -10.869565
    STKGLP25 LOBROW1464 1.000000   UPBROW1465 1.000000
    STKGLP26 QGLP27   10.989011   QGLP26   -10.989011
    STKGLP26 LOBROW1466 1.000000   UPBROW1467 1.000000
    STKGLP27 QGLP28   10.869565   QGLP27   -10.989011
    STKGLP27 LOBROW1468 1.000000   UPBROW1469 1.000000
    STKGLP28 QGLP28   -10.869565   LOBROW1470 1.000000
    STKGLP28 UPBROW1471 1.000000
    STKGLP31 QGLP32   32.258057   QGLP31   -33.333328
    STKGLP31 LOBROW1472 1.000000   UPBROW1473 1.000000
    STKGLP32 QGLP33   32.258057   QGLP32   -32.258057
    STKGLP32 LOBROW1474 1.000000   UPBROW1475 1.000000
    STKGLP33 QGLP34   33.333328   QGLP33   -32.258057
    STKGLP33 LOBROW1476 1.000000   UPBROW1477 1.000000
    STKGLP34 QGLP35   10.869565   QGLP34   -33.333328
    STKGLP34 LOBROW1478 1.000000   UPBROW1479 1.000000
    STKGLP35 QGLP36   10.989011   QGLP35   -10.869565
    STKGLP35 LOBROW1480 1.000000   UPBROW1481 1.000000
    STKGLP36 QGLP37   10.989011   QGLP36   -10.989011
    STKGLP36 LOBROW1482 1.000000   UPBROW1483 1.000000
    STKGLP37 QGLP38   10.869565   QGLP37   -10.989011
    STKGLP37 LOBROW1484 1.000000   UPBROW1485 1.000000
    STKGLP38 QGLP38   -10.869565   LOBROW1486 1.000000
    STKGLP38 UPBROW1487 1.000000
    STKGLP41 QGLP42   32.258057   QGLP41   -33.333328
    STKGLP41 LOBROW1488 1.000000   UPBROW1489 1.000000
    STKGLP42 QGLP43   32.258057   QGLP42   -32.258057
    STKGLP42 LOBROW1490 1.000000   UPBROW1491 1.000000
    STKGLP43 QGLP44   33.333328   QGLP43   -32.258057
    STKGLP43 LOBROW1492 1.000000   UPBROW1493 1.000000
    STKGLP44 QGLP45   10.869565   QGLP44   -33.333328
    STKGLP44 LOBROW1494 1.000000   UPBROW1495 1.000000
    STKGLP45 QGLP46   10.989011   QGLP45   -10.869565
    STKGLP45 LOBROW1496 1.000000   UPBROW1497 1.000000
    STKGLP46 QGLP47   10.989011   QGLP46   -10.989011
    STKGLP46 LOBROW1498 1.000000   UPBROW1499 1.000000
    STKGLP47 QGLP48   10.869565   QGLP47   -10.989011
    STKGLP47 LOBROW1500 1.000000   UPBROW1501 1.000000
    STKGLP48 QGLP48   -10.869565   LOBROW1502 1.000000
    STKGLP48 UPBROW1503 1.000000
    STKGLP51 QGLP52   32.258057   QGLP51   -33.333328
    STKGLP51 LOBROW1504 1.000000   UPBROW1505 1.000000
    STKGLP52 QGLP53   32.258057   QGLP52   -32.258057
    STKGLP52 LOBROW1506 1.000000   UPBROW1507 1.000000
    STKGLP53 QGLP54   33.333328   QGLP53   -32.258057
    STKGLP53 LOBROW1508 1.000000   UPBROW1509 1.000000
    STKGLP54 QGLP55   10.869565   QGLP54   -33.333328
    STKGLP54 LOBROW1510 1.000000   UPBROW1511 1.000000
    STKGLP55 QGLP56   10.989011   QGLP55   -10.869565
    STKGLP55 LOBROW1512 1.000000   UPBROW1513 1.000000
    STKGLP56 QGLP57   10.989011   QGLP56   -10.989011
    STKGLP56 LOBROW1514 1.000000   UPBROW1515 1.000000
    STKGLP57 QGLP58   10.869565   QGLP57   -10.989011
    STKGLP57 LOBROW1516 1.000000   UPBROW1517 1.000000
    STKGLP58 QGLP58   -10.869565   LOBROW1518 1.000000
    STKGLP58 UPBROW1519 1.000000
    RNJP2P41 AP2P41   1.000000   QNJP21   1.000000
    RNJP2P41 QNJP41   -1.000000   LOBROW3944 1.000000
    RNJP2P41 UPBROW3945 1.000000
    RNJP2P38 AP2P38   1.000000   QNJP28   1.000000
    RNJP2P38 QNJP38   -1.000000   LOBROW3942 1.000000
    RNJP2P38 UPBROW3943 1.000000
    RNJP2P37 AP2P37   1.000000   QNJP27   1.000000
    RNJP2P37 QNJP37   -1.000000   LOBROW3940 1.000000
    RNJP2P37 UPBROW3941 1.000000
    RNJP2P36 AP2P36   1.000000   QNJP26   1.000000
    RNJP2P36 QNJP36   -1.000000   LOBROW3938 1.000000
    RNJP2P36 UPBROW3939 1.000000
    RNJP2P35 AP2P35   1.000000   QNJP25   1.000000
    RNJP2P35 QNJP35   -1.000000   LOBROW3936 1.000000
    RNJP2P35 UPBROW3937 1.000000
    RNJP2P34 AP2P34   1.000000   QNJP24   1.000000
    RNJP2P34 QNJP34   -1.000000   LOBROW3934 1.000000
    RNJP2P34 UPBROW3935 1.000000
    RNJP2P33 AP2P33   1.000000   QNJP23   1.000000
    RNJP2P33 QNJP33   -1.000000   LOBROW3932 1.000000
    RNJP2P33 UPBROW3933 1.000000
    RNJP2P32 AP2P32   1.000000   QNJP22   1.000000
    RNJP2P32 QNJP32   -1.000000   LOBROW3930 1.000000
    RNJP2P32 UPBROW3931 1.000000
    RNJP2P31 AP2P31   1.000000   QNJP21   1.000000
    RNJP2P31 QNJP31   -1.000000   LOBROW3928 1.000000
    RNJP2P31 UPBROW3929 1.000000
    RNJP2P18 AP2P18   1.000000   QNJP28   1.000000
    RNJP2P18 QNJP18   -1.000000   LOBROW3926 1.000000
    RNJP2P18 UPBROW3927 1.000000
    RNJP2P17 AP2P17   1.000000   QNJP27   1.000000
    RNJP2P17 QNJP17   -1.000000   LOBROW3924 1.000000
    RNJP2P17 UPBROW3925 1.000000
    RNJP2P16 AP2P16   1.000000   QNJP26   1.000000
    RNJP2P16 QNJP16   -1.000000   LOBROW3922 1.000000
    RNJP2P16 UPBROW3923 1.000000
    RNJP2P15 AP2P15   1.000000   QNJP25   1.000000
    RNJP2P15 QNJP15   -1.000000   LOBROW3920 1.000000
    RNJP2P15 UPBROW3921 1.000000
    RNJP2P14 AP2P14   1.000000   QNJP24   1.000000
    RNJP2P14 QNJP14   -1.000000   LOBROW3918 1.000000
    RNJP2P14 UPBROW3919 1.000000
    RNJP2P13 AP2P13   1.000000   QNJP23   1.000000
    RNJP2P13 QNJP13   -1.000000   LOBROW3916 1.000000
    RNJP2P13 UPBROW3917 1.000000
    RNJP2P12 AP2P12   1.000000   QNJP22   1.000000
    RNJP2P12 QNJP12   -1.000000   LOBROW3914 1.000000
    RNJP2P12 UPBROW3915 1.000000
    RNJP2P11 AP2P11   1.000000   QNJP21   1.000000
    RNJP2P11 QNJP11   -1.000000   LOBROW3912 1.000000
    RNJP2P11 UPBROW3913 1.000000
    RNJP1P38 AP1P38   1.000000   QNJP18   1.000000
    RNJP1P38 QNJP38   -1.000000   LOBROW3910 1.000000
    RNJP1P38 UPBROW3911 1.000000
    RNJP1P37 AP1P37   1.000000   QNJP17   1.000000
    RNJP1P37 QNJP37   -1.000000   LOBROW3908 1.000000
    RNJP1P37 UPBROW3909 1.000000
    RNJP1P36 AP1P36   1.000000   QNJP16   1.000000
    RNJP1P36 QNJP36   -1.000000   LOBROW3906 1.000000
    RNJP1P36 UPBROW3907 1.000000
    RNJP1P35 AP1P35   1.000000   QNJP15   1.000000
    RNJP1P35 QNJP35   -1.000000   LOBROW3904 1.000000
    RNJP1P35 UPBROW3905 1.000000
    RNJP1P34 AP1P34   1.000000   QNJP14   1.000000
    RNJP1P34 QNJP34   -1.000000   LOBROW3902 1.000000
    RNJP1P34 UPBROW3903 1.000000
    RNJP1P33 AP1P33   1.000000   QNJP13   1.000000
    RNJP1P33 QNJP33   -1.000000   LOBROW3900 1.000000
    RNJP1P33 UPBROW3901 1.000000
    RNJP1P32 AP1P32   1.000000   QNJP12   1.000000
    RNJP1P32 QNJP32   -1.000000   LOBROW3898 1.000000
    RNJP1P32 UPBROW3899 1.000000
    RNJP1P31 AP1P31   1.000000   QNJP11   1.000000
    RNJP1P31 QNJP31   -1.000000   LOBROW3896 1.000000
    RNJP1P31 UPBROW3897 1.000000
    RNJP1P28 AP1P28   1.000000   QNJP18   1.000000
    RNJP1P28 QNJP28   -1.000000   LOBROW3894 1.000000
    RNJP1P28 UPBROW3895 1.000000
    RNJP1P27 AP1P27   1.000000   QNJP17   1.000000
    RNJP1P27 QNJP27   -1.000000   LOBROW3892 1.000000
    RNJP1P27 UPBROW3893 1.000000
    RNJP1P26 AP1P26   1.000000   QNJP16   1.000000
    RNJP1P26 QNJP26   -1.000000   LOBROW3890 1.000000
    RNJP1P26 UPBROW3891 1.000000
    RNJP1P25 AP1P25   1.000000   QNJP15   1.000000
    RNJP1P25 QNJP25   -1.000000   LOBROW3888 1.000000
    RNJP1P25 UPBROW3889 1.000000
    RNJP1P24 AP1P24   1.000000   QNJP14   1.000000
    RNJP1P24 QNJP24   -1.000000   LOBROW3886 1.000000
    RNJP1P24 UPBROW3887 1.000000
    RNJP1P23 AP1P23   1.000000   QNJP13   1.000000
    RNJP1P23 QNJP23   -1.000000   LOBROW3884 1.000000
    RNJP1P23 UPBROW3885 1.000000
    RNJP1P22 AP1P22   1.000000   QNJP12   1.000000
    RNJP1P22 QNJP22   -1.000000   LOBROW3882 1.000000
    RNJP1P22 UPBROW3883 1.000000
    RNJP1P21 AP1P21   1.000000   QNJP11   1.000000
    RNJP1P21 QNJP21   -1.000000   LOBROW3880 1.000000
    RNJP1P21 UPBROW3881 1.000000
    RKJP5P48 AP5P48   1.000000   QKJP58   1.000000
    RKJP5P48 QKJP48   -1.000000   LOBROW3878 1.000000
    RKJP5P48 UPBROW3879 1.000000
    RKJP5P47 AP5P47   1.000000   QKJP57   1.000000
    RKJP5P47 QKJP47   -1.000000   LOBROW3876 1.000000
    RKJP5P47 UPBROW3877 1.000000
    RKJP5P46 AP5P46   1.000000   QKJP56   1.000000
    RKJP5P46 QKJP46   -1.000000   LOBROW3874 1.000000
    RKJP5P46 UPBROW3875 1.000000
    RKJP5P45 AP5P45   1.000000   QKJP55   1.000000
    RKJP5P45 QKJP45   -1.000000   LOBROW3872 1.000000
    RKJP5P45 UPBROW3873 1.000000
    RKJP5P44 AP5P44   1.000000   QKJP54   1.000000
    RKJP5P44 QKJP44   -1.000000   LOBROW3870 1.000000
    RKJP5P44 UPBROW3871 1.000000
    RKJP5P43 AP5P43   1.000000   QKJP53   1.000000
    RKJP5P43 QKJP43   -1.000000   LOBROW3868 1.000000
    RKJP5P43 UPBROW3869 1.000000
    RKJP5P42 AP5P42   1.000000   QKJP52   1.000000
    RKJP5P42 QKJP42   -1.000000   LOBROW3866 1.000000
    RKJP5P42 UPBROW3867 1.000000
    STKGAP11 QGAP12   32.258057   QGAP11   -33.333328
    STKGAP11 LOBROW1520 1.000000   UPBROW1521 1.000000
    STKGAP12 QGAP13   32.258057   QGAP12   -32.258057
    STKGAP12 LOBROW1522 1.000000   UPBROW1523 1.000000
    STKGAP13 QGAP14   33.333328   QGAP13   -32.258057
    STKGAP13 LOBROW1524 1.000000   UPBROW1525 1.000000
    STKGAP14 QGAP15   10.869565   QGAP14   -33.333328
    STKGAP14 LOBROW1526 1.000000   UPBROW1527 1.000000
    STKGAP15 QGAP16   10.989011   QGAP15   -10.869565
    STKGAP15 LOBROW1528 1.000000   UPBROW1529 1.000000
    STKGAP16 QGAP17   10.989011   QGAP16   -10.989011
    STKGAP16 LOBROW1530 1.000000   UPBROW1531 1.000000
    STKGAP17 QGAP18   10.869565   QGAP17   -10.989011
    STKGAP17 LOBROW1532 1.000000   UPBROW1533 1.000000
    STKGAP18 QGAP18   -10.869565   LOBROW1534 1.000000
    STKGAP18 UPBROW1535 1.000000
    STKGAP21 QGAP22   32.258057   QGAP21   -33.333328
    STKGAP21 LOBROW1536 1.000000   UPBROW1537 1.000000
    STKGAP22 QGAP23   32.258057   QGAP22   -32.258057
    STKGAP22 LOBROW1538 1.000000   UPBROW1539 1.000000
    STKGAP23 QGAP24   33.333328   QGAP23   -32.258057
    STKGAP23 LOBROW1540 1.000000   UPBROW1541 1.000000
    STKGAP24 QGAP25   10.869565   QGAP24   -33.333328
    STKGAP24 LOBROW1542 1.000000   UPBROW1543 1.000000
    STKGAP25 QGAP26   10.989011   QGAP25   -10.869565
    STKGAP25 LOBROW1544 1.000000   UPBROW1545 1.000000
    STKGAP26 QGAP27   10.989011   QGAP26   -10.989011
    STKGAP26 LOBROW1546 1.000000   UPBROW1547 1.000000
    STKGAP27 QGAP28   10.869565   QGAP27   -10.989011
    STKGAP27 LOBROW1548 1.000000   UPBROW1549 1.000000
    STKGAP28 QGAP28   -10.869565   LOBROW1550 1.000000
    STKGAP28 UPBROW1551 1.000000
    STKGAP31 QGAP32   32.258057   QGAP31   -33.333328
    STKGAP31 LOBROW1552 1.000000   UPBROW1553 1.000000
    STKGAP32 QGAP33   32.258057   QGAP32   -32.258057
    STKGAP32 LOBROW1554 1.000000   UPBROW1555 1.000000
    STKGAP33 QGAP34   33.333328   QGAP33   -32.258057
    STKGAP33 LOBROW1556 1.000000   UPBROW1557 1.000000
    STKGAP34 QGAP35   10.869565   QGAP34   -33.333328
    STKGAP34 LOBROW1558 1.000000   UPBROW1559 1.000000
    STKGAP35 QGAP36   10.989011   QGAP35   -10.869565
    STKGAP35 LOBROW1560 1.000000   UPBROW1561 1.000000
    STKGAP36 QGAP37   10.989011   QGAP36   -10.989011
    STKGAP36 LOBROW1562 1.000000   UPBROW1563 1.000000
    STKGAP37 QGAP38   10.869565   QGAP37   -10.989011
    STKGAP37 LOBROW1564 1.000000   UPBROW1565 1.000000
    STKGAP38 QGAP38   -10.869565   LOBROW1566 1.000000
    STKGAP38 UPBROW1567 1.000000
    STKGAP41 QGAP42   32.258057   QGAP41   -33.333328
    STKGAP41 LOBROW1568 1.000000   UPBROW1569 1.000000
    STKGAP42 QGAP43   32.258057   QGAP42   -32.258057
    STKGAP42 LOBROW1570 1.000000   UPBROW1571 1.000000
    STKGAP43 QGAP44   33.333328   QGAP43   -32.258057
    STKGAP43 LOBROW1572 1.000000   UPBROW1573 1.000000
    STKGAP44 QGAP45   10.869565   QGAP44   -33.333328
    STKGAP44 LOBROW1574 1.000000   UPBROW1575 1.000000
    STKGAP45 QGAP46   10.989011   QGAP45   -10.869565
    STKGAP45 LOBROW1576 1.000000   UPBROW1577 1.000000
    STKGAP46 QGAP47   10.989011   QGAP46   -10.989011
    STKGAP46 LOBROW1578 1.000000   UPBROW1579 1.000000
    STKGAP47 QGAP48   10.869565   QGAP47   -10.989011
    STKGAP47 LOBROW1580 1.000000   UPBROW1581 1.000000
    STKGAP48 QGAP48   -10.869565   LOBROW1582 1.000000
    STKGAP48 UPBROW1583 1.000000
    STKGAP51 QGAP52   32.258057   QGAP51   -33.333328
    STKGAP51 LOBROW1584 1.000000   UPBROW1585 1.000000
    STKGAP52 QGAP53   32.258057   QGAP52   -32.258057
    STKGAP52 LOBROW1586 1.000000   UPBROW1587 1.000000
    STKGAP53 QGAP54   33.333328   QGAP53   -32.258057
    STKGAP53 LOBROW1588 1.000000   UPBROW1589 1.000000
    STKGAP54 QGAP55   10.869565   QGAP54   -33.333328
    STKGAP54 LOBROW1590 1.000000   UPBROW1591 1.000000
    STKGAP55 QGAP56   10.989011   QGAP55   -10.869565
    STKGAP55 LOBROW1592 1.000000   UPBROW1593 1.000000
    STKGAP56 QGAP57   10.989011   QGAP56   -10.989011
    STKGAP56 LOBROW1594 1.000000   UPBROW1595 1.000000
    STKGAP57 QGAP58   10.869565   QGAP57   -10.989011
    STKGAP57 LOBROW1596 1.000000   UPBROW1597 1.000000
    STKGAP58 QGAP58   -10.869565   LOBROW1598 1.000000
    STKGAP58 UPBROW1599 1.000000
    STKDSP11 QDSP12   32.258057   QDSP11   -33.333328
    STKDSP11 LOBROW1600 1.000000   UPBROW1601 1.000000
    STKDSP12 QDSP13   32.258057   QDSP12   -32.258057
    STKDSP12 LOBROW1602 1.000000   UPBROW1603 1.000000
    STKDSP13 QDSP14   33.333328   QDSP13   -32.258057
    STKDSP13 LOBROW1604 1.000000   UPBROW1605 1.000000
    STKDSP14 QDSP15   10.869565   QDSP14   -33.333328
    STKDSP14 LOBROW1606 1.000000   UPBROW1607 1.000000
    STKDSP15 QDSP16   10.989011   QDSP15   -10.869565
    STKDSP15 LOBROW1608 1.000000   UPBROW1609 1.000000
    STKDSP16 QDSP17   10.989011   QDSP16   -10.989011
    STKDSP16 LOBROW1610 1.000000   UPBROW1611 1.000000
    STKDSP17 QDSP18   10.869565   QDSP17   -10.989011
    STKDSP17 LOBROW1612 1.000000   UPBROW1613 1.000000
    STKDSP18 QDSP18   -10.869565   LOBROW1614 1.000000
    STKDSP18 UPBROW1615 1.000000
    STKDSP21 QDSP22   32.258057   QDSP21   -33.333328
    STKDSP21 LOBROW1616 1.000000   UPBROW1617 1.000000
    STKDSP22 QDSP23   32.258057   QDSP22   -32.258057
    STKDSP22 LOBROW1618 1.000000   UPBROW1619 1.000000
    STKDSP23 QDSP24   33.333328   QDSP23   -32.258057
    STKDSP23 LOBROW1620 1.000000   UPBROW1621 1.000000
    STKDSP24 QDSP25   10.869565   QDSP24   -33.333328
    STKDSP24 LOBROW1622 1.000000   UPBROW1623 1.000000
    STKDSP25 QDSP26   10.989011   QDSP25   -10.869565
    STKDSP25 LOBROW1624 1.000000   UPBROW1625 1.000000
    STKDSP26 QDSP27   10.989011   QDSP26   -10.989011
    STKDSP26 LOBROW1626 1.000000   UPBROW1627 1.000000
    STKDSP27 QDSP28   10.869565   QDSP27   -10.989011
    STKDSP27 LOBROW1628 1.000000   UPBROW1629 1.000000
    STKDSP28 QDSP28   -10.869565   LOBROW1630 1.000000
    STKDSP28 UPBROW1631 1.000000
    STKDSP31 QDSP32   32.258057   QDSP31   -33.333328
    STKDSP31 LOBROW1632 1.000000   UPBROW1633 1.000000
    STKDSP32 QDSP33   32.258057   QDSP32   -32.258057
    STKDSP32 LOBROW1634 1.000000   UPBROW1635 1.000000
    STKDSP33 QDSP34   33.333328   QDSP33   -32.258057
    STKDSP33 LOBROW1636 1.000000   UPBROW1637 1.000000
    STKDSP34 QDSP35   10.869565   QDSP34   -33.333328
    STKDSP34 LOBROW1638 1.000000   UPBROW1639 1.000000
    STKDSP35 QDSP36   10.989011   QDSP35   -10.869565
    STKDSP35 LOBROW1640 1.000000   UPBROW1641 1.000000
    STKDSP36 QDSP37   10.989011   QDSP36   -10.989011
    STKDSP36 LOBROW1642 1.000000   UPBROW1643 1.000000
    STKDSP37 QDSP38   10.869565   QDSP37   -10.989011
    STKDSP37 LOBROW1644 1.000000   UPBROW1645 1.000000
    STKDSP38 QDSP38   -10.869565   LOBROW1646 1.000000
    STKDSP38 UPBROW1647 1.000000
    STKDSP41 QDSP42   32.258057   QDSP41   -33.333328
    STKDSP41 LOBROW1648 1.000000   UPBROW1649 1.000000
    STKDSP42 QDSP43   32.258057   QDSP42   -32.258057
    STKDSP42 LOBROW1650 1.000000   UPBROW1651 1.000000
    STKDSP43 QDSP44   33.333328   QDSP43   -32.258057
    STKDSP43 LOBROW1652 1.000000   UPBROW1653 1.000000
    STKDSP44 QDSP45   10.869565   QDSP44   -33.333328
    STKDSP44 LOBROW1654 1.000000   UPBROW1655 1.000000
    STKDSP45 QDSP46   10.989011   QDSP45   -10.869565
    STKDSP45 LOBROW1656 1.000000   UPBROW1657 1.000000
    STKDSP46 QDSP47   10.989011   QDSP46   -10.989011
    STKDSP46 LOBROW1658 1.000000   UPBROW1659 1.000000
    STKDSP47 QDSP48   10.869565   QDSP47   -10.989011
    STKDSP47 LOBROW1660 1.000000   UPBROW1661 1.000000
    STKDSP48 QDSP48   -10.869565   LOBROW1662 1.000000
    STKDSP48 UPBROW1663 1.000000
    STKDSP51 QDSP52   32.258057   QDSP51   -33.333328
    STKDSP51 LOBROW1664 1.000000   UPBROW1665 1.000000
    STKDSP52 QDSP53   32.258057   QDSP52   -32.258057
    STKDSP52 LOBROW1666 1.000000   UPBROW1667 1.000000
    STKDSP53 QDSP54   33.333328   QDSP53   -32.258057
    STKDSP53 LOBROW1668 1.000000   UPBROW1669 1.000000
    STKDSP54 QDSP55   10.869565   QDSP54   -33.333328
    STKDSP54 LOBROW1670 1.000000   UPBROW1671 1.000000
    STKDSP55 QDSP56   10.989011   QDSP55   -10.869565
    STKDSP55 LOBROW1672 1.000000   UPBROW1673 1.000000
    STKDSP56 QDSP57   10.989011   QDSP56   -10.989011
    STKDSP56 LOBROW1674 1.000000   UPBROW1675 1.000000
    STKDSP57 QDSP58   10.869565   QDSP57   -10.989011
    STKDSP57 LOBROW1676 1.000000   UPBROW1677 1.000000
    STKDSP58 QDSP58   -10.869565   LOBROW1678 1.000000
    STKDSP58 UPBROW1679 1.000000
    STKRSP11 QRSP12   32.258057   QRSP11   -33.333328
    STKRSP11 LOBROW1680 1.000000   UPBROW1681 1.000000
    STKRSP12 QRSP13   32.258057   QRSP12   -32.258057
    STKRSP12 LOBROW1682 1.000000   UPBROW1683 1.000000
    STKRSP13 QRSP14   33.333328   QRSP13   -32.258057
    STKRSP13 LOBROW1684 1.000000   UPBROW1685 1.000000
    STKRSP14 QRSP15   10.869565   QRSP14   -33.333328
    STKRSP14 LOBROW1686 1.000000   UPBROW1687 1.000000
    STKRSP15 QRSP16   10.989011   QRSP15   -10.869565
    STKRSP15 LOBROW1688 1.000000   UPBROW1689 1.000000
    STKRSP16 QRSP17   10.989011   QRSP16   -10.989011
    STKRSP16 LOBROW1690 1.000000   UPBROW1691 1.000000
    STKRSP17 QRSP18   10.869565   QRSP17   -10.989011
    STKRSP17 LOBROW1692 1.000000   UPBROW1693 1.000000
    STKRSP18 QRSP18   -10.869565   LOBROW1694 1.000000
    STKRSP18 UPBROW1695 1.000000
    STKRSP21 QRSP22   32.258057   QRSP21   -33.333328
    STKRSP21 LOBROW1696 1.000000   UPBROW1697 1.000000
    STKRSP22 QRSP23   32.258057   QRSP22   -32.258057
    STKRSP22 LOBROW1698 1.000000   UPBROW1699 1.000000
    STKRSP23 QRSP24   33.333328   QRSP23   -32.258057
    STKRSP23 LOBROW1700 1.000000   UPBROW1701 1.000000
    STKRSP24 QRSP25   10.869565   QRSP24   -33.333328
    STKRSP24 LOBROW1702 1.000000   UPBROW1703 1.000000
    STKRSP25 QRSP26   10.989011   QRSP25   -10.869565
    STKRSP25 LOBROW1704 1.000000   UPBROW1705 1.000000
    STKRSP26 QRSP27   10.989011   QRSP26   -10.989011
    STKRSP26 LOBROW1706 1.000000   UPBROW1707 1.000000
    STKRSP27 QRSP28   10.869565   QRSP27   -10.989011
    STKRSP27 LOBROW1708 1.000000   UPBROW1709 1.000000
    STKRSP28 QRSP28   -10.869565   LOBROW1710 1.000000
    STKRSP28 UPBROW1711 1.000000
    STKRSP31 QRSP32   32.258057   QRSP31   -33.333328
    STKRSP31 LOBROW1712 1.000000   UPBROW1713 1.000000
    STKRSP32 QRSP33   32.258057   QRSP32   -32.258057
    STKRSP32 LOBROW1714 1.000000   UPBROW1715 1.000000
    STKRSP33 QRSP34   33.333328   QRSP33   -32.258057
    STKRSP33 LOBROW1716 1.000000   UPBROW1717 1.000000
    STKRSP34 QRSP35   10.869565   QRSP34   -33.333328
    STKRSP34 LOBROW1718 1.000000   UPBROW1719 1.000000
    STKRSP35 QRSP36   10.989011   QRSP35   -10.869565
    STKRSP35 LOBROW1720 1.000000   UPBROW1721 1.000000
    STKRSP36 QRSP37   10.989011   QRSP36   -10.989011
    STKRSP36 LOBROW1722 1.000000   UPBROW1723 1.000000
    STKRSP37 QRSP38   10.869565   QRSP37   -10.989011
    STKRSP37 LOBROW1724 1.000000   UPBROW1725 1.000000
    STKRSP38 QRSP38   -10.869565   LOBROW1726 1.000000
    STKRSP38 UPBROW1727 1.000000
    STKRSP41 QRSP42   32.258057   QRSP41   -33.333328
    STKRSP41 LOBROW1728 1.000000   UPBROW1729 1.000000
    STKRSP42 QRSP43   32.258057   QRSP42   -32.258057
    STKRSP42 LOBROW1730 1.000000   UPBROW1731 1.000000
    STKRSP43 QRSP44   33.333328   QRSP43   -32.258057
    STKRSP43 LOBROW1732 1.000000   UPBROW1733 1.000000
    STKRSP44 QRSP45   10.869565   QRSP44   -33.333328
    STKRSP44 LOBROW1734 1.000000   UPBROW1735 1.000000
    STKRSP45 QRSP46   10.989011   QRSP45   -10.869565
    STKRSP45 LOBROW1736 1.000000   UPBROW1737 1.000000
    STKRSP46 QRSP47   10.989011   QRSP46   -10.989011
    STKRSP46 LOBROW1738 1.000000   UPBROW1739 1.000000
    STKRSP47 QRSP48   10.869565   QRSP47   -10.989011
    STKRSP47 LOBROW1740 1.000000   UPBROW1741 1.000000
    STKRSP48 QRSP48   -10.869565   LOBROW1742 1.000000
    STKRSP48 UPBROW1743 1.000000
    STKRSP51 QRSP52   32.258057   QRSP51   -33.333328
    STKRSP51 LOBROW1744 1.000000   UPBROW1745 1.000000
    STKRSP52 QRSP53   32.258057   QRSP52   -32.258057
    STKRSP52 LOBROW1746 1.000000   UPBROW1747 1.000000
    STKRSP53 QRSP54   33.333328   QRSP53   -32.258057
    STKRSP53 LOBROW1748 1.000000   UPBROW1749 1.000000
    STKRSP54 QRSP55   10.869565   QRSP54   -33.333328
    STKRSP54 LOBROW1750 1.000000   UPBROW1751 1.000000
    STKRSP55 QRSP56   10.989011   QRSP55   -10.869565
    STKRSP55 LOBROW1752 1.000000   UPBROW1753 1.000000
    STKRSP56 QRSP57   10.989011   QRSP56   -10.989011
    STKRSP56 LOBROW1754 1.000000   UPBROW1755 1.000000
    STKRSP57 QRSP58   10.869565   QRSP57   -10.989011
    STKRSP57 LOBROW1756 1.000000   UPBROW1757 1.000000
    STKRSP58 QRSP58   -10.869565   LOBROW1758 1.000000
    STKRSP58 UPBROW1759 1.000000
    STKKJP11 QKJP12   32.258057   QKJP11   -33.333328
    STKKJP11 LOBROW1760 1.000000
    STKKJP12 QKJP13   32.258057   QKJP12   -32.258057
    STKKJP12 LOBROW1761 1.000000
    STKKJP13 QKJP14   33.333328   QKJP13   -32.258057
    STKKJP13 LOBROW1762 1.000000
    STKKJP14 QKJP15   10.869565   QKJP14   -33.333328
    STKKJP14 LOBROW1763 1.000000
    STKKJP15 QKJP16   10.989011   QKJP15   -10.869565
    STKKJP15 LOBROW1764 1.000000
    STKKJP16 QKJP17   10.989011   QKJP16   -10.989011
    STKKJP16 LOBROW1765 1.000000
    STKKJP17 QKJP18   10.869565   QKJP17   -10.989011
    STKKJP17 LOBROW1766 1.000000
    STKKJP18 QKJP18   -10.869565   LOBROW1767 1.000000
    STKKJP21 QKJP22   32.258057   QKJP21   -33.333328
    STKKJP21 LOBROW1768 1.000000
    STKKJP22 QKJP23   32.258057   QKJP22   -32.258057
    STKKJP22 LOBROW1769 1.000000
    STKKJP23 QKJP24   33.333328   QKJP23   -32.258057
    STKKJP23 LOBROW1770 1.000000
    STKKJP24 QKJP25   10.869565   QKJP24   -33.333328
    STKKJP24 LOBROW1771 1.000000
    STKKJP25 QKJP26   10.989011   QKJP25   -10.869565
    STKKJP25 LOBROW1772 1.000000
    STKKJP26 QKJP27   10.989011   QKJP26   -10.989011
    STKKJP26 LOBROW1773 1.000000
    STKKJP27 QKJP28   10.869565   QKJP27   -10.989011
    STKKJP27 LOBROW1774 1.000000
    STKKJP28 QKJP28   -10.869565   LOBROW1775 1.000000
    STKKJP31 QKJP32   32.258057   QKJP31   -33.333328
    STKKJP31 LOBROW1776 1.000000
    STKKJP32 QKJP33   32.258057   QKJP32   -32.258057
    STKKJP32 LOBROW1777 1.000000
    STKKJP33 QKJP34   33.333328   QKJP33   -32.258057
    STKKJP33 LOBROW1778 1.000000
    STKKJP34 QKJP35   10.869565   QKJP34   -33.333328
    STKKJP34 LOBROW1779 1.000000
    STKKJP35 QKJP36   10.989011   QKJP35   -10.869565
    STKKJP35 LOBROW1780 1.000000
    STKKJP36 QKJP37   10.989011   QKJP36   -10.989011
    STKKJP36 LOBROW1781 1.000000
    STKKJP37 QKJP38   10.869565   QKJP37   -10.989011
    STKKJP37 LOBROW1782 1.000000
    STKKJP38 QKJP38   -10.869565   LOBROW1783 1.000000
    STKKJP41 QKJP42   32.258057   QKJP41   -33.333328
    STKKJP41 LOBROW1784 1.000000
    STKKJP42 QKJP43   32.258057   QKJP42   -32.258057
    STKKJP42 LOBROW1785 1.000000
    STKKJP43 QKJP44   33.333328   QKJP43   -32.258057
    STKKJP43 LOBROW1786 1.000000
    STKKJP44 QKJP45   10.869565   QKJP44   -33.333328
    STKKJP44 LOBROW1787 1.000000
    STKKJP45 QKJP46   10.989011   QKJP45   -10.869565
    STKKJP45 LOBROW1788 1.000000
    STKKJP46 QKJP47   10.989011   QKJP46   -10.989011
    STKKJP46 LOBROW1789 1.000000
    STKKJP47 QKJP48   10.869565   QKJP47   -10.989011
    STKKJP47 LOBROW1790 1.000000
    STKKJP48 QKJP48   -10.869565   LOBROW1791 1.000000
    STKKJP51 QKJP52   32.258057   QKJP51   -33.333328
    STKKJP51 LOBROW1792 1.000000
    STKKJP52 QKJP53   32.258057   QKJP52   -32.258057
    STKKJP52 LOBROW1793 1.000000
    STKKJP53 QKJP54   33.333328   QKJP53   -32.258057
    STKKJP53 LOBROW1794 1.000000
    STKKJP54 QKJP55   10.869565   QKJP54   -33.333328
    STKKJP54 LOBROW1795 1.000000
    STKKJP55 QKJP56   10.989011   QKJP55   -10.869565
    STKKJP55 LOBROW1796 1.000000
    STKKJP56 QKJP57   10.989011   QKJP56   -10.989011
    STKKJP56 LOBROW1797 1.000000
    STKKJP57 QKJP58   10.869565   QKJP57   -10.989011
    STKKJP57 LOBROW1798 1.000000
    STKKJP58 QKJP58   -10.869565   LOBROW1799 1.000000
    STKNJP11 QNJP12   32.258057   QNJP11   -33.333328
    STKNJP11 LOBROW1800 1.000000
    STKNJP12 QNJP13   32.258057   QNJP12   -32.258057
    STKNJP12 LOBROW1801 1.000000
    STKNJP13 QNJP14   33.333328   QNJP13   -32.258057
    STKNJP13 LOBROW1802 1.000000
    STKNJP14 QNJP15   10.869565   QNJP14   -33.333328
    STKNJP14 LOBROW1803 1.000000
    STKNJP15 QNJP16   10.989011   QNJP15   -10.869565
    STKNJP15 LOBROW1804 1.000000
    STKNJP16 QNJP17   10.989011   QNJP16   -10.989011
    STKNJP16 LOBROW1805 1.000000
    STKNJP17 QNJP18   10.869565   QNJP17   -10.989011
    STKNJP17 LOBROW1806 1.000000
    STKNJP18 QNJP18   -10.869565   LOBROW1807 1.000000
    STKNJP21 QNJP22   32.258057   QNJP21   -33.333328
    STKNJP21 LOBROW1808 1.000000
    STKNJP22 QNJP23   32.258057   QNJP22   -32.258057
    STKNJP22 LOBROW1809 1.000000
    STKNJP23 QNJP24   33.333328   QNJP23   -32.258057
    STKNJP23 LOBROW1810 1.000000
    STKNJP24 QNJP25   10.869565   QNJP24   -33.333328
    STKNJP24 LOBROW1811 1.000000
    STKNJP25 QNJP26   10.989011   QNJP25   -10.869565
    STKNJP25 LOBROW1812 1.000000
    STKNJP26 QNJP27   10.989011   QNJP26   -10.989011
    STKNJP26 LOBROW1813 1.000000
    STKNJP27 QNJP28   10.869565   QNJP27   -10.989011
    STKNJP27 LOBROW1814 1.000000
    STKNJP28 QNJP28   -10.869565   LOBROW1815 1.000000
    STKNJP31 QNJP32   32.258057   QNJP31   -33.333328
    STKNJP31 LOBROW1816 1.000000
    STKNJP32 QNJP33   32.258057   QNJP32   -32.258057
    STKNJP32 LOBROW1817 1.000000
    STKNJP33 QNJP34   33.333328   QNJP33   -32.258057
    STKNJP33 LOBROW1818 1.000000
    STKNJP34 QNJP35   10.869565   QNJP34   -33.333328
    STKNJP34 LOBROW1819 1.000000
    STKNJP35 QNJP36   10.989011   QNJP35   -10.869565
    STKNJP35 LOBROW1820 1.000000
    STKNJP36 QNJP37   10.989011   QNJP36   -10.989011
    STKNJP36 LOBROW1821 1.000000
    STKNJP37 QNJP38   10.869565   QNJP37   -10.989011
    STKNJP37 LOBROW1822 1.000000
    STKNJP38 QNJP38   -10.869565   LOBROW1823 1.000000
    STKNJP41 QNJP42   32.258057   QNJP41   -33.333328
    STKNJP41 LOBROW1824 1.000000
    STKNJP42 QNJP43   32.258057   QNJP42   -32.258057
    STKNJP42 LOBROW1825 1.000000
    STKNJP43 QNJP44   33.333328   QNJP43   -32.258057
    STKNJP43 LOBROW1826 1.000000
    STKNJP44 QNJP45   10.869565   QNJP44   -33.333328
    STKNJP44 LOBROW1827 1.000000
    STKNJP45 QNJP46   10.989011   QNJP45   -10.869565
    STKNJP45 LOBROW1828 1.000000
    STKNJP46 QNJP47   10.989011   QNJP46   -10.989011
    STKNJP46 LOBROW1829 1.000000
    STKNJP47 QNJP48   10.869565   QNJP47   -10.989011
    STKNJP47 LOBROW1830 1.000000
    STKNJP48 QNJP48   -10.869565   LOBROW1831 1.000000
    STKNJP51 QNJP52   32.258057   QNJP51   -33.333328
    STKNJP51 LOBROW1832 1.000000
    STKNJP52 QNJP53   32.258057   QNJP52   -32.258057
    STKNJP52 LOBROW1833 1.000000
    STKNJP53 QNJP54   33.333328   QNJP53   -32.258057
    STKNJP53 LOBROW1834 1.000000
    STKNJP54 QNJP55   10.869565   QNJP54   -33.333328
    STKNJP54 LOBROW1835 1.000000
    STKNJP55 QNJP56   10.989011   QNJP55   -10.869565
    STKNJP55 LOBROW1836 1.000000
    STKNJP56 QNJP57   10.989011   QNJP56   -10.989011
    STKNJP56 LOBROW1837 1.000000
    STKNJP57 QNJP58   10.869565   QNJP57   -10.989011
    STKNJP57 LOBROW1838 1.000000
    STKNJP58 QNJP58   -10.869565   LOBROW1839 1.000000
    STKPFP11 QPFP12   32.258057   QPFP11   -33.333328
    STKPFP11 LOBROW1840 1.000000
    STKPFP12 QPFP13   32.258057   QPFP12   -32.258057
    STKPFP12 LOBROW1841 1.000000
    STKPFP13 QPFP14   33.333328   QPFP13   -32.258057
    STKPFP13 LOBROW1842 1.000000
    STKPFP14 QPFP15   10.869565   QPFP14   -33.333328
    STKPFP14 LOBROW1843 1.000000
    STKPFP15 QPFP16   10.989011   QPFP15   -10.869565
    STKPFP15 LOBROW1844 1.000000
    STKPFP16 QPFP17   10.989011   QPFP16   -10.989011
    STKPFP16 LOBROW1845 1.000000
    STKPFP17 QPFP18   10.869565   QPFP17   -10.989011
    STKPFP17 LOBROW1846 1.000000
    STKPFP18 QPFP18   -10.869565   LOBROW1847 1.000000
    STKPFP21 QPFP22   32.258057   QPFP21   -33.333328
    STKPFP21 LOBROW1848 1.000000
    STKPFP22 QPFP23   32.258057   QPFP22   -32.258057
    STKPFP22 LOBROW1849 1.000000
    STKPFP23 QPFP24   33.333328   QPFP23   -32.258057
    STKPFP23 LOBROW1850 1.000000
    STKPFP24 QPFP25   10.869565   QPFP24   -33.333328
    STKPFP24 LOBROW1851 1.000000
    STKPFP25 QPFP26   10.989011   QPFP25   -10.869565
    STKPFP25 LOBROW1852 1.000000
    STKPFP26 QPFP27   10.989011   QPFP26   -10.989011
    STKPFP26 LOBROW1853 1.000000
    STKPFP27 QPFP28   10.869565   QPFP27   -10.989011
    STKPFP27 LOBROW1854 1.000000
    STKPFP28 QPFP28   -10.869565   LOBROW1855 1.000000
    STKPFP31 QPFP32   32.258057   QPFP31   -33.333328
    STKPFP31 LOBROW1856 1.000000
    STKPFP32 QPFP33   32.258057   QPFP32   -32.258057
    STKPFP32 LOBROW1857 1.000000
    STKPFP33 QPFP34   33.333328   QPFP33   -32.258057
    STKPFP33 LOBROW1858 1.000000
    STKPFP34 QPFP35   10.869565   QPFP34   -33.333328
    STKPFP34 LOBROW1859 1.000000
    STKPFP35 QPFP36   10.989011   QPFP35   -10.869565
    STKPFP35 LOBROW1860 1.000000
    STKPFP36 QPFP37   10.989011   QPFP36   -10.989011
    STKPFP36 LOBROW1861 1.000000
    STKPFP37 QPFP38   10.869565   QPFP37   -10.989011
    STKPFP37 LOBROW1862 1.000000
    STKPFP38 QPFP38   -10.869565   LOBROW1863 1.000000
    STKPFP41 QPFP42   32.258057   QPFP41   -33.333328
    STKPFP41 LOBROW1864 1.000000
    STKPFP42 QPFP43   32.258057   QPFP42   -32.258057
    STKPFP42 LOBROW1865 1.000000
    STKPFP43 QPFP44   33.333328   QPFP43   -32.258057
    STKPFP43 LOBROW1866 1.000000
    STKPFP44 QPFP45   10.869565   QPFP44   -33.333328
    STKPFP44 LOBROW1867 1.000000
    STKPFP45 QPFP46   10.989011   QPFP45   -10.869565
    STKPFP45 LOBROW1868 1.000000
    STKPFP46 QPFP47   10.989011   QPFP46   -10.989011
    STKPFP46 LOBROW1869 1.000000
    STKPFP47 QPFP48   10.869565   QPFP47   -10.989011
    STKPFP47 LOBROW1870 1.000000
    STKPFP48 QPFP48   -10.869565   LOBROW1871 1.000000
    STKPFP51 QPFP52   32.258057   QPFP51   -33.333328
    STKPFP51 LOBROW1872 1.000000
    STKPFP52 QPFP53   32.258057   QPFP52   -32.258057
    STKPFP52 LOBROW1873 1.000000
    STKPFP53 QPFP54   33.333328   QPFP53   -32.258057
    STKPFP53 LOBROW1874 1.000000
    STKPFP54 QPFP55   10.869565   QPFP54   -33.333328
    STKPFP54 LOBROW1875 1.000000
    STKPFP55 QPFP56   10.989011   QPFP55   -10.869565
    STKPFP55 LOBROW1876 1.000000
    STKPFP56 QPFP57   10.989011   QPFP56   -10.989011
    STKPFP56 LOBROW1877 1.000000
    STKPFP57 QPFP58   10.869565   QPFP57   -10.989011
    STKPFP57 LOBROW1878 1.000000
    STKPFP58 QPFP58   -10.869565   LOBROW1879 1.000000
    STKLPP11 QLPP12   32.258057   QLPP11   -33.333328
    STKLPP11 LOBROW1880 1.000000
    STKLPP12 QLPP13   32.258057   QLPP12   -32.258057
    STKLPP12 LOBROW1881 1.000000
    STKLPP13 QLPP14   33.333328   QLPP13   -32.258057
    STKLPP13 LOBROW1882 1.000000
    STKLPP14 QLPP15   10.869565   QLPP14   -33.333328
    STKLPP14 LOBROW1883 1.000000
    STKLPP15 QLPP16   10.989011   QLPP15   -10.869565
    STKLPP15 LOBROW1884 1.000000
    STKLPP16 QLPP17   10.989011   QLPP16   -10.989011
    STKLPP16 LOBROW1885 1.000000
    STKLPP17 QLPP18   10.869565   QLPP17   -10.989011
    STKLPP17 LOBROW1886 1.000000
    STKLPP18 QLPP18   -10.869565   LOBROW1887 1.000000
    STKLPP21 QLPP22   32.258057   QLPP21   -33.333328
    STKLPP21 LOBROW1888 1.000000
    STKLPP22 QLPP23   32.258057   QLPP22   -32.258057
    STKLPP22 LOBROW1889 1.000000
    STKLPP23 QLPP24   33.333328   QLPP23   -32.258057
    STKLPP23 LOBROW1890 1.000000
    STKLPP24 QLPP25   10.869565   QLPP24   -33.333328
    STKLPP24 LOBROW1891 1.000000
    STKLPP25 QLPP26   10.989011   QLPP25   -10.869565
    STKLPP25 LOBROW1892 1.000000
    STKLPP26 QLPP27   10.989011   QLPP26   -10.989011
    STKLPP26 LOBROW1893 1.000000
    STKLPP27 QLPP28   10.869565   QLPP27   -10.989011
    STKLPP27 LOBROW1894 1.000000
    STKLPP28 QLPP28   -10.869565   LOBROW1895 1.000000
    STKLPP31 QLPP32   32.258057   QLPP31   -33.333328
    STKLPP31 LOBROW1896 1.000000
    STKLPP32 QLPP33   32.258057   QLPP32   -32.258057
    STKLPP32 LOBROW1897 1.000000
    STKLPP33 QLPP34   33.333328   QLPP33   -32.258057
    STKLPP33 LOBROW1898 1.000000
    STKLPP34 QLPP35   10.869565   QLPP34   -33.333328
    STKLPP34 LOBROW1899 1.000000
    STKLPP35 QLPP36   10.989011   QLPP35   -10.869565
    STKLPP35 LOBROW1900 1.000000
    STKLPP36 QLPP37   10.989011   QLPP36   -10.989011
    STKLPP36 LOBROW1901 1.000000
    STKLPP37 QLPP38   10.869565   QLPP37   -10.989011
    STKLPP37 LOBROW1902 1.000000
    STKLPP38 QLPP38   -10.869565   LOBROW1903 1.000000
    STKLPP41 QLPP42   32.258057   QLPP41   -33.333328
    STKLPP41 LOBROW1904 1.000000
    STKLPP42 QLPP43   32.258057   QLPP42   -32.258057
    STKLPP42 LOBROW1905 1.000000
    STKLPP43 QLPP44   33.333328   QLPP43   -32.258057
    STKLPP43 LOBROW1906 1.000000
    STKLPP44 QLPP45   10.869565   QLPP44   -33.333328
    STKLPP44 LOBROW1907 1.000000
    STKLPP45 QLPP46   10.989011   QLPP45   -10.869565
    STKLPP45 LOBROW1908 1.000000
    STKLPP46 QLPP47   10.989011   QLPP46   -10.989011
    STKLPP46 LOBROW1909 1.000000
    STKLPP47 QLPP48   10.869565   QLPP47   -10.989011
    STKLPP47 LOBROW1910 1.000000
    STKLPP48 QLPP48   -10.869565   LOBROW1911 1.000000
    STKLPP51 QLPP52   32.258057   QLPP51   -33.333328
    STKLPP51 LOBROW1912 1.000000
    STKLPP52 QLPP53   32.258057   QLPP52   -32.258057
    STKLPP52 LOBROW1913 1.000000
    STKLPP53 QLPP54   33.333328   QLPP53   -32.258057
    STKLPP53 LOBROW1914 1.000000
    STKLPP54 QLPP55   10.869565   QLPP54   -33.333328
    STKLPP54 LOBROW1915 1.000000
    STKLPP55 QLPP56   10.989011   QLPP55   -10.869565
    STKLPP55 LOBROW1916 1.000000
    STKLPP56 QLPP57   10.989011   QLPP56   -10.989011
    STKLPP56 LOBROW1917 1.000000
    STKLPP57 QLPP58   10.869565   QLPP57   -10.989011
    STKLPP57 LOBROW1918 1.000000
    STKLPP58 QLPP58   -10.869565   LOBROW1919 1.000000
    STKOTP11 QOTP12   32.258057   QOTP11   -33.333328
    STKOTP11 LOBROW1920 1.000000   UPBROW1921 1.000000
    STKOTP12 QOTP13   32.258057   QOTP12   -32.258057
    STKOTP12 LOBROW1922 1.000000   UPBROW1923 1.000000
    STKOTP13 QOTP14   33.333328   QOTP13   -32.258057
    STKOTP13 LOBROW1924 1.000000   UPBROW1925 1.000000
    STKOTP14 QOTP15   10.869565   QOTP14   -33.333328
    STKOTP14 LOBROW1926 1.000000   UPBROW1927 1.000000
    STKOTP15 QOTP16   10.989011   QOTP15   -10.869565
    STKOTP15 LOBROW1928 1.000000   UPBROW1929 1.000000
    STKOTP16 QOTP17   10.989011   QOTP16   -10.989011
    STKOTP16 LOBROW1930 1.000000   UPBROW1931 1.000000
    STKOTP17 QOTP18   10.869565   QOTP17   -10.989011
    STKOTP17 LOBROW1932 1.000000   UPBROW1933 1.000000
    STKOTP18 QOTP18   -10.869565   LOBROW1934 1.000000
    STKOTP18 UPBROW1935 1.000000
    STKOTP21 QOTP22   32.258057   QOTP21   -33.333328
    STKOTP21 LOBROW1936 1.000000   UPBROW1937 1.000000
    STKOTP22 QOTP23   32.258057   QOTP22   -32.258057
    STKOTP22 LOBROW1938 1.000000   UPBROW1939 1.000000
    STKOTP23 QOTP24   33.333328   QOTP23   -32.258057
    STKOTP23 LOBROW1940 1.000000   UPBROW1941 1.000000
    STKOTP24 QOTP25   10.869565   QOTP24   -33.333328
    STKOTP24 LOBROW1942 1.000000   UPBROW1943 1.000000
    STKOTP25 QOTP26   10.989011   QOTP25   -10.869565
    STKOTP25 LOBROW1944 1.000000   UPBROW1945 1.000000
    STKOTP26 QOTP27   10.989011   QOTP26   -10.989011
    STKOTP26 LOBROW1946 1.000000   UPBROW1947 1.000000
    STKOTP27 QOTP28   10.869565   QOTP27   -10.989011
    STKOTP27 LOBROW1948 1.000000   UPBROW1949 1.000000
    STKOTP28 QOTP28   -10.869565   LOBROW1950 1.000000
    STKOTP28 UPBROW1951 1.000000
    STKOTP31 QOTP32   32.258057   QOTP31   -33.333328
    STKOTP31 LOBROW1952 1.000000   UPBROW1953 1.000000
    STKOTP32 QOTP33   32.258057   QOTP32   -32.258057
    STKOTP32 LOBROW1954 1.000000   UPBROW1955 1.000000
    STKOTP33 QOTP34   33.333328   QOTP33   -32.258057
    STKOTP33 LOBROW1956 1.000000   UPBROW1957 1.000000
    STKOTP34 QOTP35   10.869565   QOTP34   -33.333328
    STKOTP34 LOBROW1958 1.000000   UPBROW1959 1.000000
    STKOTP35 QOTP36   10.989011   QOTP35   -10.869565
    STKOTP35 LOBROW1960 1.000000   UPBROW1961 1.000000
    STKOTP36 QOTP37   10.989011   QOTP36   -10.989011
    STKOTP36 LOBROW1962 1.000000   UPBROW1963 1.000000
    STKOTP37 QOTP38   10.869565   QOTP37   -10.989011
    STKOTP37 LOBROW1964 1.000000   UPBROW1965 1.000000
    STKOTP38 QOTP38   -10.869565   LOBROW1966 1.000000
    STKOTP38 UPBROW1967 1.000000
    STKOTP41 QOTP42   32.258057   QOTP41   -33.333328
    STKOTP41 LOBROW1968 1.000000   UPBROW1969 1.000000
    STKOTP42 QOTP43   32.258057   QOTP42   -32.258057
    STKOTP42 LOBROW1970 1.000000   UPBROW1971 1.000000
    STKOTP43 QOTP44   33.333328   QOTP43   -32.258057
    STKOTP43 LOBROW1972 1.000000   UPBROW1973 1.000000
    STKOTP44 QOTP45   10.869565   QOTP44   -33.333328
    STKOTP44 LOBROW1974 1.000000   UPBROW1975 1.000000
    STKOTP45 QOTP46   10.989011   QOTP45   -10.869565
    STKOTP45 LOBROW1976 1.000000   UPBROW1977 1.000000
    STKOTP46 QOTP47   10.989011   QOTP46   -10.989011
    STKOTP46 LOBROW1978 1.000000   UPBROW1979 1.000000
    STKOTP47 QOTP48   10.869565   QOTP47   -10.989011
    STKOTP47 LOBROW1980 1.000000   UPBROW1981 1.000000
    STKOTP48 QOTP48   -10.869565   LOBROW1982 1.000000
    STKOTP48 UPBROW1983 1.000000
    STKOTP51 QOTP52   32.258057   QOTP51   -33.333328
    STKOTP51 LOBROW1984 1.000000   UPBROW1985 1.000000
    STKOTP52 QOTP53   32.258057   QOTP52   -32.258057
    STKOTP52 LOBROW1986 1.000000   UPBROW1987 1.000000
    STKOTP53 QOTP54   33.333328   QOTP53   -32.258057
    STKOTP53 LOBROW1988 1.000000   UPBROW1989 1.000000
    STKOTP54 QOTP55   10.869565   QOTP54   -33.333328
    STKOTP54 LOBROW1990 1.000000   UPBROW1991 1.000000
    STKOTP55 QOTP56   10.989011   QOTP55   -10.869565
    STKOTP55 LOBROW1992 1.000000   UPBROW1993 1.000000
    STKOTP56 QOTP57   10.989011   QOTP56   -10.989011
    STKOTP56 LOBROW1994 1.000000   UPBROW1995 1.000000
    STKOTP57 QOTP58   10.869565   QOTP57   -10.989011
    STKOTP57 LOBROW1996 1.000000   UPBROW1997 1.000000
    STKOTP58 QOTP58   -10.869565   LOBROW1998 1.000000
    STKOTP58 UPBROW1999 1.000000
    XP111    RCAPP11  1.000000   QCRP11   -1.000000
    XP111    QGAP11   0.479000   QDSP11   0.242000
    XP111    QRSP11   0.071000   QKJP11   0.029000
    XP111    QNJP11   0.004000   QPFP11   0.014000
    XP111    QLPP11   0.031000   QOTP11   0.156000
    XP111    LOBROW2000 1.000000
    XP112    RCAPP11  1.000000   QCRP11   -1.000000
    XP112    QGAP11   0.473000   QDSP11   0.248000
    XP112    QRSP11   0.059000   QKJP11   0.028000
    XP112    QNJP11   0.003000   QPFP11   0.009000
    XP112    QLPP11   0.035000   QOTP11   0.159000
    XP112    LOBROW2001 1.000000
    XP113    RCAPP11  1.000000   QCRP11   -1.000000
    XP113    QGAP11   0.471000   QDSP11   0.248000
    XP113    QRSP11   0.064000   QKJP11   0.017000
    XP113    QNJP11   0.005000   QPFP11   0.014000
    XP113    QLPP11   0.031000   QOTP11   0.171000
    XP113    LOBROW2002 1.000000
    XP114    RCAPP11  1.000000   QCRP11   -1.000000
    XP114    QGAP11   0.464000   QDSP11   0.255000
    XP114    QRSP11   0.069000   QKJP11   0.019000
    XP114    QNJP11   0.004000   QPFP11   0.014000
    XP114    QLPP11   0.031000   QOTP11   0.174000
    XP114    LOBROW2003 1.000000
    XP115    RCAPP11  1.000000   QCRP11   -1.000000
    XP115    QGAP11   0.504000   QDSP11   0.207000
    XP115    QRSP11   0.079000   QKJP11   0.019000
    XP115    QNJP11   0.005000   QPFP11   0.014000
    XP115    QLPP11   0.030000   QOTP11   0.172000
    XP115    LOBROW2004 1.000000
    XP116    RCAPP11  1.000000   QCRP11   -1.000000
    XP116    QGAP11   0.495000   QDSP11   0.230000
    XP116    QRSP11   0.064000   QKJP11   0.017000
    XP116    QNJP11   0.004000   QPFP11   0.013000
    XP116    QLPP11   0.034000   QOTP11   0.193000
    XP116    LOBROW2005 1.000000
    XP117    RCAPP11  1.000000   QCRP11   -1.000000
    XP117    QGAP11   0.483000   QDSP11   0.239000
    XP117    QRSP11   0.057000   QKJP11   0.022000
    XP117    QNJP11   0.003000   QPFP11   0.014000
    XP117    QLPP11   0.032000   QOTP11   0.184000
    XP117    LOBROW2006 1.000000
    XP118    RCAPP11  1.000000   QCRP11   -1.000000
    XP118    QGAP11   0.487000   QDSP11   0.249000
    XP118    QRSP11   0.051000   QKJP11   0.017000
    XP118    QNJP11   0.005000   QPFP11   0.011000
    XP118    QLPP11   0.033000   QOTP11   0.177000
    XP118    LOBROW2007 1.000000
    XP119    RCAPP11  1.000000   QCRP11   -1.000000
    XP119    QGAP11   0.486000   QDSP11   0.241000
    XP119    QRSP11   0.064000   QKJP11   0.019000
    XP119    QNJP11   0.004000   QPFP11   0.011000
    XP119    QLPP11   0.032000   QOTP11   0.167000
    XP119    LOBROW2008 1.000000
    XP1110   RCAPP11  1.000000   QCRP11   -1.000000
    XP1110   QGAP11   0.469000   QDSP11   0.272000
    XP1110   QRSP11   0.079000   QKJP11   0.020000
    XP1110   QNJP11   0.004000   QPFP11   0.016000
    XP1110   QLPP11   0.033000   QOTP11   0.139000
    XP1110   LOBROW2009 1.000000
    XP1111   RCAPP11  1.000000   QCRP11   -1.000000
    XP1111   QGAP11   0.457000   QDSP11   0.280000
    XP1111   QRSP11   0.089000   QKJP11   0.022000
    XP1111   QNJP11   0.004000   QPFP11   0.013000
    XP1111   QLPP11   0.037000   QOTP11   0.130000
    XP1111   LOBROW2010 1.000000
    XP1112   RCAPP11  1.000000   QCRP11   -1.000000
    XP1112   QGAP11   0.452000   QDSP11   0.277000
    XP1112   QRSP11   0.086000   QKJP11   0.028000
    XP1112   QNJP11   0.007000   QPFP11   0.008000
    XP1112   QLPP11   0.033000   QOTP11   0.133000
    XP1112   LOBROW2011 1.000000
    XP1113   RCAPP11  1.000000   QCRP11   -1.000000
    XP1113   QGAP11   0.474000   QDSP11   0.250000
    XP1113   QRSP11   0.089000   QKJP11   0.026000
    XP1113   QNJP11   0.007000   QPFP11   0.009000
    XP1113   QLPP11   0.035000   QOTP11   0.136000
    XP1113   LOBROW2012 1.000000
    XP1114   RCAPP11  1.000000   QCRP11   -1.000000
    XP1114   QGAP11   0.488000   QDSP11   0.228000
    XP1114   QRSP11   0.084000   QKJP11   0.021000
    XP1114   QNJP11   0.008000   QPFP11   0.009000
    XP1114   QLPP11   0.033000   QOTP11   0.162000
    XP1114   LOBROW2013 1.000000
    XP1115   RCAPP11  1.000000   QCRP11   -1.000000
    XP1115   QGAP11   0.500000   QDSP11   0.228000
    XP1115   QRSP11   0.075000   QKJP11   0.017000
    XP1115   QNJP11   0.002000   QPFP11   0.009000
    XP1115   QLPP11   0.046000   QOTP11   0.173000
    XP1115   LOBROW2014 1.000000
    XP1116   RCAPP11  1.000000   QCRP11   -1.000000
    XP1116   QGAP11   0.478000   QDSP11   0.233000
    XP1116   QRSP11   0.080000   QKJP11   0.017000
    XP1116   QNJP11   0.006000   QPFP11   0.008000
    XP1116   QLPP11   0.032000   QOTP11   0.178000
    XP1116   LOBROW2015 1.000000
    XP1117   RCAPP11  1.000000   QCRP11   -1.000000
    XP1117   QGAP11   0.472000   QDSP11   0.234000
    XP1117   QRSP11   0.079000   QKJP11   0.022000
    XP1117   QNJP11   0.004000   QPFP11   0.008000
    XP1117   QLPP11   0.033000   QOTP11   0.181000
    XP1117   LOBROW2016 1.000000
    XP1118   RCAPP11  1.000000   QCRP11   -1.000000
    XP1118   QGAP11   0.453000   QDSP11   0.239000
    XP1118   QRSP11   0.082000   QKJP11   0.022000
    XP1118   QNJP11   0.003000   QPFP11   0.013000
    XP1118   QLPP11   0.036000   QOTP11   0.184000
    XP1118   LOBROW2017 1.000000
    XP1119   RCAPP11  1.000000   QCRP11   -1.000000
    XP1119   QGAP11   0.443000   QDSP11   0.237000
    XP1119   QRSP11   0.090000   QKJP11   0.021000
    XP1119   QNJP11   0.003000   QPFP11   0.013000
    XP1119   QLPP11   0.033000   QOTP11   0.185000
    XP1119   LOBROW2018 1.000000
    XP1120   RCAPP11  1.000000   QCRP11   -1.000000
    XP1120   QGAP11   0.446000   QDSP11   0.248000
    XP1120   QRSP11   0.099000   QKJP11   0.020000
    XP1120   QNJP11   0.004000   QPFP11   0.011000
    XP1120   QLPP11   0.035000   QOTP11   0.180000
    XP1120   LOBROW2019 1.000000
    XP1121   RCAPP11  1.000000   QCRP11   -1.000000
    XP1121   QGAP11   0.448000   QDSP11   0.250000
    XP1121   QRSP11   0.104000   QKJP11   0.017000
    XP1121   QNJP11   0.006000   QPFP11   0.016000
    XP1121   QLPP11   0.034000   QOTP11   0.167000
    XP1121   LOBROW2020 1.000000
    XP1122   RCAPP11  1.000000   QCRP11   -1.000000
    XP1122   QGAP11   0.424000   QDSP11   0.288000
    XP1122   QRSP11   0.106000   QKJP11   0.011000
    XP1122   QNJP11   0.003000   QPFP11   0.019000
    XP1122   QLPP11   0.033000   QOTP11   0.157000
    XP1122   LOBROW2021 1.000000
    XP1123   RCAPP11  1.000000   QCRP11   -1.000000
    XP1123   QGAP11   0.461000   QDSP11   0.282000
    XP1123   QRSP11   0.110000   QKJP11   0.018000
    XP1123   QNJP11   0.004000   QPFP11   0.014000
    XP1123   QLPP11   0.031000   QOTP11   0.128000
    XP1123   LOBROW2022 1.000000
    XP1124   RCAPP11  1.000000   QCRP11   -1.000000
    XP1124   QGAP11   0.493000   QDSP11   0.232000
    XP1124   QRSP11   0.108000   QKJP11   0.025000
    XP1124   QNJP11   0.003000   QPFP11   0.015000
    XP1124   QLPP11   0.039000   QOTP11   0.133000
    XP1124   LOBROW2023 1.000000
    XP121    RCAPP12  1.000000   QCRP12   -1.000000
    XP121    QGAP12   0.479000   QDSP12   0.242000
    XP121    QRSP12   0.071000   QKJP12   0.029000
    XP121    QNJP12   0.004000   QPFP12   0.014000
    XP121    QLPP12   0.031000   QOTP12   0.156000
    XP121    LOBROW2024 1.000000
    XP122    RCAPP12  1.000000   QCRP12   -1.000000
    XP122    QGAP12   0.473000   QDSP12   0.248000
    XP122    QRSP12   0.059000   QKJP12   0.028000
    XP122    QNJP12   0.003000   QPFP12   0.009000
    XP122    QLPP12   0.035000   QOTP12   0.159000
    XP122    LOBROW2025 1.000000
    XP123    RCAPP12  1.000000   QCRP12   -1.000000
    XP123    QGAP12   0.471000   QDSP12   0.248000
    XP123    QRSP12   0.064000   QKJP12   0.017000
    XP123    QNJP12   0.005000   QPFP12   0.014000
    XP123    QLPP12   0.031000   QOTP12   0.171000
    XP123    LOBROW2026 1.000000
    XP124    RCAPP12  1.000000   QCRP12   -1.000000
    XP124    QGAP12   0.464000   QDSP12   0.255000
    XP124    QRSP12   0.069000   QKJP12   0.019000
    XP124    QNJP12   0.004000   QPFP12   0.014000
    XP124    QLPP12   0.031000   QOTP12   0.174000
    XP124    LOBROW2027 1.000000
    XP125    RCAPP12  1.000000   QCRP12   -1.000000
    XP125    QGAP12   0.504000   QDSP12   0.207000
    XP125    QRSP12   0.079000   QKJP12   0.019000
    XP125    QNJP12   0.005000   QPFP12   0.014000
    XP125    QLPP12   0.030000   QOTP12   0.172000
    XP125    LOBROW2028 1.000000
    XP126    RCAPP12  1.000000   QCRP12   -1.000000
    XP126    QGAP12   0.495000   QDSP12   0.230000
    XP126    QRSP12   0.064000   QKJP12   0.017000
    XP126    QNJP12   0.004000   QPFP12   0.013000
    XP126    QLPP12   0.034000   QOTP12   0.193000
    XP126    LOBROW2029 1.000000
    XP127    RCAPP12  1.000000   QCRP12   -1.000000
    XP127    QGAP12   0.483000   QDSP12   0.239000
    XP127    QRSP12   0.057000   QKJP12   0.022000
    XP127    QNJP12   0.003000   QPFP12   0.014000
    XP127    QLPP12   0.032000   QOTP12   0.184000
    XP127    LOBROW2030 1.000000
    XP128    RCAPP12  1.000000   QCRP12   -1.000000
    XP128    QGAP12   0.487000   QDSP12   0.249000
    XP128    QRSP12   0.051000   QKJP12   0.017000
    XP128    QNJP12   0.005000   QPFP12   0.011000
    XP128    QLPP12   0.033000   QOTP12   0.177000
    XP128    LOBROW2031 1.000000
    XP129    RCAPP12  1.000000   QCRP12   -1.000000
    XP129    QGAP12   0.486000   QDSP12   0.241000
    XP129    QRSP12   0.064000   QKJP12   0.019000
    XP129    QNJP12   0.004000   QPFP12   0.011000
    XP129    QLPP12   0.032000   QOTP12   0.167000
    XP129    LOBROW2032 1.000000
    XP1210   RCAPP12  1.000000   QCRP12   -1.000000
    XP1210   QGAP12   0.469000   QDSP12   0.272000
    XP1210   QRSP12   0.079000   QKJP12   0.020000
    XP1210   QNJP12   0.004000   QPFP12   0.016000
    XP1210   QLPP12   0.033000   QOTP12   0.139000
    XP1210   LOBROW2033 1.000000
    XP1211   RCAPP12  1.000000   QCRP12   -1.000000
    XP1211   QGAP12   0.457000   QDSP12   0.280000
    XP1211   QRSP12   0.089000   QKJP12   0.022000
    XP1211   QNJP12   0.004000   QPFP12   0.013000
    XP1211   QLPP12   0.037000   QOTP12   0.130000
    XP1211   LOBROW2034 1.000000
    XP1212   RCAPP12  1.000000   QCRP12   -1.000000
    XP1212   QGAP12   0.452000   QDSP12   0.277000
    XP1212   QRSP12   0.086000   QKJP12   0.028000
    XP1212   QNJP12   0.007000   QPFP12   0.008000
    XP1212   QLPP12   0.033000   QOTP12   0.133000
    XP1212   LOBROW2035 1.000000
    XP1213   RCAPP12  1.000000   QCRP12   -1.000000
    XP1213   QGAP12   0.474000   QDSP12   0.250000
    XP1213   QRSP12   0.089000   QKJP12   0.026000
    XP1213   QNJP12   0.007000   QPFP12   0.009000
    XP1213   QLPP12   0.035000   QOTP12   0.136000
    XP1213   LOBROW2036 1.000000
    XP1214   RCAPP12  1.000000   QCRP12   -1.000000
    XP1214   QGAP12   0.488000   QDSP12   0.228000
    XP1214   QRSP12   0.084000   QKJP12   0.021000
    XP1214   QNJP12   0.008000   QPFP12   0.009000
    XP1214   QLPP12   0.033000   QOTP12   0.162000
    XP1214   LOBROW2037 1.000000
    XP1215   RCAPP12  1.000000   QCRP12   -1.000000
    XP1215   QGAP12   0.500000   QDSP12   0.228000
    XP1215   QRSP12   0.075000   QKJP12   0.017000
    XP1215   QNJP12   0.002000   QPFP12   0.009000
    XP1215   QLPP12   0.046000   QOTP12   0.173000
    XP1215   LOBROW2038 1.000000
    XP1216   RCAPP12  1.000000   QCRP12   -1.000000
    XP1216   QGAP12   0.478000   QDSP12   0.233000
    XP1216   QRSP12   0.080000   QKJP12   0.017000
    XP1216   QNJP12   0.006000   QPFP12   0.008000
    XP1216   QLPP12   0.032000   QOTP12   0.178000
    XP1216   LOBROW2039 1.000000
    XP1217   RCAPP12  1.000000   QCRP12   -1.000000
    XP1217   QGAP12   0.472000   QDSP12   0.234000
    XP1217   QRSP12   0.079000   QKJP12   0.022000
    XP1217   QNJP12   0.004000   QPFP12   0.008000
    XP1217   QLPP12   0.033000   QOTP12   0.181000
    XP1217   LOBROW2040 1.000000
    XP1218   RCAPP12  1.000000   QCRP12   -1.000000
    XP1218   QGAP12   0.453000   QDSP12   0.239000
    XP1218   QRSP12   0.082000   QKJP12   0.022000
    XP1218   QNJP12   0.003000   QPFP12   0.013000
    XP1218   QLPP12   0.036000   QOTP12   0.184000
    XP1218   LOBROW2041 1.000000
    XP1219   RCAPP12  1.000000   QCRP12   -1.000000
    XP1219   QGAP12   0.443000   QDSP12   0.237000
    XP1219   QRSP12   0.090000   QKJP12   0.021000
    XP1219   QNJP12   0.003000   QPFP12   0.013000
    XP1219   QLPP12   0.033000   QOTP12   0.185000
    XP1219   LOBROW2042 1.000000
    XP1220   RCAPP12  1.000000   QCRP12   -1.000000
    XP1220   QGAP12   0.446000   QDSP12   0.248000
    XP1220   QRSP12   0.099000   QKJP12   0.020000
    XP1220   QNJP12   0.004000   QPFP12   0.011000
    XP1220   QLPP12   0.035000   QOTP12   0.180000
    XP1220   LOBROW2043 1.000000
    XP1221   RCAPP12  1.000000   QCRP12   -1.000000
    XP1221   QGAP12   0.448000   QDSP12   0.250000
    XP1221   QRSP12   0.104000   QKJP12   0.017000
    XP1221   QNJP12   0.006000   QPFP12   0.016000
    XP1221   QLPP12   0.034000   QOTP12   0.167000
    XP1221   LOBROW2044 1.000000
    XP1222   RCAPP12  1.000000   QCRP12   -1.000000
    XP1222   QGAP12   0.424000   QDSP12   0.288000
    XP1222   QRSP12   0.106000   QKJP12   0.011000
    XP1222   QNJP12   0.003000   QPFP12   0.019000
    XP1222   QLPP12   0.033000   QOTP12   0.157000
    XP1222   LOBROW2045 1.000000
    XP1223   RCAPP12  1.000000   QCRP12   -1.000000
    XP1223   QGAP12   0.461000   QDSP12   0.282000
    XP1223   QRSP12   0.110000   QKJP12   0.018000
    XP1223   QNJP12   0.004000   QPFP12   0.014000
    XP1223   QLPP12   0.031000   QOTP12   0.128000
    XP1223   LOBROW2046 1.000000
    XP1224   RCAPP12  1.000000   QCRP12   -1.000000
    XP1224   QGAP12   0.493000   QDSP12   0.232000
    XP1224   QRSP12   0.108000   QKJP12   0.025000
    XP1224   QNJP12   0.003000   QPFP12   0.015000
    XP1224   QLPP12   0.039000   QOTP12   0.133000
    XP1224   LOBROW2047 1.000000
    XP131    RCAPP13  1.000000   QCRP13   -1.000000
    XP131    QGAP13   0.479000   QDSP13   0.242000
    XP131    QRSP13   0.071000   QKJP13   0.029000
    XP131    QNJP13   0.004000   QPFP13   0.014000
    XP131    QLPP13   0.031000   QOTP13   0.156000
    XP131    LOBROW2048 1.000000
    XP132    RCAPP13  1.000000   QCRP13   -1.000000
    XP132    QGAP13   0.473000   QDSP13   0.248000
    XP132    QRSP13   0.059000   QKJP13   0.028000
    XP132    QNJP13   0.003000   QPFP13   0.009000
    XP132    QLPP13   0.035000   QOTP13   0.159000
    XP132    LOBROW2049 1.000000
    XP133    RCAPP13  1.000000   QCRP13   -1.000000
    XP133    QGAP13   0.471000   QDSP13   0.248000
    XP133    QRSP13   0.064000   QKJP13   0.017000
    XP133    QNJP13   0.005000   QPFP13   0.014000
    XP133    QLPP13   0.031000   QOTP13   0.171000
    XP133    LOBROW2050 1.000000
    XP134    RCAPP13  1.000000   QCRP13   -1.000000
    XP134    QGAP13   0.464000   QDSP13   0.255000
    XP134    QRSP13   0.069000   QKJP13   0.019000
    XP134    QNJP13   0.004000   QPFP13   0.014000
    XP134    QLPP13   0.031000   QOTP13   0.174000
    XP134    LOBROW2051 1.000000
    XP135    RCAPP13  1.000000   QCRP13   -1.000000
    XP135    QGAP13   0.504000   QDSP13   0.207000
    XP135    QRSP13   0.079000   QKJP13   0.019000
    XP135    QNJP13   0.005000   QPFP13   0.014000
    XP135    QLPP13   0.030000   QOTP13   0.172000
    XP135    LOBROW2052 1.000000
    XP136    RCAPP13  1.000000   QCRP13   -1.000000
    XP136    QGAP13   0.495000   QDSP13   0.230000
    XP136    QRSP13   0.064000   QKJP13   0.017000
    XP136    QNJP13   0.004000   QPFP13   0.013000
    XP136    QLPP13   0.034000   QOTP13   0.193000
    XP136    LOBROW2053 1.000000
    XP137    RCAPP13  1.000000   QCRP13   -1.000000
    XP137    QGAP13   0.483000   QDSP13   0.239000
    XP137    QRSP13   0.057000   QKJP13   0.022000
    XP137    QNJP13   0.003000   QPFP13   0.014000
    XP137    QLPP13   0.032000   QOTP13   0.184000
    XP137    LOBROW2054 1.000000
    XP138    RCAPP13  1.000000   QCRP13   -1.000000
    XP138    QGAP13   0.487000   QDSP13   0.249000
    XP138    QRSP13   0.051000   QKJP13   0.017000
    XP138    QNJP13   0.005000   QPFP13   0.011000
    XP138    QLPP13   0.033000   QOTP13   0.177000
    XP138    LOBROW2055 1.000000
    XP139    RCAPP13  1.000000   QCRP13   -1.000000
    XP139    QGAP13   0.486000   QDSP13   0.241000
    XP139    QRSP13   0.064000   QKJP13   0.019000
    XP139    QNJP13   0.004000   QPFP13   0.011000
    XP139    QLPP13   0.032000   QOTP13   0.167000
    XP139    LOBROW2056 1.000000
    XP1310   RCAPP13  1.000000   QCRP13   -1.000000
    XP1310   QGAP13   0.469000   QDSP13   0.272000
    XP1310   QRSP13   0.079000   QKJP13   0.020000
    XP1310   QNJP13   0.004000   QPFP13   0.016000
    XP1310   QLPP13   0.033000   QOTP13   0.139000
    XP1310   LOBROW2057 1.000000
    XP1311   RCAPP13  1.000000   QCRP13   -1.000000
    XP1311   QGAP13   0.457000   QDSP13   0.280000
    XP1311   QRSP13   0.089000   QKJP13   0.022000
    XP1311   QNJP13   0.004000   QPFP13   0.013000
    XP1311   QLPP13   0.037000   QOTP13   0.130000
    XP1311   LOBROW2058 1.000000
    XP1312   RCAPP13  1.000000   QCRP13   -1.000000
    XP1312   QGAP13   0.452000   QDSP13   0.277000
    XP1312   QRSP13   0.086000   QKJP13   0.028000
    XP1312   QNJP13   0.007000   QPFP13   0.008000
    XP1312   QLPP13   0.033000   QOTP13   0.133000
    XP1312   LOBROW2059 1.000000
    XP1313   RCAPP13  1.000000   QCRP13   -1.000000
    XP1313   QGAP13   0.474000   QDSP13   0.250000
    XP1313   QRSP13   0.089000   QKJP13   0.026000
    XP1313   QNJP13   0.007000   QPFP13   0.009000
    XP1313   QLPP13   0.035000   QOTP13   0.136000
    XP1313   LOBROW2060 1.000000
    XP1314   RCAPP13  1.000000   QCRP13   -1.000000
    XP1314   QGAP13   0.488000   QDSP13   0.228000
    XP1314   QRSP13   0.084000   QKJP13   0.021000
    XP1314   QNJP13   0.008000   QPFP13   0.009000
    XP1314   QLPP13   0.033000   QOTP13   0.162000
    XP1314   LOBROW2061 1.000000
    XP1315   RCAPP13  1.000000   QCRP13   -1.000000
    XP1315   QGAP13   0.500000   QDSP13   0.228000
    XP1315   QRSP13   0.075000   QKJP13   0.017000
    XP1315   QNJP13   0.002000   QPFP13   0.009000
    XP1315   QLPP13   0.046000   QOTP13   0.173000
    XP1315   LOBROW2062 1.000000
    XP1316   RCAPP13  1.000000   QCRP13   -1.000000
    XP1316   QGAP13   0.478000   QDSP13   0.233000
    XP1316   QRSP13   0.080000   QKJP13   0.017000
    XP1316   QNJP13   0.006000   QPFP13   0.008000
    XP1316   QLPP13   0.032000   QOTP13   0.178000
    XP1316   LOBROW2063 1.000000
    XP1317   RCAPP13  1.000000   QCRP13   -1.000000
    XP1317   QGAP13   0.472000   QDSP13   0.234000
    XP1317   QRSP13   0.079000   QKJP13   0.022000
    XP1317   QNJP13   0.004000   QPFP13   0.008000
    XP1317   QLPP13   0.033000   QOTP13   0.181000
    XP1317   LOBROW2064 1.000000
    XP1318   RCAPP13  1.000000   QCRP13   -1.000000
    XP1318   QGAP13   0.453000   QDSP13   0.239000
    XP1318   QRSP13   0.082000   QKJP13   0.022000
    XP1318   QNJP13   0.003000   QPFP13   0.013000
    XP1318   QLPP13   0.036000   QOTP13   0.184000
    XP1318   LOBROW2065 1.000000
    XP1319   RCAPP13  1.000000   QCRP13   -1.000000
    XP1319   QGAP13   0.443000   QDSP13   0.237000
    XP1319   QRSP13   0.090000   QKJP13   0.021000
    XP1319   QNJP13   0.003000   QPFP13   0.013000
    XP1319   QLPP13   0.033000   QOTP13   0.185000
    XP1319   LOBROW2066 1.000000
    XP1320   RCAPP13  1.000000   QCRP13   -1.000000
    XP1320   QGAP13   0.446000   QDSP13   0.248000
    XP1320   QRSP13   0.099000   QKJP13   0.020000
    XP1320   QNJP13   0.004000   QPFP13   0.011000
    XP1320   QLPP13   0.035000   QOTP13   0.180000
    XP1320   LOBROW2067 1.000000
    XP1321   RCAPP13  1.000000   QCRP13   -1.000000
    XP1321   QGAP13   0.448000   QDSP13   0.250000
    XP1321   QRSP13   0.104000   QKJP13   0.017000
    XP1321   QNJP13   0.006000   QPFP13   0.016000
    XP1321   QLPP13   0.034000   QOTP13   0.167000
    XP1321   LOBROW2068 1.000000
    XP1322   RCAPP13  1.000000   QCRP13   -1.000000
    XP1322   QGAP13   0.424000   QDSP13   0.288000
    XP1322   QRSP13   0.106000   QKJP13   0.011000
    XP1322   QNJP13   0.003000   QPFP13   0.019000
    XP1322   QLPP13   0.033000   QOTP13   0.157000
    XP1322   LOBROW2069 1.000000
    XP1323   RCAPP13  1.000000   QCRP13   -1.000000
    XP1323   QGAP13   0.461000   QDSP13   0.282000
    XP1323   QRSP13   0.110000   QKJP13   0.018000
    XP1323   QNJP13   0.004000   QPFP13   0.014000
    XP1323   QLPP13   0.031000   QOTP13   0.128000
    XP1323   LOBROW2070 1.000000
    XP1324   RCAPP13  1.000000   QCRP13   -1.000000
    XP1324   QGAP13   0.493000   QDSP13   0.232000
    XP1324   QRSP13   0.108000   QKJP13   0.025000
    XP1324   QNJP13   0.003000   QPFP13   0.015000
    XP1324   QLPP13   0.039000   QOTP13   0.133000
    XP1324   LOBROW2071 1.000000
    XP141    RCAPP14  1.000000   QCRP14   -1.000000
    XP141    QGAP14   0.479000   QDSP14   0.242000
    XP141    QRSP14   0.071000   QKJP14   0.029000
    XP141    QNJP14   0.004000   QPFP14   0.014000
    XP141    QLPP14   0.031000   QOTP14   0.156000
    XP141    LOBROW2072 1.000000
    XP142    RCAPP14  1.000000   QCRP14   -1.000000
    XP142    QGAP14   0.473000   QDSP14   0.248000
    XP142    QRSP14   0.059000   QKJP14   0.028000
    XP142    QNJP14   0.003000   QPFP14   0.009000
    XP142    QLPP14   0.035000   QOTP14   0.159000
    XP142    LOBROW2073 1.000000
    XP143    RCAPP14  1.000000   QCRP14   -1.000000
    XP143    QGAP14   0.471000   QDSP14   0.248000
    XP143    QRSP14   0.064000   QKJP14   0.017000
    XP143    QNJP14   0.005000   QPFP14   0.014000
    XP143    QLPP14   0.031000   QOTP14   0.171000
    XP143    LOBROW2074 1.000000
    XP144    RCAPP14  1.000000   QCRP14   -1.000000
    XP144    QGAP14   0.464000   QDSP14   0.255000
    XP144    QRSP14   0.069000   QKJP14   0.019000
    XP144    QNJP14   0.004000   QPFP14   0.014000
    XP144    QLPP14   0.031000   QOTP14   0.174000
    XP144    LOBROW2075 1.000000
    XP145    RCAPP14  1.000000   QCRP14   -1.000000
    XP145    QGAP14   0.504000   QDSP14   0.207000
    XP145    QRSP14   0.079000   QKJP14   0.019000
    XP145    QNJP14   0.005000   QPFP14   0.014000
    XP145    QLPP14   0.030000   QOTP14   0.172000
    XP145    LOBROW2076 1.000000
    XP146    RCAPP14  1.000000   QCRP14   -1.000000
    XP146    QGAP14   0.495000   QDSP14   0.230000
    XP146    QRSP14   0.064000   QKJP14   0.017000
    XP146    QNJP14   0.004000   QPFP14   0.013000
    XP146    QLPP14   0.034000   QOTP14   0.193000
    XP146    LOBROW2077 1.000000
    XP147    RCAPP14  1.000000   QCRP14   -1.000000
    XP147    QGAP14   0.483000   QDSP14   0.239000
    XP147    QRSP14   0.057000   QKJP14   0.022000
    XP147    QNJP14   0.003000   QPFP14   0.014000
    XP147    QLPP14   0.032000   QOTP14   0.184000
    XP147    LOBROW2078 1.000000
    XP148    RCAPP14  1.000000   QCRP14   -1.000000
    XP148    QGAP14   0.487000   QDSP14   0.249000
    XP148    QRSP14   0.051000   QKJP14   0.017000
    XP148    QNJP14   0.005000   QPFP14   0.011000
    XP148    QLPP14   0.033000   QOTP14   0.177000
    XP148    LOBROW2079 1.000000
    XP149    RCAPP14  1.000000   QCRP14   -1.000000
    XP149    QGAP14   0.486000   QDSP14   0.241000
    XP149    QRSP14   0.064000   QKJP14   0.019000
    XP149    QNJP14   0.004000   QPFP14   0.011000
    XP149    QLPP14   0.032000   QOTP14   0.167000
    XP149    LOBROW2080 1.000000
    XP1410   RCAPP14  1.000000   QCRP14   -1.000000
    XP1410   QGAP14   0.469000   QDSP14   0.272000
    XP1410   QRSP14   0.079000   QKJP14   0.020000
    XP1410   QNJP14   0.004000   QPFP14   0.016000
    XP1410   QLPP14   0.033000   QOTP14   0.139000
    XP1410   LOBROW2081 1.000000
    XP1411   RCAPP14  1.000000   QCRP14   -1.000000
    XP1411   QGAP14   0.457000   QDSP14   0.280000
    XP1411   QRSP14   0.089000   QKJP14   0.022000
    XP1411   QNJP14   0.004000   QPFP14   0.013000
    XP1411   QLPP14   0.037000   QOTP14   0.130000
    XP1411   LOBROW2082 1.000000
    XP1412   RCAPP14  1.000000   QCRP14   -1.000000
    XP1412   QGAP14   0.452000   QDSP14   0.277000
    XP1412   QRSP14   0.086000   QKJP14   0.028000
    XP1412   QNJP14   0.007000   QPFP14   0.008000
    XP1412   QLPP14   0.033000   QOTP14   0.133000
    XP1412   LOBROW2083 1.000000
    XP1413   RCAPP14  1.000000   QCRP14   -1.000000
    XP1413   QGAP14   0.474000   QDSP14   0.250000
    XP1413   QRSP14   0.089000   QKJP14   0.026000
    XP1413   QNJP14   0.007000   QPFP14   0.009000
    XP1413   QLPP14   0.035000   QOTP14   0.136000
    XP1413   LOBROW2084 1.000000
    XP1414   RCAPP14  1.000000   QCRP14   -1.000000
    XP1414   QGAP14   0.488000   QDSP14   0.228000
    XP1414   QRSP14   0.084000   QKJP14   0.021000
    XP1414   QNJP14   0.008000   QPFP14   0.009000
    XP1414   QLPP14   0.033000   QOTP14   0.162000
    XP1414   LOBROW2085 1.000000
    XP1415   RCAPP14  1.000000   QCRP14   -1.000000
    XP1415   QGAP14   0.500000   QDSP14   0.228000
    XP1415   QRSP14   0.075000   QKJP14   0.017000
    XP1415   QNJP14   0.002000   QPFP14   0.009000
    XP1415   QLPP14   0.046000   QOTP14   0.173000
    XP1415   LOBROW2086 1.000000
    XP1416   RCAPP14  1.000000   QCRP14   -1.000000
    XP1416   QGAP14   0.478000   QDSP14   0.233000
    XP1416   QRSP14   0.080000   QKJP14   0.017000
    XP1416   QNJP14   0.006000   QPFP14   0.008000
    XP1416   QLPP14   0.032000   QOTP14   0.178000
    XP1416   LOBROW2087 1.000000
    XP1417   RCAPP14  1.000000   QCRP14   -1.000000
    XP1417   QGAP14   0.472000   QDSP14   0.234000
    XP1417   QRSP14   0.079000   QKJP14   0.022000
    XP1417   QNJP14   0.004000   QPFP14   0.008000
    XP1417   QLPP14   0.033000   QOTP14   0.181000
    XP1417   LOBROW2088 1.000000
    XP1418   RCAPP14  1.000000   QCRP14   -1.000000
    XP1418   QGAP14   0.453000   QDSP14   0.239000
    XP1418   QRSP14   0.082000   QKJP14   0.022000
    XP1418   QNJP14   0.003000   QPFP14   0.013000
    XP1418   QLPP14   0.036000   QOTP14   0.184000
    XP1418   LOBROW2089 1.000000
    XP1419   RCAPP14  1.000000   QCRP14   -1.000000
    XP1419   QGAP14   0.443000   QDSP14   0.237000
    XP1419   QRSP14   0.090000   QKJP14   0.021000
    XP1419   QNJP14   0.003000   QPFP14   0.013000
    XP1419   QLPP14   0.033000   QOTP14   0.185000
    XP1419   LOBROW2090 1.000000
    XP1420   RCAPP14  1.000000   QCRP14   -1.000000
    XP1420   QGAP14   0.446000   QDSP14   0.248000
    XP1420   QRSP14   0.099000   QKJP14   0.020000
    XP1420   QNJP14   0.004000   QPFP14   0.011000
    XP1420   QLPP14   0.035000   QOTP14   0.180000
    XP1420   LOBROW2091 1.000000
    XP1421   RCAPP14  1.000000   QCRP14   -1.000000
    XP1421   QGAP14   0.448000   QDSP14   0.250000
    XP1421   QRSP14   0.104000   QKJP14   0.017000
    XP1421   QNJP14   0.006000   QPFP14   0.016000
    XP1421   QLPP14   0.034000   QOTP14   0.167000
    XP1421   LOBROW2092 1.000000
    XP1422   RCAPP14  1.000000   QCRP14   -1.000000
    XP1422   QGAP14   0.424000   QDSP14   0.288000
    XP1422   QRSP14   0.106000   QKJP14   0.011000
    XP1422   QNJP14   0.003000   QPFP14   0.019000
    XP1422   QLPP14   0.033000   QOTP14   0.157000
    XP1422   LOBROW2093 1.000000
    XP1423   RCAPP14  1.000000   QCRP14   -1.000000
    XP1423   QGAP14   0.461000   QDSP14   0.282000
    XP1423   QRSP14   0.110000   QKJP14   0.018000
    XP1423   QNJP14   0.004000   QPFP14   0.014000
    XP1423   QLPP14   0.031000   QOTP14   0.128000
    XP1423   LOBROW2094 1.000000
    XP1424   RCAPP14  1.000000   QCRP14   -1.000000
    XP1424   QGAP14   0.493000   QDSP14   0.232000
    XP1424   QRSP14   0.108000   QKJP14   0.025000
    XP1424   QNJP14   0.003000   QPFP14   0.015000
    XP1424   QLPP14   0.039000   QOTP14   0.133000
    XP1424   LOBROW2095 1.000000
    XP151    RCAPP15  1.000000   QCRP15   -1.000000
    XP151    QGAP15   0.479000   QDSP15   0.242000
    XP151    QRSP15   0.071000   QKJP15   0.029000
    XP151    QNJP15   0.004000   QPFP15   0.014000
    XP151    QLPP15   0.031000   QOTP15   0.156000
    XP151    LOBROW2096 1.000000
    XP152    RCAPP15  1.000000   QCRP15   -1.000000
    XP152    QGAP15   0.473000   QDSP15   0.248000
    XP152    QRSP15   0.059000   QKJP15   0.028000
    XP152    QNJP15   0.003000   QPFP15   0.009000
    XP152    QLPP15   0.035000   QOTP15   0.159000
    XP152    LOBROW2097 1.000000
    XP153    RCAPP15  1.000000   QCRP15   -1.000000
    XP153    QGAP15   0.471000   QDSP15   0.248000
    XP153    QRSP15   0.064000   QKJP15   0.017000
    XP153    QNJP15   0.005000   QPFP15   0.014000
    XP153    QLPP15   0.031000   QOTP15   0.171000
    XP153    LOBROW2098 1.000000
    XP154    RCAPP15  1.000000   QCRP15   -1.000000
    XP154    QGAP15   0.464000   QDSP15   0.255000
    XP154    QRSP15   0.069000   QKJP15   0.019000
    XP154    QNJP15   0.004000   QPFP15   0.014000
    XP154    QLPP15   0.031000   QOTP15   0.174000
    XP154    LOBROW2099 1.000000
    XP155    RCAPP15  1.000000   QCRP15   -1.000000
    XP155    QGAP15   0.504000   QDSP15   0.207000
    XP155    QRSP15   0.079000   QKJP15   0.019000
    XP155    QNJP15   0.005000   QPFP15   0.014000
    XP155    QLPP15   0.030000   QOTP15   0.172000
    XP155    LOBROW2100 1.000000
    XP156    RCAPP15  1.000000   QCRP15   -1.000000
    XP156    QGAP15   0.495000   QDSP15   0.230000
    XP156    QRSP15   0.064000   QKJP15   0.017000
    XP156    QNJP15   0.004000   QPFP15   0.013000
    XP156    QLPP15   0.034000   QOTP15   0.193000
    XP156    LOBROW2101 1.000000
    XP157    RCAPP15  1.000000   QCRP15   -1.000000
    XP157    QGAP15   0.483000   QDSP15   0.239000
    XP157    QRSP15   0.057000   QKJP15   0.022000
    XP157    QNJP15   0.003000   QPFP15   0.014000
    XP157    QLPP15   0.032000   QOTP15   0.184000
    XP157    LOBROW2102 1.000000
    XP158    RCAPP15  1.000000   QCRP15   -1.000000
    XP158    QGAP15   0.487000   QDSP15   0.249000
    XP158    QRSP15   0.051000   QKJP15   0.017000
    XP158    QNJP15   0.005000   QPFP15   0.011000
    XP158    QLPP15   0.033000   QOTP15   0.177000
    XP158    LOBROW2103 1.000000
    XP159    RCAPP15  1.000000   QCRP15   -1.000000
    XP159    QGAP15   0.486000   QDSP15   0.241000
    XP159    QRSP15   0.064000   QKJP15   0.019000
    XP159    QNJP15   0.004000   QPFP15   0.011000
    XP159    QLPP15   0.032000   QOTP15   0.167000
    XP159    LOBROW2104 1.000000
    XP1510   RCAPP15  1.000000   QCRP15   -1.000000
    XP1510   QGAP15   0.469000   QDSP15   0.272000
    XP1510   QRSP15   0.079000   QKJP15   0.020000
    XP1510   QNJP15   0.004000   QPFP15   0.016000
    XP1510   QLPP15   0.033000   QOTP15   0.139000
    XP1510   LOBROW2105 1.000000
    XP1511   RCAPP15  1.000000   QCRP15   -1.000000
    XP1511   QGAP15   0.457000   QDSP15   0.280000
    XP1511   QRSP15   0.089000   QKJP15   0.022000
    XP1511   QNJP15   0.004000   QPFP15   0.013000
    XP1511   QLPP15   0.037000   QOTP15   0.130000
    XP1511   LOBROW2106 1.000000
    XP1512   RCAPP15  1.000000   QCRP15   -1.000000
    XP1512   QGAP15   0.452000   QDSP15   0.277000
    XP1512   QRSP15   0.086000   QKJP15   0.028000
    XP1512   QNJP15   0.007000   QPFP15   0.008000
    XP1512   QLPP15   0.033000   QOTP15   0.133000
    XP1512   LOBROW2107 1.000000
    XP1513   RCAPP15  1.000000   QCRP15   -1.000000
    XP1513   QGAP15   0.474000   QDSP15   0.250000
    XP1513   QRSP15   0.089000   QKJP15   0.026000
    XP1513   QNJP15   0.007000   QPFP15   0.009000
    XP1513   QLPP15   0.035000   QOTP15   0.136000
    XP1513   LOBROW2108 1.000000
    XP1514   RCAPP15  1.000000   QCRP15   -1.000000
    XP1514   QGAP15   0.488000   QDSP15   0.228000
    XP1514   QRSP15   0.084000   QKJP15   0.021000
    XP1514   QNJP15   0.008000   QPFP15   0.009000
    XP1514   QLPP15   0.033000   QOTP15   0.162000
    XP1514   LOBROW2109 1.000000
    XP1515   RCAPP15  1.000000   QCRP15   -1.000000
    XP1515   QGAP15   0.500000   QDSP15   0.228000
    XP1515   QRSP15   0.075000   QKJP15   0.017000
    XP1515   QNJP15   0.002000   QPFP15   0.009000
    XP1515   QLPP15   0.046000   QOTP15   0.173000
    XP1515   LOBROW2110 1.000000
    XP1516   RCAPP15  1.000000   QCRP15   -1.000000
    XP1516   QGAP15   0.478000   QDSP15   0.233000
    XP1516   QRSP15   0.080000   QKJP15   0.017000
    XP1516   QNJP15   0.006000   QPFP15   0.008000
    XP1516   QLPP15   0.032000   QOTP15   0.178000
    XP1516   LOBROW2111 1.000000
    XP1517   RCAPP15  1.000000   QCRP15   -1.000000
    XP1517   QGAP15   0.472000   QDSP15   0.234000
    XP1517   QRSP15   0.079000   QKJP15   0.022000
    XP1517   QNJP15   0.004000   QPFP15   0.008000
    XP1517   QLPP15   0.033000   QOTP15   0.181000
    XP1517   LOBROW2112 1.000000
    XP1518   RCAPP15  1.000000   QCRP15   -1.000000
    XP1518   QGAP15   0.453000   QDSP15   0.239000
    XP1518   QRSP15   0.082000   QKJP15   0.022000
    XP1518   QNJP15   0.003000   QPFP15   0.013000
    XP1518   QLPP15   0.036000   QOTP15   0.184000
    XP1518   LOBROW2113 1.000000
    XP1519   RCAPP15  1.000000   QCRP15   -1.000000
    XP1519   QGAP15   0.443000   QDSP15   0.237000
    XP1519   QRSP15   0.090000   QKJP15   0.021000
    XP1519   QNJP15   0.003000   QPFP15   0.013000
    XP1519   QLPP15   0.033000   QOTP15   0.185000
    XP1519   LOBROW2114 1.000000
    XP1520   RCAPP15  1.000000   QCRP15   -1.000000
    XP1520   QGAP15   0.446000   QDSP15   0.248000
    XP1520   QRSP15   0.099000   QKJP15   0.020000
    XP1520   QNJP15   0.004000   QPFP15   0.011000
    XP1520   QLPP15   0.035000   QOTP15   0.180000
    XP1520   LOBROW2115 1.000000
    XP1521   RCAPP15  1.000000   QCRP15   -1.000000
    XP1521   QGAP15   0.448000   QDSP15   0.250000
    XP1521   QRSP15   0.104000   QKJP15   0.017000
    XP1521   QNJP15   0.006000   QPFP15   0.016000
    XP1521   QLPP15   0.034000   QOTP15   0.167000
    XP1521   LOBROW2116 1.000000
    XP1522   RCAPP15  1.000000   QCRP15   -1.000000
    XP1522   QGAP15   0.424000   QDSP15   0.288000
    XP1522   QRSP15   0.106000   QKJP15   0.011000
    XP1522   QNJP15   0.003000   QPFP15   0.019000
    XP1522   QLPP15   0.033000   QOTP15   0.157000
    XP1522   LOBROW2117 1.000000
    XP1523   RCAPP15  1.000000   QCRP15   -1.000000
    XP1523   QGAP15   0.461000   QDSP15   0.282000
    XP1523   QRSP15   0.110000   QKJP15   0.018000
    XP1523   QNJP15   0.004000   QPFP15   0.014000
    XP1523   QLPP15   0.031000   QOTP15   0.128000
    XP1523   LOBROW2118 1.000000
    XP1524   RCAPP15  1.000000   QCRP15   -1.000000
    XP1524   QGAP15   0.493000   QDSP15   0.232000
    XP1524   QRSP15   0.108000   QKJP15   0.025000
    XP1524   QNJP15   0.003000   QPFP15   0.015000
    XP1524   QLPP15   0.039000   QOTP15   0.133000
    XP1524   LOBROW2119 1.000000
    XP161    RCAPP16  1.000000   QCRP16   -1.000000
    XP161    QGAP16   0.479000   QDSP16   0.242000
    XP161    QRSP16   0.071000   QKJP16   0.029000
    XP161    QNJP16   0.004000   QPFP16   0.014000
    XP161    QLPP16   0.031000   QOTP16   0.156000
    XP161    LOBROW2120 1.000000
    XP162    RCAPP16  1.000000   QCRP16   -1.000000
    XP162    QGAP16   0.473000   QDSP16   0.248000
    XP162    QRSP16   0.059000   QKJP16   0.028000
    XP162    QNJP16   0.003000   QPFP16   0.009000
    XP162    QLPP16   0.035000   QOTP16   0.159000
    XP162    LOBROW2121 1.000000
    XP163    RCAPP16  1.000000   QCRP16   -1.000000
    XP163    QGAP16   0.471000   QDSP16   0.248000
    XP163    QRSP16   0.064000   QKJP16   0.017000
    XP163    QNJP16   0.005000   QPFP16   0.014000
    XP163    QLPP16   0.031000   QOTP16   0.171000
    XP163    LOBROW2122 1.000000
    XP164    RCAPP16  1.000000   QCRP16   -1.000000
    XP164    QGAP16   0.464000   QDSP16   0.255000
    XP164    QRSP16   0.069000   QKJP16   0.019000
    XP164    QNJP16   0.004000   QPFP16   0.014000
    XP164    QLPP16   0.031000   QOTP16   0.174000
    XP164    LOBROW2123 1.000000
    XP165    RCAPP16  1.000000   QCRP16   -1.000000
    XP165    QGAP16   0.504000   QDSP16   0.207000
    XP165    QRSP16   0.079000   QKJP16   0.019000
    XP165    QNJP16   0.005000   QPFP16   0.014000
    XP165    QLPP16   0.030000   QOTP16   0.172000
    XP165    LOBROW2124 1.000000
    XP166    RCAPP16  1.000000   QCRP16   -1.000000
    XP166    QGAP16   0.495000   QDSP16   0.230000
    XP166    QRSP16   0.064000   QKJP16   0.017000
    XP166    QNJP16   0.004000   QPFP16   0.013000
    XP166    QLPP16   0.034000   QOTP16   0.193000
    XP166    LOBROW2125 1.000000
    XP167    RCAPP16  1.000000   QCRP16   -1.000000
    XP167    QGAP16   0.483000   QDSP16   0.239000
    XP167    QRSP16   0.057000   QKJP16   0.022000
    XP167    QNJP16   0.003000   QPFP16   0.014000
    XP167    QLPP16   0.032000   QOTP16   0.184000
    XP167    LOBROW2126 1.000000
    XP168    RCAPP16  1.000000   QCRP16   -1.000000
    XP168    QGAP16   0.487000   QDSP16   0.249000
    XP168    QRSP16   0.051000   QKJP16   0.017000
    XP168    QNJP16   0.005000   QPFP16   0.011000
    XP168    QLPP16   0.033000   QOTP16   0.177000
    XP168    LOBROW2127 1.000000
    XP169    RCAPP16  1.000000   QCRP16   -1.000000
    XP169    QGAP16   0.486000   QDSP16   0.241000
    XP169    QRSP16   0.064000   QKJP16   0.019000
    XP169    QNJP16   0.004000   QPFP16   0.011000
    XP169    QLPP16   0.032000   QOTP16   0.167000
    XP169    LOBROW2128 1.000000
    XP1610   RCAPP16  1.000000   QCRP16   -1.000000
    XP1610   QGAP16   0.469000   QDSP16   0.272000
    XP1610   QRSP16   0.079000   QKJP16   0.020000
    XP1610   QNJP16   0.004000   QPFP16   0.016000
    XP1610   QLPP16   0.033000   QOTP16   0.139000
    XP1610   LOBROW2129 1.000000
    XP1611   RCAPP16  1.000000   QCRP16   -1.000000
    XP1611   QGAP16   0.457000   QDSP16   0.280000
    XP1611   QRSP16   0.089000   QKJP16   0.022000
    XP1611   QNJP16   0.004000   QPFP16   0.013000
    XP1611   QLPP16   0.037000   QOTP16   0.130000
    XP1611   LOBROW2130 1.000000
    XP1612   RCAPP16  1.000000   QCRP16   -1.000000
    XP1612   QGAP16   0.452000   QDSP16   0.277000
    XP1612   QRSP16   0.086000   QKJP16   0.028000
    XP1612   QNJP16   0.007000   QPFP16   0.008000
    XP1612   QLPP16   0.033000   QOTP16   0.133000
    XP1612   LOBROW2131 1.000000
    XP1613   RCAPP16  1.000000   QCRP16   -1.000000
    XP1613   QGAP16   0.474000   QDSP16   0.250000
    XP1613   QRSP16   0.089000   QKJP16   0.026000
    XP1613   QNJP16   0.007000   QPFP16   0.009000
    XP1613   QLPP16   0.035000   QOTP16   0.136000
    XP1613   LOBROW2132 1.000000
    XP1614   RCAPP16  1.000000   QCRP16   -1.000000
    XP1614   QGAP16   0.488000   QDSP16   0.228000
    XP1614   QRSP16   0.084000   QKJP16   0.021000
    XP1614   QNJP16   0.008000   QPFP16   0.009000
    XP1614   QLPP16   0.033000   QOTP16   0.162000
    XP1614   LOBROW2133 1.000000
    XP1615   RCAPP16  1.000000   QCRP16   -1.000000
    XP1615   QGAP16   0.500000   QDSP16   0.228000
    XP1615   QRSP16   0.075000   QKJP16   0.017000
    XP1615   QNJP16   0.002000   QPFP16   0.009000
    XP1615   QLPP16   0.046000   QOTP16   0.173000
    XP1615   LOBROW2134 1.000000
    XP1616   RCAPP16  1.000000   QCRP16   -1.000000
    XP1616   QGAP16   0.478000   QDSP16   0.233000
    XP1616   QRSP16   0.080000   QKJP16   0.017000
    XP1616   QNJP16   0.006000   QPFP16   0.008000
    XP1616   QLPP16   0.032000   QOTP16   0.178000
    XP1616   LOBROW2135 1.000000
    XP1617   RCAPP16  1.000000   QCRP16   -1.000000
    XP1617   QGAP16   0.472000   QDSP16   0.234000
    XP1617   QRSP16   0.079000   QKJP16   0.022000
    XP1617   QNJP16   0.004000   QPFP16   0.008000
    XP1617   QLPP16   0.033000   QOTP16   0.181000
    XP1617   LOBROW2136 1.000000
    XP1618   RCAPP16  1.000000   QCRP16   -1.000000
    XP1618   QGAP16   0.453000   QDSP16   0.239000
    XP1618   QRSP16   0.082000   QKJP16   0.022000
    XP1618   QNJP16   0.003000   QPFP16   0.013000
    XP1618   QLPP16   0.036000   QOTP16   0.184000
    XP1618   LOBROW2137 1.000000
    XP1619   RCAPP16  1.000000   QCRP16   -1.000000
    XP1619   QGAP16   0.443000   QDSP16   0.237000
    XP1619   QRSP16   0.090000   QKJP16   0.021000
    XP1619   QNJP16   0.003000   QPFP16   0.013000
    XP1619   QLPP16   0.033000   QOTP16   0.185000
    XP1619   LOBROW2138 1.000000
    XP1620   RCAPP16  1.000000   QCRP16   -1.000000
    XP1620   QGAP16   0.446000   QDSP16   0.248000
    XP1620   QRSP16   0.099000   QKJP16   0.020000
    XP1620   QNJP16   0.004000   QPFP16   0.011000
    XP1620   QLPP16   0.035000   QOTP16   0.180000
    XP1620   LOBROW2139 1.000000
    XP1621   RCAPP16  1.000000   QCRP16   -1.000000
    XP1621   QGAP16   0.448000   QDSP16   0.250000
    XP1621   QRSP16   0.104000   QKJP16   0.017000
    XP1621   QNJP16   0.006000   QPFP16   0.016000
    XP1621   QLPP16   0.034000   QOTP16   0.167000
    XP1621   LOBROW2140 1.000000
    XP1622   RCAPP16  1.000000   QCRP16   -1.000000
    XP1622   QGAP16   0.424000   QDSP16   0.288000
    XP1622   QRSP16   0.106000   QKJP16   0.011000
    XP1622   QNJP16   0.003000   QPFP16   0.019000
    XP1622   QLPP16   0.033000   QOTP16   0.157000
    XP1622   LOBROW2141 1.000000
    XP1623   RCAPP16  1.000000   QCRP16   -1.000000
    XP1623   QGAP16   0.461000   QDSP16   0.282000
    XP1623   QRSP16   0.110000   QKJP16   0.018000
    XP1623   QNJP16   0.004000   QPFP16   0.014000
    XP1623   QLPP16   0.031000   QOTP16   0.128000
    XP1623   LOBROW2142 1.000000
    XP1624   RCAPP16  1.000000   QCRP16   -1.000000
    XP1624   QGAP16   0.493000   QDSP16   0.232000
    XP1624   QRSP16   0.108000   QKJP16   0.025000
    XP1624   QNJP16   0.003000   QPFP16   0.015000
    XP1624   QLPP16   0.039000   QOTP16   0.133000
    XP1624   LOBROW2143 1.000000
    XP171    RCAPP17  1.000000   QCRP17   -1.000000
    XP171    QGAP17   0.479000   QDSP17   0.242000
    XP171    QRSP17   0.071000   QKJP17   0.029000
    XP171    QNJP17   0.004000   QPFP17   0.014000
    XP171    QLPP17   0.031000   QOTP17   0.156000
    XP171    LOBROW2144 1.000000
    XP172    RCAPP17  1.000000   QCRP17   -1.000000
    XP172    QGAP17   0.473000   QDSP17   0.248000
    XP172    QRSP17   0.059000   QKJP17   0.028000
    XP172    QNJP17   0.003000   QPFP17   0.009000
    XP172    QLPP17   0.035000   QOTP17   0.159000
    XP172    LOBROW2145 1.000000
    XP173    RCAPP17  1.000000   QCRP17   -1.000000
    XP173    QGAP17   0.471000   QDSP17   0.248000
    XP173    QRSP17   0.064000   QKJP17   0.017000
    XP173    QNJP17   0.005000   QPFP17   0.014000
    XP173    QLPP17   0.031000   QOTP17   0.171000
    XP173    LOBROW2146 1.000000
    XP174    RCAPP17  1.000000   QCRP17   -1.000000
    XP174    QGAP17   0.464000   QDSP17   0.255000
    XP174    QRSP17   0.069000   QKJP17   0.019000
    XP174    QNJP17   0.004000   QPFP17   0.014000
    XP174    QLPP17   0.031000   QOTP17   0.174000
    XP174    LOBROW2147 1.000000
    XP175    RCAPP17  1.000000   QCRP17   -1.000000
    XP175    QGAP17   0.504000   QDSP17   0.207000
    XP175    QRSP17   0.079000   QKJP17   0.019000
    XP175    QNJP17   0.005000   QPFP17   0.014000
    XP175    QLPP17   0.030000   QOTP17   0.172000
    XP175    LOBROW2148 1.000000
    XP176    RCAPP17  1.000000   QCRP17   -1.000000
    XP176    QGAP17   0.495000   QDSP17   0.230000
    XP176    QRSP17   0.064000   QKJP17   0.017000
    XP176    QNJP17   0.004000   QPFP17   0.013000
    XP176    QLPP17   0.034000   QOTP17   0.193000
    XP176    LOBROW2149 1.000000
    XP177    RCAPP17  1.000000   QCRP17   -1.000000
    XP177    QGAP17   0.483000   QDSP17   0.239000
    XP177    QRSP17   0.057000   QKJP17   0.022000
    XP177    QNJP17   0.003000   QPFP17   0.014000
    XP177    QLPP17   0.032000   QOTP17   0.184000
    XP177    LOBROW2150 1.000000
    XP178    RCAPP17  1.000000   QCRP17   -1.000000
    XP178    QGAP17   0.487000   QDSP17   0.249000
    XP178    QRSP17   0.051000   QKJP17   0.017000
    XP178    QNJP17   0.005000   QPFP17   0.011000
    XP178    QLPP17   0.033000   QOTP17   0.177000
    XP178    LOBROW2151 1.000000
    XP179    RCAPP17  1.000000   QCRP17   -1.000000
    XP179    QGAP17   0.486000   QDSP17   0.241000
    XP179    QRSP17   0.064000   QKJP17   0.019000
    XP179    QNJP17   0.004000   QPFP17   0.011000
    XP179    QLPP17   0.032000   QOTP17   0.167000
    XP179    LOBROW2152 1.000000
    XP1710   RCAPP17  1.000000   QCRP17   -1.000000
    XP1710   QGAP17   0.469000   QDSP17   0.272000
    XP1710   QRSP17   0.079000   QKJP17   0.020000
    XP1710   QNJP17   0.004000   QPFP17   0.016000
    XP1710   QLPP17   0.033000   QOTP17   0.139000
    XP1710   LOBROW2153 1.000000
    XP1711   RCAPP17  1.000000   QCRP17   -1.000000
    XP1711   QGAP17   0.457000   QDSP17   0.280000
    XP1711   QRSP17   0.089000   QKJP17   0.022000
    XP1711   QNJP17   0.004000   QPFP17   0.013000
    XP1711   QLPP17   0.037000   QOTP17   0.130000
    XP1711   LOBROW2154 1.000000
    XP1712   RCAPP17  1.000000   QCRP17   -1.000000
    XP1712   QGAP17   0.452000   QDSP17   0.277000
    XP1712   QRSP17   0.086000   QKJP17   0.028000
    XP1712   QNJP17   0.007000   QPFP17   0.008000
    XP1712   QLPP17   0.033000   QOTP17   0.133000
    XP1712   LOBROW2155 1.000000
    XP1713   RCAPP17  1.000000   QCRP17   -1.000000
    XP1713   QGAP17   0.474000   QDSP17   0.250000
    XP1713   QRSP17   0.089000   QKJP17   0.026000
    XP1713   QNJP17   0.007000   QPFP17   0.009000
    XP1713   QLPP17   0.035000   QOTP17   0.136000
    XP1713   LOBROW2156 1.000000
    XP1714   RCAPP17  1.000000   QCRP17   -1.000000
    XP1714   QGAP17   0.488000   QDSP17   0.228000
    XP1714   QRSP17   0.084000   QKJP17   0.021000
    XP1714   QNJP17   0.008000   QPFP17   0.009000
    XP1714   QLPP17   0.033000   QOTP17   0.162000
    XP1714   LOBROW2157 1.000000
    XP1715   RCAPP17  1.000000   QCRP17   -1.000000
    XP1715   QGAP17   0.500000   QDSP17   0.228000
    XP1715   QRSP17   0.075000   QKJP17   0.017000
    XP1715   QNJP17   0.002000   QPFP17   0.009000
    XP1715   QLPP17   0.046000   QOTP17   0.173000
    XP1715   LOBROW2158 1.000000
    XP1716   RCAPP17  1.000000   QCRP17   -1.000000
    XP1716   QGAP17   0.478000   QDSP17   0.233000
    XP1716   QRSP17   0.080000   QKJP17   0.017000
    XP1716   QNJP17   0.006000   QPFP17   0.008000
    XP1716   QLPP17   0.032000   QOTP17   0.178000
    XP1716   LOBROW2159 1.000000
    XP1717   RCAPP17  1.000000   QCRP17   -1.000000
    XP1717   QGAP17   0.472000   QDSP17   0.234000
    XP1717   QRSP17   0.079000   QKJP17   0.022000
    XP1717   QNJP17   0.004000   QPFP17   0.008000
    XP1717   QLPP17   0.033000   QOTP17   0.181000
    XP1717   LOBROW2160 1.000000
    XP1718   RCAPP17  1.000000   QCRP17   -1.000000
    XP1718   QGAP17   0.453000   QDSP17   0.239000
    XP1718   QRSP17   0.082000   QKJP17   0.022000
    XP1718   QNJP17   0.003000   QPFP17   0.013000
    XP1718   QLPP17   0.036000   QOTP17   0.184000
    XP1718   LOBROW2161 1.000000
    XP1719   RCAPP17  1.000000   QCRP17   -1.000000
    XP1719   QGAP17   0.443000   QDSP17   0.237000
    XP1719   QRSP17   0.090000   QKJP17   0.021000
    XP1719   QNJP17   0.003000   QPFP17   0.013000
    XP1719   QLPP17   0.033000   QOTP17   0.185000
    XP1719   LOBROW2162 1.000000
    XP1720   RCAPP17  1.000000   QCRP17   -1.000000
    XP1720   QGAP17   0.446000   QDSP17   0.248000
    XP1720   QRSP17   0.099000   QKJP17   0.020000
    XP1720   QNJP17   0.004000   QPFP17   0.011000
    XP1720   QLPP17   0.035000   QOTP17   0.180000
    XP1720   LOBROW2163 1.000000
    XP1721   RCAPP17  1.000000   QCRP17   -1.000000
    XP1721   QGAP17   0.448000   QDSP17   0.250000
    XP1721   QRSP17   0.104000   QKJP17   0.017000
    XP1721   QNJP17   0.006000   QPFP17   0.016000
    XP1721   QLPP17   0.034000   QOTP17   0.167000
    XP1721   LOBROW2164 1.000000
    XP1722   RCAPP17  1.000000   QCRP17   -1.000000
    XP1722   QGAP17   0.424000   QDSP17   0.288000
    XP1722   QRSP17   0.106000   QKJP17   0.011000
    XP1722   QNJP17   0.003000   QPFP17   0.019000
    XP1722   QLPP17   0.033000   QOTP17   0.157000
    XP1722   LOBROW2165 1.000000
    XP1723   RCAPP17  1.000000   QCRP17   -1.000000
    XP1723   QGAP17   0.461000   QDSP17   0.282000
    XP1723   QRSP17   0.110000   QKJP17   0.018000
    XP1723   QNJP17   0.004000   QPFP17   0.014000
    XP1723   QLPP17   0.031000   QOTP17   0.128000
    XP1723   LOBROW2166 1.000000
    XP1724   RCAPP17  1.000000   QCRP17   -1.000000
    XP1724   QGAP17   0.493000   QDSP17   0.232000
    XP1724   QRSP17   0.108000   QKJP17   0.025000
    XP1724   QNJP17   0.003000   QPFP17   0.015000
    XP1724   QLPP17   0.039000   QOTP17   0.133000
    XP1724   LOBROW2167 1.000000
    XP181    RCAPP18  1.000000   QCRP18   -1.000000
    XP181    QGAP18   0.479000   QDSP18   0.242000
    XP181    QRSP18   0.071000   QKJP18   0.029000
    XP181    QNJP18   0.004000   QPFP18   0.014000
    XP181    QLPP18   0.031000   QOTP18   0.156000
    XP181    LOBROW2168 1.000000
    XP182    RCAPP18  1.000000   QCRP18   -1.000000
    XP182    QGAP18   0.473000   QDSP18   0.248000
    XP182    QRSP18   0.059000   QKJP18   0.028000
    XP182    QNJP18   0.003000   QPFP18   0.009000
    XP182    QLPP18   0.035000   QOTP18   0.159000
    XP182    LOBROW2169 1.000000
    XP183    RCAPP18  1.000000   QCRP18   -1.000000
    XP183    QGAP18   0.471000   QDSP18   0.248000
    XP183    QRSP18   0.064000   QKJP18   0.017000
    XP183    QNJP18   0.005000   QPFP18   0.014000
    XP183    QLPP18   0.031000   QOTP18   0.171000
    XP183    LOBROW2170 1.000000
    XP184    RCAPP18  1.000000   QCRP18   -1.000000
    XP184    QGAP18   0.464000   QDSP18   0.255000
    XP184    QRSP18   0.069000   QKJP18   0.019000
    XP184    QNJP18   0.004000   QPFP18   0.014000
    XP184    QLPP18   0.031000   QOTP18   0.174000
    XP184    LOBROW2171 1.000000
    XP185    RCAPP18  1.000000   QCRP18   -1.000000
    XP185    QGAP18   0.504000   QDSP18   0.207000
    XP185    QRSP18   0.079000   QKJP18   0.019000
    XP185    QNJP18   0.005000   QPFP18   0.014000
    XP185    QLPP18   0.030000   QOTP18   0.172000
    XP185    LOBROW2172 1.000000
    XP186    RCAPP18  1.000000   QCRP18   -1.000000
    XP186    QGAP18   0.495000   QDSP18   0.230000
    XP186    QRSP18   0.064000   QKJP18   0.017000
    XP186    QNJP18   0.004000   QPFP18   0.013000
    XP186    QLPP18   0.034000   QOTP18   0.193000
    XP186    LOBROW2173 1.000000
    XP187    RCAPP18  1.000000   QCRP18   -1.000000
    XP187    QGAP18   0.483000   QDSP18   0.239000
    XP187    QRSP18   0.057000   QKJP18   0.022000
    XP187    QNJP18   0.003000   QPFP18   0.014000
    XP187    QLPP18   0.032000   QOTP18   0.184000
    XP187    LOBROW2174 1.000000
    XP188    RCAPP18  1.000000   QCRP18   -1.000000
    XP188    QGAP18   0.487000   QDSP18   0.249000
    XP188    QRSP18   0.051000   QKJP18   0.017000
    XP188    QNJP18   0.005000   QPFP18   0.011000
    XP188    QLPP18   0.033000   QOTP18   0.177000
    XP188    LOBROW2175 1.000000
    XP189    RCAPP18  1.000000   QCRP18   -1.000000
    XP189    QGAP18   0.486000   QDSP18   0.241000
    XP189    QRSP18   0.064000   QKJP18   0.019000
    XP189    QNJP18   0.004000   QPFP18   0.011000
    XP189    QLPP18   0.032000   QOTP18   0.167000
    XP189    LOBROW2176 1.000000
    XP1810   RCAPP18  1.000000   QCRP18   -1.000000
    XP1810   QGAP18   0.469000   QDSP18   0.272000
    XP1810   QRSP18   0.079000   QKJP18   0.020000
    XP1810   QNJP18   0.004000   QPFP18   0.016000
    XP1810   QLPP18   0.033000   QOTP18   0.139000
    XP1810   LOBROW2177 1.000000
    XP1811   RCAPP18  1.000000   QCRP18   -1.000000
    XP1811   QGAP18   0.457000   QDSP18   0.280000
    XP1811   QRSP18   0.089000   QKJP18   0.022000
    XP1811   QNJP18   0.004000   QPFP18   0.013000
    XP1811   QLPP18   0.037000   QOTP18   0.130000
    XP1811   LOBROW2178 1.000000
    XP1812   RCAPP18  1.000000   QCRP18   -1.000000
    XP1812   QGAP18   0.452000   QDSP18   0.277000
    XP1812   QRSP18   0.086000   QKJP18   0.028000
    XP1812   QNJP18   0.007000   QPFP18   0.008000
    XP1812   QLPP18   0.033000   QOTP18   0.133000
    XP1812   LOBROW2179 1.000000
    XP1813   RCAPP18  1.000000   QCRP18   -1.000000
    XP1813   QGAP18   0.474000   QDSP18   0.250000
    XP1813   QRSP18   0.089000   QKJP18   0.026000
    XP1813   QNJP18   0.007000   QPFP18   0.009000
    XP1813   QLPP18   0.035000   QOTP18   0.136000
    XP1813   LOBROW2180 1.000000
    XP1814   RCAPP18  1.000000   QCRP18   -1.000000
    XP1814   QGAP18   0.488000   QDSP18   0.228000
    XP1814   QRSP18   0.084000   QKJP18   0.021000
    XP1814   QNJP18   0.008000   QPFP18   0.009000
    XP1814   QLPP18   0.033000   QOTP18   0.162000
    XP1814   LOBROW2181 1.000000
    XP1815   RCAPP18  1.000000   QCRP18   -1.000000
    XP1815   QGAP18   0.500000   QDSP18   0.228000
    XP1815   QRSP18   0.075000   QKJP18   0.017000
    XP1815   QNJP18   0.002000   QPFP18   0.009000
    XP1815   QLPP18   0.046000   QOTP18   0.173000
    XP1815   LOBROW2182 1.000000
    XP1816   RCAPP18  1.000000   QCRP18   -1.000000
    XP1816   QGAP18   0.478000   QDSP18   0.233000
    XP1816   QRSP18   0.080000   QKJP18   0.017000
    XP1816   QNJP18   0.006000   QPFP18   0.008000
    XP1816   QLPP18   0.032000   QOTP18   0.178000
    XP1816   LOBROW2183 1.000000
    XP1817   RCAPP18  1.000000   QCRP18   -1.000000
    XP1817   QGAP18   0.472000   QDSP18   0.234000
    XP1817   QRSP18   0.079000   QKJP18   0.022000
    XP1817   QNJP18   0.004000   QPFP18   0.008000
    XP1817   QLPP18   0.033000   QOTP18   0.181000
    XP1817   LOBROW2184 1.000000
    XP1818   RCAPP18  1.000000   QCRP18   -1.000000
    XP1818   QGAP18   0.453000   QDSP18   0.239000
    XP1818   QRSP18   0.082000   QKJP18   0.022000
    XP1818   QNJP18   0.003000   QPFP18   0.013000
    XP1818   QLPP18   0.036000   QOTP18   0.184000
    XP1818   LOBROW2185 1.000000
    XP1819   RCAPP18  1.000000   QCRP18   -1.000000
    XP1819   QGAP18   0.443000   QDSP18   0.237000
    XP1819   QRSP18   0.090000   QKJP18   0.021000
    XP1819   QNJP18   0.003000   QPFP18   0.013000
    XP1819   QLPP18   0.033000   QOTP18   0.185000
    XP1819   LOBROW2186 1.000000
    XP1820   RCAPP18  1.000000   QCRP18   -1.000000
    XP1820   QGAP18   0.446000   QDSP18   0.248000
    XP1820   QRSP18   0.099000   QKJP18   0.020000
    XP1820   QNJP18   0.004000   QPFP18   0.011000
    XP1820   QLPP18   0.035000   QOTP18   0.180000
    XP1820   LOBROW2187 1.000000
    XP1821   RCAPP18  1.000000   QCRP18   -1.000000
    XP1821   QGAP18   0.448000   QDSP18   0.250000
    XP1821   QRSP18   0.104000   QKJP18   0.017000
    XP1821   QNJP18   0.006000   QPFP18   0.016000
    XP1821   QLPP18   0.034000   QOTP18   0.167000
    XP1821   LOBROW2188 1.000000
    XP1822   RCAPP18  1.000000   QCRP18   -1.000000
    XP1822   QGAP18   0.424000   QDSP18   0.288000
    XP1822   QRSP18   0.106000   QKJP18   0.011000
    XP1822   QNJP18   0.003000   QPFP18   0.019000
    XP1822   QLPP18   0.033000   QOTP18   0.157000
    XP1822   LOBROW2189 1.000000
    XP1823   RCAPP18  1.000000   QCRP18   -1.000000
    XP1823   QGAP18   0.461000   QDSP18   0.282000
    XP1823   QRSP18   0.110000   QKJP18   0.018000
    XP1823   QNJP18   0.004000   QPFP18   0.014000
    XP1823   QLPP18   0.031000   QOTP18   0.128000
    XP1823   LOBROW2190 1.000000
    XP1824   RCAPP18  1.000000   QCRP18   -1.000000
    XP1824   QGAP18   0.493000   QDSP18   0.232000
    XP1824   QRSP18   0.108000   QKJP18   0.025000
    XP1824   QNJP18   0.003000   QPFP18   0.015000
    XP1824   QLPP18   0.039000   QOTP18   0.133000
    XP1824   LOBROW2191 1.000000
    XP211    RCAPP21  1.000000   QCRP21   -1.000000
    XP211    QGAP21   0.543000   QDSP21   0.221000
    XP211    QRSP21   0.055000   QKJP21   0.039000
    XP211    QNJP21   0.014000   QPFP21   0.010000
    XP211    QLPP21   0.023000   QOTP21   0.131000
    XP211    LOBROW2192 1.000000
    XP212    RCAPP21  1.000000   QCRP21   -1.000000
    XP212    QGAP21   0.536000   QDSP21   0.214000
    XP212    QRSP21   0.052000   QKJP21   0.041000
    XP212    QNJP21   0.016000   QPFP21   0.010000
    XP212    QLPP21   0.023000   QOTP21   0.139000
    XP212    LOBROW2193 1.000000
    XP213    RCAPP21  1.000000   QCRP21   -1.000000
    XP213    QGAP21   0.536000   QDSP21   0.219000
    XP213    QRSP21   0.041000   QKJP21   0.042000
    XP213    QNJP21   0.013000   QPFP21   0.009000
    XP213    QLPP21   0.022000   QOTP21   0.147000
    XP213    LOBROW2194 1.000000
    XP214    RCAPP21  1.000000   QCRP21   -1.000000
    XP214    QGAP21   0.552000   QDSP21   0.202000
    XP214    QRSP21   0.040000   QKJP21   0.036000
    XP214    QNJP21   0.015000   QPFP21   0.012000
    XP214    QLPP21   0.022000   QOTP21   0.151000
    XP214    LOBROW2195 1.000000
    XP215    RCAPP21  1.000000   QCRP21   -1.000000
    XP215    QGAP21   0.550000   QDSP21   0.213000
    XP215    QRSP21   0.036000   QKJP21   0.034000
    XP215    QNJP21   0.011000   QPFP21   0.012000
    XP215    QLPP21   0.021000   QOTP21   0.150000
    XP215    LOBROW2196 1.000000
    XP216    RCAPP21  1.000000   QCRP21   -1.000000
    XP216    QGAP21   0.550000   QDSP21   0.207000
    XP216    QRSP21   0.034000   QKJP21   0.036000
    XP216    QNJP21   0.013000   QPFP21   0.013000
    XP216    QLPP21   0.021000   QOTP21   0.157000
    XP216    LOBROW2197 1.000000
    XP217    RCAPP21  1.000000   QCRP21   -1.000000
    XP217    QGAP21   0.551000   QDSP21   0.213000
    XP217    QRSP21   0.041000   QKJP21   0.033000
    XP217    QNJP21   0.011000   QPFP21   0.012000
    XP217    QLPP21   0.021000   QOTP21   0.153000
    XP217    LOBROW2198 1.000000
    XP218    RCAPP21  1.000000   QCRP21   -1.000000
    XP218    QGAP21   0.547000   QDSP21   0.217000
    XP218    QRSP21   0.044000   QKJP21   0.038000
    XP218    QNJP21   0.011000   QPFP21   0.012000
    XP218    QLPP21   0.020000   QOTP21   0.145000
    XP218    LOBROW2199 1.000000
    XP219    RCAPP21  1.000000   QCRP21   -1.000000
    XP219    QGAP21   0.551000   QDSP21   0.219000
    XP219    QRSP21   0.060000   QKJP21   0.031000
    XP219    QNJP21   0.012000   QPFP21   0.012000
    XP219    QLPP21   0.020000   QOTP21   0.134000
    XP219    LOBROW2200 1.000000
    XP2110   RCAPP21  1.000000   QCRP21   -1.000000
    XP2110   QGAP21   0.529000   QDSP21   0.233000
    XP2110   QRSP21   0.081000   QKJP21   0.035000
    XP2110   QNJP21   0.009000   QPFP21   0.012000
    XP2110   QLPP21   0.020000   QOTP21   0.118000
    XP2110   LOBROW2201 1.000000
    XP2111   RCAPP21  1.000000   QCRP21   -1.000000
    XP2111   QGAP21   0.524000   QDSP21   0.235000
    XP2111   QRSP21   0.079000   QKJP21   0.035000
    XP2111   QNJP21   0.007000   QPFP21   0.011000
    XP2111   QLPP21   0.021000   QOTP21   0.124000
    XP2111   LOBROW2202 1.000000
    XP2112   RCAPP21  1.000000   QCRP21   -1.000000
    XP2112   QGAP21   0.528000   QDSP21   0.228000
    XP2112   QRSP21   0.070000   QKJP21   0.039000
    XP2112   QNJP21   0.007000   QPFP21   0.009000
    XP2112   QLPP21   0.022000   QOTP21   0.133000
    XP2112   LOBROW2203 1.000000
    XP2113   RCAPP21  1.000000   QCRP21   -1.000000
    XP2113   QGAP21   0.533000   QDSP21   0.226000
    XP2113   QRSP21   0.057000   QKJP21   0.043000
    XP2113   QNJP21   0.008000   QPFP21   0.009000
    XP2113   QLPP21   0.022000   QOTP21   0.137000
    XP2113   LOBROW2204 1.000000
    XP2114   RCAPP21  1.000000   QCRP21   -1.000000
    XP2114   QGAP21   0.551000   QDSP21   0.210000
    XP2114   QRSP21   0.052000   QKJP21   0.042000
    XP2114   QNJP21   0.008000   QPFP21   0.010000
    XP2114   QLPP21   0.023000   QOTP21   0.140000
    XP2114   LOBROW2205 1.000000
    XP2115   RCAPP21  1.000000   QCRP21   -1.000000
    XP2115   QGAP21   0.561000   QDSP21   0.196000
    XP2115   QRSP21   0.045000   QKJP21   0.037000
    XP2115   QNJP21   0.012000   QPFP21   0.010000
    XP2115   QLPP21   0.023000   QOTP21   0.147000
    XP2115   LOBROW2206 1.000000
    XP2116   RCAPP21  1.000000   QCRP21   -1.000000
    XP2116   QGAP21   0.558000   QDSP21   0.209000
    XP2116   QRSP21   0.041000   QKJP21   0.038000
    XP2116   QNJP21   0.009000   QPFP21   0.008000
    XP2116   QLPP21   0.023000   QOTP21   0.148000
    XP2116   LOBROW2207 1.000000
    XP2117   RCAPP21  1.000000   QCRP21   -1.000000
    XP2117   QGAP21   0.555000   QDSP21   0.208000
    XP2117   QRSP21   0.043000   QKJP21   0.038000
    XP2117   QNJP21   0.010000   QPFP21   0.009000
    XP2117   QLPP21   0.022000   QOTP21   0.150000
    XP2117   LOBROW2208 1.000000
    XP2118   RCAPP21  1.000000   QCRP21   -1.000000
    XP2118   QGAP21   0.553000   QDSP21   0.211000
    XP2118   QRSP21   0.036000   QKJP21   0.035000
    XP2118   QNJP21   0.010000   QPFP21   0.008000
    XP2118   QLPP21   0.022000   QOTP21   0.158000
    XP2118   LOBROW2209 1.000000
    XP2119   RCAPP21  1.000000   QCRP21   -1.000000
    XP2119   QGAP21   0.548000   QDSP21   0.216000
    XP2119   QRSP21   0.040000   QKJP21   0.039000
    XP2119   QNJP21   0.010000   QPFP21   0.009000
    XP2119   QLPP21   0.023000   QOTP21   0.154000
    XP2119   LOBROW2210 1.000000
    XP2120   RCAPP21  1.000000   QCRP21   -1.000000
    XP2120   QGAP21   0.538000   QDSP21   0.222000
    XP2120   QRSP21   0.044000   QKJP21   0.039000
    XP2120   QNJP21   0.009000   QPFP21   0.009000
    XP2120   QLPP21   0.022000   QOTP21   0.151000
    XP2120   LOBROW2211 1.000000
    XP2121   RCAPP21  1.000000   QCRP21   -1.000000
    XP2121   QGAP21   0.521000   QDSP21   0.244000
    XP2121   QRSP21   0.057000   QKJP21   0.037000
    XP2121   QNJP21   0.009000   QPFP21   0.009000
    XP2121   QLPP21   0.020000   QOTP21   0.136000
    XP2121   LOBROW2212 1.000000
    XP2122   RCAPP21  1.000000   QCRP21   -1.000000
    XP2122   QGAP21   0.517000   QDSP21   0.254000
    XP2122   QRSP21   0.071000   QKJP21   0.032000
    XP2122   QNJP21   0.007000   QPFP21   0.009000
    XP2122   QLPP21   0.021000   QOTP21   0.120000
    XP2122   LOBROW2213 1.000000
    XP2123   RCAPP21  1.000000   QCRP21   -1.000000
    XP2123   QGAP21   0.527000   QDSP21   0.245000
    XP2123   QRSP21   0.073000   QKJP21   0.035000
    XP2123   QNJP21   0.008000   QPFP21   0.008000
    XP2123   QLPP21   0.020000   QOTP21   0.123000
    XP2123   LOBROW2214 1.000000
    XP2124   RCAPP21  1.000000   QCRP21   -1.000000
    XP2124   QGAP21   0.560000   QDSP21   0.209000
    XP2124   QRSP21   0.061000   QKJP21   0.033000
    XP2124   QNJP21   0.010000   QPFP21   0.008000
    XP2124   QLPP21   0.021000   QOTP21   0.133000
    XP2124   LOBROW2215 1.000000
    XP221    RCAPP22  1.000000   QCRP22   -1.000000
    XP221    QGAP22   0.543000   QDSP22   0.221000
    XP221    QRSP22   0.055000   QKJP22   0.039000
    XP221    QNJP22   0.014000   QPFP22   0.010000
    XP221    QLPP22   0.023000   QOTP22   0.131000
    XP221    LOBROW2216 1.000000
    XP222    RCAPP22  1.000000   QCRP22   -1.000000
    XP222    QGAP22   0.536000   QDSP22   0.214000
    XP222    QRSP22   0.052000   QKJP22   0.041000
    XP222    QNJP22   0.016000   QPFP22   0.010000
    XP222    QLPP22   0.023000   QOTP22   0.139000
    XP222    LOBROW2217 1.000000
    XP223    RCAPP22  1.000000   QCRP22   -1.000000
    XP223    QGAP22   0.536000   QDSP22   0.219000
    XP223    QRSP22   0.041000   QKJP22   0.042000
    XP223    QNJP22   0.013000   QPFP22   0.009000
    XP223    QLPP22   0.022000   QOTP22   0.147000
    XP223    LOBROW2218 1.000000
    XP224    RCAPP22  1.000000   QCRP22   -1.000000
    XP224    QGAP22   0.552000   QDSP22   0.202000
    XP224    QRSP22   0.040000   QKJP22   0.036000
    XP224    QNJP22   0.015000   QPFP22   0.012000
    XP224    QLPP22   0.022000   QOTP22   0.151000
    XP224    LOBROW2219 1.000000
    XP225    RCAPP22  1.000000   QCRP22   -1.000000
    XP225    QGAP22   0.550000   QDSP22   0.213000
    XP225    QRSP22   0.036000   QKJP22   0.034000
    XP225    QNJP22   0.011000   QPFP22   0.012000
    XP225    QLPP22   0.021000   QOTP22   0.150000
    XP225    LOBROW2220 1.000000
    XP226    RCAPP22  1.000000   QCRP22   -1.000000
    XP226    QGAP22   0.550000   QDSP22   0.207000
    XP226    QRSP22   0.034000   QKJP22   0.036000
    XP226    QNJP22   0.013000   QPFP22   0.013000
    XP226    QLPP22   0.021000   QOTP22   0.157000
    XP226    LOBROW2221 1.000000
    XP227    RCAPP22  1.000000   QCRP22   -1.000000
    XP227    QGAP22   0.551000   QDSP22   0.213000
    XP227    QRSP22   0.041000   QKJP22   0.033000
    XP227    QNJP22   0.011000   QPFP22   0.012000
    XP227    QLPP22   0.021000   QOTP22   0.153000
    XP227    LOBROW2222 1.000000
    XP228    RCAPP22  1.000000   QCRP22   -1.000000
    XP228    QGAP22   0.547000   QDSP22   0.217000
    XP228    QRSP22   0.044000   QKJP22   0.038000
    XP228    QNJP22   0.011000   QPFP22   0.012000
    XP228    QLPP22   0.020000   QOTP22   0.145000
    XP228    LOBROW2223 1.000000
    XP229    RCAPP22  1.000000   QCRP22   -1.000000
    XP229    QGAP22   0.551000   QDSP22   0.219000
    XP229    QRSP22   0.060000   QKJP22   0.031000
    XP229    QNJP22   0.012000   QPFP22   0.012000
    XP229    QLPP22   0.020000   QOTP22   0.134000
    XP229    LOBROW2224 1.000000
    XP2210   RCAPP22  1.000000   QCRP22   -1.000000
    XP2210   QGAP22   0.529000   QDSP22   0.233000
    XP2210   QRSP22   0.081000   QKJP22   0.035000
    XP2210   QNJP22   0.009000   QPFP22   0.012000
    XP2210   QLPP22   0.020000   QOTP22   0.118000
    XP2210   LOBROW2225 1.000000
    XP2211   RCAPP22  1.000000   QCRP22   -1.000000
    XP2211   QGAP22   0.524000   QDSP22   0.235000
    XP2211   QRSP22   0.079000   QKJP22   0.035000
    XP2211   QNJP22   0.007000   QPFP22   0.011000
    XP2211   QLPP22   0.021000   QOTP22   0.124000
    XP2211   LOBROW2226 1.000000
    XP2212   RCAPP22  1.000000   QCRP22   -1.000000
    XP2212   QGAP22   0.528000   QDSP22   0.228000
    XP2212   QRSP22   0.070000   QKJP22   0.039000
    XP2212   QNJP22   0.007000   QPFP22   0.009000
    XP2212   QLPP22   0.022000   QOTP22   0.133000
    XP2212   LOBROW2227 1.000000
    XP2213   RCAPP22  1.000000   QCRP22   -1.000000
    XP2213   QGAP22   0.533000   QDSP22   0.226000
    XP2213   QRSP22   0.057000   QKJP22   0.043000
    XP2213   QNJP22   0.008000   QPFP22   0.009000
    XP2213   QLPP22   0.022000   QOTP22   0.137000
    XP2213   LOBROW2228 1.000000
    XP2214   RCAPP22  1.000000   QCRP22   -1.000000
    XP2214   QGAP22   0.551000   QDSP22   0.210000
    XP2214   QRSP22   0.052000   QKJP22   0.042000
    XP2214   QNJP22   0.008000   QPFP22   0.010000
    XP2214   QLPP22   0.023000   QOTP22   0.140000
    XP2214   LOBROW2229 1.000000
    XP2215   RCAPP22  1.000000   QCRP22   -1.000000
    XP2215   QGAP22   0.561000   QDSP22   0.196000
    XP2215   QRSP22   0.045000   QKJP22   0.037000
    XP2215   QNJP22   0.012000   QPFP22   0.010000
    XP2215   QLPP22   0.023000   QOTP22   0.147000
    XP2215   LOBROW2230 1.000000
    XP2216   RCAPP22  1.000000   QCRP22   -1.000000
    XP2216   QGAP22   0.558000   QDSP22   0.209000
    XP2216   QRSP22   0.041000   QKJP22   0.038000
    XP2216   QNJP22   0.009000   QPFP22   0.008000
    XP2216   QLPP22   0.023000   QOTP22   0.148000
    XP2216   LOBROW2231 1.000000
    XP2217   RCAPP22  1.000000   QCRP22   -1.000000
    XP2217   QGAP22   0.555000   QDSP22   0.208000
    XP2217   QRSP22   0.043000   QKJP22   0.038000
    XP2217   QNJP22   0.010000   QPFP22   0.009000
    XP2217   QLPP22   0.022000   QOTP22   0.150000
    XP2217   LOBROW2232 1.000000
    XP2218   RCAPP22  1.000000   QCRP22   -1.000000
    XP2218   QGAP22   0.553000   QDSP22   0.211000
    XP2218   QRSP22   0.036000   QKJP22   0.035000
    XP2218   QNJP22   0.010000   QPFP22   0.008000
    XP2218   QLPP22   0.022000   QOTP22   0.158000
    XP2218   LOBROW2233 1.000000
    XP2219   RCAPP22  1.000000   QCRP22   -1.000000
    XP2219   QGAP22   0.548000   QDSP22   0.216000
    XP2219   QRSP22   0.040000   QKJP22   0.039000
    XP2219   QNJP22   0.010000   QPFP22   0.009000
    XP2219   QLPP22   0.023000   QOTP22   0.154000
    XP2219   LOBROW2234 1.000000
    XP2220   RCAPP22  1.000000   QCRP22   -1.000000
    XP2220   QGAP22   0.538000   QDSP22   0.222000
    XP2220   QRSP22   0.044000   QKJP22   0.039000
    XP2220   QNJP22   0.009000   QPFP22   0.009000
    XP2220   QLPP22   0.022000   QOTP22   0.151000
    XP2220   LOBROW2235 1.000000
    XP2221   RCAPP22  1.000000   QCRP22   -1.000000
    XP2221   QGAP22   0.521000   QDSP22   0.244000
    XP2221   QRSP22   0.057000   QKJP22   0.037000
    XP2221   QNJP22   0.009000   QPFP22   0.009000
    XP2221   QLPP22   0.020000   QOTP22   0.136000
    XP2221   LOBROW2236 1.000000
    XP2222   RCAPP22  1.000000   QCRP22   -1.000000
    XP2222   QGAP22   0.517000   QDSP22   0.254000
    XP2222   QRSP22   0.071000   QKJP22   0.032000
    XP2222   QNJP22   0.007000   QPFP22   0.009000
    XP2222   QLPP22   0.021000   QOTP22   0.120000
    XP2222   LOBROW2237 1.000000
    XP2223   RCAPP22  1.000000   QCRP22   -1.000000
    XP2223   QGAP22   0.527000   QDSP22   0.245000
    XP2223   QRSP22   0.073000   QKJP22   0.035000
    XP2223   QNJP22   0.008000   QPFP22   0.008000
    XP2223   QLPP22   0.020000   QOTP22   0.123000
    XP2223   LOBROW2238 1.000000
    XP2224   RCAPP22  1.000000   QCRP22   -1.000000
    XP2224   QGAP22   0.560000   QDSP22   0.209000
    XP2224   QRSP22   0.061000   QKJP22   0.033000
    XP2224   QNJP22   0.010000   QPFP22   0.008000
    XP2224   QLPP22   0.021000   QOTP22   0.133000
    XP2224   LOBROW2239 1.000000
    XP231    RCAPP23  1.000000   QCRP23   -1.000000
    XP231    QGAP23   0.543000   QDSP23   0.221000
    XP231    QRSP23   0.055000   QKJP23   0.039000
    XP231    QNJP23   0.014000   QPFP23   0.010000
    XP231    QLPP23   0.023000   QOTP23   0.131000
    XP231    LOBROW2240 1.000000
    XP232    RCAPP23  1.000000   QCRP23   -1.000000
    XP232    QGAP23   0.536000   QDSP23   0.214000
    XP232    QRSP23   0.052000   QKJP23   0.041000
    XP232    QNJP23   0.016000   QPFP23   0.010000
    XP232    QLPP23   0.023000   QOTP23   0.139000
    XP232    LOBROW2241 1.000000
    XP233    RCAPP23  1.000000   QCRP23   -1.000000
    XP233    QGAP23   0.536000   QDSP23   0.219000
    XP233    QRSP23   0.041000   QKJP23   0.042000
    XP233    QNJP23   0.013000   QPFP23   0.009000
    XP233    QLPP23   0.022000   QOTP23   0.147000
    XP233    LOBROW2242 1.000000
    XP234    RCAPP23  1.000000   QCRP23   -1.000000
    XP234    QGAP23   0.552000   QDSP23   0.202000
    XP234    QRSP23   0.040000   QKJP23   0.036000
    XP234    QNJP23   0.015000   QPFP23   0.012000
    XP234    QLPP23   0.022000   QOTP23   0.151000
    XP234    LOBROW2243 1.000000
    XP235    RCAPP23  1.000000   QCRP23   -1.000000
    XP235    QGAP23   0.550000   QDSP23   0.213000
    XP235    QRSP23   0.036000   QKJP23   0.034000
    XP235    QNJP23   0.011000   QPFP23   0.012000
    XP235    QLPP23   0.021000   QOTP23   0.150000
    XP235    LOBROW2244 1.000000
    XP236    RCAPP23  1.000000   QCRP23   -1.000000
    XP236    QGAP23   0.550000   QDSP23   0.207000
    XP236    QRSP23   0.034000   QKJP23   0.036000
    XP236    QNJP23   0.013000   QPFP23   0.013000
    XP236    QLPP23   0.021000   QOTP23   0.157000
    XP236    LOBROW2245 1.000000
    XP237    RCAPP23  1.000000   QCRP23   -1.000000
    XP237    QGAP23   0.551000   QDSP23   0.213000
    XP237    QRSP23   0.041000   QKJP23   0.033000
    XP237    QNJP23   0.011000   QPFP23   0.012000
    XP237    QLPP23   0.021000   QOTP23   0.153000
    XP237    LOBROW2246 1.000000
    XP238    RCAPP23  1.000000   QCRP23   -1.000000
    XP238    QGAP23   0.547000   QDSP23   0.217000
    XP238    QRSP23   0.044000   QKJP23   0.038000
    XP238    QNJP23   0.011000   QPFP23   0.012000
    XP238    QLPP23   0.020000   QOTP23   0.145000
    XP238    LOBROW2247 1.000000
    XP239    RCAPP23  1.000000   QCRP23   -1.000000
    XP239    QGAP23   0.551000   QDSP23   0.219000
    XP239    QRSP23   0.060000   QKJP23   0.031000
    XP239    QNJP23   0.012000   QPFP23   0.012000
    XP239    QLPP23   0.020000   QOTP23   0.134000
    XP239    LOBROW2248 1.000000
    XP2310   RCAPP23  1.000000   QCRP23   -1.000000
    XP2310   QGAP23   0.529000   QDSP23   0.233000
    XP2310   QRSP23   0.081000   QKJP23   0.035000
    XP2310   QNJP23   0.009000   QPFP23   0.012000
    XP2310   QLPP23   0.020000   QOTP23   0.118000
    XP2310   LOBROW2249 1.000000
    XP2311   RCAPP23  1.000000   QCRP23   -1.000000
    XP2311   QGAP23   0.524000   QDSP23   0.235000
    XP2311   QRSP23   0.079000   QKJP23   0.035000
    XP2311   QNJP23   0.007000   QPFP23   0.011000
    XP2311   QLPP23   0.021000   QOTP23   0.124000
    XP2311   LOBROW2250 1.000000
    XP2312   RCAPP23  1.000000   QCRP23   -1.000000
    XP2312   QGAP23   0.528000   QDSP23   0.228000
    XP2312   QRSP23   0.070000   QKJP23   0.039000
    XP2312   QNJP23   0.007000   QPFP23   0.009000
    XP2312   QLPP23   0.022000   QOTP23   0.133000
    XP2312   LOBROW2251 1.000000
    XP2313   RCAPP23  1.000000   QCRP23   -1.000000
    XP2313   QGAP23   0.533000   QDSP23   0.226000
    XP2313   QRSP23   0.057000   QKJP23   0.043000
    XP2313   QNJP23   0.008000   QPFP23   0.009000
    XP2313   QLPP23   0.022000   QOTP23   0.137000
    XP2313   LOBROW2252 1.000000
    XP2314   RCAPP23  1.000000   QCRP23   -1.000000
    XP2314   QGAP23   0.551000   QDSP23   0.210000
    XP2314   QRSP23   0.052000   QKJP23   0.042000
    XP2314   QNJP23   0.008000   QPFP23   0.010000
    XP2314   QLPP23   0.023000   QOTP23   0.140000
    XP2314   LOBROW2253 1.000000
    XP2315   RCAPP23  1.000000   QCRP23   -1.000000
    XP2315   QGAP23   0.561000   QDSP23   0.196000
    XP2315   QRSP23   0.045000   QKJP23   0.037000
    XP2315   QNJP23   0.012000   QPFP23   0.010000
    XP2315   QLPP23   0.023000   QOTP23   0.147000
    XP2315   LOBROW2254 1.000000
    XP2316   RCAPP23  1.000000   QCRP23   -1.000000
    XP2316   QGAP23   0.558000   QDSP23   0.209000
    XP2316   QRSP23   0.041000   QKJP23   0.038000
    XP2316   QNJP23   0.009000   QPFP23   0.008000
    XP2316   QLPP23   0.023000   QOTP23   0.148000
    XP2316   LOBROW2255 1.000000
    XP2317   RCAPP23  1.000000   QCRP23   -1.000000
    XP2317   QGAP23   0.555000   QDSP23   0.208000
    XP2317   QRSP23   0.043000   QKJP23   0.038000
    XP2317   QNJP23   0.010000   QPFP23   0.009000
    XP2317   QLPP23   0.022000   QOTP23   0.150000
    XP2317   LOBROW2256 1.000000
    XP2318   RCAPP23  1.000000   QCRP23   -1.000000
    XP2318   QGAP23   0.553000   QDSP23   0.211000
    XP2318   QRSP23   0.036000   QKJP23   0.035000
    XP2318   QNJP23   0.010000   QPFP23   0.008000
    XP2318   QLPP23   0.022000   QOTP23   0.158000
    XP2318   LOBROW2257 1.000000
    XP2319   RCAPP23  1.000000   QCRP23   -1.000000
    XP2319   QGAP23   0.548000   QDSP23   0.216000
    XP2319   QRSP23   0.040000   QKJP23   0.039000
    XP2319   QNJP23   0.010000   QPFP23   0.009000
    XP2319   QLPP23   0.023000   QOTP23   0.154000
    XP2319   LOBROW2258 1.000000
    XP2320   RCAPP23  1.000000   QCRP23   -1.000000
    XP2320   QGAP23   0.538000   QDSP23   0.222000
    XP2320   QRSP23   0.044000   QKJP23   0.039000
    XP2320   QNJP23   0.009000   QPFP23   0.009000
    XP2320   QLPP23   0.022000   QOTP23   0.151000
    XP2320   LOBROW2259 1.000000
    XP2321   RCAPP23  1.000000   QCRP23   -1.000000
    XP2321   QGAP23   0.521000   QDSP23   0.244000
    XP2321   QRSP23   0.057000   QKJP23   0.037000
    XP2321   QNJP23   0.009000   QPFP23   0.009000
    XP2321   QLPP23   0.020000   QOTP23   0.136000
    XP2321   LOBROW2260 1.000000
    XP2322   RCAPP23  1.000000   QCRP23   -1.000000
    XP2322   QGAP23   0.517000   QDSP23   0.254000
    XP2322   QRSP23   0.071000   QKJP23   0.032000
    XP2322   QNJP23   0.007000   QPFP23   0.009000
    XP2322   QLPP23   0.021000   QOTP23   0.120000
    XP2322   LOBROW2261 1.000000
    XP2323   RCAPP23  1.000000   QCRP23   -1.000000
    XP2323   QGAP23   0.527000   QDSP23   0.245000
    XP2323   QRSP23   0.073000   QKJP23   0.035000
    XP2323   QNJP23   0.008000   QPFP23   0.008000
    XP2323   QLPP23   0.020000   QOTP23   0.123000
    XP2323   LOBROW2262 1.000000
    XP2324   RCAPP23  1.000000   QCRP23   -1.000000
    XP2324   QGAP23   0.560000   QDSP23   0.209000
    XP2324   QRSP23   0.061000   QKJP23   0.033000
    XP2324   QNJP23   0.010000   QPFP23   0.008000
    XP2324   QLPP23   0.021000   QOTP23   0.133000
    XP2324   LOBROW2263 1.000000
    XP241    RCAPP24  1.000000   QCRP24   -1.000000
    XP241    QGAP24   0.543000   QDSP24   0.221000
    XP241    QRSP24   0.055000   QKJP24   0.039000
    XP241    QNJP24   0.014000   QPFP24   0.010000
    XP241    QLPP24   0.023000   QOTP24   0.131000
    XP241    LOBROW2264 1.000000
    XP242    RCAPP24  1.000000   QCRP24   -1.000000
    XP242    QGAP24   0.536000   QDSP24   0.214000
    XP242    QRSP24   0.052000   QKJP24   0.041000
    XP242    QNJP24   0.016000   QPFP24   0.010000
    XP242    QLPP24   0.023000   QOTP24   0.139000
    XP242    LOBROW2265 1.000000
    XP243    RCAPP24  1.000000   QCRP24   -1.000000
    XP243    QGAP24   0.536000   QDSP24   0.219000
    XP243    QRSP24   0.041000   QKJP24   0.042000
    XP243    QNJP24   0.013000   QPFP24   0.009000
    XP243    QLPP24   0.022000   QOTP24   0.147000
    XP243    LOBROW2266 1.000000
    XP244    RCAPP24  1.000000   QCRP24   -1.000000
    XP244    QGAP24   0.552000   QDSP24   0.202000
    XP244    QRSP24   0.040000   QKJP24   0.036000
    XP244    QNJP24   0.015000   QPFP24   0.012000
    XP244    QLPP24   0.022000   QOTP24   0.151000
    XP244    LOBROW2267 1.000000
    XP245    RCAPP24  1.000000   QCRP24   -1.000000
    XP245    QGAP24   0.550000   QDSP24   0.213000
    XP245    QRSP24   0.036000   QKJP24   0.034000
    XP245    QNJP24   0.011000   QPFP24   0.012000
    XP245    QLPP24   0.021000   QOTP24   0.150000
    XP245    LOBROW2268 1.000000
    XP246    RCAPP24  1.000000   QCRP24   -1.000000
    XP246    QGAP24   0.550000   QDSP24   0.207000
    XP246    QRSP24   0.034000   QKJP24   0.036000
    XP246    QNJP24   0.013000   QPFP24   0.013000
    XP246    QLPP24   0.021000   QOTP24   0.157000
    XP246    LOBROW2269 1.000000
    XP247    RCAPP24  1.000000   QCRP24   -1.000000
    XP247    QGAP24   0.551000   QDSP24   0.213000
    XP247    QRSP24   0.041000   QKJP24   0.033000
    XP247    QNJP24   0.011000   QPFP24   0.012000
    XP247    QLPP24   0.021000   QOTP24   0.153000
    XP247    LOBROW2270 1.000000
    XP248    RCAPP24  1.000000   QCRP24   -1.000000
    XP248    QGAP24   0.547000   QDSP24   0.217000
    XP248    QRSP24   0.044000   QKJP24   0.038000
    XP248    QNJP24   0.011000   QPFP24   0.012000
    XP248    QLPP24   0.020000   QOTP24   0.145000
    XP248    LOBROW2271 1.000000
    XP249    RCAPP24  1.000000   QCRP24   -1.000000
    XP249    QGAP24   0.551000   QDSP24   0.219000
    XP249    QRSP24   0.060000   QKJP24   0.031000
    XP249    QNJP24   0.012000   QPFP24   0.012000
    XP249    QLPP24   0.020000   QOTP24   0.134000
    XP249    LOBROW2272 1.000000
    XP2410   RCAPP24  1.000000   QCRP24   -1.000000
    XP2410   QGAP24   0.529000   QDSP24   0.233000
    XP2410   QRSP24   0.081000   QKJP24   0.035000
    XP2410   QNJP24   0.009000   QPFP24   0.012000
    XP2410   QLPP24   0.020000   QOTP24   0.118000
    XP2410   LOBROW2273 1.000000
    XP2411   RCAPP24  1.000000   QCRP24   -1.000000
    XP2411   QGAP24   0.524000   QDSP24   0.235000
    XP2411   QRSP24   0.079000   QKJP24   0.035000
    XP2411   QNJP24   0.007000   QPFP24   0.011000
    XP2411   QLPP24   0.021000   QOTP24   0.124000
    XP2411   LOBROW2274 1.000000
    XP2412   RCAPP24  1.000000   QCRP24   -1.000000
    XP2412   QGAP24   0.528000   QDSP24   0.228000
    XP2412   QRSP24   0.070000   QKJP24   0.039000
    XP2412   QNJP24   0.007000   QPFP24   0.009000
    XP2412   QLPP24   0.022000   QOTP24   0.133000
    XP2412   LOBROW2275 1.000000
    XP2413   RCAPP24  1.000000   QCRP24   -1.000000
    XP2413   QGAP24   0.533000   QDSP24   0.226000
    XP2413   QRSP24   0.057000   QKJP24   0.043000
    XP2413   QNJP24   0.008000   QPFP24   0.009000
    XP2413   QLPP24   0.022000   QOTP24   0.137000
    XP2413   LOBROW2276 1.000000
    XP2414   RCAPP24  1.000000   QCRP24   -1.000000
    XP2414   QGAP24   0.551000   QDSP24   0.210000
    XP2414   QRSP24   0.052000   QKJP24   0.042000
    XP2414   QNJP24   0.008000   QPFP24   0.010000
    XP2414   QLPP24   0.023000   QOTP24   0.140000
    XP2414   LOBROW2277 1.000000
    XP2415   RCAPP24  1.000000   QCRP24   -1.000000
    XP2415   QGAP24   0.561000   QDSP24   0.196000
    XP2415   QRSP24   0.045000   QKJP24   0.037000
    XP2415   QNJP24   0.012000   QPFP24   0.010000
    XP2415   QLPP24   0.023000   QOTP24   0.147000
    XP2415   LOBROW2278 1.000000
    XP2416   RCAPP24  1.000000   QCRP24   -1.000000
    XP2416   QGAP24   0.558000   QDSP24   0.209000
    XP2416   QRSP24   0.041000   QKJP24   0.038000
    XP2416   QNJP24   0.009000   QPFP24   0.008000
    XP2416   QLPP24   0.023000   QOTP24   0.148000
    XP2416   LOBROW2279 1.000000
    XP2417   RCAPP24  1.000000   QCRP24   -1.000000
    XP2417   QGAP24   0.555000   QDSP24   0.208000
    XP2417   QRSP24   0.043000   QKJP24   0.038000
    XP2417   QNJP24   0.010000   QPFP24   0.009000
    XP2417   QLPP24   0.022000   QOTP24   0.150000
    XP2417   LOBROW2280 1.000000
    XP2418   RCAPP24  1.000000   QCRP24   -1.000000
    XP2418   QGAP24   0.553000   QDSP24   0.211000
    XP2418   QRSP24   0.036000   QKJP24   0.035000
    XP2418   QNJP24   0.010000   QPFP24   0.008000
    XP2418   QLPP24   0.022000   QOTP24   0.158000
    XP2418   LOBROW2281 1.000000
    XP2419   RCAPP24  1.000000   QCRP24   -1.000000
    XP2419   QGAP24   0.548000   QDSP24   0.216000
    XP2419   QRSP24   0.040000   QKJP24   0.039000
    XP2419   QNJP24   0.010000   QPFP24   0.009000
    XP2419   QLPP24   0.023000   QOTP24   0.154000
    XP2419   LOBROW2282 1.000000
    XP2420   RCAPP24  1.000000   QCRP24   -1.000000
    XP2420   QGAP24   0.538000   QDSP24   0.222000
    XP2420   QRSP24   0.044000   QKJP24   0.039000
    XP2420   QNJP24   0.009000   QPFP24   0.009000
    XP2420   QLPP24   0.022000   QOTP24   0.151000
    XP2420   LOBROW2283 1.000000
    XP2421   RCAPP24  1.000000   QCRP24   -1.000000
    XP2421   QGAP24   0.521000   QDSP24   0.244000
    XP2421   QRSP24   0.057000   QKJP24   0.037000
    XP2421   QNJP24   0.009000   QPFP24   0.009000
    XP2421   QLPP24   0.020000   QOTP24   0.136000
    XP2421   LOBROW2284 1.000000
    XP2422   RCAPP24  1.000000   QCRP24   -1.000000
    XP2422   QGAP24   0.517000   QDSP24   0.254000
    XP2422   QRSP24   0.071000   QKJP24   0.032000
    XP2422   QNJP24   0.007000   QPFP24   0.009000
    XP2422   QLPP24   0.021000   QOTP24   0.120000
    XP2422   LOBROW2285 1.000000
    XP2423   RCAPP24  1.000000   QCRP24   -1.000000
    XP2423   QGAP24   0.527000   QDSP24   0.245000
    XP2423   QRSP24   0.073000   QKJP24   0.035000
    XP2423   QNJP24   0.008000   QPFP24   0.008000
    XP2423   QLPP24   0.020000   QOTP24   0.123000
    XP2423   LOBROW2286 1.000000
    XP2424   RCAPP24  1.000000   QCRP24   -1.000000
    XP2424   QGAP24   0.560000   QDSP24   0.209000
    XP2424   QRSP24   0.061000   QKJP24   0.033000
    XP2424   QNJP24   0.010000   QPFP24   0.008000
    XP2424   QLPP24   0.021000   QOTP24   0.133000
    XP2424   LOBROW2287 1.000000
    XP251    RCAPP25  1.000000   QCRP25   -1.000000
    XP251    QGAP25   0.543000   QDSP25   0.221000
    XP251    QRSP25   0.055000   QKJP25   0.039000
    XP251    QNJP25   0.014000   QPFP25   0.010000
    XP251    QLPP25   0.023000   QOTP25   0.131000
    XP251    LOBROW2288 1.000000
    XP252    RCAPP25  1.000000   QCRP25   -1.000000
    XP252    QGAP25   0.536000   QDSP25   0.214000
    XP252    QRSP25   0.052000   QKJP25   0.041000
    XP252    QNJP25   0.016000   QPFP25   0.010000
    XP252    QLPP25   0.023000   QOTP25   0.139000
    XP252    LOBROW2289 1.000000
    XP253    RCAPP25  1.000000   QCRP25   -1.000000
    XP253    QGAP25   0.536000   QDSP25   0.219000
    XP253    QRSP25   0.041000   QKJP25   0.042000
    XP253    QNJP25   0.013000   QPFP25   0.009000
    XP253    QLPP25   0.022000   QOTP25   0.147000
    XP253    LOBROW2290 1.000000
    XP254    RCAPP25  1.000000   QCRP25   -1.000000
    XP254    QGAP25   0.552000   QDSP25   0.202000
    XP254    QRSP25   0.040000   QKJP25   0.036000
    XP254    QNJP25   0.015000   QPFP25   0.012000
    XP254    QLPP25   0.022000   QOTP25   0.151000
    XP254    LOBROW2291 1.000000
    XP255    RCAPP25  1.000000   QCRP25   -1.000000
    XP255    QGAP25   0.550000   QDSP25   0.213000
    XP255    QRSP25   0.036000   QKJP25   0.034000
    XP255    QNJP25   0.011000   QPFP25   0.012000
    XP255    QLPP25   0.021000   QOTP25   0.150000
    XP255    LOBROW2292 1.000000
    XP256    RCAPP25  1.000000   QCRP25   -1.000000
    XP256    QGAP25   0.550000   QDSP25   0.207000
    XP256    QRSP25   0.034000   QKJP25   0.036000
    XP256    QNJP25   0.013000   QPFP25   0.013000
    XP256    QLPP25   0.021000   QOTP25   0.157000
    XP256    LOBROW2293 1.000000
    XP257    RCAPP25  1.000000   QCRP25   -1.000000
    XP257    QGAP25   0.551000   QDSP25   0.213000
    XP257    QRSP25   0.041000   QKJP25   0.033000
    XP257    QNJP25   0.011000   QPFP25   0.012000
    XP257    QLPP25   0.021000   QOTP25   0.153000
    XP257    LOBROW2294 1.000000
    XP258    RCAPP25  1.000000   QCRP25   -1.000000
    XP258    QGAP25   0.547000   QDSP25   0.217000
    XP258    QRSP25   0.044000   QKJP25   0.038000
    XP258    QNJP25   0.011000   QPFP25   0.012000
    XP258    QLPP25   0.020000   QOTP25   0.145000
    XP258    LOBROW2295 1.000000
    XP259    RCAPP25  1.000000   QCRP25   -1.000000
    XP259    QGAP25   0.551000   QDSP25   0.219000
    XP259    QRSP25   0.060000   QKJP25   0.031000
    XP259    QNJP25   0.012000   QPFP25   0.012000
    XP259    QLPP25   0.020000   QOTP25   0.134000
    XP259    LOBROW2296 1.000000
    XP2510   RCAPP25  1.000000   QCRP25   -1.000000
    XP2510   QGAP25   0.529000   QDSP25   0.233000
    XP2510   QRSP25   0.081000   QKJP25   0.035000
    XP2510   QNJP25   0.009000   QPFP25   0.012000
    XP2510   QLPP25   0.020000   QOTP25   0.118000
    XP2510   LOBROW2297 1.000000
    XP2511   RCAPP25  1.000000   QCRP25   -1.000000
    XP2511   QGAP25   0.524000   QDSP25   0.235000
    XP2511   QRSP25   0.079000   QKJP25   0.035000
    XP2511   QNJP25   0.007000   QPFP25   0.011000
    XP2511   QLPP25   0.021000   QOTP25   0.124000
    XP2511   LOBROW2298 1.000000
    XP2512   RCAPP25  1.000000   QCRP25   -1.000000
    XP2512   QGAP25   0.528000   QDSP25   0.228000
    XP2512   QRSP25   0.070000   QKJP25   0.039000
    XP2512   QNJP25   0.007000   QPFP25   0.009000
    XP2512   QLPP25   0.022000   QOTP25   0.133000
    XP2512   LOBROW2299 1.000000
    XP2513   RCAPP25  1.000000   QCRP25   -1.000000
    XP2513   QGAP25   0.533000   QDSP25   0.226000
    XP2513   QRSP25   0.057000   QKJP25   0.043000
    XP2513   QNJP25   0.008000   QPFP25   0.009000
    XP2513   QLPP25   0.022000   QOTP25   0.137000
    XP2513   LOBROW2300 1.000000
    XP2514   RCAPP25  1.000000   QCRP25   -1.000000
    XP2514   QGAP25   0.551000   QDSP25   0.210000
    XP2514   QRSP25   0.052000   QKJP25   0.042000
    XP2514   QNJP25   0.008000   QPFP25   0.010000
    XP2514   QLPP25   0.023000   QOTP25   0.140000
    XP2514   LOBROW2301 1.000000
    XP2515   RCAPP25  1.000000   QCRP25   -1.000000
    XP2515   QGAP25   0.561000   QDSP25   0.196000
    XP2515   QRSP25   0.045000   QKJP25   0.037000
    XP2515   QNJP25   0.012000   QPFP25   0.010000
    XP2515   QLPP25   0.023000   QOTP25   0.147000
    XP2515   LOBROW2302 1.000000
    XP2516   RCAPP25  1.000000   QCRP25   -1.000000
    XP2516   QGAP25   0.558000   QDSP25   0.209000
    XP2516   QRSP25   0.041000   QKJP25   0.038000
    XP2516   QNJP25   0.009000   QPFP25   0.008000
    XP2516   QLPP25   0.023000   QOTP25   0.148000
    XP2516   LOBROW2303 1.000000
    XP2517   RCAPP25  1.000000   QCRP25   -1.000000
    XP2517   QGAP25   0.555000   QDSP25   0.208000
    XP2517   QRSP25   0.043000   QKJP25   0.038000
    XP2517   QNJP25   0.010000   QPFP25   0.009000
    XP2517   QLPP25   0.022000   QOTP25   0.150000
    XP2517   LOBROW2304 1.000000
    XP2518   RCAPP25  1.000000   QCRP25   -1.000000
    XP2518   QGAP25   0.553000   QDSP25   0.211000
    XP2518   QRSP25   0.036000   QKJP25   0.035000
    XP2518   QNJP25   0.010000   QPFP25   0.008000
    XP2518   QLPP25   0.022000   QOTP25   0.158000
    XP2518   LOBROW2305 1.000000
    XP2519   RCAPP25  1.000000   QCRP25   -1.000000
    XP2519   QGAP25   0.548000   QDSP25   0.216000
    XP2519   QRSP25   0.040000   QKJP25   0.039000
    XP2519   QNJP25   0.010000   QPFP25   0.009000
    XP2519   QLPP25   0.023000   QOTP25   0.154000
    XP2519   LOBROW2306 1.000000
    XP2520   RCAPP25  1.000000   QCRP25   -1.000000
    XP2520   QGAP25   0.538000   QDSP25   0.222000
    XP2520   QRSP25   0.044000   QKJP25   0.039000
    XP2520   QNJP25   0.009000   QPFP25   0.009000
    XP2520   QLPP25   0.022000   QOTP25   0.151000
    XP2520   LOBROW2307 1.000000
    XP2521   RCAPP25  1.000000   QCRP25   -1.000000
    XP2521   QGAP25   0.521000   QDSP25   0.244000
    XP2521   QRSP25   0.057000   QKJP25   0.037000
    XP2521   QNJP25   0.009000   QPFP25   0.009000
    XP2521   QLPP25   0.020000   QOTP25   0.136000
    XP2521   LOBROW2308 1.000000
    XP2522   RCAPP25  1.000000   QCRP25   -1.000000
    XP2522   QGAP25   0.517000   QDSP25   0.254000
    XP2522   QRSP25   0.071000   QKJP25   0.032000
    XP2522   QNJP25   0.007000   QPFP25   0.009000
    XP2522   QLPP25   0.021000   QOTP25   0.120000
    XP2522   LOBROW2309 1.000000
    XP2523   RCAPP25  1.000000   QCRP25   -1.000000
    XP2523   QGAP25   0.527000   QDSP25   0.245000
    XP2523   QRSP25   0.073000   QKJP25   0.035000
    XP2523   QNJP25   0.008000   QPFP25   0.008000
    XP2523   QLPP25   0.020000   QOTP25   0.123000
    XP2523   LOBROW2310 1.000000
    XP2524   RCAPP25  1.000000   QCRP25   -1.000000
    XP2524   QGAP25   0.560000   QDSP25   0.209000
    XP2524   QRSP25   0.061000   QKJP25   0.033000
    XP2524   QNJP25   0.010000   QPFP25   0.008000
    XP2524   QLPP25   0.021000   QOTP25   0.133000
    XP2524   LOBROW2311 1.000000
    XP261    RCAPP26  1.000000   QCRP26   -1.000000
    XP261    QGAP26   0.543000   QDSP26   0.221000
    XP261    QRSP26   0.055000   QKJP26   0.039000
    XP261    QNJP26   0.014000   QPFP26   0.010000
    XP261    QLPP26   0.023000   QOTP26   0.131000
    XP261    LOBROW2312 1.000000
    XP262    RCAPP26  1.000000   QCRP26   -1.000000
    XP262    QGAP26   0.536000   QDSP26   0.214000
    XP262    QRSP26   0.052000   QKJP26   0.041000
    XP262    QNJP26   0.016000   QPFP26   0.010000
    XP262    QLPP26   0.023000   QOTP26   0.139000
    XP262    LOBROW2313 1.000000
    XP263    RCAPP26  1.000000   QCRP26   -1.000000
    XP263    QGAP26   0.536000   QDSP26   0.219000
    XP263    QRSP26   0.041000   QKJP26   0.042000
    XP263    QNJP26   0.013000   QPFP26   0.009000
    XP263    QLPP26   0.022000   QOTP26   0.147000
    XP263    LOBROW2314 1.000000
    XP264    RCAPP26  1.000000   QCRP26   -1.000000
    XP264    QGAP26   0.552000   QDSP26   0.202000
    XP264    QRSP26   0.040000   QKJP26   0.036000
    XP264    QNJP26   0.015000   QPFP26   0.012000
    XP264    QLPP26   0.022000   QOTP26   0.151000
    XP264    LOBROW2315 1.000000
    XP265    RCAPP26  1.000000   QCRP26   -1.000000
    XP265    QGAP26   0.550000   QDSP26   0.213000
    XP265    QRSP26   0.036000   QKJP26   0.034000
    XP265    QNJP26   0.011000   QPFP26   0.012000
    XP265    QLPP26   0.021000   QOTP26   0.150000
    XP265    LOBROW2316 1.000000
    XP266    RCAPP26  1.000000   QCRP26   -1.000000
    XP266    QGAP26   0.550000   QDSP26   0.207000
    XP266    QRSP26   0.034000   QKJP26   0.036000
    XP266    QNJP26   0.013000   QPFP26   0.013000
    XP266    QLPP26   0.021000   QOTP26   0.157000
    XP266    LOBROW2317 1.000000
    XP267    RCAPP26  1.000000   QCRP26   -1.000000
    XP267    QGAP26   0.551000   QDSP26   0.213000
    XP267    QRSP26   0.041000   QKJP26   0.033000
    XP267    QNJP26   0.011000   QPFP26   0.012000
    XP267    QLPP26   0.021000   QOTP26   0.153000
    XP267    LOBROW2318 1.000000
    XP268    RCAPP26  1.000000   QCRP26   -1.000000
    XP268    QGAP26   0.547000   QDSP26   0.217000
    XP268    QRSP26   0.044000   QKJP26   0.038000
    XP268    QNJP26   0.011000   QPFP26   0.012000
    XP268    QLPP26   0.020000   QOTP26   0.145000
    XP268    LOBROW2319 1.000000
    XP269    RCAPP26  1.000000   QCRP26   -1.000000
    XP269    QGAP26   0.551000   QDSP26   0.219000
    XP269    QRSP26   0.060000   QKJP26   0.031000
    XP269    QNJP26   0.012000   QPFP26   0.012000
    XP269    QLPP26   0.020000   QOTP26   0.134000
    XP269    LOBROW2320 1.000000
    XP2610   RCAPP26  1.000000   QCRP26   -1.000000
    XP2610   QGAP26   0.529000   QDSP26   0.233000
    XP2610   QRSP26   0.081000   QKJP26   0.035000
    XP2610   QNJP26   0.009000   QPFP26   0.012000
    XP2610   QLPP26   0.020000   QOTP26   0.118000
    XP2610   LOBROW2321 1.000000
    XP2611   RCAPP26  1.000000   QCRP26   -1.000000
    XP2611   QGAP26   0.524000   QDSP26   0.235000
    XP2611   QRSP26   0.079000   QKJP26   0.035000
    XP2611   QNJP26   0.007000   QPFP26   0.011000
    XP2611   QLPP26   0.021000   QOTP26   0.124000
    XP2611   LOBROW2322 1.000000
    XP2612   RCAPP26  1.000000   QCRP26   -1.000000
    XP2612   QGAP26   0.528000   QDSP26   0.228000
    XP2612   QRSP26   0.070000   QKJP26   0.039000
    XP2612   QNJP26   0.007000   QPFP26   0.009000
    XP2612   QLPP26   0.022000   QOTP26   0.133000
    XP2612   LOBROW2323 1.000000
    XP2613   RCAPP26  1.000000   QCRP26   -1.000000
    XP2613   QGAP26   0.533000   QDSP26   0.226000
    XP2613   QRSP26   0.057000   QKJP26   0.043000
    XP2613   QNJP26   0.008000   QPFP26   0.009000
    XP2613   QLPP26   0.022000   QOTP26   0.137000
    XP2613   LOBROW2324 1.000000
    XP2614   RCAPP26  1.000000   QCRP26   -1.000000
    XP2614   QGAP26   0.551000   QDSP26   0.210000
    XP2614   QRSP26   0.052000   QKJP26   0.042000
    XP2614   QNJP26   0.008000   QPFP26   0.010000
    XP2614   QLPP26   0.023000   QOTP26   0.140000
    XP2614   LOBROW2325 1.000000
    XP2615   RCAPP26  1.000000   QCRP26   -1.000000
    XP2615   QGAP26   0.561000   QDSP26   0.196000
    XP2615   QRSP26   0.045000   QKJP26   0.037000
    XP2615   QNJP26   0.012000   QPFP26   0.010000
    XP2615   QLPP26   0.023000   QOTP26   0.147000
    XP2615   LOBROW2326 1.000000
    XP2616   RCAPP26  1.000000   QCRP26   -1.000000
    XP2616   QGAP26   0.558000   QDSP26   0.209000
    XP2616   QRSP26   0.041000   QKJP26   0.038000
    XP2616   QNJP26   0.009000   QPFP26   0.008000
    XP2616   QLPP26   0.023000   QOTP26   0.148000
    XP2616   LOBROW2327 1.000000
    XP2617   RCAPP26  1.000000   QCRP26   -1.000000
    XP2617   QGAP26   0.555000   QDSP26   0.208000
    XP2617   QRSP26   0.043000   QKJP26   0.038000
    XP2617   QNJP26   0.010000   QPFP26   0.009000
    XP2617   QLPP26   0.022000   QOTP26   0.150000
    XP2617   LOBROW2328 1.000000
    XP2618   RCAPP26  1.000000   QCRP26   -1.000000
    XP2618   QGAP26   0.553000   QDSP26   0.211000
    XP2618   QRSP26   0.036000   QKJP26   0.035000
    XP2618   QNJP26   0.010000   QPFP26   0.008000
    XP2618   QLPP26   0.022000   QOTP26   0.158000
    XP2618   LOBROW2329 1.000000
    XP2619   RCAPP26  1.000000   QCRP26   -1.000000
    XP2619   QGAP26   0.548000   QDSP26   0.216000
    XP2619   QRSP26   0.040000   QKJP26   0.039000
    XP2619   QNJP26   0.010000   QPFP26   0.009000
    XP2619   QLPP26   0.023000   QOTP26   0.154000
    XP2619   LOBROW2330 1.000000
    XP2620   RCAPP26  1.000000   QCRP26   -1.000000
    XP2620   QGAP26   0.538000   QDSP26   0.222000
    XP2620   QRSP26   0.044000   QKJP26   0.039000
    XP2620   QNJP26   0.009000   QPFP26   0.009000
    XP2620   QLPP26   0.022000   QOTP26   0.151000
    XP2620   LOBROW2331 1.000000
    XP2621   RCAPP26  1.000000   QCRP26   -1.000000
    XP2621   QGAP26   0.521000   QDSP26   0.244000
    XP2621   QRSP26   0.057000   QKJP26   0.037000
    XP2621   QNJP26   0.009000   QPFP26   0.009000
    XP2621   QLPP26   0.020000   QOTP26   0.136000
    XP2621   LOBROW2332 1.000000
    XP2622   RCAPP26  1.000000   QCRP26   -1.000000
    XP2622   QGAP26   0.517000   QDSP26   0.254000
    XP2622   QRSP26   0.071000   QKJP26   0.032000
    XP2622   QNJP26   0.007000   QPFP26   0.009000
    XP2622   QLPP26   0.021000   QOTP26   0.120000
    XP2622   LOBROW2333 1.000000
    XP2623   RCAPP26  1.000000   QCRP26   -1.000000
    XP2623   QGAP26   0.527000   QDSP26   0.245000
    XP2623   QRSP26   0.073000   QKJP26   0.035000
    XP2623   QNJP26   0.008000   QPFP26   0.008000
    XP2623   QLPP26   0.020000   QOTP26   0.123000
    XP2623   LOBROW2334 1.000000
    XP2624   RCAPP26  1.000000   QCRP26   -1.000000
    XP2624   QGAP26   0.560000   QDSP26   0.209000
    XP2624   QRSP26   0.061000   QKJP26   0.033000
    XP2624   QNJP26   0.010000   QPFP26   0.008000
    XP2624   QLPP26   0.021000   QOTP26   0.133000
    XP2624   LOBROW2335 1.000000
    XP271    RCAPP27  1.000000   QCRP27   -1.000000
    XP271    QGAP27   0.543000   QDSP27   0.221000
    XP271    QRSP27   0.055000   QKJP27   0.039000
    XP271    QNJP27   0.014000   QPFP27   0.010000
    XP271    QLPP27   0.023000   QOTP27   0.131000
    XP271    LOBROW2336 1.000000
    XP272    RCAPP27  1.000000   QCRP27   -1.000000
    XP272    QGAP27   0.536000   QDSP27   0.214000
    XP272    QRSP27   0.052000   QKJP27   0.041000
    XP272    QNJP27   0.016000   QPFP27   0.010000
    XP272    QLPP27   0.023000   QOTP27   0.139000
    XP272    LOBROW2337 1.000000
    XP273    RCAPP27  1.000000   QCRP27   -1.000000
    XP273    QGAP27   0.536000   QDSP27   0.219000
    XP273    QRSP27   0.041000   QKJP27   0.042000
    XP273    QNJP27   0.013000   QPFP27   0.009000
    XP273    QLPP27   0.022000   QOTP27   0.147000
    XP273    LOBROW2338 1.000000
    XP274    RCAPP27  1.000000   QCRP27   -1.000000
    XP274    QGAP27   0.552000   QDSP27   0.202000
    XP274    QRSP27   0.040000   QKJP27   0.036000
    XP274    QNJP27   0.015000   QPFP27   0.012000
    XP274    QLPP27   0.022000   QOTP27   0.151000
    XP274    LOBROW2339 1.000000
    XP275    RCAPP27  1.000000   QCRP27   -1.000000
    XP275    QGAP27   0.550000   QDSP27   0.213000
    XP275    QRSP27   0.036000   QKJP27   0.034000
    XP275    QNJP27   0.011000   QPFP27   0.012000
    XP275    QLPP27   0.021000   QOTP27   0.150000
    XP275    LOBROW2340 1.000000
    XP276    RCAPP27  1.000000   QCRP27   -1.000000
    XP276    QGAP27   0.550000   QDSP27   0.207000
    XP276    QRSP27   0.034000   QKJP27   0.036000
    XP276    QNJP27   0.013000   QPFP27   0.013000
    XP276    QLPP27   0.021000   QOTP27   0.157000
    XP276    LOBROW2341 1.000000
    XP277    RCAPP27  1.000000   QCRP27   -1.000000
    XP277    QGAP27   0.551000   QDSP27   0.213000
    XP277    QRSP27   0.041000   QKJP27   0.033000
    XP277    QNJP27   0.011000   QPFP27   0.012000
    XP277    QLPP27   0.021000   QOTP27   0.153000
    XP277    LOBROW2342 1.000000
    XP278    RCAPP27  1.000000   QCRP27   -1.000000
    XP278    QGAP27   0.547000   QDSP27   0.217000
    XP278    QRSP27   0.044000   QKJP27   0.038000
    XP278    QNJP27   0.011000   QPFP27   0.012000
    XP278    QLPP27   0.020000   QOTP27   0.145000
    XP278    LOBROW2343 1.000000
    XP279    RCAPP27  1.000000   QCRP27   -1.000000
    XP279    QGAP27   0.551000   QDSP27   0.219000
    XP279    QRSP27   0.060000   QKJP27   0.031000
    XP279    QNJP27   0.012000   QPFP27   0.012000
    XP279    QLPP27   0.020000   QOTP27   0.134000
    XP279    LOBROW2344 1.000000
    XP2710   RCAPP27  1.000000   QCRP27   -1.000000
    XP2710   QGAP27   0.529000   QDSP27   0.233000
    XP2710   QRSP27   0.081000   QKJP27   0.035000
    XP2710   QNJP27   0.009000   QPFP27   0.012000
    XP2710   QLPP27   0.020000   QOTP27   0.118000
    XP2710   LOBROW2345 1.000000
    XP2711   RCAPP27  1.000000   QCRP27   -1.000000
    XP2711   QGAP27   0.524000   QDSP27   0.235000
    XP2711   QRSP27   0.079000   QKJP27   0.035000
    XP2711   QNJP27   0.007000   QPFP27   0.011000
    XP2711   QLPP27   0.021000   QOTP27   0.124000
    XP2711   LOBROW2346 1.000000
    XP2712   RCAPP27  1.000000   QCRP27   -1.000000
    XP2712   QGAP27   0.528000   QDSP27   0.228000
    XP2712   QRSP27   0.070000   QKJP27   0.039000
    XP2712   QNJP27   0.007000   QPFP27   0.009000
    XP2712   QLPP27   0.022000   QOTP27   0.133000
    XP2712   LOBROW2347 1.000000
    XP2713   RCAPP27  1.000000   QCRP27   -1.000000
    XP2713   QGAP27   0.533000   QDSP27   0.226000
    XP2713   QRSP27   0.057000   QKJP27   0.043000
    XP2713   QNJP27   0.008000   QPFP27   0.009000
    XP2713   QLPP27   0.022000   QOTP27   0.137000
    XP2713   LOBROW2348 1.000000
    XP2714   RCAPP27  1.000000   QCRP27   -1.000000
    XP2714   QGAP27   0.551000   QDSP27   0.210000
    XP2714   QRSP27   0.052000   QKJP27   0.042000
    XP2714   QNJP27   0.008000   QPFP27   0.010000
    XP2714   QLPP27   0.023000   QOTP27   0.140000
    XP2714   LOBROW2349 1.000000
    XP2715   RCAPP27  1.000000   QCRP27   -1.000000
    XP2715   QGAP27   0.561000   QDSP27   0.196000
    XP2715   QRSP27   0.045000   QKJP27   0.037000
    XP2715   QNJP27   0.012000   QPFP27   0.010000
    XP2715   QLPP27   0.023000   QOTP27   0.147000
    XP2715   LOBROW2350 1.000000
    XP2716   RCAPP27  1.000000   QCRP27   -1.000000
    XP2716   QGAP27   0.558000   QDSP27   0.209000
    XP2716   QRSP27   0.041000   QKJP27   0.038000
    XP2716   QNJP27   0.009000   QPFP27   0.008000
    XP2716   QLPP27   0.023000   QOTP27   0.148000
    XP2716   LOBROW2351 1.000000
    XP2717   RCAPP27  1.000000   QCRP27   -1.000000
    XP2717   QGAP27   0.555000   QDSP27   0.208000
    XP2717   QRSP27   0.043000   QKJP27   0.038000
    XP2717   QNJP27   0.010000   QPFP27   0.009000
    XP2717   QLPP27   0.022000   QOTP27   0.150000
    XP2717   LOBROW2352 1.000000
    XP2718   RCAPP27  1.000000   QCRP27   -1.000000
    XP2718   QGAP27   0.553000   QDSP27   0.211000
    XP2718   QRSP27   0.036000   QKJP27   0.035000
    XP2718   QNJP27   0.010000   QPFP27   0.008000
    XP2718   QLPP27   0.022000   QOTP27   0.158000
    XP2718   LOBROW2353 1.000000
    XP2719   RCAPP27  1.000000   QCRP27   -1.000000
    XP2719   QGAP27   0.548000   QDSP27   0.216000
    XP2719   QRSP27   0.040000   QKJP27   0.039000
    XP2719   QNJP27   0.010000   QPFP27   0.009000
    XP2719   QLPP27   0.023000   QOTP27   0.154000
    XP2719   LOBROW2354 1.000000
    XP2720   RCAPP27  1.000000   QCRP27   -1.000000
    XP2720   QGAP27   0.538000   QDSP27   0.222000
    XP2720   QRSP27   0.044000   QKJP27   0.039000
    XP2720   QNJP27   0.009000   QPFP27   0.009000
    XP2720   QLPP27   0.022000   QOTP27   0.151000
    XP2720   LOBROW2355 1.000000
    XP2721   RCAPP27  1.000000   QCRP27   -1.000000
    XP2721   QGAP27   0.521000   QDSP27   0.244000
    XP2721   QRSP27   0.057000   QKJP27   0.037000
    XP2721   QNJP27   0.009000   QPFP27   0.009000
    XP2721   QLPP27   0.020000   QOTP27   0.136000
    XP2721   LOBROW2356 1.000000
    XP2722   RCAPP27  1.000000   QCRP27   -1.000000
    XP2722   QGAP27   0.517000   QDSP27   0.254000
    XP2722   QRSP27   0.071000   QKJP27   0.032000
    XP2722   QNJP27   0.007000   QPFP27   0.009000
    XP2722   QLPP27   0.021000   QOTP27   0.120000
    XP2722   LOBROW2357 1.000000
    XP2723   RCAPP27  1.000000   QCRP27   -1.000000
    XP2723   QGAP27   0.527000   QDSP27   0.245000
    XP2723   QRSP27   0.073000   QKJP27   0.035000
    XP2723   QNJP27   0.008000   QPFP27   0.008000
    XP2723   QLPP27   0.020000   QOTP27   0.123000
    XP2723   LOBROW2358 1.000000
    XP2724   RCAPP27  1.000000   QCRP27   -1.000000
    XP2724   QGAP27   0.560000   QDSP27   0.209000
    XP2724   QRSP27   0.061000   QKJP27   0.033000
    XP2724   QNJP27   0.010000   QPFP27   0.008000
    XP2724   QLPP27   0.021000   QOTP27   0.133000
    XP2724   LOBROW2359 1.000000
    XP281    RCAPP28  1.000000   QCRP28   -1.000000
    XP281    QGAP28   0.543000   QDSP28   0.221000
    XP281    QRSP28   0.055000   QKJP28   0.039000
    XP281    QNJP28   0.014000   QPFP28   0.010000
    XP281    QLPP28   0.023000   QOTP28   0.131000
    XP281    LOBROW2360 1.000000
    XP282    RCAPP28  1.000000   QCRP28   -1.000000
    XP282    QGAP28   0.536000   QDSP28   0.214000
    XP282    QRSP28   0.052000   QKJP28   0.041000
    XP282    QNJP28   0.016000   QPFP28   0.010000
    XP282    QLPP28   0.023000   QOTP28   0.139000
    XP282    LOBROW2361 1.000000
    XP283    RCAPP28  1.000000   QCRP28   -1.000000
    XP283    QGAP28   0.536000   QDSP28   0.219000
    XP283    QRSP28   0.041000   QKJP28   0.042000
    XP283    QNJP28   0.013000   QPFP28   0.009000
    XP283    QLPP28   0.022000   QOTP28   0.147000
    XP283    LOBROW2362 1.000000
    XP284    RCAPP28  1.000000   QCRP28   -1.000000
    XP284    QGAP28   0.552000   QDSP28   0.202000
    XP284    QRSP28   0.040000   QKJP28   0.036000
    XP284    QNJP28   0.015000   QPFP28   0.012000
    XP284    QLPP28   0.022000   QOTP28   0.151000
    XP284    LOBROW2363 1.000000
    XP285    RCAPP28  1.000000   QCRP28   -1.000000
    XP285    QGAP28   0.550000   QDSP28   0.213000
    XP285    QRSP28   0.036000   QKJP28   0.034000
    XP285    QNJP28   0.011000   QPFP28   0.012000
    XP285    QLPP28   0.021000   QOTP28   0.150000
    XP285    LOBROW2364 1.000000
    XP286    RCAPP28  1.000000   QCRP28   -1.000000
    XP286    QGAP28   0.550000   QDSP28   0.207000
    XP286    QRSP28   0.034000   QKJP28   0.036000
    XP286    QNJP28   0.013000   QPFP28   0.013000
    XP286    QLPP28   0.021000   QOTP28   0.157000
    XP286    LOBROW2365 1.000000
    XP287    RCAPP28  1.000000   QCRP28   -1.000000
    XP287    QGAP28   0.551000   QDSP28   0.213000
    XP287    QRSP28   0.041000   QKJP28   0.033000
    XP287    QNJP28   0.011000   QPFP28   0.012000
    XP287    QLPP28   0.021000   QOTP28   0.153000
    XP287    LOBROW2366 1.000000
    XP288    RCAPP28  1.000000   QCRP28   -1.000000
    XP288    QGAP28   0.547000   QDSP28   0.217000
    XP288    QRSP28   0.044000   QKJP28   0.038000
    XP288    QNJP28   0.011000   QPFP28   0.012000
    XP288    QLPP28   0.020000   QOTP28   0.145000
    XP288    LOBROW2367 1.000000
    XP289    RCAPP28  1.000000   QCRP28   -1.000000
    XP289    QGAP28   0.551000   QDSP28   0.219000
    XP289    QRSP28   0.060000   QKJP28   0.031000
    XP289    QNJP28   0.012000   QPFP28   0.012000
    XP289    QLPP28   0.020000   QOTP28   0.134000
    XP289    LOBROW2368 1.000000
    XP2810   RCAPP28  1.000000   QCRP28   -1.000000
    XP2810   QGAP28   0.529000   QDSP28   0.233000
    XP2810   QRSP28   0.081000   QKJP28   0.035000
    XP2810   QNJP28   0.009000   QPFP28   0.012000
    XP2810   QLPP28   0.020000   QOTP28   0.118000
    XP2810   LOBROW2369 1.000000
    XP2811   RCAPP28  1.000000   QCRP28   -1.000000
    XP2811   QGAP28   0.524000   QDSP28   0.235000
    XP2811   QRSP28   0.079000   QKJP28   0.035000
    XP2811   QNJP28   0.007000   QPFP28   0.011000
    XP2811   QLPP28   0.021000   QOTP28   0.124000
    XP2811   LOBROW2370 1.000000
    XP2812   RCAPP28  1.000000   QCRP28   -1.000000
    XP2812   QGAP28   0.528000   QDSP28   0.228000
    XP2812   QRSP28   0.070000   QKJP28   0.039000
    XP2812   QNJP28   0.007000   QPFP28   0.009000
    XP2812   QLPP28   0.022000   QOTP28   0.133000
    XP2812   LOBROW2371 1.000000
    XP2813   RCAPP28  1.000000   QCRP28   -1.000000
    XP2813   QGAP28   0.533000   QDSP28   0.226000
    XP2813   QRSP28   0.057000   QKJP28   0.043000
    XP2813   QNJP28   0.008000   QPFP28   0.009000
    XP2813   QLPP28   0.022000   QOTP28   0.137000
    XP2813   LOBROW2372 1.000000
    XP2814   RCAPP28  1.000000   QCRP28   -1.000000
    XP2814   QGAP28   0.551000   QDSP28   0.210000
    XP2814   QRSP28   0.052000   QKJP28   0.042000
    XP2814   QNJP28   0.008000   QPFP28   0.010000
    XP2814   QLPP28   0.023000   QOTP28   0.140000
    XP2814   LOBROW2373 1.000000
    XP2815   RCAPP28  1.000000   QCRP28   -1.000000
    XP2815   QGAP28   0.561000   QDSP28   0.196000
    XP2815   QRSP28   0.045000   QKJP28   0.037000
    XP2815   QNJP28   0.012000   QPFP28   0.010000
    XP2815   QLPP28   0.023000   QOTP28   0.147000
    XP2815   LOBROW2374 1.000000
    XP2816   RCAPP28  1.000000   QCRP28   -1.000000
    XP2816   QGAP28   0.558000   QDSP28   0.209000
    XP2816   QRSP28   0.041000   QKJP28   0.038000
    XP2816   QNJP28   0.009000   QPFP28   0.008000
    XP2816   QLPP28   0.023000   QOTP28   0.148000
    XP2816   LOBROW2375 1.000000
    XP2817   RCAPP28  1.000000   QCRP28   -1.000000
    XP2817   QGAP28   0.555000   QDSP28   0.208000
    XP2817   QRSP28   0.043000   QKJP28   0.038000
    XP2817   QNJP28   0.010000   QPFP28   0.009000
    XP2817   QLPP28   0.022000   QOTP28   0.150000
    XP2817   LOBROW2376 1.000000
    XP2818   RCAPP28  1.000000   QCRP28   -1.000000
    XP2818   QGAP28   0.553000   QDSP28   0.211000
    XP2818   QRSP28   0.036000   QKJP28   0.035000
    XP2818   QNJP28   0.010000   QPFP28   0.008000
    XP2818   QLPP28   0.022000   QOTP28   0.158000
    XP2818   LOBROW2377 1.000000
    XP2819   RCAPP28  1.000000   QCRP28   -1.000000
    XP2819   QGAP28   0.548000   QDSP28   0.216000
    XP2819   QRSP28   0.040000   QKJP28   0.039000
    XP2819   QNJP28   0.010000   QPFP28   0.009000
    XP2819   QLPP28   0.023000   QOTP28   0.154000
    XP2819   LOBROW2378 1.000000
    XP2820   RCAPP28  1.000000   QCRP28   -1.000000
    XP2820   QGAP28   0.538000   QDSP28   0.222000
    XP2820   QRSP28   0.044000   QKJP28   0.039000
    XP2820   QNJP28   0.009000   QPFP28   0.009000
    XP2820   QLPP28   0.022000   QOTP28   0.151000
    XP2820   LOBROW2379 1.000000
    XP2821   RCAPP28  1.000000   QCRP28   -1.000000
    XP2821   QGAP28   0.521000   QDSP28   0.244000
    XP2821   QRSP28   0.057000   QKJP28   0.037000
    XP2821   QNJP28   0.009000   QPFP28   0.009000
    XP2821   QLPP28   0.020000   QOTP28   0.136000
    XP2821   LOBROW2380 1.000000
    XP2822   RCAPP28  1.000000   QCRP28   -1.000000
    XP2822   QGAP28   0.517000   QDSP28   0.254000
    XP2822   QRSP28   0.071000   QKJP28   0.032000
    XP2822   QNJP28   0.007000   QPFP28   0.009000
    XP2822   QLPP28   0.021000   QOTP28   0.120000
    XP2822   LOBROW2381 1.000000
    XP2823   RCAPP28  1.000000   QCRP28   -1.000000
    XP2823   QGAP28   0.527000   QDSP28   0.245000
    XP2823   QRSP28   0.073000   QKJP28   0.035000
    XP2823   QNJP28   0.008000   QPFP28   0.008000
    XP2823   QLPP28   0.020000   QOTP28   0.123000
    XP2823   LOBROW2382 1.000000
    XP2824   RCAPP28  1.000000   QCRP28   -1.000000
    XP2824   QGAP28   0.560000   QDSP28   0.209000
    XP2824   QRSP28   0.061000   QKJP28   0.033000
    XP2824   QNJP28   0.010000   QPFP28   0.008000
    XP2824   QLPP28   0.021000   QOTP28   0.133000
    XP2824   LOBROW2383 1.000000
    XP311    RCAPP31  1.000000   QCRP31   -1.000000
    XP311    QGAP31   0.473000   QDSP31   0.229000
    XP311    QRSP31   0.032000   QKJP31   0.063000
    XP311    QNJP31   0.018000   QPFP31   0.046000
    XP311    QLPP31   0.032000   QOTP31   0.144000
    XP311    LOBROW2384 1.000000
    XP312    RCAPP31  1.000000   QCRP31   -1.000000
    XP312    QGAP31   0.481000   QDSP31   0.218000
    XP312    QRSP31   0.031000   QKJP31   0.059000
    XP312    QNJP31   0.018000   QPFP31   0.055000
    XP312    QLPP31   0.032000   QOTP31   0.143000
    XP312    LOBROW2385 1.000000
    XP313    RCAPP31  1.000000   QCRP31   -1.000000
    XP313    QGAP31   0.478000   QDSP31   0.226000
    XP313    QRSP31   0.025000   QKJP31   0.061000
    XP313    QNJP31   0.017000   QPFP31   0.049000
    XP313    QLPP31   0.032000   QOTP31   0.142000
    XP313    LOBROW2386 1.000000
    XP314    RCAPP31  1.000000   QCRP31   -1.000000
    XP314    QGAP31   0.479000   QDSP31   0.226000
    XP314    QRSP31   0.031000   QKJP31   0.054000
    XP314    QNJP31   0.017000   QPFP31   0.043000
    XP314    QLPP31   0.030000   QOTP31   0.144000
    XP314    LOBROW2387 1.000000
    XP315    RCAPP31  1.000000   QCRP31   -1.000000
    XP315    QGAP31   0.500000   QDSP31   0.207000
    XP315    QRSP31   0.028000   QKJP31   0.058000
    XP315    QNJP31   0.013000   QPFP31   0.045000
    XP315    QLPP31   0.032000   QOTP31   0.142000
    XP315    LOBROW2388 1.000000
    XP316    RCAPP31  1.000000   QCRP31   -1.000000
    XP316    QGAP31   0.493000   QDSP31   0.210000
    XP316    QRSP31   0.033000   QKJP31   0.053000
    XP316    QNJP31   0.016000   QPFP31   0.050000
    XP316    QLPP31   0.031000   QOTP31   0.149000
    XP316    LOBROW2389 1.000000
    XP317    RCAPP31  1.000000   QCRP31   -1.000000
    XP317    QGAP31   0.498000   QDSP31   0.208000
    XP317    QRSP31   0.034000   QKJP31   0.053000
    XP317    QNJP31   0.011000   QPFP31   0.046000
    XP317    QLPP31   0.027000   QOTP31   0.150000
    XP317    LOBROW2390 1.000000
    XP318    RCAPP31  1.000000   QCRP31   -1.000000
    XP318    QGAP31   0.493000   QDSP31   0.220000
    XP318    QRSP31   0.034000   QKJP31   0.056000
    XP318    QNJP31   0.012000   QPFP31   0.050000
    XP318    QLPP31   0.027000   QOTP31   0.144000
    XP318    LOBROW2391 1.000000
    XP319    RCAPP31  1.000000   QCRP31   -1.000000
    XP319    QGAP31   0.482000   QDSP31   0.218000
    XP319    QRSP31   0.040000   QKJP31   0.052000
    XP319    QNJP31   0.011000   QPFP31   0.052000
    XP319    QLPP31   0.027000   QOTP31   0.147000
    XP319    LOBROW2392 1.000000
    XP3110   RCAPP31  1.000000   QCRP31   -1.000000
    XP3110   QGAP31   0.470000   QDSP31   0.225000
    XP3110   QRSP31   0.047000   QKJP31   0.051000
    XP3110   QNJP31   0.014000   QPFP31   0.050000
    XP3110   QLPP31   0.027000   QOTP31   0.150000
    XP3110   LOBROW2393 1.000000
    XP3111   RCAPP31  1.000000   QCRP31   -1.000000
    XP3111   QGAP31   0.457000   QDSP31   0.237000
    XP3111   QRSP31   0.043000   QKJP31   0.064000
    XP3111   QNJP31   0.012000   QPFP31   0.049000
    XP3111   QLPP31   0.028000   QOTP31   0.146000
    XP3111   LOBROW2394 1.000000
    XP3112   RCAPP31  1.000000   QCRP31   -1.000000
    XP3112   QGAP31   0.443000   QDSP31   0.234000
    XP3112   QRSP31   0.042000   QKJP31   0.064000
    XP3112   QNJP31   0.011000   QPFP31   0.052000
    XP3112   QLPP31   0.030000   QOTP31   0.151000
    XP3112   LOBROW2395 1.000000
    XP3113   RCAPP31  1.000000   QCRP31   -1.000000
    XP3113   QGAP31   0.465000   QDSP31   0.209000
    XP3113   QRSP31   0.041000   QKJP31   0.063000
    XP3113   QNJP31   0.017000   QPFP31   0.054000
    XP3113   QLPP31   0.032000   QOTP31   0.152000
    XP3113   LOBROW2396 1.000000
    XP3114   RCAPP31  1.000000   QCRP31   -1.000000
    XP3114   QGAP31   0.486000   QDSP31   0.197000
    XP3114   QRSP31   0.039000   QKJP31   0.057000
    XP3114   QNJP31   0.016000   QPFP31   0.055000
    XP3114   QLPP31   0.030000   QOTP31   0.147000
    XP3114   LOBROW2397 1.000000
    XP3115   RCAPP31  1.000000   QCRP31   -1.000000
    XP3115   QGAP31   0.507000   QDSP31   0.206000
    XP3115   QRSP31   0.046000   QKJP31   0.053000
    XP3115   QNJP31   0.015000   QPFP31   0.046000
    XP3115   QLPP31   0.033000   QOTP31   0.140000
    XP3115   LOBROW2398 1.000000
    XP3116   RCAPP31  1.000000   QCRP31   -1.000000
    XP3116   QGAP31   0.500000   QDSP31   0.215000
    XP3116   QRSP31   0.040000   QKJP31   0.049000
    XP3116   QNJP31   0.012000   QPFP31   0.051000
    XP3116   QLPP31   0.029000   QOTP31   0.137000
    XP3116   LOBROW2399 1.000000
    XP3117   RCAPP31  1.000000   QCRP31   -1.000000
    XP3117   QGAP31   0.505000   QDSP31   0.207000
    XP3117   QRSP31   0.039000   QKJP31   0.048000
    XP3117   QNJP31   0.011000   QPFP31   0.050000
    XP3117   QLPP31   0.032000   QOTP31   0.145000
    XP3117   LOBROW2400 1.000000
    XP3118   RCAPP31  1.000000   QCRP31   -1.000000
    XP3118   QGAP31   0.492000   QDSP31   0.210000
    XP3118   QRSP31   0.042000   QKJP31   0.052000
    XP3118   QNJP31   0.011000   QPFP31   0.051000
    XP3118   QLPP31   0.027000   QOTP31   0.147000
    XP3118   LOBROW2401 1.000000
    XP3119   RCAPP31  1.000000   QCRP31   -1.000000
    XP3119   QGAP31   0.484000   QDSP31   0.216000
    XP3119   QRSP31   0.044000   QKJP31   0.053000
    XP3119   QNJP31   0.014000   QPFP31   0.049000
    XP3119   QLPP31   0.027000   QOTP31   0.145000
    XP3119   LOBROW2402 1.000000
    XP3120   RCAPP31  1.000000   QCRP31   -1.000000
    XP3120   QGAP31   0.470000   QDSP31   0.216000
    XP3120   QRSP31   0.048000   QKJP31   0.059000
    XP3120   QNJP31   0.011000   QPFP31   0.052000
    XP3120   QLPP31   0.029000   QOTP31   0.150000
    XP3120   LOBROW2403 1.000000
    XP3121   RCAPP31  1.000000   QCRP31   -1.000000
    XP3121   QGAP31   0.467000   QDSP31   0.217000
    XP3121   QRSP31   0.049000   QKJP31   0.059000
    XP3121   QNJP31   0.011000   QPFP31   0.054000
    XP3121   QLPP31   0.025000   QOTP31   0.147000
    XP3121   LOBROW2404 1.000000
    XP3122   RCAPP31  1.000000   QCRP31   -1.000000
    XP3122   QGAP31   0.445000   QDSP31   0.236000
    XP3122   QRSP31   0.049000   QKJP31   0.056000
    XP3122   QNJP31   0.022000   QPFP31   0.054000
    XP3122   QLPP31   0.026000   QOTP31   0.142000
    XP3122   LOBROW2405 1.000000
    XP3123   RCAPP31  1.000000   QCRP31   -1.000000
    XP3123   QGAP31   0.449000   QDSP31   0.235000
    XP3123   QRSP31   0.051000   QKJP31   0.060000
    XP3123   QNJP31   0.016000   QPFP31   0.050000
    XP3123   QLPP31   0.029000   QOTP31   0.144000
    XP3123   LOBROW2406 1.000000
    XP3124   RCAPP31  1.000000   QCRP31   -1.000000
    XP3124   QGAP31   0.465000   QDSP31   0.203000
    XP3124   QRSP31   0.055000   QKJP31   0.057000
    XP3124   QNJP31   0.016000   QPFP31   0.059000
    XP3124   QLPP31   0.028000   QOTP31   0.150000
    XP3124   LOBROW2407 1.000000
    XP321    RCAPP32  1.000000   QCRP32   -1.000000
    XP321    QGAP32   0.473000   QDSP32   0.229000
    XP321    QRSP32   0.032000   QKJP32   0.063000
    XP321    QNJP32   0.018000   QPFP32   0.046000
    XP321    QLPP32   0.032000   QOTP32   0.144000
    XP321    LOBROW2408 1.000000
    XP322    RCAPP32  1.000000   QCRP32   -1.000000
    XP322    QGAP32   0.481000   QDSP32   0.218000
    XP322    QRSP32   0.031000   QKJP32   0.059000
    XP322    QNJP32   0.018000   QPFP32   0.055000
    XP322    QLPP32   0.032000   QOTP32   0.143000
    XP322    LOBROW2409 1.000000
    XP323    RCAPP32  1.000000   QCRP32   -1.000000
    XP323    QGAP32   0.478000   QDSP32   0.226000
    XP323    QRSP32   0.025000   QKJP32   0.061000
    XP323    QNJP32   0.017000   QPFP32   0.049000
    XP323    QLPP32   0.032000   QOTP32   0.142000
    XP323    LOBROW2410 1.000000
    XP324    RCAPP32  1.000000   QCRP32   -1.000000
    XP324    QGAP32   0.479000   QDSP32   0.226000
    XP324    QRSP32   0.031000   QKJP32   0.054000
    XP324    QNJP32   0.017000   QPFP32   0.043000
    XP324    QLPP32   0.030000   QOTP32   0.144000
    XP324    LOBROW2411 1.000000
    XP325    RCAPP32  1.000000   QCRP32   -1.000000
    XP325    QGAP32   0.500000   QDSP32   0.207000
    XP325    QRSP32   0.028000   QKJP32   0.058000
    XP325    QNJP32   0.013000   QPFP32   0.045000
    XP325    QLPP32   0.032000   QOTP32   0.142000
    XP325    LOBROW2412 1.000000
    XP326    RCAPP32  1.000000   QCRP32   -1.000000
    XP326    QGAP32   0.493000   QDSP32   0.210000
    XP326    QRSP32   0.033000   QKJP32   0.053000
    XP326    QNJP32   0.016000   QPFP32   0.050000
    XP326    QLPP32   0.031000   QOTP32   0.149000
    XP326    LOBROW2413 1.000000
    XP327    RCAPP32  1.000000   QCRP32   -1.000000
    XP327    QGAP32   0.498000   QDSP32   0.208000
    XP327    QRSP32   0.034000   QKJP32   0.053000
    XP327    QNJP32   0.011000   QPFP32   0.046000
    XP327    QLPP32   0.027000   QOTP32   0.150000
    XP327    LOBROW2414 1.000000
    XP328    RCAPP32  1.000000   QCRP32   -1.000000
    XP328    QGAP32   0.493000   QDSP32   0.220000
    XP328    QRSP32   0.034000   QKJP32   0.056000
    XP328    QNJP32   0.012000   QPFP32   0.050000
    XP328    QLPP32   0.027000   QOTP32   0.144000
    XP328    LOBROW2415 1.000000
    XP329    RCAPP32  1.000000   QCRP32   -1.000000
    XP329    QGAP32   0.482000   QDSP32   0.218000
    XP329    QRSP32   0.040000   QKJP32   0.052000
    XP329    QNJP32   0.011000   QPFP32   0.052000
    XP329    QLPP32   0.027000   QOTP32   0.147000
    XP329    LOBROW2416 1.000000
    XP3210   RCAPP32  1.000000   QCRP32   -1.000000
    XP3210   QGAP32   0.470000   QDSP32   0.225000
    XP3210   QRSP32   0.047000   QKJP32   0.051000
    XP3210   QNJP32   0.014000   QPFP32   0.050000
    XP3210   QLPP32   0.027000   QOTP32   0.150000
    XP3210   LOBROW2417 1.000000
    XP3211   RCAPP32  1.000000   QCRP32   -1.000000
    XP3211   QGAP32   0.457000   QDSP32   0.237000
    XP3211   QRSP32   0.043000   QKJP32   0.064000
    XP3211   QNJP32   0.012000   QPFP32   0.049000
    XP3211   QLPP32   0.028000   QOTP32   0.146000
    XP3211   LOBROW2418 1.000000
    XP3212   RCAPP32  1.000000   QCRP32   -1.000000
    XP3212   QGAP32   0.443000   QDSP32   0.234000
    XP3212   QRSP32   0.042000   QKJP32   0.064000
    XP3212   QNJP32   0.011000   QPFP32   0.052000
    XP3212   QLPP32   0.030000   QOTP32   0.151000
    XP3212   LOBROW2419 1.000000
    XP3213   RCAPP32  1.000000   QCRP32   -1.000000
    XP3213   QGAP32   0.465000   QDSP32   0.209000
    XP3213   QRSP32   0.041000   QKJP32   0.063000
    XP3213   QNJP32   0.017000   QPFP32   0.054000
    XP3213   QLPP32   0.032000   QOTP32   0.152000
    XP3213   LOBROW2420 1.000000
    XP3214   RCAPP32  1.000000   QCRP32   -1.000000
    XP3214   QGAP32   0.486000   QDSP32   0.197000
    XP3214   QRSP32   0.039000   QKJP32   0.057000
    XP3214   QNJP32   0.016000   QPFP32   0.055000
    XP3214   QLPP32   0.030000   QOTP32   0.147000
    XP3214   LOBROW2421 1.000000
    XP3215   RCAPP32  1.000000   QCRP32   -1.000000
    XP3215   QGAP32   0.507000   QDSP32   0.206000
    XP3215   QRSP32   0.046000   QKJP32   0.053000
    XP3215   QNJP32   0.015000   QPFP32   0.046000
    XP3215   QLPP32   0.033000   QOTP32   0.140000
    XP3215   LOBROW2422 1.000000
    XP3216   RCAPP32  1.000000   QCRP32   -1.000000
    XP3216   QGAP32   0.500000   QDSP32   0.215000
    XP3216   QRSP32   0.040000   QKJP32   0.049000
    XP3216   QNJP32   0.012000   QPFP32   0.051000
    XP3216   QLPP32   0.029000   QOTP32   0.137000
    XP3216   LOBROW2423 1.000000
    XP3217   RCAPP32  1.000000   QCRP32   -1.000000
    XP3217   QGAP32   0.505000   QDSP32   0.207000
    XP3217   QRSP32   0.039000   QKJP32   0.048000
    XP3217   QNJP32   0.011000   QPFP32   0.050000
    XP3217   QLPP32   0.032000   QOTP32   0.145000
    XP3217   LOBROW2424 1.000000
    XP3218   RCAPP32  1.000000   QCRP32   -1.000000
    XP3218   QGAP32   0.492000   QDSP32   0.210000
    XP3218   QRSP32   0.042000   QKJP32   0.052000
    XP3218   QNJP32   0.011000   QPFP32   0.051000
    XP3218   QLPP32   0.027000   QOTP32   0.147000
    XP3218   LOBROW2425 1.000000
    XP3219   RCAPP32  1.000000   QCRP32   -1.000000
    XP3219   QGAP32   0.484000   QDSP32   0.216000
    XP3219   QRSP32   0.044000   QKJP32   0.053000
    XP3219   QNJP32   0.014000   QPFP32   0.049000
    XP3219   QLPP32   0.027000   QOTP32   0.145000
    XP3219   LOBROW2426 1.000000
    XP3220   RCAPP32  1.000000   QCRP32   -1.000000
    XP3220   QGAP32   0.470000   QDSP32   0.216000
    XP3220   QRSP32   0.048000   QKJP32   0.059000
    XP3220   QNJP32   0.011000   QPFP32   0.052000
    XP3220   QLPP32   0.029000   QOTP32   0.150000
    XP3220   LOBROW2427 1.000000
    XP3221   RCAPP32  1.000000   QCRP32   -1.000000
    XP3221   QGAP32   0.467000   QDSP32   0.217000
    XP3221   QRSP32   0.049000   QKJP32   0.059000
    XP3221   QNJP32   0.011000   QPFP32   0.054000
    XP3221   QLPP32   0.025000   QOTP32   0.147000
    XP3221   LOBROW2428 1.000000
    XP3222   RCAPP32  1.000000   QCRP32   -1.000000
    XP3222   QGAP32   0.445000   QDSP32   0.236000
    XP3222   QRSP32   0.049000   QKJP32   0.056000
    XP3222   QNJP32   0.022000   QPFP32   0.054000
    XP3222   QLPP32   0.026000   QOTP32   0.142000
    XP3222   LOBROW2429 1.000000
    XP3223   RCAPP32  1.000000   QCRP32   -1.000000
    XP3223   QGAP32   0.449000   QDSP32   0.235000
    XP3223   QRSP32   0.051000   QKJP32   0.060000
    XP3223   QNJP32   0.016000   QPFP32   0.050000
    XP3223   QLPP32   0.029000   QOTP32   0.144000
    XP3223   LOBROW2430 1.000000
    XP3224   RCAPP32  1.000000   QCRP32   -1.000000
    XP3224   QGAP32   0.465000   QDSP32   0.203000
    XP3224   QRSP32   0.055000   QKJP32   0.057000
    XP3224   QNJP32   0.016000   QPFP32   0.059000
    XP3224   QLPP32   0.028000   QOTP32   0.150000
    XP3224   LOBROW2431 1.000000
    XP331    RCAPP33  1.000000   QCRP33   -1.000000
    XP331    QGAP33   0.473000   QDSP33   0.229000
    XP331    QRSP33   0.032000   QKJP33   0.063000
    XP331    QNJP33   0.018000   QPFP33   0.046000
    XP331    QLPP33   0.032000   QOTP33   0.144000
    XP331    LOBROW2432 1.000000
    XP332    RCAPP33  1.000000   QCRP33   -1.000000
    XP332    QGAP33   0.481000   QDSP33   0.218000
    XP332    QRSP33   0.031000   QKJP33   0.059000
    XP332    QNJP33   0.018000   QPFP33   0.055000
    XP332    QLPP33   0.032000   QOTP33   0.143000
    XP332    LOBROW2433 1.000000
    XP333    RCAPP33  1.000000   QCRP33   -1.000000
    XP333    QGAP33   0.478000   QDSP33   0.226000
    XP333    QRSP33   0.025000   QKJP33   0.061000
    XP333    QNJP33   0.017000   QPFP33   0.049000
    XP333    QLPP33   0.032000   QOTP33   0.142000
    XP333    LOBROW2434 1.000000
    XP334    RCAPP33  1.000000   QCRP33   -1.000000
    XP334    QGAP33   0.479000   QDSP33   0.226000
    XP334    QRSP33   0.031000   QKJP33   0.054000
    XP334    QNJP33   0.017000   QPFP33   0.043000
    XP334    QLPP33   0.030000   QOTP33   0.144000
    XP334    LOBROW2435 1.000000
    XP335    RCAPP33  1.000000   QCRP33   -1.000000
    XP335    QGAP33   0.500000   QDSP33   0.207000
    XP335    QRSP33   0.028000   QKJP33   0.058000
    XP335    QNJP33   0.013000   QPFP33   0.045000
    XP335    QLPP33   0.032000   QOTP33   0.142000
    XP335    LOBROW2436 1.000000
    XP336    RCAPP33  1.000000   QCRP33   -1.000000
    XP336    QGAP33   0.493000   QDSP33   0.210000
    XP336    QRSP33   0.033000   QKJP33   0.053000
    XP336    QNJP33   0.016000   QPFP33   0.050000
    XP336    QLPP33   0.031000   QOTP33   0.149000
    XP336    LOBROW2437 1.000000
    XP337    RCAPP33  1.000000   QCRP33   -1.000000
    XP337    QGAP33   0.498000   QDSP33   0.208000
    XP337    QRSP33   0.034000   QKJP33   0.053000
    XP337    QNJP33   0.011000   QPFP33   0.046000
    XP337    QLPP33   0.027000   QOTP33   0.150000
    XP337    LOBROW2438 1.000000
    XP338    RCAPP33  1.000000   QCRP33   -1.000000
    XP338    QGAP33   0.493000   QDSP33   0.220000
    XP338    QRSP33   0.034000   QKJP33   0.056000
    XP338    QNJP33   0.012000   QPFP33   0.050000
    XP338    QLPP33   0.027000   QOTP33   0.144000
    XP338    LOBROW2439 1.000000
    XP339    RCAPP33  1.000000   QCRP33   -1.000000
    XP339    QGAP33   0.482000   QDSP33   0.218000
    XP339    QRSP33   0.040000   QKJP33   0.052000
    XP339    QNJP33   0.011000   QPFP33   0.052000
    XP339    QLPP33   0.027000   QOTP33   0.147000
    XP339    LOBROW2440 1.000000
    XP3310   RCAPP33  1.000000   QCRP33   -1.000000
    XP3310   QGAP33   0.470000   QDSP33   0.225000
    XP3310   QRSP33   0.047000   QKJP33   0.051000
    XP3310   QNJP33   0.014000   QPFP33   0.050000
    XP3310   QLPP33   0.027000   QOTP33   0.150000
    XP3310   LOBROW2441 1.000000
    XP3311   RCAPP33  1.000000   QCRP33   -1.000000
    XP3311   QGAP33   0.457000   QDSP33   0.237000
    XP3311   QRSP33   0.043000   QKJP33   0.064000
    XP3311   QNJP33   0.012000   QPFP33   0.049000
    XP3311   QLPP33   0.028000   QOTP33   0.146000
    XP3311   LOBROW2442 1.000000
    XP3312   RCAPP33  1.000000   QCRP33   -1.000000
    XP3312   QGAP33   0.443000   QDSP33   0.234000
    XP3312   QRSP33   0.042000   QKJP33   0.064000
    XP3312   QNJP33   0.011000   QPFP33   0.052000
    XP3312   QLPP33   0.030000   QOTP33   0.151000
    XP3312   LOBROW2443 1.000000
    XP3313   RCAPP33  1.000000   QCRP33   -1.000000
    XP3313   QGAP33   0.465000   QDSP33   0.209000
    XP3313   QRSP33   0.041000   QKJP33   0.063000
    XP3313   QNJP33   0.017000   QPFP33   0.054000
    XP3313   QLPP33   0.032000   QOTP33   0.152000
    XP3313   LOBROW2444 1.000000
    XP3314   RCAPP33  1.000000   QCRP33   -1.000000
    XP3314   QGAP33   0.486000   QDSP33   0.197000
    XP3314   QRSP33   0.039000   QKJP33   0.057000
    XP3314   QNJP33   0.016000   QPFP33   0.055000
    XP3314   QLPP33   0.030000   QOTP33   0.147000
    XP3314   LOBROW2445 1.000000
    XP3315   RCAPP33  1.000000   QCRP33   -1.000000
    XP3315   QGAP33   0.507000   QDSP33   0.206000
    XP3315   QRSP33   0.046000   QKJP33   0.053000
    XP3315   QNJP33   0.015000   QPFP33   0.046000
    XP3315   QLPP33   0.033000   QOTP33   0.140000
    XP3315   LOBROW2446 1.000000
    XP3316   RCAPP33  1.000000   QCRP33   -1.000000
    XP3316   QGAP33   0.500000   QDSP33   0.215000
    XP3316   QRSP33   0.040000   QKJP33   0.049000
    XP3316   QNJP33   0.012000   QPFP33   0.051000
    XP3316   QLPP33   0.029000   QOTP33   0.137000
    XP3316   LOBROW2447 1.000000
    XP3317   RCAPP33  1.000000   QCRP33   -1.000000
    XP3317   QGAP33   0.505000   QDSP33   0.207000
    XP3317   QRSP33   0.039000   QKJP33   0.048000
    XP3317   QNJP33   0.011000   QPFP33   0.050000
    XP3317   QLPP33   0.032000   QOTP33   0.145000
    XP3317   LOBROW2448 1.000000
    XP3318   RCAPP33  1.000000   QCRP33   -1.000000
    XP3318   QGAP33   0.492000   QDSP33   0.210000
    XP3318   QRSP33   0.042000   QKJP33   0.052000
    XP3318   QNJP33   0.011000   QPFP33   0.051000
    XP3318   QLPP33   0.027000   QOTP33   0.147000
    XP3318   LOBROW2449 1.000000
    XP3319   RCAPP33  1.000000   QCRP33   -1.000000
    XP3319   QGAP33   0.484000   QDSP33   0.216000
    XP3319   QRSP33   0.044000   QKJP33   0.053000
    XP3319   QNJP33   0.014000   QPFP33   0.049000
    XP3319   QLPP33   0.027000   QOTP33   0.145000
    XP3319   LOBROW2450 1.000000
    XP3320   RCAPP33  1.000000   QCRP33   -1.000000
    XP3320   QGAP33   0.470000   QDSP33   0.216000
    XP3320   QRSP33   0.048000   QKJP33   0.059000
    XP3320   QNJP33   0.011000   QPFP33   0.052000
    XP3320   QLPP33   0.029000   QOTP33   0.150000
    XP3320   LOBROW2451 1.000000
    XP3321   RCAPP33  1.000000   QCRP33   -1.000000
    XP3321   QGAP33   0.467000   QDSP33   0.217000
    XP3321   QRSP33   0.049000   QKJP33   0.059000
    XP3321   QNJP33   0.011000   QPFP33   0.054000
    XP3321   QLPP33   0.025000   QOTP33   0.147000
    XP3321   LOBROW2452 1.000000
    XP3322   RCAPP33  1.000000   QCRP33   -1.000000
    XP3322   QGAP33   0.445000   QDSP33   0.236000
    XP3322   QRSP33   0.049000   QKJP33   0.056000
    XP3322   QNJP33   0.022000   QPFP33   0.054000
    XP3322   QLPP33   0.026000   QOTP33   0.142000
    XP3322   LOBROW2453 1.000000
    XP3323   RCAPP33  1.000000   QCRP33   -1.000000
    XP3323   QGAP33   0.449000   QDSP33   0.235000
    XP3323   QRSP33   0.051000   QKJP33   0.060000
    XP3323   QNJP33   0.016000   QPFP33   0.050000
    XP3323   QLPP33   0.029000   QOTP33   0.144000
    XP3323   LOBROW2454 1.000000
    XP3324   RCAPP33  1.000000   QCRP33   -1.000000
    XP3324   QGAP33   0.465000   QDSP33   0.203000
    XP3324   QRSP33   0.055000   QKJP33   0.057000
    XP3324   QNJP33   0.016000   QPFP33   0.059000
    XP3324   QLPP33   0.028000   QOTP33   0.150000
    XP3324   LOBROW2455 1.000000
    XP341    RCAPP34  1.000000   QCRP34   -1.000000
    XP341    QGAP34   0.473000   QDSP34   0.229000
    XP341    QRSP34   0.032000   QKJP34   0.063000
    XP341    QNJP34   0.018000   QPFP34   0.046000
    XP341    QLPP34   0.032000   QOTP34   0.144000
    XP341    LOBROW2456 1.000000
    XP342    RCAPP34  1.000000   QCRP34   -1.000000
    XP342    QGAP34   0.481000   QDSP34   0.218000
    XP342    QRSP34   0.031000   QKJP34   0.059000
    XP342    QNJP34   0.018000   QPFP34   0.055000
    XP342    QLPP34   0.032000   QOTP34   0.143000
    XP342    LOBROW2457 1.000000
    XP343    RCAPP34  1.000000   QCRP34   -1.000000
    XP343    QGAP34   0.478000   QDSP34   0.226000
    XP343    QRSP34   0.025000   QKJP34   0.061000
    XP343    QNJP34   0.017000   QPFP34   0.049000
    XP343    QLPP34   0.032000   QOTP34   0.142000
    XP343    LOBROW2458 1.000000
    XP344    RCAPP34  1.000000   QCRP34   -1.000000
    XP344    QGAP34   0.479000   QDSP34   0.226000
    XP344    QRSP34   0.031000   QKJP34   0.054000
    XP344    QNJP34   0.017000   QPFP34   0.043000
    XP344    QLPP34   0.030000   QOTP34   0.144000
    XP344    LOBROW2459 1.000000
    XP345    RCAPP34  1.000000   QCRP34   -1.000000
    XP345    QGAP34   0.500000   QDSP34   0.207000
    XP345    QRSP34   0.028000   QKJP34   0.058000
    XP345    QNJP34   0.013000   QPFP34   0.045000
    XP345    QLPP34   0.032000   QOTP34   0.142000
    XP345    LOBROW2460 1.000000
    XP346    RCAPP34  1.000000   QCRP34   -1.000000
    XP346    QGAP34   0.493000   QDSP34   0.210000
    XP346    QRSP34   0.033000   QKJP34   0.053000
    XP346    QNJP34   0.016000   QPFP34   0.050000
    XP346    QLPP34   0.031000   QOTP34   0.149000
    XP346    LOBROW2461 1.000000
    XP347    RCAPP34  1.000000   QCRP34   -1.000000
    XP347    QGAP34   0.498000   QDSP34   0.208000
    XP347    QRSP34   0.034000   QKJP34   0.053000
    XP347    QNJP34   0.011000   QPFP34   0.046000
    XP347    QLPP34   0.027000   QOTP34   0.150000
    XP347    LOBROW2462 1.000000
    XP348    RCAPP34  1.000000   QCRP34   -1.000000
    XP348    QGAP34   0.493000   QDSP34   0.220000
    XP348    QRSP34   0.034000   QKJP34   0.056000
    XP348    QNJP34   0.012000   QPFP34   0.050000
    XP348    QLPP34   0.027000   QOTP34   0.144000
    XP348    LOBROW2463 1.000000
    XP349    RCAPP34  1.000000   QCRP34   -1.000000
    XP349    QGAP34   0.482000   QDSP34   0.218000
    XP349    QRSP34   0.040000   QKJP34   0.052000
    XP349    QNJP34   0.011000   QPFP34   0.052000
    XP349    QLPP34   0.027000   QOTP34   0.147000
    XP349    LOBROW2464 1.000000
    XP3410   RCAPP34  1.000000   QCRP34   -1.000000
    XP3410   QGAP34   0.470000   QDSP34   0.225000
    XP3410   QRSP34   0.047000   QKJP34   0.051000
    XP3410   QNJP34   0.014000   QPFP34   0.050000
    XP3410   QLPP34   0.027000   QOTP34   0.150000
    XP3410   LOBROW2465 1.000000
    XP3411   RCAPP34  1.000000   QCRP34   -1.000000
    XP3411   QGAP34   0.457000   QDSP34   0.237000
    XP3411   QRSP34   0.043000   QKJP34   0.064000
    XP3411   QNJP34   0.012000   QPFP34   0.049000
    XP3411   QLPP34   0.028000   QOTP34   0.146000
    XP3411   LOBROW2466 1.000000
    XP3412   RCAPP34  1.000000   QCRP34   -1.000000
    XP3412   QGAP34   0.443000   QDSP34   0.234000
    XP3412   QRSP34   0.042000   QKJP34   0.064000
    XP3412   QNJP34   0.011000   QPFP34   0.052000
    XP3412   QLPP34   0.030000   QOTP34   0.151000
    XP3412   LOBROW2467 1.000000
    XP3413   RCAPP34  1.000000   QCRP34   -1.000000
    XP3413   QGAP34   0.465000   QDSP34   0.209000
    XP3413   QRSP34   0.041000   QKJP34   0.063000
    XP3413   QNJP34   0.017000   QPFP34   0.054000
    XP3413   QLPP34   0.032000   QOTP34   0.152000
    XP3413   LOBROW2468 1.000000
    XP3414   RCAPP34  1.000000   QCRP34   -1.000000
    XP3414   QGAP34   0.486000   QDSP34   0.197000
    XP3414   QRSP34   0.039000   QKJP34   0.057000
    XP3414   QNJP34   0.016000   QPFP34   0.055000
    XP3414   QLPP34   0.030000   QOTP34   0.147000
    XP3414   LOBROW2469 1.000000
    XP3415   RCAPP34  1.000000   QCRP34   -1.000000
    XP3415   QGAP34   0.507000   QDSP34   0.206000
    XP3415   QRSP34   0.046000   QKJP34   0.053000
    XP3415   QNJP34   0.015000   QPFP34   0.046000
    XP3415   QLPP34   0.033000   QOTP34   0.140000
    XP3415   LOBROW2470 1.000000
    XP3416   RCAPP34  1.000000   QCRP34   -1.000000
    XP3416   QGAP34   0.500000   QDSP34   0.215000
    XP3416   QRSP34   0.040000   QKJP34   0.049000
    XP3416   QNJP34   0.012000   QPFP34   0.051000
    XP3416   QLPP34   0.029000   QOTP34   0.137000
    XP3416   LOBROW2471 1.000000
    XP3417   RCAPP34  1.000000   QCRP34   -1.000000
    XP3417   QGAP34   0.505000   QDSP34   0.207000
    XP3417   QRSP34   0.039000   QKJP34   0.048000
    XP3417   QNJP34   0.011000   QPFP34   0.050000
    XP3417   QLPP34   0.032000   QOTP34   0.145000
    XP3417   LOBROW2472 1.000000
    XP3418   RCAPP34  1.000000   QCRP34   -1.000000
    XP3418   QGAP34   0.492000   QDSP34   0.210000
    XP3418   QRSP34   0.042000   QKJP34   0.052000
    XP3418   QNJP34   0.011000   QPFP34   0.051000
    XP3418   QLPP34   0.027000   QOTP34   0.147000
    XP3418   LOBROW2473 1.000000
    XP3419   RCAPP34  1.000000   QCRP34   -1.000000
    XP3419   QGAP34   0.484000   QDSP34   0.216000
    XP3419   QRSP34   0.044000   QKJP34   0.053000
    XP3419   QNJP34   0.014000   QPFP34   0.049000
    XP3419   QLPP34   0.027000   QOTP34   0.145000
    XP3419   LOBROW2474 1.000000
    XP3420   RCAPP34  1.000000   QCRP34   -1.000000
    XP3420   QGAP34   0.470000   QDSP34   0.216000
    XP3420   QRSP34   0.048000   QKJP34   0.059000
    XP3420   QNJP34   0.011000   QPFP34   0.052000
    XP3420   QLPP34   0.029000   QOTP34   0.150000
    XP3420   LOBROW2475 1.000000
    XP3421   RCAPP34  1.000000   QCRP34   -1.000000
    XP3421   QGAP34   0.467000   QDSP34   0.217000
    XP3421   QRSP34   0.049000   QKJP34   0.059000
    XP3421   QNJP34   0.011000   QPFP34   0.054000
    XP3421   QLPP34   0.025000   QOTP34   0.147000
    XP3421   LOBROW2476 1.000000
    XP3422   RCAPP34  1.000000   QCRP34   -1.000000
    XP3422   QGAP34   0.445000   QDSP34   0.236000
    XP3422   QRSP34   0.049000   QKJP34   0.056000
    XP3422   QNJP34   0.022000   QPFP34   0.054000
    XP3422   QLPP34   0.026000   QOTP34   0.142000
    XP3422   LOBROW2477 1.000000
    XP3423   RCAPP34  1.000000   QCRP34   -1.000000
    XP3423   QGAP34   0.449000   QDSP34   0.235000
    XP3423   QRSP34   0.051000   QKJP34   0.060000
    XP3423   QNJP34   0.016000   QPFP34   0.050000
    XP3423   QLPP34   0.029000   QOTP34   0.144000
    XP3423   LOBROW2478 1.000000
    XP3424   RCAPP34  1.000000   QCRP34   -1.000000
    XP3424   QGAP34   0.465000   QDSP34   0.203000
    XP3424   QRSP34   0.055000   QKJP34   0.057000
    XP3424   QNJP34   0.016000   QPFP34   0.059000
    XP3424   QLPP34   0.028000   QOTP34   0.150000
    XP3424   LOBROW2479 1.000000
    XP351    RCAPP35  1.000000   QCRP35   -1.000000
    XP351    QGAP35   0.473000   QDSP35   0.229000
    XP351    QRSP35   0.032000   QKJP35   0.063000
    XP351    QNJP35   0.018000   QPFP35   0.046000
    XP351    QLPP35   0.032000   QOTP35   0.144000
    XP351    LOBROW2480 1.000000
    XP352    RCAPP35  1.000000   QCRP35   -1.000000
    XP352    QGAP35   0.481000   QDSP35   0.218000
    XP352    QRSP35   0.031000   QKJP35   0.059000
    XP352    QNJP35   0.018000   QPFP35   0.055000
    XP352    QLPP35   0.032000   QOTP35   0.143000
    XP352    LOBROW2481 1.000000
    XP353    RCAPP35  1.000000   QCRP35   -1.000000
    XP353    QGAP35   0.478000   QDSP35   0.226000
    XP353    QRSP35   0.025000   QKJP35   0.061000
    XP353    QNJP35   0.017000   QPFP35   0.049000
    XP353    QLPP35   0.032000   QOTP35   0.142000
    XP353    LOBROW2482 1.000000
    XP354    RCAPP35  1.000000   QCRP35   -1.000000
    XP354    QGAP35   0.479000   QDSP35   0.226000
    XP354    QRSP35   0.031000   QKJP35   0.054000
    XP354    QNJP35   0.017000   QPFP35   0.043000
    XP354    QLPP35   0.030000   QOTP35   0.144000
    XP354    LOBROW2483 1.000000
    XP355    RCAPP35  1.000000   QCRP35   -1.000000
    XP355    QGAP35   0.500000   QDSP35   0.207000
    XP355    QRSP35   0.028000   QKJP35   0.058000
    XP355    QNJP35   0.013000   QPFP35   0.045000
    XP355    QLPP35   0.032000   QOTP35   0.142000
    XP355    LOBROW2484 1.000000
    XP356    RCAPP35  1.000000   QCRP35   -1.000000
    XP356    QGAP35   0.493000   QDSP35   0.210000
    XP356    QRSP35   0.033000   QKJP35   0.053000
    XP356    QNJP35   0.016000   QPFP35   0.050000
    XP356    QLPP35   0.031000   QOTP35   0.149000
    XP356    LOBROW2485 1.000000
    XP357    RCAPP35  1.000000   QCRP35   -1.000000
    XP357    QGAP35   0.498000   QDSP35   0.208000
    XP357    QRSP35   0.034000   QKJP35   0.053000
    XP357    QNJP35   0.011000   QPFP35   0.046000
    XP357    QLPP35   0.027000   QOTP35   0.150000
    XP357    LOBROW2486 1.000000
    XP358    RCAPP35  1.000000   QCRP35   -1.000000
    XP358    QGAP35   0.493000   QDSP35   0.220000
    XP358    QRSP35   0.034000   QKJP35   0.056000
    XP358    QNJP35   0.012000   QPFP35   0.050000
    XP358    QLPP35   0.027000   QOTP35   0.144000
    XP358    LOBROW2487 1.000000
    XP359    RCAPP35  1.000000   QCRP35   -1.000000
    XP359    QGAP35   0.482000   QDSP35   0.218000
    XP359    QRSP35   0.040000   QKJP35   0.052000
    XP359    QNJP35   0.011000   QPFP35   0.052000
    XP359    QLPP35   0.027000   QOTP35   0.147000
    XP359    LOBROW2488 1.000000
    XP3510   RCAPP35  1.000000   QCRP35   -1.000000
    XP3510   QGAP35   0.470000   QDSP35   0.225000
    XP3510   QRSP35   0.047000   QKJP35   0.051000
    XP3510   QNJP35   0.014000   QPFP35   0.050000
    XP3510   QLPP35   0.027000   QOTP35   0.150000
    XP3510   LOBROW2489 1.000000
    XP3511   RCAPP35  1.000000   QCRP35   -1.000000
    XP3511   QGAP35   0.457000   QDSP35   0.237000
    XP3511   QRSP35   0.043000   QKJP35   0.064000
    XP3511   QNJP35   0.012000   QPFP35   0.049000
    XP3511   QLPP35   0.028000   QOTP35   0.146000
    XP3511   LOBROW2490 1.000000
    XP3512   RCAPP35  1.000000   QCRP35   -1.000000
    XP3512   QGAP35   0.443000   QDSP35   0.234000
    XP3512   QRSP35   0.042000   QKJP35   0.064000
    XP3512   QNJP35   0.011000   QPFP35   0.052000
    XP3512   QLPP35   0.030000   QOTP35   0.151000
    XP3512   LOBROW2491 1.000000
    XP3513   RCAPP35  1.000000   QCRP35   -1.000000
    XP3513   QGAP35   0.465000   QDSP35   0.209000
    XP3513   QRSP35   0.041000   QKJP35   0.063000
    XP3513   QNJP35   0.017000   QPFP35   0.054000
    XP3513   QLPP35   0.032000   QOTP35   0.152000
    XP3513   LOBROW2492 1.000000
    XP3514   RCAPP35  1.000000   QCRP35   -1.000000
    XP3514   QGAP35   0.486000   QDSP35   0.197000
    XP3514   QRSP35   0.039000   QKJP35   0.057000
    XP3514   QNJP35   0.016000   QPFP35   0.055000
    XP3514   QLPP35   0.030000   QOTP35   0.147000
    XP3514   LOBROW2493 1.000000
    XP3515   RCAPP35  1.000000   QCRP35   -1.000000
    XP3515   QGAP35   0.507000   QDSP35   0.206000
    XP3515   QRSP35   0.046000   QKJP35   0.053000
    XP3515   QNJP35   0.015000   QPFP35   0.046000
    XP3515   QLPP35   0.033000   QOTP35   0.140000
    XP3515   LOBROW2494 1.000000
    XP3516   RCAPP35  1.000000   QCRP35   -1.000000
    XP3516   QGAP35   0.500000   QDSP35   0.215000
    XP3516   QRSP35   0.040000   QKJP35   0.049000
    XP3516   QNJP35   0.012000   QPFP35   0.051000
    XP3516   QLPP35   0.029000   QOTP35   0.137000
    XP3516   LOBROW2495 1.000000
    XP3517   RCAPP35  1.000000   QCRP35   -1.000000
    XP3517   QGAP35   0.505000   QDSP35   0.207000
    XP3517   QRSP35   0.039000   QKJP35   0.048000
    XP3517   QNJP35   0.011000   QPFP35   0.050000
    XP3517   QLPP35   0.032000   QOTP35   0.145000
    XP3517   LOBROW2496 1.000000
    XP3518   RCAPP35  1.000000   QCRP35   -1.000000
    XP3518   QGAP35   0.492000   QDSP35   0.210000
    XP3518   QRSP35   0.042000   QKJP35   0.052000
    XP3518   QNJP35   0.011000   QPFP35   0.051000
    XP3518   QLPP35   0.027000   QOTP35   0.147000
    XP3518   LOBROW2497 1.000000
    XP3519   RCAPP35  1.000000   QCRP35   -1.000000
    XP3519   QGAP35   0.484000   QDSP35   0.216000
    XP3519   QRSP35   0.044000   QKJP35   0.053000
    XP3519   QNJP35   0.014000   QPFP35   0.049000
    XP3519   QLPP35   0.027000   QOTP35   0.145000
    XP3519   LOBROW2498 1.000000
    XP3520   RCAPP35  1.000000   QCRP35   -1.000000
    XP3520   QGAP35   0.470000   QDSP35   0.216000
    XP3520   QRSP35   0.048000   QKJP35   0.059000
    XP3520   QNJP35   0.011000   QPFP35   0.052000
    XP3520   QLPP35   0.029000   QOTP35   0.150000
    XP3520   LOBROW2499 1.000000
    XP3521   RCAPP35  1.000000   QCRP35   -1.000000
    XP3521   QGAP35   0.467000   QDSP35   0.217000
    XP3521   QRSP35   0.049000   QKJP35   0.059000
    XP3521   QNJP35   0.011000   QPFP35   0.054000
    XP3521   QLPP35   0.025000   QOTP35   0.147000
    XP3521   LOBROW2500 1.000000
    XP3522   RCAPP35  1.000000   QCRP35   -1.000000
    XP3522   QGAP35   0.445000   QDSP35   0.236000
    XP3522   QRSP35   0.049000   QKJP35   0.056000
    XP3522   QNJP35   0.022000   QPFP35   0.054000
    XP3522   QLPP35   0.026000   QOTP35   0.142000
    XP3522   LOBROW2501 1.000000
    XP3523   RCAPP35  1.000000   QCRP35   -1.000000
    XP3523   QGAP35   0.449000   QDSP35   0.235000
    XP3523   QRSP35   0.051000   QKJP35   0.060000
    XP3523   QNJP35   0.016000   QPFP35   0.050000
    XP3523   QLPP35   0.029000   QOTP35   0.144000
    XP3523   LOBROW2502 1.000000
    XP3524   RCAPP35  1.000000   QCRP35   -1.000000
    XP3524   QGAP35   0.465000   QDSP35   0.203000
    XP3524   QRSP35   0.055000   QKJP35   0.057000
    XP3524   QNJP35   0.016000   QPFP35   0.059000
    XP3524   QLPP35   0.028000   QOTP35   0.150000
    XP3524   LOBROW2503 1.000000
    XP361    RCAPP36  1.000000   QCRP36   -1.000000
    XP361    QGAP36   0.473000   QDSP36   0.229000
    XP361    QRSP36   0.032000   QKJP36   0.063000
    XP361    QNJP36   0.018000   QPFP36   0.046000
    XP361    QLPP36   0.032000   QOTP36   0.144000
    XP361    LOBROW2504 1.000000
    XP362    RCAPP36  1.000000   QCRP36   -1.000000
    XP362    QGAP36   0.481000   QDSP36   0.218000
    XP362    QRSP36   0.031000   QKJP36   0.059000
    XP362    QNJP36   0.018000   QPFP36   0.055000
    XP362    QLPP36   0.032000   QOTP36   0.143000
    XP362    LOBROW2505 1.000000
    XP363    RCAPP36  1.000000   QCRP36   -1.000000
    XP363    QGAP36   0.478000   QDSP36   0.226000
    XP363    QRSP36   0.025000   QKJP36   0.061000
    XP363    QNJP36   0.017000   QPFP36   0.049000
    XP363    QLPP36   0.032000   QOTP36   0.142000
    XP363    LOBROW2506 1.000000
    XP364    RCAPP36  1.000000   QCRP36   -1.000000
    XP364    QGAP36   0.479000   QDSP36   0.226000
    XP364    QRSP36   0.031000   QKJP36   0.054000
    XP364    QNJP36   0.017000   QPFP36   0.043000
    XP364    QLPP36   0.030000   QOTP36   0.144000
    XP364    LOBROW2507 1.000000
    XP365    RCAPP36  1.000000   QCRP36   -1.000000
    XP365    QGAP36   0.500000   QDSP36   0.207000
    XP365    QRSP36   0.028000   QKJP36   0.058000
    XP365    QNJP36   0.013000   QPFP36   0.045000
    XP365    QLPP36   0.032000   QOTP36   0.142000
    XP365    LOBROW2508 1.000000
    XP366    RCAPP36  1.000000   QCRP36   -1.000000
    XP366    QGAP36   0.493000   QDSP36   0.210000
    XP366    QRSP36   0.033000   QKJP36   0.053000
    XP366    QNJP36   0.016000   QPFP36   0.050000
    XP366    QLPP36   0.031000   QOTP36   0.149000
    XP366    LOBROW2509 1.000000
    XP367    RCAPP36  1.000000   QCRP36   -1.000000
    XP367    QGAP36   0.498000   QDSP36   0.208000
    XP367    QRSP36   0.034000   QKJP36   0.053000
    XP367    QNJP36   0.011000   QPFP36   0.046000
    XP367    QLPP36   0.027000   QOTP36   0.150000
    XP367    LOBROW2510 1.000000
    XP368    RCAPP36  1.000000   QCRP36   -1.000000
    XP368    QGAP36   0.493000   QDSP36   0.220000
    XP368    QRSP36   0.034000   QKJP36   0.056000
    XP368    QNJP36   0.012000   QPFP36   0.050000
    XP368    QLPP36   0.027000   QOTP36   0.144000
    XP368    LOBROW2511 1.000000
    XP369    RCAPP36  1.000000   QCRP36   -1.000000
    XP369    QGAP36   0.482000   QDSP36   0.218000
    XP369    QRSP36   0.040000   QKJP36   0.052000
    XP369    QNJP36   0.011000   QPFP36   0.052000
    XP369    QLPP36   0.027000   QOTP36   0.147000
    XP369    LOBROW2512 1.000000
    XP3610   RCAPP36  1.000000   QCRP36   -1.000000
    XP3610   QGAP36   0.470000   QDSP36   0.225000
    XP3610   QRSP36   0.047000   QKJP36   0.051000
    XP3610   QNJP36   0.014000   QPFP36   0.050000
    XP3610   QLPP36   0.027000   QOTP36   0.150000
    XP3610   LOBROW2513 1.000000
    XP3611   RCAPP36  1.000000   QCRP36   -1.000000
    XP3611   QGAP36   0.457000   QDSP36   0.237000
    XP3611   QRSP36   0.043000   QKJP36   0.064000
    XP3611   QNJP36   0.012000   QPFP36   0.049000
    XP3611   QLPP36   0.028000   QOTP36   0.146000
    XP3611   LOBROW2514 1.000000
    XP3612   RCAPP36  1.000000   QCRP36   -1.000000
    XP3612   QGAP36   0.443000   QDSP36   0.234000
    XP3612   QRSP36   0.042000   QKJP36   0.064000
    XP3612   QNJP36   0.011000   QPFP36   0.052000
    XP3612   QLPP36   0.030000   QOTP36   0.151000
    XP3612   LOBROW2515 1.000000
    XP3613   RCAPP36  1.000000   QCRP36   -1.000000
    XP3613   QGAP36   0.465000   QDSP36   0.209000
    XP3613   QRSP36   0.041000   QKJP36   0.063000
    XP3613   QNJP36   0.017000   QPFP36   0.054000
    XP3613   QLPP36   0.032000   QOTP36   0.152000
    XP3613   LOBROW2516 1.000000
    XP3614   RCAPP36  1.000000   QCRP36   -1.000000
    XP3614   QGAP36   0.486000   QDSP36   0.197000
    XP3614   QRSP36   0.039000   QKJP36   0.057000
    XP3614   QNJP36   0.016000   QPFP36   0.055000
    XP3614   QLPP36   0.030000   QOTP36   0.147000
    XP3614   LOBROW2517 1.000000
    XP3615   RCAPP36  1.000000   QCRP36   -1.000000
    XP3615   QGAP36   0.507000   QDSP36   0.206000
    XP3615   QRSP36   0.046000   QKJP36   0.053000
    XP3615   QNJP36   0.015000   QPFP36   0.046000
    XP3615   QLPP36   0.033000   QOTP36   0.140000
    XP3615   LOBROW2518 1.000000
    XP3616   RCAPP36  1.000000   QCRP36   -1.000000
    XP3616   QGAP36   0.500000   QDSP36   0.215000
    XP3616   QRSP36   0.040000   QKJP36   0.049000
    XP3616   QNJP36   0.012000   QPFP36   0.051000
    XP3616   QLPP36   0.029000   QOTP36   0.137000
    XP3616   LOBROW2519 1.000000
    XP3617   RCAPP36  1.000000   QCRP36   -1.000000
    XP3617   QGAP36   0.505000   QDSP36   0.207000
    XP3617   QRSP36   0.039000   QKJP36   0.048000
    XP3617   QNJP36   0.011000   QPFP36   0.050000
    XP3617   QLPP36   0.032000   QOTP36   0.145000
    XP3617   LOBROW2520 1.000000
    XP3618   RCAPP36  1.000000   QCRP36   -1.000000
    XP3618   QGAP36   0.492000   QDSP36   0.210000
    XP3618   QRSP36   0.042000   QKJP36   0.052000
    XP3618   QNJP36   0.011000   QPFP36   0.051000
    XP3618   QLPP36   0.027000   QOTP36   0.147000
    XP3618   LOBROW2521 1.000000
    XP3619   RCAPP36  1.000000   QCRP36   -1.000000
    XP3619   QGAP36   0.484000   QDSP36   0.216000
    XP3619   QRSP36   0.044000   QKJP36   0.053000
    XP3619   QNJP36   0.014000   QPFP36   0.049000
    XP3619   QLPP36   0.027000   QOTP36   0.145000
    XP3619   LOBROW2522 1.000000
    XP3620   RCAPP36  1.000000   QCRP36   -1.000000
    XP3620   QGAP36   0.470000   QDSP36   0.216000
    XP3620   QRSP36   0.048000   QKJP36   0.059000
    XP3620   QNJP36   0.011000   QPFP36   0.052000
    XP3620   QLPP36   0.029000   QOTP36   0.150000
    XP3620   LOBROW2523 1.000000
    XP3621   RCAPP36  1.000000   QCRP36   -1.000000
    XP3621   QGAP36   0.467000   QDSP36   0.217000
    XP3621   QRSP36   0.049000   QKJP36   0.059000
    XP3621   QNJP36   0.011000   QPFP36   0.054000
    XP3621   QLPP36   0.025000   QOTP36   0.147000
    XP3621   LOBROW2524 1.000000
    XP3622   RCAPP36  1.000000   QCRP36   -1.000000
    XP3622   QGAP36   0.445000   QDSP36   0.236000
    XP3622   QRSP36   0.049000   QKJP36   0.056000
    XP3622   QNJP36   0.022000   QPFP36   0.054000
    XP3622   QLPP36   0.026000   QOTP36   0.142000
    XP3622   LOBROW2525 1.000000
    XP3623   RCAPP36  1.000000   QCRP36   -1.000000
    XP3623   QGAP36   0.449000   QDSP36   0.235000
    XP3623   QRSP36   0.051000   QKJP36   0.060000
    XP3623   QNJP36   0.016000   QPFP36   0.050000
    XP3623   QLPP36   0.029000   QOTP36   0.144000
    XP3623   LOBROW2526 1.000000
    XP3624   RCAPP36  1.000000   QCRP36   -1.000000
    XP3624   QGAP36   0.465000   QDSP36   0.203000
    XP3624   QRSP36   0.055000   QKJP36   0.057000
    XP3624   QNJP36   0.016000   QPFP36   0.059000
    XP3624   QLPP36   0.028000   QOTP36   0.150000
    XP3624   LOBROW2527 1.000000
    XP371    RCAPP37  1.000000   QCRP37   -1.000000
    XP371    QGAP37   0.473000   QDSP37   0.229000
    XP371    QRSP37   0.032000   QKJP37   0.063000
    XP371    QNJP37   0.018000   QPFP37   0.046000
    XP371    QLPP37   0.032000   QOTP37   0.144000
    XP371    LOBROW2528 1.000000
    XP372    RCAPP37  1.000000   QCRP37   -1.000000
    XP372    QGAP37   0.481000   QDSP37   0.218000
    XP372    QRSP37   0.031000   QKJP37   0.059000
    XP372    QNJP37   0.018000   QPFP37   0.055000
    XP372    QLPP37   0.032000   QOTP37   0.143000
    XP372    LOBROW2529 1.000000
    XP373    RCAPP37  1.000000   QCRP37   -1.000000
    XP373    QGAP37   0.478000   QDSP37   0.226000
    XP373    QRSP37   0.025000   QKJP37   0.061000
    XP373    QNJP37   0.017000   QPFP37   0.049000
    XP373    QLPP37   0.032000   QOTP37   0.142000
    XP373    LOBROW2530 1.000000
    XP374    RCAPP37  1.000000   QCRP37   -1.000000
    XP374    QGAP37   0.479000   QDSP37   0.226000
    XP374    QRSP37   0.031000   QKJP37   0.054000
    XP374    QNJP37   0.017000   QPFP37   0.043000
    XP374    QLPP37   0.030000   QOTP37   0.144000
    XP374    LOBROW2531 1.000000
    XP375    RCAPP37  1.000000   QCRP37   -1.000000
    XP375    QGAP37   0.500000   QDSP37   0.207000
    XP375    QRSP37   0.028000   QKJP37   0.058000
    XP375    QNJP37   0.013000   QPFP37   0.045000
    XP375    QLPP37   0.032000   QOTP37   0.142000
    XP375    LOBROW2532 1.000000
    XP376    RCAPP37  1.000000   QCRP37   -1.000000
    XP376    QGAP37   0.493000   QDSP37   0.210000
    XP376    QRSP37   0.033000   QKJP37   0.053000
    XP376    QNJP37   0.016000   QPFP37   0.050000
    XP376    QLPP37   0.031000   QOTP37   0.149000
    XP376    LOBROW2533 1.000000
    XP377    RCAPP37  1.000000   QCRP37   -1.000000
    XP377    QGAP37   0.498000   QDSP37   0.208000
    XP377    QRSP37   0.034000   QKJP37   0.053000
    XP377    QNJP37   0.011000   QPFP37   0.046000
    XP377    QLPP37   0.027000   QOTP37   0.150000
    XP377    LOBROW2534 1.000000
    XP378    RCAPP37  1.000000   QCRP37   -1.000000
    XP378    QGAP37   0.493000   QDSP37   0.220000
    XP378    QRSP37   0.034000   QKJP37   0.056000
    XP378    QNJP37   0.012000   QPFP37   0.050000
    XP378    QLPP37   0.027000   QOTP37   0.144000
    XP378    LOBROW2535 1.000000
    XP379    RCAPP37  1.000000   QCRP37   -1.000000
    XP379    QGAP37   0.482000   QDSP37   0.218000
    XP379    QRSP37   0.040000   QKJP37   0.052000
    XP379    QNJP37   0.011000   QPFP37   0.052000
    XP379    QLPP37   0.027000   QOTP37   0.147000
    XP379    LOBROW2536 1.000000
    XP3710   RCAPP37  1.000000   QCRP37   -1.000000
    XP3710   QGAP37   0.470000   QDSP37   0.225000
    XP3710   QRSP37   0.047000   QKJP37   0.051000
    XP3710   QNJP37   0.014000   QPFP37   0.050000
    XP3710   QLPP37   0.027000   QOTP37   0.150000
    XP3710   LOBROW2537 1.000000
    XP3711   RCAPP37  1.000000   QCRP37   -1.000000
    XP3711   QGAP37   0.457000   QDSP37   0.237000
    XP3711   QRSP37   0.043000   QKJP37   0.064000
    XP3711   QNJP37   0.012000   QPFP37   0.049000
    XP3711   QLPP37   0.028000   QOTP37   0.146000
    XP3711   LOBROW2538 1.000000
    XP3712   RCAPP37  1.000000   QCRP37   -1.000000
    XP3712   QGAP37   0.443000   QDSP37   0.234000
    XP3712   QRSP37   0.042000   QKJP37   0.064000
    XP3712   QNJP37   0.011000   QPFP37   0.052000
    XP3712   QLPP37   0.030000   QOTP37   0.151000
    XP3712   LOBROW2539 1.000000
    XP3713   RCAPP37  1.000000   QCRP37   -1.000000
    XP3713   QGAP37   0.465000   QDSP37   0.209000
    XP3713   QRSP37   0.041000   QKJP37   0.063000
    XP3713   QNJP37   0.017000   QPFP37   0.054000
    XP3713   QLPP37   0.032000   QOTP37   0.152000
    XP3713   LOBROW2540 1.000000
    XP3714   RCAPP37  1.000000   QCRP37   -1.000000
    XP3714   QGAP37   0.486000   QDSP37   0.197000
    XP3714   QRSP37   0.039000   QKJP37   0.057000
    XP3714   QNJP37   0.016000   QPFP37   0.055000
    XP3714   QLPP37   0.030000   QOTP37   0.147000
    XP3714   LOBROW2541 1.000000
    XP3715   RCAPP37  1.000000   QCRP37   -1.000000
    XP3715   QGAP37   0.507000   QDSP37   0.206000
    XP3715   QRSP37   0.046000   QKJP37   0.053000
    XP3715   QNJP37   0.015000   QPFP37   0.046000
    XP3715   QLPP37   0.033000   QOTP37   0.140000
    XP3715   LOBROW2542 1.000000
    XP3716   RCAPP37  1.000000   QCRP37   -1.000000
    XP3716   QGAP37   0.500000   QDSP37   0.215000
    XP3716   QRSP37   0.040000   QKJP37   0.049000
    XP3716   QNJP37   0.012000   QPFP37   0.051000
    XP3716   QLPP37   0.029000   QOTP37   0.137000
    XP3716   LOBROW2543 1.000000
    XP3717   RCAPP37  1.000000   QCRP37   -1.000000
    XP3717   QGAP37   0.505000   QDSP37   0.207000
    XP3717   QRSP37   0.039000   QKJP37   0.048000
    XP3717   QNJP37   0.011000   QPFP37   0.050000
    XP3717   QLPP37   0.032000   QOTP37   0.145000
    XP3717   LOBROW2544 1.000000
    XP3718   RCAPP37  1.000000   QCRP37   -1.000000
    XP3718   QGAP37   0.492000   QDSP37   0.210000
    XP3718   QRSP37   0.042000   QKJP37   0.052000
    XP3718   QNJP37   0.011000   QPFP37   0.051000
    XP3718   QLPP37   0.027000   QOTP37   0.147000
    XP3718   LOBROW2545 1.000000
    XP3719   RCAPP37  1.000000   QCRP37   -1.000000
    XP3719   QGAP37   0.484000   QDSP37   0.216000
    XP3719   QRSP37   0.044000   QKJP37   0.053000
    XP3719   QNJP37   0.014000   QPFP37   0.049000
    XP3719   QLPP37   0.027000   QOTP37   0.145000
    XP3719   LOBROW2546 1.000000
    XP3720   RCAPP37  1.000000   QCRP37   -1.000000
    XP3720   QGAP37   0.470000   QDSP37   0.216000
    XP3720   QRSP37   0.048000   QKJP37   0.059000
    XP3720   QNJP37   0.011000   QPFP37   0.052000
    XP3720   QLPP37   0.029000   QOTP37   0.150000
    XP3720   LOBROW2547 1.000000
    XP3721   RCAPP37  1.000000   QCRP37   -1.000000
    XP3721   QGAP37   0.467000   QDSP37   0.217000
    XP3721   QRSP37   0.049000   QKJP37   0.059000
    XP3721   QNJP37   0.011000   QPFP37   0.054000
    XP3721   QLPP37   0.025000   QOTP37   0.147000
    XP3721   LOBROW2548 1.000000
    XP3722   RCAPP37  1.000000   QCRP37   -1.000000
    XP3722   QGAP37   0.445000   QDSP37   0.236000
    XP3722   QRSP37   0.049000   QKJP37   0.056000
    XP3722   QNJP37   0.022000   QPFP37   0.054000
    XP3722   QLPP37   0.026000   QOTP37   0.142000
    XP3722   LOBROW2549 1.000000
    XP3723   RCAPP37  1.000000   QCRP37   -1.000000
    XP3723   QGAP37   0.449000   QDSP37   0.235000
    XP3723   QRSP37   0.051000   QKJP37   0.060000
    XP3723   QNJP37   0.016000   QPFP37   0.050000
    XP3723   QLPP37   0.029000   QOTP37   0.144000
    XP3723   LOBROW2550 1.000000
    XP3724   RCAPP37  1.000000   QCRP37   -1.000000
    XP3724   QGAP37   0.465000   QDSP37   0.203000
    XP3724   QRSP37   0.055000   QKJP37   0.057000
    XP3724   QNJP37   0.016000   QPFP37   0.059000
    XP3724   QLPP37   0.028000   QOTP37   0.150000
    XP3724   LOBROW2551 1.000000
    XP381    RCAPP38  1.000000   QCRP38   -1.000000
    XP381    QGAP38   0.473000   QDSP38   0.229000
    XP381    QRSP38   0.032000   QKJP38   0.063000
    XP381    QNJP38   0.018000   QPFP38   0.046000
    XP381    QLPP38   0.032000   QOTP38   0.144000
    XP381    LOBROW2552 1.000000
    XP382    RCAPP38  1.000000   QCRP38   -1.000000
    XP382    QGAP38   0.481000   QDSP38   0.218000
    XP382    QRSP38   0.031000   QKJP38   0.059000
    XP382    QNJP38   0.018000   QPFP38   0.055000
    XP382    QLPP38   0.032000   QOTP38   0.143000
    XP382    LOBROW2553 1.000000
    XP383    RCAPP38  1.000000   QCRP38   -1.000000
    XP383    QGAP38   0.478000   QDSP38   0.226000
    XP383    QRSP38   0.025000   QKJP38   0.061000
    XP383    QNJP38   0.017000   QPFP38   0.049000
    XP383    QLPP38   0.032000   QOTP38   0.142000
    XP383    LOBROW2554 1.000000
    XP384    RCAPP38  1.000000   QCRP38   -1.000000
    XP384    QGAP38   0.479000   QDSP38   0.226000
    XP384    QRSP38   0.031000   QKJP38   0.054000
    XP384    QNJP38   0.017000   QPFP38   0.043000
    XP384    QLPP38   0.030000   QOTP38   0.144000
    XP384    LOBROW2555 1.000000
    XP385    RCAPP38  1.000000   QCRP38   -1.000000
    XP385    QGAP38   0.500000   QDSP38   0.207000
    XP385    QRSP38   0.028000   QKJP38   0.058000
    XP385    QNJP38   0.013000   QPFP38   0.045000
    XP385    QLPP38   0.032000   QOTP38   0.142000
    XP385    LOBROW2556 1.000000
    XP386    RCAPP38  1.000000   QCRP38   -1.000000
    XP386    QGAP38   0.493000   QDSP38   0.210000
    XP386    QRSP38   0.033000   QKJP38   0.053000
    XP386    QNJP38   0.016000   QPFP38   0.050000
    XP386    QLPP38   0.031000   QOTP38   0.149000
    XP386    LOBROW2557 1.000000
    XP387    RCAPP38  1.000000   QCRP38   -1.000000
    XP387    QGAP38   0.498000   QDSP38   0.208000
    XP387    QRSP38   0.034000   QKJP38   0.053000
    XP387    QNJP38   0.011000   QPFP38   0.046000
    XP387    QLPP38   0.027000   QOTP38   0.150000
    XP387    LOBROW2558 1.000000
    XP388    RCAPP38  1.000000   QCRP38   -1.000000
    XP388    QGAP38   0.493000   QDSP38   0.220000
    XP388    QRSP38   0.034000   QKJP38   0.056000
    XP388    QNJP38   0.012000   QPFP38   0.050000
    XP388    QLPP38   0.027000   QOTP38   0.144000
    XP388    LOBROW2559 1.000000
    XP389    RCAPP38  1.000000   QCRP38   -1.000000
    XP389    QGAP38   0.482000   QDSP38   0.218000
    XP389    QRSP38   0.040000   QKJP38   0.052000
    XP389    QNJP38   0.011000   QPFP38   0.052000
    XP389    QLPP38   0.027000   QOTP38   0.147000
    XP389    LOBROW2560 1.000000
    XP3810   RCAPP38  1.000000   QCRP38   -1.000000
    XP3810   QGAP38   0.470000   QDSP38   0.225000
    XP3810   QRSP38   0.047000   QKJP38   0.051000
    XP3810   QNJP38   0.014000   QPFP38   0.050000
    XP3810   QLPP38   0.027000   QOTP38   0.150000
    XP3810   LOBROW2561 1.000000
    XP3811   RCAPP38  1.000000   QCRP38   -1.000000
    XP3811   QGAP38   0.457000   QDSP38   0.237000
    XP3811   QRSP38   0.043000   QKJP38   0.064000
    XP3811   QNJP38   0.012000   QPFP38   0.049000
    XP3811   QLPP38   0.028000   QOTP38   0.146000
    XP3811   LOBROW2562 1.000000
    XP3812   RCAPP38  1.000000   QCRP38   -1.000000
    XP3812   QGAP38   0.443000   QDSP38   0.234000
    XP3812   QRSP38   0.042000   QKJP38   0.064000
    XP3812   QNJP38   0.011000   QPFP38   0.052000
    XP3812   QLPP38   0.030000   QOTP38   0.151000
    XP3812   LOBROW2563 1.000000
    XP3813   RCAPP38  1.000000   QCRP38   -1.000000
    XP3813   QGAP38   0.465000   QDSP38   0.209000
    XP3813   QRSP38   0.041000   QKJP38   0.063000
    XP3813   QNJP38   0.017000   QPFP38   0.054000
    XP3813   QLPP38   0.032000   QOTP38   0.152000
    XP3813   LOBROW2564 1.000000
    XP3814   RCAPP38  1.000000   QCRP38   -1.000000
    XP3814   QGAP38   0.486000   QDSP38   0.197000
    XP3814   QRSP38   0.039000   QKJP38   0.057000
    XP3814   QNJP38   0.016000   QPFP38   0.055000
    XP3814   QLPP38   0.030000   QOTP38   0.147000
    XP3814   LOBROW2565 1.000000
    XP3815   RCAPP38  1.000000   QCRP38   -1.000000
    XP3815   QGAP38   0.507000   QDSP38   0.206000
    XP3815   QRSP38   0.046000   QKJP38   0.053000
    XP3815   QNJP38   0.015000   QPFP38   0.046000
    XP3815   QLPP38   0.033000   QOTP38   0.140000
    XP3815   LOBROW2566 1.000000
    XP3816   RCAPP38  1.000000   QCRP38   -1.000000
    XP3816   QGAP38   0.500000   QDSP38   0.215000
    XP3816   QRSP38   0.040000   QKJP38   0.049000
    XP3816   QNJP38   0.012000   QPFP38   0.051000
    XP3816   QLPP38   0.029000   QOTP38   0.137000
    XP3816   LOBROW2567 1.000000
    XP3817   RCAPP38  1.000000   QCRP38   -1.000000
    XP3817   QGAP38   0.505000   QDSP38   0.207000
    XP3817   QRSP38   0.039000   QKJP38   0.048000
    XP3817   QNJP38   0.011000   QPFP38   0.050000
    XP3817   QLPP38   0.032000   QOTP38   0.145000
    XP3817   LOBROW2568 1.000000
    XP3818   RCAPP38  1.000000   QCRP38   -1.000000
    XP3818   QGAP38   0.492000   QDSP38   0.210000
    XP3818   QRSP38   0.042000   QKJP38   0.052000
    XP3818   QNJP38   0.011000   QPFP38   0.051000
    XP3818   QLPP38   0.027000   QOTP38   0.147000
    XP3818   LOBROW2569 1.000000
    XP3819   RCAPP38  1.000000   QCRP38   -1.000000
    XP3819   QGAP38   0.484000   QDSP38   0.216000
    XP3819   QRSP38   0.044000   QKJP38   0.053000
    XP3819   QNJP38   0.014000   QPFP38   0.049000
    XP3819   QLPP38   0.027000   QOTP38   0.145000
    XP3819   LOBROW2570 1.000000
    XP3820   RCAPP38  1.000000   QCRP38   -1.000000
    XP3820   QGAP38   0.470000   QDSP38   0.216000
    XP3820   QRSP38   0.048000   QKJP38   0.059000
    XP3820   QNJP38   0.011000   QPFP38   0.052000
    XP3820   QLPP38   0.029000   QOTP38   0.150000
    XP3820   LOBROW2571 1.000000
    XP3821   RCAPP38  1.000000   QCRP38   -1.000000
    XP3821   QGAP38   0.467000   QDSP38   0.217000
    XP3821   QRSP38   0.049000   QKJP38   0.059000
    XP3821   QNJP38   0.011000   QPFP38   0.054000
    XP3821   QLPP38   0.025000   QOTP38   0.147000
    XP3821   LOBROW2572 1.000000
    XP3822   RCAPP38  1.000000   QCRP38   -1.000000
    XP3822   QGAP38   0.445000   QDSP38   0.236000
    XP3822   QRSP38   0.049000   QKJP38   0.056000
    XP3822   QNJP38   0.022000   QPFP38   0.054000
    XP3822   QLPP38   0.026000   QOTP38   0.142000
    XP3822   LOBROW2573 1.000000
    XP3823   RCAPP38  1.000000   QCRP38   -1.000000
    XP3823   QGAP38   0.449000   QDSP38   0.235000
    XP3823   QRSP38   0.051000   QKJP38   0.060000
    XP3823   QNJP38   0.016000   QPFP38   0.050000
    XP3823   QLPP38   0.029000   QOTP38   0.144000
    XP3823   LOBROW2574 1.000000
    XP3824   RCAPP38  1.000000   QCRP38   -1.000000
    XP3824   QGAP38   0.465000   QDSP38   0.203000
    XP3824   QRSP38   0.055000   QKJP38   0.057000
    XP3824   QNJP38   0.016000   QPFP38   0.059000
    XP3824   QLPP38   0.028000   QOTP38   0.150000
    XP3824   LOBROW2575 1.000000
    XP411    RCAPP41  1.000000   QCRP41   -1.000000
    XP411    QGAP41   0.502000   QDSP41   0.229000
    XP411    QRSP41   0.067000   QKJP41   0.028000
    XP411    QNJP41   0.031000   QPFP41   0.003000
    XP411    QLPP41   0.015000   QOTP41   0.134000
    XP411    LOBROW2576 1.000000
    XP412    RCAPP41  1.000000   QCRP41   -1.000000
    XP412    QGAP41   0.501000   QDSP41   0.236000
    XP412    QRSP41   0.065000   QKJP41   0.029000
    XP412    QNJP41   0.032000   QPFP41   0.003000
    XP412    QLPP41   0.013000   QOTP41   0.134000
    XP412    LOBROW2577 1.000000
    XP413    RCAPP41  1.000000   QCRP41   -1.000000
    XP413    QGAP41   0.490000   QDSP41   0.242000
    XP413    QRSP41   0.056000   QKJP41   0.024000
    XP413    QNJP41   0.032000   QPFP41   0.002000
    XP413    QLPP41   0.015000   QOTP41   0.147000
    XP413    LOBROW2578 1.000000
    XP414    RCAPP41  1.000000   QCRP41   -1.000000
    XP414    QGAP41   0.493000   QDSP41   0.233000
    XP414    QRSP41   0.050000   QKJP41   0.030000
    XP414    QNJP41   0.019000   QPFP41   0.002000
    XP414    QLPP41   0.015000   QOTP41   0.159000
    XP414    LOBROW2579 1.000000
    XP415    RCAPP41  1.000000   QCRP41   -1.000000
    XP415    QGAP41   0.492000   QDSP41   0.235000
    XP415    QRSP41   0.047000   QKJP41   0.035000
    XP415    QNJP41   0.022000   QPFP41   0.002000
    XP415    QLPP41   0.016000   QOTP41   0.161000
    XP415    LOBROW2580 1.000000
    XP416    RCAPP41  1.000000   QCRP41   -1.000000
    XP416    QGAP41   0.504000   QDSP41   0.225000
    XP416    QRSP41   0.042000   QKJP41   0.030000
    XP416    QNJP41   0.018000   QPFP41   0.001000
    XP416    QLPP41   0.015000   QOTP41   0.172000
    XP416    LOBROW2581 1.000000
    XP417    RCAPP41  1.000000   QCRP41   -1.000000
    XP417    QGAP41   0.500000   QDSP41   0.244000
    XP417    QRSP41   0.043000   QKJP41   0.027000
    XP417    QNJP41   0.021000   QPFP41   0.002000
    XP417    QLPP41   0.013000   QOTP41   0.159000
    XP417    LOBROW2582 1.000000
    XP418    RCAPP41  1.000000   QCRP41   -1.000000
    XP418    QGAP41   0.505000   QDSP41   0.241000
    XP418    QRSP41   0.048000   QKJP41   0.028000
    XP418    QNJP41   0.026000   QPFP41   0.002000
    XP418    QLPP41   0.012000   QOTP41   0.149000
    XP418    LOBROW2583 1.000000
    XP419    RCAPP41  1.000000   QCRP41   -1.000000
    XP419    QGAP41   0.504000   QDSP41   0.253000
    XP419    QRSP41   0.048000   QKJP41   0.023000
    XP419    QNJP41   0.027000   QPFP41   0.001000
    XP419    QLPP41   0.012000   QOTP41   0.138000
    XP419    LOBROW2584 1.000000
    XP4110   RCAPP41  1.000000   QCRP41   -1.000000
    XP4110   QGAP41   0.495000   QDSP41   0.245000
    XP4110   QRSP41   0.074000   QKJP41   0.025000
    XP4110   QNJP41   0.023000   QPFP41   0.002000
    XP4110   QLPP41   0.012000   QOTP41   0.133000
    XP4110   LOBROW2585 1.000000
    XP4111   RCAPP41  1.000000   QCRP41   -1.000000
    XP4111   QGAP41   0.501000   QDSP41   0.234000
    XP4111   QRSP41   0.079000   QKJP41   0.023000
    XP4111   QNJP41   0.017000   QPFP41   0.002000
    XP4111   QLPP41   0.013000   QOTP41   0.135000
    XP4111   LOBROW2586 1.000000
    XP4112   RCAPP41  1.000000   QCRP41   -1.000000
    XP4112   QGAP41   0.506000   QDSP41   0.244000
    XP4112   QRSP41   0.071000   QKJP41   0.024000
    XP4112   QNJP41   0.021000   QPFP41   0.001000
    XP4112   QLPP41   0.011000   QOTP41   0.130000
    XP4112   LOBROW2587 1.000000
    XP4113   RCAPP41  1.000000   QCRP41   -1.000000
    XP4113   QGAP41   0.503000   QDSP41   0.239000
    XP4113   QRSP41   0.058000   QKJP41   0.031000
    XP4113   QNJP41   0.026000   QPFP41   0.002000
    XP4113   QLPP41   0.012000   QOTP41   0.139000
    XP4113   LOBROW2588 1.000000
    XP4114   RCAPP41  1.000000   QCRP41   -1.000000
    XP4114   QGAP41   0.493000   QDSP41   0.248000
    XP4114   QRSP41   0.054000   QKJP41   0.037000
    XP4114   QNJP41   0.022000   QPFP41   0.001000
    XP4114   QLPP41   0.016000   QOTP41   0.147000
    XP4114   LOBROW2589 1.000000
    XP4115   RCAPP41  1.000000   QCRP41   -1.000000
    XP4115   QGAP41   0.495000   QDSP41   0.271000
    XP4115   QRSP41   0.052000   QKJP41   0.028000
    XP4115   QNJP41   0.021000   QPFP41   0.001000
    XP4115   QLPP41   0.013000   QOTP41   0.146000
    XP4115   LOBROW2590 1.000000
    XP4116   RCAPP41  1.000000   QCRP41   -1.000000
    XP4116   QGAP41   0.495000   QDSP41   0.263000
    XP4116   QRSP41   0.049000   QKJP41   0.025000
    XP4116   QNJP41   0.021000   QPFP41   0.001000
    XP4116   QLPP41   0.015000   QOTP41   0.153000
    XP4116   LOBROW2591 1.000000
    XP4117   RCAPP41  1.000000   QCRP41   -1.000000
    XP4117   QGAP41   0.493000   QDSP41   0.241000
    XP4117   QRSP41   0.050000   QKJP41   0.034000
    XP4117   QNJP41   0.017000   QPFP41   0.001000
    XP4117   QLPP41   0.016000   QOTP41   0.158000
    XP4117   LOBROW2592 1.000000
    XP4118   RCAPP41  1.000000   QCRP41   -1.000000
    XP4118   QGAP41   0.495000   QDSP41   0.250000
    XP4118   QRSP41   0.046000   QKJP41   0.022000
    XP4118   QNJP41   0.017000   QPFP41   0.001000
    XP4118   QLPP41   0.014000   QOTP41   0.166000
    XP4118   LOBROW2593 1.000000
    XP4119   RCAPP41  1.000000   QCRP41   -1.000000
    XP4119   QGAP41   0.496000   QDSP41   0.255000
    XP4119   QRSP41   0.051000   QKJP41   0.032000
    XP4119   QNJP41   0.023000   QPFP41   0.002000
    XP4119   QLPP41   0.014000   QOTP41   0.151000
    XP4119   LOBROW2594 1.000000
    XP4120   RCAPP41  1.000000   QCRP41   -1.000000
    XP4120   QGAP41   0.498000   QDSP41   0.244000
    XP4120   QRSP41   0.060000   QKJP41   0.029000
    XP4120   QNJP41   0.021000   QPFP41   0.001000
    XP4120   QLPP41   0.012000   QOTP41   0.144000
    XP4120   LOBROW2595 1.000000
    XP4121   RCAPP41  1.000000   QCRP41   -1.000000
    XP4121   QGAP41   0.503000   QDSP41   0.257000
    XP4121   QRSP41   0.066000   QKJP41   0.025000
    XP4121   QNJP41   0.026000   QPFP41   0.001000
    XP4121   QLPP41   0.012000   QOTP41   0.125000
    XP4121   LOBROW2596 1.000000
    XP4122   RCAPP41  1.000000   QCRP41   -1.000000
    XP4122   QGAP41   0.478000   QDSP41   0.271000
    XP4122   QRSP41   0.076000   QKJP41   0.021000
    XP4122   QNJP41   0.020000   QPFP41   0.001000
    XP4122   QLPP41   0.013000   QOTP41   0.125000
    XP4122   LOBROW2597 1.000000
    XP4123   RCAPP41  1.000000   QCRP41   -1.000000
    XP4123   QGAP41   0.496000   QDSP41   0.280000
    XP4123   QRSP41   0.072000   QKJP41   0.028000
    XP4123   QNJP41   0.017000   QPFP41   0.001000
    XP4123   QLPP41   0.010000   QOTP41   0.113000
    XP4123   LOBROW2598 1.000000
    XP4124   RCAPP41  1.000000   QCRP41   -1.000000
    XP4124   QGAP41   0.497000   QDSP41   0.249000
    XP4124   QRSP41   0.073000   QKJP41   0.032000
    XP4124   QNJP41   0.023000   QPFP41   0.001000
    XP4124   QLPP41   0.011000   QOTP41   0.119000
    XP4124   LOBROW2599 1.000000
    XP421    RCAPP42  1.000000   QCRP42   -1.000000
    XP421    QGAP42   0.502000   QDSP42   0.229000
    XP421    QRSP42   0.067000   QKJP42   0.028000
    XP421    QNJP42   0.031000   QPFP42   0.003000
    XP421    QLPP42   0.015000   QOTP42   0.134000
    XP421    LOBROW2600 1.000000
    XP422    RCAPP42  1.000000   QCRP42   -1.000000
    XP422    QGAP42   0.501000   QDSP42   0.236000
    XP422    QRSP42   0.065000   QKJP42   0.029000
    XP422    QNJP42   0.032000   QPFP42   0.003000
    XP422    QLPP42   0.013000   QOTP42   0.134000
    XP422    LOBROW2601 1.000000
    XP423    RCAPP42  1.000000   QCRP42   -1.000000
    XP423    QGAP42   0.490000   QDSP42   0.242000
    XP423    QRSP42   0.056000   QKJP42   0.024000
    XP423    QNJP42   0.032000   QPFP42   0.002000
    XP423    QLPP42   0.015000   QOTP42   0.147000
    XP423    LOBROW2602 1.000000
    XP424    RCAPP42  1.000000   QCRP42   -1.000000
    XP424    QGAP42   0.493000   QDSP42   0.233000
    XP424    QRSP42   0.050000   QKJP42   0.030000
    XP424    QNJP42   0.019000   QPFP42   0.002000
    XP424    QLPP42   0.015000   QOTP42   0.159000
    XP424    LOBROW2603 1.000000
    XP425    RCAPP42  1.000000   QCRP42   -1.000000
    XP425    QGAP42   0.492000   QDSP42   0.235000
    XP425    QRSP42   0.047000   QKJP42   0.035000
    XP425    QNJP42   0.022000   QPFP42   0.002000
    XP425    QLPP42   0.016000   QOTP42   0.161000
    XP425    LOBROW2604 1.000000
    XP426    RCAPP42  1.000000   QCRP42   -1.000000
    XP426    QGAP42   0.504000   QDSP42   0.225000
    XP426    QRSP42   0.042000   QKJP42   0.030000
    XP426    QNJP42   0.018000   QPFP42   0.001000
    XP426    QLPP42   0.015000   QOTP42   0.172000
    XP426    LOBROW2605 1.000000
    XP427    RCAPP42  1.000000   QCRP42   -1.000000
    XP427    QGAP42   0.500000   QDSP42   0.244000
    XP427    QRSP42   0.043000   QKJP42   0.027000
    XP427    QNJP42   0.021000   QPFP42   0.002000
    XP427    QLPP42   0.013000   QOTP42   0.159000
    XP427    LOBROW2606 1.000000
    XP428    RCAPP42  1.000000   QCRP42   -1.000000
    XP428    QGAP42   0.505000   QDSP42   0.241000
    XP428    QRSP42   0.048000   QKJP42   0.028000
    XP428    QNJP42   0.026000   QPFP42   0.002000
    XP428    QLPP42   0.012000   QOTP42   0.149000
    XP428    LOBROW2607 1.000000
    XP429    RCAPP42  1.000000   QCRP42   -1.000000
    XP429    QGAP42   0.504000   QDSP42   0.253000
    XP429    QRSP42   0.048000   QKJP42   0.023000
    XP429    QNJP42   0.027000   QPFP42   0.001000
    XP429    QLPP42   0.012000   QOTP42   0.138000
    XP429    LOBROW2608 1.000000
    XP4210   RCAPP42  1.000000   QCRP42   -1.000000
    XP4210   QGAP42   0.495000   QDSP42   0.245000
    XP4210   QRSP42   0.074000   QKJP42   0.025000
    XP4210   QNJP42   0.023000   QPFP42   0.002000
    XP4210   QLPP42   0.012000   QOTP42   0.133000
    XP4210   LOBROW2609 1.000000
    XP4211   RCAPP42  1.000000   QCRP42   -1.000000
    XP4211   QGAP42   0.501000   QDSP42   0.234000
    XP4211   QRSP42   0.079000   QKJP42   0.023000
    XP4211   QNJP42   0.017000   QPFP42   0.002000
    XP4211   QLPP42   0.013000   QOTP42   0.135000
    XP4211   LOBROW2610 1.000000
    XP4212   RCAPP42  1.000000   QCRP42   -1.000000
    XP4212   QGAP42   0.506000   QDSP42   0.244000
    XP4212   QRSP42   0.071000   QKJP42   0.024000
    XP4212   QNJP42   0.021000   QPFP42   0.001000
    XP4212   QLPP42   0.011000   QOTP42   0.130000
    XP4212   LOBROW2611 1.000000
    XP4213   RCAPP42  1.000000   QCRP42   -1.000000
    XP4213   QGAP42   0.503000   QDSP42   0.239000
    XP4213   QRSP42   0.058000   QKJP42   0.031000
    XP4213   QNJP42   0.026000   QPFP42   0.002000
    XP4213   QLPP42   0.012000   QOTP42   0.139000
    XP4213   LOBROW2612 1.000000
    XP4214   RCAPP42  1.000000   QCRP42   -1.000000
    XP4214   QGAP42   0.493000   QDSP42   0.248000
    XP4214   QRSP42   0.054000   QKJP42   0.037000
    XP4214   QNJP42   0.022000   QPFP42   0.001000
    XP4214   QLPP42   0.016000   QOTP42   0.147000
    XP4214   LOBROW2613 1.000000
    XP4215   RCAPP42  1.000000   QCRP42   -1.000000
    XP4215   QGAP42   0.495000   QDSP42   0.271000
    XP4215   QRSP42   0.052000   QKJP42   0.028000
    XP4215   QNJP42   0.021000   QPFP42   0.001000
    XP4215   QLPP42   0.013000   QOTP42   0.146000
    XP4215   LOBROW2614 1.000000
    XP4216   RCAPP42  1.000000   QCRP42   -1.000000
    XP4216   QGAP42   0.495000   QDSP42   0.263000
    XP4216   QRSP42   0.049000   QKJP42   0.025000
    XP4216   QNJP42   0.021000   QPFP42   0.001000
    XP4216   QLPP42   0.015000   QOTP42   0.153000
    XP4216   LOBROW2615 1.000000
    XP4217   RCAPP42  1.000000   QCRP42   -1.000000
    XP4217   QGAP42   0.493000   QDSP42   0.241000
    XP4217   QRSP42   0.050000   QKJP42   0.034000
    XP4217   QNJP42   0.017000   QPFP42   0.001000
    XP4217   QLPP42   0.016000   QOTP42   0.158000
    XP4217   LOBROW2616 1.000000
    XP4218   RCAPP42  1.000000   QCRP42   -1.000000
    XP4218   QGAP42   0.495000   QDSP42   0.250000
    XP4218   QRSP42   0.046000   QKJP42   0.022000
    XP4218   QNJP42   0.017000   QPFP42   0.001000
    XP4218   QLPP42   0.014000   QOTP42   0.166000
    XP4218   LOBROW2617 1.000000
    XP4219   RCAPP42  1.000000   QCRP42   -1.000000
    XP4219   QGAP42   0.496000   QDSP42   0.255000
    XP4219   QRSP42   0.051000   QKJP42   0.032000
    XP4219   QNJP42   0.023000   QPFP42   0.002000
    XP4219   QLPP42   0.014000   QOTP42   0.151000
    XP4219   LOBROW2618 1.000000
    XP4220   RCAPP42  1.000000   QCRP42   -1.000000
    XP4220   QGAP42   0.498000   QDSP42   0.244000
    XP4220   QRSP42   0.060000   QKJP42   0.029000
    XP4220   QNJP42   0.021000   QPFP42   0.001000
    XP4220   QLPP42   0.012000   QOTP42   0.144000
    XP4220   LOBROW2619 1.000000
    XP4221   RCAPP42  1.000000   QCRP42   -1.000000
    XP4221   QGAP42   0.503000   QDSP42   0.257000
    XP4221   QRSP42   0.066000   QKJP42   0.025000
    XP4221   QNJP42   0.026000   QPFP42   0.001000
    XP4221   QLPP42   0.012000   QOTP42   0.125000
    XP4221   LOBROW2620 1.000000
    XP4222   RCAPP42  1.000000   QCRP42   -1.000000
    XP4222   QGAP42   0.478000   QDSP42   0.271000
    XP4222   QRSP42   0.076000   QKJP42   0.021000
    XP4222   QNJP42   0.020000   QPFP42   0.001000
    XP4222   QLPP42   0.013000   QOTP42   0.125000
    XP4222   LOBROW2621 1.000000
    XP4223   RCAPP42  1.000000   QCRP42   -1.000000
    XP4223   QGAP42   0.496000   QDSP42   0.280000
    XP4223   QRSP42   0.072000   QKJP42   0.028000
    XP4223   QNJP42   0.017000   QPFP42   0.001000
    XP4223   QLPP42   0.010000   QOTP42   0.113000
    XP4223   LOBROW2622 1.000000
    XP4224   RCAPP42  1.000000   QCRP42   -1.000000
    XP4224   QGAP42   0.497000   QDSP42   0.249000
    XP4224   QRSP42   0.073000   QKJP42   0.032000
    XP4224   QNJP42   0.023000   QPFP42   0.001000
    XP4224   QLPP42   0.011000   QOTP42   0.119000
    XP4224   LOBROW2623 1.000000
    XP431    RCAPP43  1.000000   QCRP43   -1.000000
    XP431    QGAP43   0.502000   QDSP43   0.229000
    XP431    QRSP43   0.067000   QKJP43   0.028000
    XP431    QNJP43   0.031000   QPFP43   0.003000
    XP431    QLPP43   0.015000   QOTP43   0.134000
    XP431    LOBROW2624 1.000000
    XP432    RCAPP43  1.000000   QCRP43   -1.000000
    XP432    QGAP43   0.501000   QDSP43   0.236000
    XP432    QRSP43   0.065000   QKJP43   0.029000
    XP432    QNJP43   0.032000   QPFP43   0.003000
    XP432    QLPP43   0.013000   QOTP43   0.134000
    XP432    LOBROW2625 1.000000
    XP433    RCAPP43  1.000000   QCRP43   -1.000000
    XP433    QGAP43   0.490000   QDSP43   0.242000
    XP433    QRSP43   0.056000   QKJP43   0.024000
    XP433    QNJP43   0.032000   QPFP43   0.002000
    XP433    QLPP43   0.015000   QOTP43   0.147000
    XP433    LOBROW2626 1.000000
    XP434    RCAPP43  1.000000   QCRP43   -1.000000
    XP434    QGAP43   0.493000   QDSP43   0.233000
    XP434    QRSP43   0.050000   QKJP43   0.030000
    XP434    QNJP43   0.019000   QPFP43   0.002000
    XP434    QLPP43   0.015000   QOTP43   0.159000
    XP434    LOBROW2627 1.000000
    XP435    RCAPP43  1.000000   QCRP43   -1.000000
    XP435    QGAP43   0.492000   QDSP43   0.235000
    XP435    QRSP43   0.047000   QKJP43   0.035000
    XP435    QNJP43   0.022000   QPFP43   0.002000
    XP435    QLPP43   0.016000   QOTP43   0.161000
    XP435    LOBROW2628 1.000000
    XP436    RCAPP43  1.000000   QCRP43   -1.000000
    XP436    QGAP43   0.504000   QDSP43   0.225000
    XP436    QRSP43   0.042000   QKJP43   0.030000
    XP436    QNJP43   0.018000   QPFP43   0.001000
    XP436    QLPP43   0.015000   QOTP43   0.172000
    XP436    LOBROW2629 1.000000
    XP437    RCAPP43  1.000000   QCRP43   -1.000000
    XP437    QGAP43   0.500000   QDSP43   0.244000
    XP437    QRSP43   0.043000   QKJP43   0.027000
    XP437    QNJP43   0.021000   QPFP43   0.002000
    XP437    QLPP43   0.013000   QOTP43   0.159000
    XP437    LOBROW2630 1.000000
    XP438    RCAPP43  1.000000   QCRP43   -1.000000
    XP438    QGAP43   0.505000   QDSP43   0.241000
    XP438    QRSP43   0.048000   QKJP43   0.028000
    XP438    QNJP43   0.026000   QPFP43   0.002000
    XP438    QLPP43   0.012000   QOTP43   0.149000
    XP438    LOBROW2631 1.000000
    XP439    RCAPP43  1.000000   QCRP43   -1.000000
    XP439    QGAP43   0.504000   QDSP43   0.253000
    XP439    QRSP43   0.048000   QKJP43   0.023000
    XP439    QNJP43   0.027000   QPFP43   0.001000
    XP439    QLPP43   0.012000   QOTP43   0.138000
    XP439    LOBROW2632 1.000000
    XP4310   RCAPP43  1.000000   QCRP43   -1.000000
    XP4310   QGAP43   0.495000   QDSP43   0.245000
    XP4310   QRSP43   0.074000   QKJP43   0.025000
    XP4310   QNJP43   0.023000   QPFP43   0.002000
    XP4310   QLPP43   0.012000   QOTP43   0.133000
    XP4310   LOBROW2633 1.000000
    XP4311   RCAPP43  1.000000   QCRP43   -1.000000
    XP4311   QGAP43   0.501000   QDSP43   0.234000
    XP4311   QRSP43   0.079000   QKJP43   0.023000
    XP4311   QNJP43   0.017000   QPFP43   0.002000
    XP4311   QLPP43   0.013000   QOTP43   0.135000
    XP4311   LOBROW2634 1.000000
    XP4312   RCAPP43  1.000000   QCRP43   -1.000000
    XP4312   QGAP43   0.506000   QDSP43   0.244000
    XP4312   QRSP43   0.071000   QKJP43   0.024000
    XP4312   QNJP43   0.021000   QPFP43   0.001000
    XP4312   QLPP43   0.011000   QOTP43   0.130000
    XP4312   LOBROW2635 1.000000
    XP4313   RCAPP43  1.000000   QCRP43   -1.000000
    XP4313   QGAP43   0.503000   QDSP43   0.239000
    XP4313   QRSP43   0.058000   QKJP43   0.031000
    XP4313   QNJP43   0.026000   QPFP43   0.002000
    XP4313   QLPP43   0.012000   QOTP43   0.139000
    XP4313   LOBROW2636 1.000000
    XP4314   RCAPP43  1.000000   QCRP43   -1.000000
    XP4314   QGAP43   0.493000   QDSP43   0.248000
    XP4314   QRSP43   0.054000   QKJP43   0.037000
    XP4314   QNJP43   0.022000   QPFP43   0.001000
    XP4314   QLPP43   0.016000   QOTP43   0.147000
    XP4314   LOBROW2637 1.000000
    XP4315   RCAPP43  1.000000   QCRP43   -1.000000
    XP4315   QGAP43   0.495000   QDSP43   0.271000
    XP4315   QRSP43   0.052000   QKJP43   0.028000
    XP4315   QNJP43   0.021000   QPFP43   0.001000
    XP4315   QLPP43   0.013000   QOTP43   0.146000
    XP4315   LOBROW2638 1.000000
    XP4316   RCAPP43  1.000000   QCRP43   -1.000000
    XP4316   QGAP43   0.495000   QDSP43   0.263000
    XP4316   QRSP43   0.049000   QKJP43   0.025000
    XP4316   QNJP43   0.021000   QPFP43   0.001000
    XP4316   QLPP43   0.015000   QOTP43   0.153000
    XP4316   LOBROW2639 1.000000
    XP4317   RCAPP43  1.000000   QCRP43   -1.000000
    XP4317   QGAP43   0.493000   QDSP43   0.241000
    XP4317   QRSP43   0.050000   QKJP43   0.034000
    XP4317   QNJP43   0.017000   QPFP43   0.001000
    XP4317   QLPP43   0.016000   QOTP43   0.158000
    XP4317   LOBROW2640 1.000000
    XP4318   RCAPP43  1.000000   QCRP43   -1.000000
    XP4318   QGAP43   0.495000   QDSP43   0.250000
    XP4318   QRSP43   0.046000   QKJP43   0.022000
    XP4318   QNJP43   0.017000   QPFP43   0.001000
    XP4318   QLPP43   0.014000   QOTP43   0.166000
    XP4318   LOBROW2641 1.000000
    XP4319   RCAPP43  1.000000   QCRP43   -1.000000
    XP4319   QGAP43   0.496000   QDSP43   0.255000
    XP4319   QRSP43   0.051000   QKJP43   0.032000
    XP4319   QNJP43   0.023000   QPFP43   0.002000
    XP4319   QLPP43   0.014000   QOTP43   0.151000
    XP4319   LOBROW2642 1.000000
    XP4320   RCAPP43  1.000000   QCRP43   -1.000000
    XP4320   QGAP43   0.498000   QDSP43   0.244000
    XP4320   QRSP43   0.060000   QKJP43   0.029000
    XP4320   QNJP43   0.021000   QPFP43   0.001000
    XP4320   QLPP43   0.012000   QOTP43   0.144000
    XP4320   LOBROW2643 1.000000
    XP4321   RCAPP43  1.000000   QCRP43   -1.000000
    XP4321   QGAP43   0.503000   QDSP43   0.257000
    XP4321   QRSP43   0.066000   QKJP43   0.025000
    XP4321   QNJP43   0.026000   QPFP43   0.001000
    XP4321   QLPP43   0.012000   QOTP43   0.125000
    XP4321   LOBROW2644 1.000000
    XP4322   RCAPP43  1.000000   QCRP43   -1.000000
    XP4322   QGAP43   0.478000   QDSP43   0.271000
    XP4322   QRSP43   0.076000   QKJP43   0.021000
    XP4322   QNJP43   0.020000   QPFP43   0.001000
    XP4322   QLPP43   0.013000   QOTP43   0.125000
    XP4322   LOBROW2645 1.000000
    XP4323   RCAPP43  1.000000   QCRP43   -1.000000
    XP4323   QGAP43   0.496000   QDSP43   0.280000
    XP4323   QRSP43   0.072000   QKJP43   0.028000
    XP4323   QNJP43   0.017000   QPFP43   0.001000
    XP4323   QLPP43   0.010000   QOTP43   0.113000
    XP4323   LOBROW2646 1.000000
    XP4324   RCAPP43  1.000000   QCRP43   -1.000000
    XP4324   QGAP43   0.497000   QDSP43   0.249000
    XP4324   QRSP43   0.073000   QKJP43   0.032000
    XP4324   QNJP43   0.023000   QPFP43   0.001000
    XP4324   QLPP43   0.011000   QOTP43   0.119000
    XP4324   LOBROW2647 1.000000
    XP441    RCAPP44  1.000000   QCRP44   -1.000000
    XP441    QGAP44   0.502000   QDSP44   0.229000
    XP441    QRSP44   0.067000   QKJP44   0.028000
    XP441    QNJP44   0.031000   QPFP44   0.003000
    XP441    QLPP44   0.015000   QOTP44   0.134000
    XP441    LOBROW2648 1.000000
    XP442    RCAPP44  1.000000   QCRP44   -1.000000
    XP442    QGAP44   0.501000   QDSP44   0.236000
    XP442    QRSP44   0.065000   QKJP44   0.029000
    XP442    QNJP44   0.032000   QPFP44   0.003000
    XP442    QLPP44   0.013000   QOTP44   0.134000
    XP442    LOBROW2649 1.000000
    XP443    RCAPP44  1.000000   QCRP44   -1.000000
    XP443    QGAP44   0.490000   QDSP44   0.242000
    XP443    QRSP44   0.056000   QKJP44   0.024000
    XP443    QNJP44   0.032000   QPFP44   0.002000
    XP443    QLPP44   0.015000   QOTP44   0.147000
    XP443    LOBROW2650 1.000000
    XP444    RCAPP44  1.000000   QCRP44   -1.000000
    XP444    QGAP44   0.493000   QDSP44   0.233000
    XP444    QRSP44   0.050000   QKJP44   0.030000
    XP444    QNJP44   0.019000   QPFP44   0.002000
    XP444    QLPP44   0.015000   QOTP44   0.159000
    XP444    LOBROW2651 1.000000
    XP445    RCAPP44  1.000000   QCRP44   -1.000000
    XP445    QGAP44   0.492000   QDSP44   0.235000
    XP445    QRSP44   0.047000   QKJP44   0.035000
    XP445    QNJP44   0.022000   QPFP44   0.002000
    XP445    QLPP44   0.016000   QOTP44   0.161000
    XP445    LOBROW2652 1.000000
    XP446    RCAPP44  1.000000   QCRP44   -1.000000
    XP446    QGAP44   0.504000   QDSP44   0.225000
    XP446    QRSP44   0.042000   QKJP44   0.030000
    XP446    QNJP44   0.018000   QPFP44   0.001000
    XP446    QLPP44   0.015000   QOTP44   0.172000
    XP446    LOBROW2653 1.000000
    XP447    RCAPP44  1.000000   QCRP44   -1.000000
    XP447    QGAP44   0.500000   QDSP44   0.244000
    XP447    QRSP44   0.043000   QKJP44   0.027000
    XP447    QNJP44   0.021000   QPFP44   0.002000
    XP447    QLPP44   0.013000   QOTP44   0.159000
    XP447    LOBROW2654 1.000000
    XP448    RCAPP44  1.000000   QCRP44   -1.000000
    XP448    QGAP44   0.505000   QDSP44   0.241000
    XP448    QRSP44   0.048000   QKJP44   0.028000
    XP448    QNJP44   0.026000   QPFP44   0.002000
    XP448    QLPP44   0.012000   QOTP44   0.149000
    XP448    LOBROW2655 1.000000
    XP449    RCAPP44  1.000000   QCRP44   -1.000000
    XP449    QGAP44   0.504000   QDSP44   0.253000
    XP449    QRSP44   0.048000   QKJP44   0.023000
    XP449    QNJP44   0.027000   QPFP44   0.001000
    XP449    QLPP44   0.012000   QOTP44   0.138000
    XP449    LOBROW2656 1.000000
    XP4410   RCAPP44  1.000000   QCRP44   -1.000000
    XP4410   QGAP44   0.495000   QDSP44   0.245000
    XP4410   QRSP44   0.074000   QKJP44   0.025000
    XP4410   QNJP44   0.023000   QPFP44   0.002000
    XP4410   QLPP44   0.012000   QOTP44   0.133000
    XP4410   LOBROW2657 1.000000
    XP4411   RCAPP44  1.000000   QCRP44   -1.000000
    XP4411   QGAP44   0.501000   QDSP44   0.234000
    XP4411   QRSP44   0.079000   QKJP44   0.023000
    XP4411   QNJP44   0.017000   QPFP44   0.002000
    XP4411   QLPP44   0.013000   QOTP44   0.135000
    XP4411   LOBROW2658 1.000000
    XP4412   RCAPP44  1.000000   QCRP44   -1.000000
    XP4412   QGAP44   0.506000   QDSP44   0.244000
    XP4412   QRSP44   0.071000   QKJP44   0.024000
    XP4412   QNJP44   0.021000   QPFP44   0.001000
    XP4412   QLPP44   0.011000   QOTP44   0.130000
    XP4412   LOBROW2659 1.000000
    XP4413   RCAPP44  1.000000   QCRP44   -1.000000
    XP4413   QGAP44   0.503000   QDSP44   0.239000
    XP4413   QRSP44   0.058000   QKJP44   0.031000
    XP4413   QNJP44   0.026000   QPFP44   0.002000
    XP4413   QLPP44   0.012000   QOTP44   0.139000
    XP4413   LOBROW2660 1.000000
    XP4414   RCAPP44  1.000000   QCRP44   -1.000000
    XP4414   QGAP44   0.493000   QDSP44   0.248000
    XP4414   QRSP44   0.054000   QKJP44   0.037000
    XP4414   QNJP44   0.022000   QPFP44   0.001000
    XP4414   QLPP44   0.016000   QOTP44   0.147000
    XP4414   LOBROW2661 1.000000
    XP4415   RCAPP44  1.000000   QCRP44   -1.000000
    XP4415   QGAP44   0.495000   QDSP44   0.271000
    XP4415   QRSP44   0.052000   QKJP44   0.028000
    XP4415   QNJP44   0.021000   QPFP44   0.001000
    XP4415   QLPP44   0.013000   QOTP44   0.146000
    XP4415   LOBROW2662 1.000000
    XP4416   RCAPP44  1.000000   QCRP44   -1.000000
    XP4416   QGAP44   0.495000   QDSP44   0.263000
    XP4416   QRSP44   0.049000   QKJP44   0.025000
    XP4416   QNJP44   0.021000   QPFP44   0.001000
    XP4416   QLPP44   0.015000   QOTP44   0.153000
    XP4416   LOBROW2663 1.000000
    XP4417   RCAPP44  1.000000   QCRP44   -1.000000
    XP4417   QGAP44   0.493000   QDSP44   0.241000
    XP4417   QRSP44   0.050000   QKJP44   0.034000
    XP4417   QNJP44   0.017000   QPFP44   0.001000
    XP4417   QLPP44   0.016000   QOTP44   0.158000
    XP4417   LOBROW2664 1.000000
    XP4418   RCAPP44  1.000000   QCRP44   -1.000000
    XP4418   QGAP44   0.495000   QDSP44   0.250000
    XP4418   QRSP44   0.046000   QKJP44   0.022000
    XP4418   QNJP44   0.017000   QPFP44   0.001000
    XP4418   QLPP44   0.014000   QOTP44   0.166000
    XP4418   LOBROW2665 1.000000
    XP4419   RCAPP44  1.000000   QCRP44   -1.000000
    XP4419   QGAP44   0.496000   QDSP44   0.255000
    XP4419   QRSP44   0.051000   QKJP44   0.032000
    XP4419   QNJP44   0.023000   QPFP44   0.002000
    XP4419   QLPP44   0.014000   QOTP44   0.151000
    XP4419   LOBROW2666 1.000000
    XP4420   RCAPP44  1.000000   QCRP44   -1.000000
    XP4420   QGAP44   0.498000   QDSP44   0.244000
    XP4420   QRSP44   0.060000   QKJP44   0.029000
    XP4420   QNJP44   0.021000   QPFP44   0.001000
    XP4420   QLPP44   0.012000   QOTP44   0.144000
    XP4420   LOBROW2667 1.000000
    XP4421   RCAPP44  1.000000   QCRP44   -1.000000
    XP4421   QGAP44   0.503000   QDSP44   0.257000
    XP4421   QRSP44   0.066000   QKJP44   0.025000
    XP4421   QNJP44   0.026000   QPFP44   0.001000
    XP4421   QLPP44   0.012000   QOTP44   0.125000
    XP4421   LOBROW2668 1.000000
    XP4422   RCAPP44  1.000000   QCRP44   -1.000000
    XP4422   QGAP44   0.478000   QDSP44   0.271000
    XP4422   QRSP44   0.076000   QKJP44   0.021000
    XP4422   QNJP44   0.020000   QPFP44   0.001000
    XP4422   QLPP44   0.013000   QOTP44   0.125000
    XP4422   LOBROW2669 1.000000
    XP4423   RCAPP44  1.000000   QCRP44   -1.000000
    XP4423   QGAP44   0.496000   QDSP44   0.280000
    XP4423   QRSP44   0.072000   QKJP44   0.028000
    XP4423   QNJP44   0.017000   QPFP44   0.001000
    XP4423   QLPP44   0.010000   QOTP44   0.113000
    XP4423   LOBROW2670 1.000000
    XP4424   RCAPP44  1.000000   QCRP44   -1.000000
    XP4424   QGAP44   0.497000   QDSP44   0.249000
    XP4424   QRSP44   0.073000   QKJP44   0.032000
    XP4424   QNJP44   0.023000   QPFP44   0.001000
    XP4424   QLPP44   0.011000   QOTP44   0.119000
    XP4424   LOBROW2671 1.000000
    XP451    RCAPP45  1.000000   QCRP45   -1.000000
    XP451    QGAP45   0.502000   QDSP45   0.229000
    XP451    QRSP45   0.067000   QKJP45   0.028000
    XP451    QNJP45   0.031000   QPFP45   0.003000
    XP451    QLPP45   0.015000   QOTP45   0.134000
    XP451    LOBROW2672 1.000000
    XP452    RCAPP45  1.000000   QCRP45   -1.000000
    XP452    QGAP45   0.501000   QDSP45   0.236000
    XP452    QRSP45   0.065000   QKJP45   0.029000
    XP452    QNJP45   0.032000   QPFP45   0.003000
    XP452    QLPP45   0.013000   QOTP45   0.134000
    XP452    LOBROW2673 1.000000
    XP453    RCAPP45  1.000000   QCRP45   -1.000000
    XP453    QGAP45   0.490000   QDSP45   0.242000
    XP453    QRSP45   0.056000   QKJP45   0.024000
    XP453    QNJP45   0.032000   QPFP45   0.002000
    XP453    QLPP45   0.015000   QOTP45   0.147000
    XP453    LOBROW2674 1.000000
    XP454    RCAPP45  1.000000   QCRP45   -1.000000
    XP454    QGAP45   0.493000   QDSP45   0.233000
    XP454    QRSP45   0.050000   QKJP45   0.030000
    XP454    QNJP45   0.019000   QPFP45   0.002000
    XP454    QLPP45   0.015000   QOTP45   0.159000
    XP454    LOBROW2675 1.000000
    XP455    RCAPP45  1.000000   QCRP45   -1.000000
    XP455    QGAP45   0.492000   QDSP45   0.235000
    XP455    QRSP45   0.047000   QKJP45   0.035000
    XP455    QNJP45   0.022000   QPFP45   0.002000
    XP455    QLPP45   0.016000   QOTP45   0.161000
    XP455    LOBROW2676 1.000000
    XP456    RCAPP45  1.000000   QCRP45   -1.000000
    XP456    QGAP45   0.504000   QDSP45   0.225000
    XP456    QRSP45   0.042000   QKJP45   0.030000
    XP456    QNJP45   0.018000   QPFP45   0.001000
    XP456    QLPP45   0.015000   QOTP45   0.172000
    XP456    LOBROW2677 1.000000
    XP457    RCAPP45  1.000000   QCRP45   -1.000000
    XP457    QGAP45   0.500000   QDSP45   0.244000
    XP457    QRSP45   0.043000   QKJP45   0.027000
    XP457    QNJP45   0.021000   QPFP45   0.002000
    XP457    QLPP45   0.013000   QOTP45   0.159000
    XP457    LOBROW2678 1.000000
    XP458    RCAPP45  1.000000   QCRP45   -1.000000
    XP458    QGAP45   0.505000   QDSP45   0.241000
    XP458    QRSP45   0.048000   QKJP45   0.028000
    XP458    QNJP45   0.026000   QPFP45   0.002000
    XP458    QLPP45   0.012000   QOTP45   0.149000
    XP458    LOBROW2679 1.000000
    XP459    RCAPP45  1.000000   QCRP45   -1.000000
    XP459    QGAP45   0.504000   QDSP45   0.253000
    XP459    QRSP45   0.048000   QKJP45   0.023000
    XP459    QNJP45   0.027000   QPFP45   0.001000
    XP459    QLPP45   0.012000   QOTP45   0.138000
    XP459    LOBROW2680 1.000000
    XP4510   RCAPP45  1.000000   QCRP45   -1.000000
    XP4510   QGAP45   0.495000   QDSP45   0.245000
    XP4510   QRSP45   0.074000   QKJP45   0.025000
    XP4510   QNJP45   0.023000   QPFP45   0.002000
    XP4510   QLPP45   0.012000   QOTP45   0.133000
    XP4510   LOBROW2681 1.000000
    XP4511   RCAPP45  1.000000   QCRP45   -1.000000
    XP4511   QGAP45   0.501000   QDSP45   0.234000
    XP4511   QRSP45   0.079000   QKJP45   0.023000
    XP4511   QNJP45   0.017000   QPFP45   0.002000
    XP4511   QLPP45   0.013000   QOTP45   0.135000
    XP4511   LOBROW2682 1.000000
    XP4512   RCAPP45  1.000000   QCRP45   -1.000000
    XP4512   QGAP45   0.506000   QDSP45   0.244000
    XP4512   QRSP45   0.071000   QKJP45   0.024000
    XP4512   QNJP45   0.021000   QPFP45   0.001000
    XP4512   QLPP45   0.011000   QOTP45   0.130000
    XP4512   LOBROW2683 1.000000
    XP4513   RCAPP45  1.000000   QCRP45   -1.000000
    XP4513   QGAP45   0.503000   QDSP45   0.239000
    XP4513   QRSP45   0.058000   QKJP45   0.031000
    XP4513   QNJP45   0.026000   QPFP45   0.002000
    XP4513   QLPP45   0.012000   QOTP45   0.139000
    XP4513   LOBROW2684 1.000000
    XP4514   RCAPP45  1.000000   QCRP45   -1.000000
    XP4514   QGAP45   0.493000   QDSP45   0.248000
    XP4514   QRSP45   0.054000   QKJP45   0.037000
    XP4514   QNJP45   0.022000   QPFP45   0.001000
    XP4514   QLPP45   0.016000   QOTP45   0.147000
    XP4514   LOBROW2685 1.000000
    XP4515   RCAPP45  1.000000   QCRP45   -1.000000
    XP4515   QGAP45   0.495000   QDSP45   0.271000
    XP4515   QRSP45   0.052000   QKJP45   0.028000
    XP4515   QNJP45   0.021000   QPFP45   0.001000
    XP4515   QLPP45   0.013000   QOTP45   0.146000
    XP4515   LOBROW2686 1.000000
    XP4516   RCAPP45  1.000000   QCRP45   -1.000000
    XP4516   QGAP45   0.495000   QDSP45   0.263000
    XP4516   QRSP45   0.049000   QKJP45   0.025000
    XP4516   QNJP45   0.021000   QPFP45   0.001000
    XP4516   QLPP45   0.015000   QOTP45   0.153000
    XP4516   LOBROW2687 1.000000
    XP4517   RCAPP45  1.000000   QCRP45   -1.000000
    XP4517   QGAP45   0.493000   QDSP45   0.241000
    XP4517   QRSP45   0.050000   QKJP45   0.034000
    XP4517   QNJP45   0.017000   QPFP45   0.001000
    XP4517   QLPP45   0.016000   QOTP45   0.158000
    XP4517   LOBROW2688 1.000000
    XP4518   RCAPP45  1.000000   QCRP45   -1.000000
    XP4518   QGAP45   0.495000   QDSP45   0.250000
    XP4518   QRSP45   0.046000   QKJP45   0.022000
    XP4518   QNJP45   0.017000   QPFP45   0.001000
    XP4518   QLPP45   0.014000   QOTP45   0.166000
    XP4518   LOBROW2689 1.000000
    XP4519   RCAPP45  1.000000   QCRP45   -1.000000
    XP4519   QGAP45   0.496000   QDSP45   0.255000
    XP4519   QRSP45   0.051000   QKJP45   0.032000
    XP4519   QNJP45   0.023000   QPFP45   0.002000
    XP4519   QLPP45   0.014000   QOTP45   0.151000
    XP4519   LOBROW2690 1.000000
    XP4520   RCAPP45  1.000000   QCRP45   -1.000000
    XP4520   QGAP45   0.498000   QDSP45   0.244000
    XP4520   QRSP45   0.060000   QKJP45   0.029000
    XP4520   QNJP45   0.021000   QPFP45   0.001000
    XP4520   QLPP45   0.012000   QOTP45   0.144000
    XP4520   LOBROW2691 1.000000
    XP4521   RCAPP45  1.000000   QCRP45   -1.000000
    XP4521   QGAP45   0.503000   QDSP45   0.257000
    XP4521   QRSP45   0.066000   QKJP45   0.025000
    XP4521   QNJP45   0.026000   QPFP45   0.001000
    XP4521   QLPP45   0.012000   QOTP45   0.125000
    XP4521   LOBROW2692 1.000000
    XP4522   RCAPP45  1.000000   QCRP45   -1.000000
    XP4522   QGAP45   0.478000   QDSP45   0.271000
    XP4522   QRSP45   0.076000   QKJP45   0.021000
    XP4522   QNJP45   0.020000   QPFP45   0.001000
    XP4522   QLPP45   0.013000   QOTP45   0.125000
    XP4522   LOBROW2693 1.000000
    XP4523   RCAPP45  1.000000   QCRP45   -1.000000
    XP4523   QGAP45   0.496000   QDSP45   0.280000
    XP4523   QRSP45   0.072000   QKJP45   0.028000
    XP4523   QNJP45   0.017000   QPFP45   0.001000
    XP4523   QLPP45   0.010000   QOTP45   0.113000
    XP4523   LOBROW2694 1.000000
    XP4524   RCAPP45  1.000000   QCRP45   -1.000000
    XP4524   QGAP45   0.497000   QDSP45   0.249000
    XP4524   QRSP45   0.073000   QKJP45   0.032000
    XP4524   QNJP45   0.023000   QPFP45   0.001000
    XP4524   QLPP45   0.011000   QOTP45   0.119000
    XP4524   LOBROW2695 1.000000
    XP461    RCAPP46  1.000000   QCRP46   -1.000000
    XP461    QGAP46   0.502000   QDSP46   0.229000
    XP461    QRSP46   0.067000   QKJP46   0.028000
    XP461    QNJP46   0.031000   QPFP46   0.003000
    XP461    QLPP46   0.015000   QOTP46   0.134000
    XP461    LOBROW2696 1.000000
    XP462    RCAPP46  1.000000   QCRP46   -1.000000
    XP462    QGAP46   0.501000   QDSP46   0.236000
    XP462    QRSP46   0.065000   QKJP46   0.029000
    XP462    QNJP46   0.032000   QPFP46   0.003000
    XP462    QLPP46   0.013000   QOTP46   0.134000
    XP462    LOBROW2697 1.000000
    XP463    RCAPP46  1.000000   QCRP46   -1.000000
    XP463    QGAP46   0.490000   QDSP46   0.242000
    XP463    QRSP46   0.056000   QKJP46   0.024000
    XP463    QNJP46   0.032000   QPFP46   0.002000
    XP463    QLPP46   0.015000   QOTP46   0.147000
    XP463    LOBROW2698 1.000000
    XP464    RCAPP46  1.000000   QCRP46   -1.000000
    XP464    QGAP46   0.493000   QDSP46   0.233000
    XP464    QRSP46   0.050000   QKJP46   0.030000
    XP464    QNJP46   0.019000   QPFP46   0.002000
    XP464    QLPP46   0.015000   QOTP46   0.159000
    XP464    LOBROW2699 1.000000
    XP465    RCAPP46  1.000000   QCRP46   -1.000000
    XP465    QGAP46   0.492000   QDSP46   0.235000
    XP465    QRSP46   0.047000   QKJP46   0.035000
    XP465    QNJP46   0.022000   QPFP46   0.002000
    XP465    QLPP46   0.016000   QOTP46   0.161000
    XP465    LOBROW2700 1.000000
    XP466    RCAPP46  1.000000   QCRP46   -1.000000
    XP466    QGAP46   0.504000   QDSP46   0.225000
    XP466    QRSP46   0.042000   QKJP46   0.030000
    XP466    QNJP46   0.018000   QPFP46   0.001000
    XP466    QLPP46   0.015000   QOTP46   0.172000
    XP466    LOBROW2701 1.000000
    XP467    RCAPP46  1.000000   QCRP46   -1.000000
    XP467    QGAP46   0.500000   QDSP46   0.244000
    XP467    QRSP46   0.043000   QKJP46   0.027000
    XP467    QNJP46   0.021000   QPFP46   0.002000
    XP467    QLPP46   0.013000   QOTP46   0.159000
    XP467    LOBROW2702 1.000000
    XP468    RCAPP46  1.000000   QCRP46   -1.000000
    XP468    QGAP46   0.505000   QDSP46   0.241000
    XP468    QRSP46   0.048000   QKJP46   0.028000
    XP468    QNJP46   0.026000   QPFP46   0.002000
    XP468    QLPP46   0.012000   QOTP46   0.149000
    XP468    LOBROW2703 1.000000
    XP469    RCAPP46  1.000000   QCRP46   -1.000000
    XP469    QGAP46   0.504000   QDSP46   0.253000
    XP469    QRSP46   0.048000   QKJP46   0.023000
    XP469    QNJP46   0.027000   QPFP46   0.001000
    XP469    QLPP46   0.012000   QOTP46   0.138000
    XP469    LOBROW2704 1.000000
    XP4610   RCAPP46  1.000000   QCRP46   -1.000000
    XP4610   QGAP46   0.495000   QDSP46   0.245000
    XP4610   QRSP46   0.074000   QKJP46   0.025000
    XP4610   QNJP46   0.023000   QPFP46   0.002000
    XP4610   QLPP46   0.012000   QOTP46   0.133000
    XP4610   LOBROW2705 1.000000
    XP4611   RCAPP46  1.000000   QCRP46   -1.000000
    XP4611   QGAP46   0.501000   QDSP46   0.234000
    XP4611   QRSP46   0.079000   QKJP46   0.023000
    XP4611   QNJP46   0.017000   QPFP46   0.002000
    XP4611   QLPP46   0.013000   QOTP46   0.135000
    XP4611   LOBROW2706 1.000000
    XP4612   RCAPP46  1.000000   QCRP46   -1.000000
    XP4612   QGAP46   0.506000   QDSP46   0.244000
    XP4612   QRSP46   0.071000   QKJP46   0.024000
    XP4612   QNJP46   0.021000   QPFP46   0.001000
    XP4612   QLPP46   0.011000   QOTP46   0.130000
    XP4612   LOBROW2707 1.000000
    XP4613   RCAPP46  1.000000   QCRP46   -1.000000
    XP4613   QGAP46   0.503000   QDSP46   0.239000
    XP4613   QRSP46   0.058000   QKJP46   0.031000
    XP4613   QNJP46   0.026000   QPFP46   0.002000
    XP4613   QLPP46   0.012000   QOTP46   0.139000
    XP4613   LOBROW2708 1.000000
    XP4614   RCAPP46  1.000000   QCRP46   -1.000000
    XP4614   QGAP46   0.493000   QDSP46   0.248000
    XP4614   QRSP46   0.054000   QKJP46   0.037000
    XP4614   QNJP46   0.022000   QPFP46   0.001000
    XP4614   QLPP46   0.016000   QOTP46   0.147000
    XP4614   LOBROW2709 1.000000
    XP4615   RCAPP46  1.000000   QCRP46   -1.000000
    XP4615   QGAP46   0.495000   QDSP46   0.271000
    XP4615   QRSP46   0.052000   QKJP46   0.028000
    XP4615   QNJP46   0.021000   QPFP46   0.001000
    XP4615   QLPP46   0.013000   QOTP46   0.146000
    XP4615   LOBROW2710 1.000000
    XP4616   RCAPP46  1.000000   QCRP46   -1.000000
    XP4616   QGAP46   0.495000   QDSP46   0.263000
    XP4616   QRSP46   0.049000   QKJP46   0.025000
    XP4616   QNJP46   0.021000   QPFP46   0.001000
    XP4616   QLPP46   0.015000   QOTP46   0.153000
    XP4616   LOBROW2711 1.000000
    XP4617   RCAPP46  1.000000   QCRP46   -1.000000
    XP4617   QGAP46   0.493000   QDSP46   0.241000
    XP4617   QRSP46   0.050000   QKJP46   0.034000
    XP4617   QNJP46   0.017000   QPFP46   0.001000
    XP4617   QLPP46   0.016000   QOTP46   0.158000
    XP4617   LOBROW2712 1.000000
    XP4618   RCAPP46  1.000000   QCRP46   -1.000000
    XP4618   QGAP46   0.495000   QDSP46   0.250000
    XP4618   QRSP46   0.046000   QKJP46   0.022000
    XP4618   QNJP46   0.017000   QPFP46   0.001000
    XP4618   QLPP46   0.014000   QOTP46   0.166000
    XP4618   LOBROW2713 1.000000
    XP4619   RCAPP46  1.000000   QCRP46   -1.000000
    XP4619   QGAP46   0.496000   QDSP46   0.255000
    XP4619   QRSP46   0.051000   QKJP46   0.032000
    XP4619   QNJP46   0.023000   QPFP46   0.002000
    XP4619   QLPP46   0.014000   QOTP46   0.151000
    XP4619   LOBROW2714 1.000000
    XP4620   RCAPP46  1.000000   QCRP46   -1.000000
    XP4620   QGAP46   0.498000   QDSP46   0.244000
    XP4620   QRSP46   0.060000   QKJP46   0.029000
    XP4620   QNJP46   0.021000   QPFP46   0.001000
    XP4620   QLPP46   0.012000   QOTP46   0.144000
    XP4620   LOBROW2715 1.000000
    XP4621   RCAPP46  1.000000   QCRP46   -1.000000
    XP4621   QGAP46   0.503000   QDSP46   0.257000
    XP4621   QRSP46   0.066000   QKJP46   0.025000
    XP4621   QNJP46   0.026000   QPFP46   0.001000
    XP4621   QLPP46   0.012000   QOTP46   0.125000
    XP4621   LOBROW2716 1.000000
    XP4622   RCAPP46  1.000000   QCRP46   -1.000000
    XP4622   QGAP46   0.478000   QDSP46   0.271000
    XP4622   QRSP46   0.076000   QKJP46   0.021000
    XP4622   QNJP46   0.020000   QPFP46   0.001000
    XP4622   QLPP46   0.013000   QOTP46   0.125000
    XP4622   LOBROW2717 1.000000
    XP4623   RCAPP46  1.000000   QCRP46   -1.000000
    XP4623   QGAP46   0.496000   QDSP46   0.280000
    XP4623   QRSP46   0.072000   QKJP46   0.028000
    XP4623   QNJP46   0.017000   QPFP46   0.001000
    XP4623   QLPP46   0.010000   QOTP46   0.113000
    XP4623   LOBROW2718 1.000000
    XP4624   RCAPP46  1.000000   QCRP46   -1.000000
    XP4624   QGAP46   0.497000   QDSP46   0.249000
    XP4624   QRSP46   0.073000   QKJP46   0.032000
    XP4624   QNJP46   0.023000   QPFP46   0.001000
    XP4624   QLPP46   0.011000   QOTP46   0.119000
    XP4624   LOBROW2719 1.000000
    XP471    RCAPP47  1.000000   QCRP47   -1.000000
    XP471    QGAP47   0.502000   QDSP47   0.229000
    XP471    QRSP47   0.067000   QKJP47   0.028000
    XP471    QNJP47   0.031000   QPFP47   0.003000
    XP471    QLPP47   0.015000   QOTP47   0.134000
    XP471    LOBROW2720 1.000000
    XP472    RCAPP47  1.000000   QCRP47   -1.000000
    XP472    QGAP47   0.501000   QDSP47   0.236000
    XP472    QRSP47   0.065000   QKJP47   0.029000
    XP472    QNJP47   0.032000   QPFP47   0.003000
    XP472    QLPP47   0.013000   QOTP47   0.134000
    XP472    LOBROW2721 1.000000
    XP473    RCAPP47  1.000000   QCRP47   -1.000000
    XP473    QGAP47   0.490000   QDSP47   0.242000
    XP473    QRSP47   0.056000   QKJP47   0.024000
    XP473    QNJP47   0.032000   QPFP47   0.002000
    XP473    QLPP47   0.015000   QOTP47   0.147000
    XP473    LOBROW2722 1.000000
    XP474    RCAPP47  1.000000   QCRP47   -1.000000
    XP474    QGAP47   0.493000   QDSP47   0.233000
    XP474    QRSP47   0.050000   QKJP47   0.030000
    XP474    QNJP47   0.019000   QPFP47   0.002000
    XP474    QLPP47   0.015000   QOTP47   0.159000
    XP474    LOBROW2723 1.000000
    XP475    RCAPP47  1.000000   QCRP47   -1.000000
    XP475    QGAP47   0.492000   QDSP47   0.235000
    XP475    QRSP47   0.047000   QKJP47   0.035000
    XP475    QNJP47   0.022000   QPFP47   0.002000
    XP475    QLPP47   0.016000   QOTP47   0.161000
    XP475    LOBROW2724 1.000000
    XP476    RCAPP47  1.000000   QCRP47   -1.000000
    XP476    QGAP47   0.504000   QDSP47   0.225000
    XP476    QRSP47   0.042000   QKJP47   0.030000
    XP476    QNJP47   0.018000   QPFP47   0.001000
    XP476    QLPP47   0.015000   QOTP47   0.172000
    XP476    LOBROW2725 1.000000
    XP477    RCAPP47  1.000000   QCRP47   -1.000000
    XP477    QGAP47   0.500000   QDSP47   0.244000
    XP477    QRSP47   0.043000   QKJP47   0.027000
    XP477    QNJP47   0.021000   QPFP47   0.002000
    XP477    QLPP47   0.013000   QOTP47   0.159000
    XP477    LOBROW2726 1.000000
    XP478    RCAPP47  1.000000   QCRP47   -1.000000
    XP478    QGAP47   0.505000   QDSP47   0.241000
    XP478    QRSP47   0.048000   QKJP47   0.028000
    XP478    QNJP47   0.026000   QPFP47   0.002000
    XP478    QLPP47   0.012000   QOTP47   0.149000
    XP478    LOBROW2727 1.000000
    XP479    RCAPP47  1.000000   QCRP47   -1.000000
    XP479    QGAP47   0.504000   QDSP47   0.253000
    XP479    QRSP47   0.048000   QKJP47   0.023000
    XP479    QNJP47   0.027000   QPFP47   0.001000
    XP479    QLPP47   0.012000   QOTP47   0.138000
    XP479    LOBROW2728 1.000000
    XP4710   RCAPP47  1.000000   QCRP47   -1.000000
    XP4710   QGAP47   0.495000   QDSP47   0.245000
    XP4710   QRSP47   0.074000   QKJP47   0.025000
    XP4710   QNJP47   0.023000   QPFP47   0.002000
    XP4710   QLPP47   0.012000   QOTP47   0.133000
    XP4710   LOBROW2729 1.000000
    XP4711   RCAPP47  1.000000   QCRP47   -1.000000
    XP4711   QGAP47   0.501000   QDSP47   0.234000
    XP4711   QRSP47   0.079000   QKJP47   0.023000
    XP4711   QNJP47   0.017000   QPFP47   0.002000
    XP4711   QLPP47   0.013000   QOTP47   0.135000
    XP4711   LOBROW2730 1.000000
    XP4712   RCAPP47  1.000000   QCRP47   -1.000000
    XP4712   QGAP47   0.506000   QDSP47   0.244000
    XP4712   QRSP47   0.071000   QKJP47   0.024000
    XP4712   QNJP47   0.021000   QPFP47   0.001000
    XP4712   QLPP47   0.011000   QOTP47   0.130000
    XP4712   LOBROW2731 1.000000
    XP4713   RCAPP47  1.000000   QCRP47   -1.000000
    XP4713   QGAP47   0.503000   QDSP47   0.239000
    XP4713   QRSP47   0.058000   QKJP47   0.031000
    XP4713   QNJP47   0.026000   QPFP47   0.002000
    XP4713   QLPP47   0.012000   QOTP47   0.139000
    XP4713   LOBROW2732 1.000000
    XP4714   RCAPP47  1.000000   QCRP47   -1.000000
    XP4714   QGAP47   0.493000   QDSP47   0.248000
    XP4714   QRSP47   0.054000   QKJP47   0.037000
    XP4714   QNJP47   0.022000   QPFP47   0.001000
    XP4714   QLPP47   0.016000   QOTP47   0.147000
    XP4714   LOBROW2733 1.000000
    XP4715   RCAPP47  1.000000   QCRP47   -1.000000
    XP4715   QGAP47   0.495000   QDSP47   0.271000
    XP4715   QRSP47   0.052000   QKJP47   0.028000
    XP4715   QNJP47   0.021000   QPFP47   0.001000
    XP4715   QLPP47   0.013000   QOTP47   0.146000
    XP4715   LOBROW2734 1.000000
    XP4716   RCAPP47  1.000000   QCRP47   -1.000000
    XP4716   QGAP47   0.495000   QDSP47   0.263000
    XP4716   QRSP47   0.049000   QKJP47   0.025000
    XP4716   QNJP47   0.021000   QPFP47   0.001000
    XP4716   QLPP47   0.015000   QOTP47   0.153000
    XP4716   LOBROW2735 1.000000
    XP4717   RCAPP47  1.000000   QCRP47   -1.000000
    XP4717   QGAP47   0.493000   QDSP47   0.241000
    XP4717   QRSP47   0.050000   QKJP47   0.034000
    XP4717   QNJP47   0.017000   QPFP47   0.001000
    XP4717   QLPP47   0.016000   QOTP47   0.158000
    XP4717   LOBROW2736 1.000000
    XP4718   RCAPP47  1.000000   QCRP47   -1.000000
    XP4718   QGAP47   0.495000   QDSP47   0.250000
    XP4718   QRSP47   0.046000   QKJP47   0.022000
    XP4718   QNJP47   0.017000   QPFP47   0.001000
    XP4718   QLPP47   0.014000   QOTP47   0.166000
    XP4718   LOBROW2737 1.000000
    XP4719   RCAPP47  1.000000   QCRP47   -1.000000
    XP4719   QGAP47   0.496000   QDSP47   0.255000
    XP4719   QRSP47   0.051000   QKJP47   0.032000
    XP4719   QNJP47   0.023000   QPFP47   0.002000
    XP4719   QLPP47   0.014000   QOTP47   0.151000
    XP4719   LOBROW2738 1.000000
    XP4720   RCAPP47  1.000000   QCRP47   -1.000000
    XP4720   QGAP47   0.498000   QDSP47   0.244000
    XP4720   QRSP47   0.060000   QKJP47   0.029000
    XP4720   QNJP47   0.021000   QPFP47   0.001000
    XP4720   QLPP47   0.012000   QOTP47   0.144000
    XP4720   LOBROW2739 1.000000
    XP4721   RCAPP47  1.000000   QCRP47   -1.000000
    XP4721   QGAP47   0.503000   QDSP47   0.257000
    XP4721   QRSP47   0.066000   QKJP47   0.025000
    XP4721   QNJP47   0.026000   QPFP47   0.001000
    XP4721   QLPP47   0.012000   QOTP47   0.125000
    XP4721   LOBROW2740 1.000000
    XP4722   RCAPP47  1.000000   QCRP47   -1.000000
    XP4722   QGAP47   0.478000   QDSP47   0.271000
    XP4722   QRSP47   0.076000   QKJP47   0.021000
    XP4722   QNJP47   0.020000   QPFP47   0.001000
    XP4722   QLPP47   0.013000   QOTP47   0.125000
    XP4722   LOBROW2741 1.000000
    XP4723   RCAPP47  1.000000   QCRP47   -1.000000
    XP4723   QGAP47   0.496000   QDSP47   0.280000
    XP4723   QRSP47   0.072000   QKJP47   0.028000
    XP4723   QNJP47   0.017000   QPFP47   0.001000
    XP4723   QLPP47   0.010000   QOTP47   0.113000
    XP4723   LOBROW2742 1.000000
    XP4724   RCAPP47  1.000000   QCRP47   -1.000000
    XP4724   QGAP47   0.497000   QDSP47   0.249000
    XP4724   QRSP47   0.073000   QKJP47   0.032000
    XP4724   QNJP47   0.023000   QPFP47   0.001000
    XP4724   QLPP47   0.011000   QOTP47   0.119000
    XP4724   LOBROW2743 1.000000
    XP481    RCAPP48  1.000000   QCRP48   -1.000000
    XP481    QGAP48   0.502000   QDSP48   0.229000
    XP481    QRSP48   0.067000   QKJP48   0.028000
    XP481    QNJP48   0.031000   QPFP48   0.003000
    XP481    QLPP48   0.015000   QOTP48   0.134000
    XP481    LOBROW2744 1.000000
    XP482    RCAPP48  1.000000   QCRP48   -1.000000
    XP482    QGAP48   0.501000   QDSP48   0.236000
    XP482    QRSP48   0.065000   QKJP48   0.029000
    XP482    QNJP48   0.032000   QPFP48   0.003000
    XP482    QLPP48   0.013000   QOTP48   0.134000
    XP482    LOBROW2745 1.000000
    XP483    RCAPP48  1.000000   QCRP48   -1.000000
    XP483    QGAP48   0.490000   QDSP48   0.242000
    XP483    QRSP48   0.056000   QKJP48   0.024000
    XP483    QNJP48   0.032000   QPFP48   0.002000
    XP483    QLPP48   0.015000   QOTP48   0.147000
    XP483    LOBROW2746 1.000000
    XP484    RCAPP48  1.000000   QCRP48   -1.000000
    XP484    QGAP48   0.493000   QDSP48   0.233000
    XP484    QRSP48   0.050000   QKJP48   0.030000
    XP484    QNJP48   0.019000   QPFP48   0.002000
    XP484    QLPP48   0.015000   QOTP48   0.159000
    XP484    LOBROW2747 1.000000
    XP485    RCAPP48  1.000000   QCRP48   -1.000000
    XP485    QGAP48   0.492000   QDSP48   0.235000
    XP485    QRSP48   0.047000   QKJP48   0.035000
    XP485    QNJP48   0.022000   QPFP48   0.002000
    XP485    QLPP48   0.016000   QOTP48   0.161000
    XP485    LOBROW2748 1.000000
    XP486    RCAPP48  1.000000   QCRP48   -1.000000
    XP486    QGAP48   0.504000   QDSP48   0.225000
    XP486    QRSP48   0.042000   QKJP48   0.030000
    XP486    QNJP48   0.018000   QPFP48   0.001000
    XP486    QLPP48   0.015000   QOTP48   0.172000
    XP486    LOBROW2749 1.000000
    XP487    RCAPP48  1.000000   QCRP48   -1.000000
    XP487    QGAP48   0.500000   QDSP48   0.244000
    XP487    QRSP48   0.043000   QKJP48   0.027000
    XP487    QNJP48   0.021000   QPFP48   0.002000
    XP487    QLPP48   0.013000   QOTP48   0.159000
    XP487    LOBROW2750 1.000000
    XP488    RCAPP48  1.000000   QCRP48   -1.000000
    XP488    QGAP48   0.505000   QDSP48   0.241000
    XP488    QRSP48   0.048000   QKJP48   0.028000
    XP488    QNJP48   0.026000   QPFP48   0.002000
    XP488    QLPP48   0.012000   QOTP48   0.149000
    XP488    LOBROW2751 1.000000
    XP489    RCAPP48  1.000000   QCRP48   -1.000000
    XP489    QGAP48   0.504000   QDSP48   0.253000
    XP489    QRSP48   0.048000   QKJP48   0.023000
    XP489    QNJP48   0.027000   QPFP48   0.001000
    XP489    QLPP48   0.012000   QOTP48   0.138000
    XP489    LOBROW2752 1.000000
    XP4810   RCAPP48  1.000000   QCRP48   -1.000000
    XP4810   QGAP48   0.495000   QDSP48   0.245000
    XP4810   QRSP48   0.074000   QKJP48   0.025000
    XP4810   QNJP48   0.023000   QPFP48   0.002000
    XP4810   QLPP48   0.012000   QOTP48   0.133000
    XP4810   LOBROW2753 1.000000
    XP4811   RCAPP48  1.000000   QCRP48   -1.000000
    XP4811   QGAP48   0.501000   QDSP48   0.234000
    XP4811   QRSP48   0.079000   QKJP48   0.023000
    XP4811   QNJP48   0.017000   QPFP48   0.002000
    XP4811   QLPP48   0.013000   QOTP48   0.135000
    XP4811   LOBROW2754 1.000000
    XP4812   RCAPP48  1.000000   QCRP48   -1.000000
    XP4812   QGAP48   0.506000   QDSP48   0.244000
    XP4812   QRSP48   0.071000   QKJP48   0.024000
    XP4812   QNJP48   0.021000   QPFP48   0.001000
    XP4812   QLPP48   0.011000   QOTP48   0.130000
    XP4812   LOBROW2755 1.000000
    XP4813   RCAPP48  1.000000   QCRP48   -1.000000
    XP4813   QGAP48   0.503000   QDSP48   0.239000
    XP4813   QRSP48   0.058000   QKJP48   0.031000
    XP4813   QNJP48   0.026000   QPFP48   0.002000
    XP4813   QLPP48   0.012000   QOTP48   0.139000
    XP4813   LOBROW2756 1.000000
    XP4814   RCAPP48  1.000000   QCRP48   -1.000000
    XP4814   QGAP48   0.493000   QDSP48   0.248000
    XP4814   QRSP48   0.054000   QKJP48   0.037000
    XP4814   QNJP48   0.022000   QPFP48   0.001000
    XP4814   QLPP48   0.016000   QOTP48   0.147000
    XP4814   LOBROW2757 1.000000
    XP4815   RCAPP48  1.000000   QCRP48   -1.000000
    XP4815   QGAP48   0.495000   QDSP48   0.271000
    XP4815   QRSP48   0.052000   QKJP48   0.028000
    XP4815   QNJP48   0.021000   QPFP48   0.001000
    XP4815   QLPP48   0.013000   QOTP48   0.146000
    XP4815   LOBROW2758 1.000000
    XP4816   RCAPP48  1.000000   QCRP48   -1.000000
    XP4816   QGAP48   0.495000   QDSP48   0.263000
    XP4816   QRSP48   0.049000   QKJP48   0.025000
    XP4816   QNJP48   0.021000   QPFP48   0.001000
    XP4816   QLPP48   0.015000   QOTP48   0.153000
    XP4816   LOBROW2759 1.000000
    XP4817   RCAPP48  1.000000   QCRP48   -1.000000
    XP4817   QGAP48   0.493000   QDSP48   0.241000
    XP4817   QRSP48   0.050000   QKJP48   0.034000
    XP4817   QNJP48   0.017000   QPFP48   0.001000
    XP4817   QLPP48   0.016000   QOTP48   0.158000
    XP4817   LOBROW2760 1.000000
    XP4818   RCAPP48  1.000000   QCRP48   -1.000000
    XP4818   QGAP48   0.495000   QDSP48   0.250000
    XP4818   QRSP48   0.046000   QKJP48   0.022000
    XP4818   QNJP48   0.017000   QPFP48   0.001000
    XP4818   QLPP48   0.014000   QOTP48   0.166000
    XP4818   LOBROW2761 1.000000
    XP4819   RCAPP48  1.000000   QCRP48   -1.000000
    XP4819   QGAP48   0.496000   QDSP48   0.255000
    XP4819   QRSP48   0.051000   QKJP48   0.032000
    XP4819   QNJP48   0.023000   QPFP48   0.002000
    XP4819   QLPP48   0.014000   QOTP48   0.151000
    XP4819   LOBROW2762 1.000000
    XP4820   RCAPP48  1.000000   QCRP48   -1.000000
    XP4820   QGAP48   0.498000   QDSP48   0.244000
    XP4820   QRSP48   0.060000   QKJP48   0.029000
    XP4820   QNJP48   0.021000   QPFP48   0.001000
    XP4820   QLPP48   0.012000   QOTP48   0.144000
    XP4820   LOBROW2763 1.000000
    XP4821   RCAPP48  1.000000   QCRP48   -1.000000
    XP4821   QGAP48   0.503000   QDSP48   0.257000
    XP4821   QRSP48   0.066000   QKJP48   0.025000
    XP4821   QNJP48   0.026000   QPFP48   0.001000
    XP4821   QLPP48   0.012000   QOTP48   0.125000
    XP4821   LOBROW2764 1.000000
    XP4822   RCAPP48  1.000000   QCRP48   -1.000000
    XP4822   QGAP48   0.478000   QDSP48   0.271000
    XP4822   QRSP48   0.076000   QKJP48   0.021000
    XP4822   QNJP48   0.020000   QPFP48   0.001000
    XP4822   QLPP48   0.013000   QOTP48   0.125000
    XP4822   LOBROW2765 1.000000
    XP4823   RCAPP48  1.000000   QCRP48   -1.000000
    XP4823   QGAP48   0.496000   QDSP48   0.280000
    XP4823   QRSP48   0.072000   QKJP48   0.028000
    XP4823   QNJP48   0.017000   QPFP48   0.001000
    XP4823   QLPP48   0.010000   QOTP48   0.113000
    XP4823   LOBROW2766 1.000000
    XP4824   RCAPP48  1.000000   QCRP48   -1.000000
    XP4824   QGAP48   0.497000   QDSP48   0.249000
    XP4824   QRSP48   0.073000   QKJP48   0.032000
    XP4824   QNJP48   0.023000   QPFP48   0.001000
    XP4824   QLPP48   0.011000   QOTP48   0.119000
    XP4824   LOBROW2767 1.000000
    XP511    RCAPP51  1.000000   QCRP51   -1.000000
    XP511    QGAP51   0.422000   QDSP51   0.118000
    XP511    QRSP51   0.189000   QKJP51   0.094000
    XP511    QNJP51   0.036000   QPFP51   0.008000
    XP511    QLPP51   0.023000   QOTP51   0.132000
    XP511    LOBROW2768 1.000000
    XP512    RCAPP51  1.000000   QCRP51   -1.000000
    XP512    QGAP51   0.428000   QDSP51   0.127000
    XP512    QRSP51   0.164000   QKJP51   0.084000
    XP512    QNJP51   0.039000   QPFP51   0.016000
    XP512    QLPP51   0.025000   QOTP51   0.147000
    XP512    LOBROW2769 1.000000
    XP513    RCAPP51  1.000000   QCRP51   -1.000000
    XP513    QGAP51   0.459000   QDSP51   0.118000
    XP513    QRSP51   0.150000   QKJP51   0.091000
    XP513    QNJP51   0.038000   QPFP51   0.008000
    XP513    QLPP51   0.026000   QOTP51   0.146000
    XP513    LOBROW2770 1.000000
    XP514    RCAPP51  1.000000   QCRP51   -1.000000
    XP514    QGAP51   0.461000   QDSP51   0.125000
    XP514    QRSP51   0.123000   QKJP51   0.093000
    XP514    QNJP51   0.037000   QPFP51   0.013000
    XP514    QLPP51   0.025000   QOTP51   0.152000
    XP514    LOBROW2771 1.000000
    XP515    RCAPP51  1.000000   QCRP51   -1.000000
    XP515    QGAP51   0.474000   QDSP51   0.112000
    XP515    QRSP51   0.127000   QKJP51   0.093000
    XP515    QNJP51   0.038000   QPFP51   0.012000
    XP515    QLPP51   0.024000   QOTP51   0.157000
    XP515    LOBROW2772 1.000000
    XP516    RCAPP51  1.000000   QCRP51   -1.000000
    XP516    QGAP51   0.471000   QDSP51   0.122000
    XP516    QRSP51   0.127000   QKJP51   0.082000
    XP516    QNJP51   0.035000   QPFP51   0.011000
    XP516    QLPP51   0.023000   QOTP51   0.164000
    XP516    LOBROW2773 1.000000
    XP517    RCAPP51  1.000000   QCRP51   -1.000000
    XP517    QGAP51   0.460000   QDSP51   0.116000
    XP517    QRSP51   0.137000   QKJP51   0.081000
    XP517    QNJP51   0.040000   QPFP51   0.011000
    XP517    QLPP51   0.027000   QOTP51   0.163000
    XP517    LOBROW2774 1.000000
    XP518    RCAPP51  1.000000   QCRP51   -1.000000
    XP518    QGAP51   0.462000   QDSP51   0.135000
    XP518    QRSP51   0.146000   QKJP51   0.071000
    XP518    QNJP51   0.036000   QPFP51   0.012000
    XP518    QLPP51   0.023000   QOTP51   0.153000
    XP518    LOBROW2775 1.000000
    XP519    RCAPP51  1.000000   QCRP51   -1.000000
    XP519    QGAP51   0.434000   QDSP51   0.135000
    XP519    QRSP51   0.168000   QKJP51   0.086000
    XP519    QNJP51   0.033000   QPFP51   0.014000
    XP519    QLPP51   0.020000   QOTP51   0.144000
    XP519    LOBROW2776 1.000000
    XP5110   RCAPP51  1.000000   QCRP51   -1.000000
    XP5110   QGAP51   0.426000   QDSP51   0.135000
    XP5110   QRSP51   0.192000   QKJP51   0.082000
    XP5110   QNJP51   0.029000   QPFP51   0.013000
    XP5110   QLPP51   0.021000   QOTP51   0.131000
    XP5110   LOBROW2777 1.000000
    XP5111   RCAPP51  1.000000   QCRP51   -1.000000
    XP5111   QGAP51   0.433000   QDSP51   0.136000
    XP5111   QRSP51   0.192000   QKJP51   0.082000
    XP5111   QNJP51   0.031000   QPFP51   0.008000
    XP5111   QLPP51   0.018000   QOTP51   0.133000
    XP5111   LOBROW2778 1.000000
    XP5112   RCAPP51  1.000000   QCRP51   -1.000000
    XP5112   QGAP51   0.421000   QDSP51   0.137000
    XP5112   QRSP51   0.198000   QKJP51   0.095000
    XP5112   QNJP51   0.029000   QPFP51   0.015000
    XP5112   QLPP51   0.018000   QOTP51   0.134000
    XP5112   LOBROW2779 1.000000
    XP5113   RCAPP51  1.000000   QCRP51   -1.000000
    XP5113   QGAP51   0.418000   QDSP51   0.132000
    XP5113   QRSP51   0.191000   QKJP51   0.092000
    XP5113   QNJP51   0.029000   QPFP51   0.011000
    XP5113   QLPP51   0.022000   QOTP51   0.139000
    XP5113   LOBROW2780 1.000000
    XP5114   RCAPP51  1.000000   QCRP51   -1.000000
    XP5114   QGAP51   0.427000   QDSP51   0.127000
    XP5114   QRSP51   0.162000   QKJP51   0.093000
    XP5114   QNJP51   0.030000   QPFP51   0.014000
    XP5114   QLPP51   0.023000   QOTP51   0.140000
    XP5114   LOBROW2781 1.000000
    XP5115   RCAPP51  1.000000   QCRP51   -1.000000
    XP5115   QGAP51   0.447000   QDSP51   0.113000
    XP5115   QRSP51   0.187000   QKJP51   0.090000
    XP5115   QNJP51   0.026000   QPFP51   0.014000
    XP5115   QLPP51   0.023000   QOTP51   0.140000
    XP5115   LOBROW2782 1.000000
    XP5116   RCAPP51  1.000000   QCRP51   -1.000000
    XP5116   QGAP51   0.447000   QDSP51   0.131000
    XP5116   QRSP51   0.170000   QKJP51   0.086000
    XP5116   QNJP51   0.025000   QPFP51   0.013000
    XP5116   QLPP51   0.020000   QOTP51   0.157000
    XP5116   LOBROW2783 1.000000
    XP5117   RCAPP51  1.000000   QCRP51   -1.000000
    XP5117   QGAP51   0.452000   QDSP51   0.130000
    XP5117   QRSP51   0.153000   QKJP51   0.090000
    XP5117   QNJP51   0.019000   QPFP51   0.012000
    XP5117   QLPP51   0.025000   QOTP51   0.150000
    XP5117   LOBROW2784 1.000000
    XP5118   RCAPP51  1.000000   QCRP51   -1.000000
    XP5118   QGAP51   0.462000   QDSP51   0.137000
    XP5118   QRSP51   0.146000   QKJP51   0.089000
    XP5118   QNJP51   0.026000   QPFP51   0.011000
    XP5118   QLPP51   0.028000   QOTP51   0.153000
    XP5118   LOBROW2785 1.000000
    XP5119   RCAPP51  1.000000   QCRP51   -1.000000
    XP5119   QGAP51   0.447000   QDSP51   0.145000
    XP5119   QRSP51   0.149000   QKJP51   0.083000
    XP5119   QNJP51   0.027000   QPFP51   0.015000
    XP5119   QLPP51   0.025000   QOTP51   0.151000
    XP5119   LOBROW2786 1.000000
    XP5120   RCAPP51  1.000000   QCRP51   -1.000000
    XP5120   QGAP51   0.446000   QDSP51   0.148000
    XP5120   QRSP51   0.168000   QKJP51   0.082000
    XP5120   QNJP51   0.026000   QPFP51   0.011000
    XP5120   QLPP51   0.020000   QOTP51   0.147000
    XP5120   LOBROW2787 1.000000
    XP5121   RCAPP51  1.000000   QCRP51   -1.000000
    XP5121   QGAP51   0.430000   QDSP51   0.139000
    XP5121   QRSP51   0.187000   QKJP51   0.089000
    XP5121   QNJP51   0.022000   QPFP51   0.012000
    XP5121   QLPP51   0.016000   QOTP51   0.139000
    XP5121   LOBROW2788 1.000000
    XP5122   RCAPP51  1.000000   QCRP51   -1.000000
    XP5122   QGAP51   0.407000   QDSP51   0.149000
    XP5122   QRSP51   0.208000   QKJP51   0.078000
    XP5122   QNJP51   0.029000   QPFP51   0.012000
    XP5122   QLPP51   0.019000   QOTP51   0.139000
    XP5122   LOBROW2789 1.000000
    XP5123   RCAPP51  1.000000   QCRP51   -1.000000
    XP5123   QGAP51   0.443000   QDSP51   0.138000
    XP5123   QRSP51   0.191000   QKJP51   0.081000
    XP5123   QNJP51   0.027000   QPFP51   0.010000
    XP5123   QLPP51   0.018000   QOTP51   0.135000
    XP5123   LOBROW2790 1.000000
    XP5124   RCAPP51  1.000000   QCRP51   -1.000000
    XP5124   QGAP51   0.439000   QDSP51   0.121000
    XP5124   QRSP51   0.194000   QKJP51   0.086000
    XP5124   QNJP51   0.024000   QPFP51   0.012000
    XP5124   QLPP51   0.022000   QOTP51   0.139000
    XP5124   LOBROW2791 1.000000
    XP521    RCAPP52  1.000000   QCRP52   -1.000000
    XP521    QGAP52   0.422000   QDSP52   0.118000
    XP521    QRSP52   0.189000   QKJP52   0.094000
    XP521    QNJP52   0.036000   QPFP52   0.008000
    XP521    QLPP52   0.023000   QOTP52   0.132000
    XP521    LOBROW2792 1.000000
    XP522    RCAPP52  1.000000   QCRP52   -1.000000
    XP522    QGAP52   0.428000   QDSP52   0.127000
    XP522    QRSP52   0.164000   QKJP52   0.084000
    XP522    QNJP52   0.039000   QPFP52   0.016000
    XP522    QLPP52   0.025000   QOTP52   0.147000
    XP522    LOBROW2793 1.000000
    XP523    RCAPP52  1.000000   QCRP52   -1.000000
    XP523    QGAP52   0.459000   QDSP52   0.118000
    XP523    QRSP52   0.150000   QKJP52   0.091000
    XP523    QNJP52   0.038000   QPFP52   0.008000
    XP523    QLPP52   0.026000   QOTP52   0.146000
    XP523    LOBROW2794 1.000000
    XP524    RCAPP52  1.000000   QCRP52   -1.000000
    XP524    QGAP52   0.461000   QDSP52   0.125000
    XP524    QRSP52   0.123000   QKJP52   0.093000
    XP524    QNJP52   0.037000   QPFP52   0.013000
    XP524    QLPP52   0.025000   QOTP52   0.152000
    XP524    LOBROW2795 1.000000
    XP525    RCAPP52  1.000000   QCRP52   -1.000000
    XP525    QGAP52   0.474000   QDSP52   0.112000
    XP525    QRSP52   0.127000   QKJP52   0.093000
    XP525    QNJP52   0.038000   QPFP52   0.012000
    XP525    QLPP52   0.024000   QOTP52   0.157000
    XP525    LOBROW2796 1.000000
    XP526    RCAPP52  1.000000   QCRP52   -1.000000
    XP526    QGAP52   0.471000   QDSP52   0.122000
    XP526    QRSP52   0.127000   QKJP52   0.082000
    XP526    QNJP52   0.035000   QPFP52   0.011000
    XP526    QLPP52   0.023000   QOTP52   0.164000
    XP526    LOBROW2797 1.000000
    XP527    RCAPP52  1.000000   QCRP52   -1.000000
    XP527    QGAP52   0.460000   QDSP52   0.116000
    XP527    QRSP52   0.137000   QKJP52   0.081000
    XP527    QNJP52   0.040000   QPFP52   0.011000
    XP527    QLPP52   0.027000   QOTP52   0.163000
    XP527    LOBROW2798 1.000000
    XP528    RCAPP52  1.000000   QCRP52   -1.000000
    XP528    QGAP52   0.462000   QDSP52   0.135000
    XP528    QRSP52   0.146000   QKJP52   0.071000
    XP528    QNJP52   0.036000   QPFP52   0.012000
    XP528    QLPP52   0.023000   QOTP52   0.153000
    XP528    LOBROW2799 1.000000
    XP529    RCAPP52  1.000000   QCRP52   -1.000000
    XP529    QGAP52   0.434000   QDSP52   0.135000
    XP529    QRSP52   0.168000   QKJP52   0.086000
    XP529    QNJP52   0.033000   QPFP52   0.014000
    XP529    QLPP52   0.020000   QOTP52   0.144000
    XP529    LOBROW2800 1.000000
    XP5210   RCAPP52  1.000000   QCRP52   -1.000000
    XP5210   QGAP52   0.426000   QDSP52   0.135000
    XP5210   QRSP52   0.192000   QKJP52   0.082000
    XP5210   QNJP52   0.029000   QPFP52   0.013000
    XP5210   QLPP52   0.021000   QOTP52   0.131000
    XP5210   LOBROW2801 1.000000
    XP5211   RCAPP52  1.000000   QCRP52   -1.000000
    XP5211   QGAP52   0.433000   QDSP52   0.136000
    XP5211   QRSP52   0.192000   QKJP52   0.082000
    XP5211   QNJP52   0.031000   QPFP52   0.008000
    XP5211   QLPP52   0.018000   QOTP52   0.133000
    XP5211   LOBROW2802 1.000000
    XP5212   RCAPP52  1.000000   QCRP52   -1.000000
    XP5212   QGAP52   0.421000   QDSP52   0.137000
    XP5212   QRSP52   0.198000   QKJP52   0.095000
    XP5212   QNJP52   0.029000   QPFP52   0.015000
    XP5212   QLPP52   0.018000   QOTP52   0.134000
    XP5212   LOBROW2803 1.000000
    XP5213   RCAPP52  1.000000   QCRP52   -1.000000
    XP5213   QGAP52   0.418000   QDSP52   0.132000
    XP5213   QRSP52   0.191000   QKJP52   0.092000
    XP5213   QNJP52   0.029000   QPFP52   0.011000
    XP5213   QLPP52   0.022000   QOTP52   0.139000
    XP5213   LOBROW2804 1.000000
    XP5214   RCAPP52  1.000000   QCRP52   -1.000000
    XP5214   QGAP52   0.427000   QDSP52   0.127000
    XP5214   QRSP52   0.162000   QKJP52   0.093000
    XP5214   QNJP52   0.030000   QPFP52   0.014000
    XP5214   QLPP52   0.023000   QOTP52   0.140000
    XP5214   LOBROW2805 1.000000
    XP5215   RCAPP52  1.000000   QCRP52   -1.000000
    XP5215   QGAP52   0.447000   QDSP52   0.113000
    XP5215   QRSP52   0.187000   QKJP52   0.090000
    XP5215   QNJP52   0.026000   QPFP52   0.014000
    XP5215   QLPP52   0.023000   QOTP52   0.140000
    XP5215   LOBROW2806 1.000000
    XP5216   RCAPP52  1.000000   QCRP52   -1.000000
    XP5216   QGAP52   0.447000   QDSP52   0.131000
    XP5216   QRSP52   0.170000   QKJP52   0.086000
    XP5216   QNJP52   0.025000   QPFP52   0.013000
    XP5216   QLPP52   0.020000   QOTP52   0.157000
    XP5216   LOBROW2807 1.000000
    XP5217   RCAPP52  1.000000   QCRP52   -1.000000
    XP5217   QGAP52   0.452000   QDSP52   0.130000
    XP5217   QRSP52   0.153000   QKJP52   0.090000
    XP5217   QNJP52   0.019000   QPFP52   0.012000
    XP5217   QLPP52   0.025000   QOTP52   0.150000
    XP5217   LOBROW2808 1.000000
    XP5218   RCAPP52  1.000000   QCRP52   -1.000000
    XP5218   QGAP52   0.462000   QDSP52   0.137000
    XP5218   QRSP52   0.146000   QKJP52   0.089000
    XP5218   QNJP52   0.026000   QPFP52   0.011000
    XP5218   QLPP52   0.028000   QOTP52   0.153000
    XP5218   LOBROW2809 1.000000
    XP5219   RCAPP52  1.000000   QCRP52   -1.000000
    XP5219   QGAP52   0.447000   QDSP52   0.145000
    XP5219   QRSP52   0.149000   QKJP52   0.083000
    XP5219   QNJP52   0.027000   QPFP52   0.015000
    XP5219   QLPP52   0.025000   QOTP52   0.151000
    XP5219   LOBROW2810 1.000000
    XP5220   RCAPP52  1.000000   QCRP52   -1.000000
    XP5220   QGAP52   0.446000   QDSP52   0.148000
    XP5220   QRSP52   0.168000   QKJP52   0.082000
    XP5220   QNJP52   0.026000   QPFP52   0.011000
    XP5220   QLPP52   0.020000   QOTP52   0.147000
    XP5220   LOBROW2811 1.000000
    XP5221   RCAPP52  1.000000   QCRP52   -1.000000
    XP5221   QGAP52   0.430000   QDSP52   0.139000
    XP5221   QRSP52   0.187000   QKJP52   0.089000
    XP5221   QNJP52   0.022000   QPFP52   0.012000
    XP5221   QLPP52   0.016000   QOTP52   0.139000
    XP5221   LOBROW2812 1.000000
    XP5222   RCAPP52  1.000000   QCRP52   -1.000000
    XP5222   QGAP52   0.407000   QDSP52   0.149000
    XP5222   QRSP52   0.208000   QKJP52   0.078000
    XP5222   QNJP52   0.029000   QPFP52   0.012000
    XP5222   QLPP52   0.019000   QOTP52   0.139000
    XP5222   LOBROW2813 1.000000
    XP5223   RCAPP52  1.000000   QCRP52   -1.000000
    XP5223   QGAP52   0.443000   QDSP52   0.138000
    XP5223   QRSP52   0.191000   QKJP52   0.081000
    XP5223   QNJP52   0.027000   QPFP52   0.010000
    XP5223   QLPP52   0.018000   QOTP52   0.135000
    XP5223   LOBROW2814 1.000000
    XP5224   RCAPP52  1.000000   QCRP52   -1.000000
    XP5224   QGAP52   0.439000   QDSP52   0.121000
    XP5224   QRSP52   0.194000   QKJP52   0.086000
    XP5224   QNJP52   0.024000   QPFP52   0.012000
    XP5224   QLPP52   0.022000   QOTP52   0.139000
    XP5224   LOBROW2815 1.000000
    XP531    RCAPP53  1.000000   QCRP53   -1.000000
    XP531    QGAP53   0.422000   QDSP53   0.118000
    XP531    QRSP53   0.189000   QKJP53   0.094000
    XP531    QNJP53   0.036000   QPFP53   0.008000
    XP531    QLPP53   0.023000   QOTP53   0.132000
    XP531    LOBROW2816 1.000000
    XP532    RCAPP53  1.000000   QCRP53   -1.000000
    XP532    QGAP53   0.428000   QDSP53   0.127000
    XP532    QRSP53   0.164000   QKJP53   0.084000
    XP532    QNJP53   0.039000   QPFP53   0.016000
    XP532    QLPP53   0.025000   QOTP53   0.147000
    XP532    LOBROW2817 1.000000
    XP533    RCAPP53  1.000000   QCRP53   -1.000000
    XP533    QGAP53   0.459000   QDSP53   0.118000
    XP533    QRSP53   0.150000   QKJP53   0.091000
    XP533    QNJP53   0.038000   QPFP53   0.008000
    XP533    QLPP53   0.026000   QOTP53   0.146000
    XP533    LOBROW2818 1.000000
    XP534    RCAPP53  1.000000   QCRP53   -1.000000
    XP534    QGAP53   0.461000   QDSP53   0.125000
    XP534    QRSP53   0.123000   QKJP53   0.093000
    XP534    QNJP53   0.037000   QPFP53   0.013000
    XP534    QLPP53   0.025000   QOTP53   0.152000
    XP534    LOBROW2819 1.000000
    XP535    RCAPP53  1.000000   QCRP53   -1.000000
    XP535    QGAP53   0.474000   QDSP53   0.112000
    XP535    QRSP53   0.127000   QKJP53   0.093000
    XP535    QNJP53   0.038000   QPFP53   0.012000
    XP535    QLPP53   0.024000   QOTP53   0.157000
    XP535    LOBROW2820 1.000000
    XP536    RCAPP53  1.000000   QCRP53   -1.000000
    XP536    QGAP53   0.471000   QDSP53   0.122000
    XP536    QRSP53   0.127000   QKJP53   0.082000
    XP536    QNJP53   0.035000   QPFP53   0.011000
    XP536    QLPP53   0.023000   QOTP53   0.164000
    XP536    LOBROW2821 1.000000
    XP537    RCAPP53  1.000000   QCRP53   -1.000000
    XP537    QGAP53   0.460000   QDSP53   0.116000
    XP537    QRSP53   0.137000   QKJP53   0.081000
    XP537    QNJP53   0.040000   QPFP53   0.011000
    XP537    QLPP53   0.027000   QOTP53   0.163000
    XP537    LOBROW2822 1.000000
    XP538    RCAPP53  1.000000   QCRP53   -1.000000
    XP538    QGAP53   0.462000   QDSP53   0.135000
    XP538    QRSP53   0.146000   QKJP53   0.071000
    XP538    QNJP53   0.036000   QPFP53   0.012000
    XP538    QLPP53   0.023000   QOTP53   0.153000
    XP538    LOBROW2823 1.000000
    XP539    RCAPP53  1.000000   QCRP53   -1.000000
    XP539    QGAP53   0.434000   QDSP53   0.135000
    XP539    QRSP53   0.168000   QKJP53   0.086000
    XP539    QNJP53   0.033000   QPFP53   0.014000
    XP539    QLPP53   0.020000   QOTP53   0.144000
    XP539    LOBROW2824 1.000000
    XP5310   RCAPP53  1.000000   QCRP53   -1.000000
    XP5310   QGAP53   0.426000   QDSP53   0.135000
    XP5310   QRSP53   0.192000   QKJP53   0.082000
    XP5310   QNJP53   0.029000   QPFP53   0.013000
    XP5310   QLPP53   0.021000   QOTP53   0.131000
    XP5310   LOBROW2825 1.000000
    XP5311   RCAPP53  1.000000   QCRP53   -1.000000
    XP5311   QGAP53   0.433000   QDSP53   0.136000
    XP5311   QRSP53   0.192000   QKJP53   0.082000
    XP5311   QNJP53   0.031000   QPFP53   0.008000
    XP5311   QLPP53   0.018000   QOTP53   0.133000
    XP5311   LOBROW2826 1.000000
    XP5312   RCAPP53  1.000000   QCRP53   -1.000000
    XP5312   QGAP53   0.421000   QDSP53   0.137000
    XP5312   QRSP53   0.198000   QKJP53   0.095000
    XP5312   QNJP53   0.029000   QPFP53   0.015000
    XP5312   QLPP53   0.018000   QOTP53   0.134000
    XP5312   LOBROW2827 1.000000
    XP5313   RCAPP53  1.000000   QCRP53   -1.000000
    XP5313   QGAP53   0.418000   QDSP53   0.132000
    XP5313   QRSP53   0.191000   QKJP53   0.092000
    XP5313   QNJP53   0.029000   QPFP53   0.011000
    XP5313   QLPP53   0.022000   QOTP53   0.139000
    XP5313   LOBROW2828 1.000000
    XP5314   RCAPP53  1.000000   QCRP53   -1.000000
    XP5314   QGAP53   0.427000   QDSP53   0.127000
    XP5314   QRSP53   0.162000   QKJP53   0.093000
    XP5314   QNJP53   0.030000   QPFP53   0.014000
    XP5314   QLPP53   0.023000   QOTP53   0.140000
    XP5314   LOBROW2829 1.000000
    XP5315   RCAPP53  1.000000   QCRP53   -1.000000
    XP5315   QGAP53   0.447000   QDSP53   0.113000
    XP5315   QRSP53   0.187000   QKJP53   0.090000
    XP5315   QNJP53   0.026000   QPFP53   0.014000
    XP5315   QLPP53   0.023000   QOTP53   0.140000
    XP5315   LOBROW2830 1.000000
    XP5316   RCAPP53  1.000000   QCRP53   -1.000000
    XP5316   QGAP53   0.447000   QDSP53   0.131000
    XP5316   QRSP53   0.170000   QKJP53   0.086000
    XP5316   QNJP53   0.025000   QPFP53   0.013000
    XP5316   QLPP53   0.020000   QOTP53   0.157000
    XP5316   LOBROW2831 1.000000
    XP5317   RCAPP53  1.000000   QCRP53   -1.000000
    XP5317   QGAP53   0.452000   QDSP53   0.130000
    XP5317   QRSP53   0.153000   QKJP53   0.090000
    XP5317   QNJP53   0.019000   QPFP53   0.012000
    XP5317   QLPP53   0.025000   QOTP53   0.150000
    XP5317   LOBROW2832 1.000000
    XP5318   RCAPP53  1.000000   QCRP53   -1.000000
    XP5318   QGAP53   0.462000   QDSP53   0.137000
    XP5318   QRSP53   0.146000   QKJP53   0.089000
    XP5318   QNJP53   0.026000   QPFP53   0.011000
    XP5318   QLPP53   0.028000   QOTP53   0.153000
    XP5318   LOBROW2833 1.000000
    XP5319   RCAPP53  1.000000   QCRP53   -1.000000
    XP5319   QGAP53   0.447000   QDSP53   0.145000
    XP5319   QRSP53   0.149000   QKJP53   0.083000
    XP5319   QNJP53   0.027000   QPFP53   0.015000
    XP5319   QLPP53   0.025000   QOTP53   0.151000
    XP5319   LOBROW2834 1.000000
    XP5320   RCAPP53  1.000000   QCRP53   -1.000000
    XP5320   QGAP53   0.446000   QDSP53   0.148000
    XP5320   QRSP53   0.168000   QKJP53   0.082000
    XP5320   QNJP53   0.026000   QPFP53   0.011000
    XP5320   QLPP53   0.020000   QOTP53   0.147000
    XP5320   LOBROW2835 1.000000
    XP5321   RCAPP53  1.000000   QCRP53   -1.000000
    XP5321   QGAP53   0.430000   QDSP53   0.139000
    XP5321   QRSP53   0.187000   QKJP53   0.089000
    XP5321   QNJP53   0.022000   QPFP53   0.012000
    XP5321   QLPP53   0.016000   QOTP53   0.139000
    XP5321   LOBROW2836 1.000000
    XP5322   RCAPP53  1.000000   QCRP53   -1.000000
    XP5322   QGAP53   0.407000   QDSP53   0.149000
    XP5322   QRSP53   0.208000   QKJP53   0.078000
    XP5322   QNJP53   0.029000   QPFP53   0.012000
    XP5322   QLPP53   0.019000   QOTP53   0.139000
    XP5322   LOBROW2837 1.000000
    XP5323   RCAPP53  1.000000   QCRP53   -1.000000
    XP5323   QGAP53   0.443000   QDSP53   0.138000
    XP5323   QRSP53   0.191000   QKJP53   0.081000
    XP5323   QNJP53   0.027000   QPFP53   0.010000
    XP5323   QLPP53   0.018000   QOTP53   0.135000
    XP5323   LOBROW2838 1.000000
    XP5324   RCAPP53  1.000000   QCRP53   -1.000000
    XP5324   QGAP53   0.439000   QDSP53   0.121000
    XP5324   QRSP53   0.194000   QKJP53   0.086000
    XP5324   QNJP53   0.024000   QPFP53   0.012000
    XP5324   QLPP53   0.022000   QOTP53   0.139000
    XP5324   LOBROW2839 1.000000
    XP541    RCAPP54  1.000000   QCRP54   -1.000000
    XP541    QGAP54   0.422000   QDSP54   0.118000
    XP541    QRSP54   0.189000   QKJP54   0.094000
    XP541    QNJP54   0.036000   QPFP54   0.008000
    XP541    QLPP54   0.023000   QOTP54   0.132000
    XP541    LOBROW2840 1.000000
    XP542    RCAPP54  1.000000   QCRP54   -1.000000
    XP542    QGAP54   0.428000   QDSP54   0.127000
    XP542    QRSP54   0.164000   QKJP54   0.084000
    XP542    QNJP54   0.039000   QPFP54   0.016000
    XP542    QLPP54   0.025000   QOTP54   0.147000
    XP542    LOBROW2841 1.000000
    XP543    RCAPP54  1.000000   QCRP54   -1.000000
    XP543    QGAP54   0.459000   QDSP54   0.118000
    XP543    QRSP54   0.150000   QKJP54   0.091000
    XP543    QNJP54   0.038000   QPFP54   0.008000
    XP543    QLPP54   0.026000   QOTP54   0.146000
    XP543    LOBROW2842 1.000000
    XP544    RCAPP54  1.000000   QCRP54   -1.000000
    XP544    QGAP54   0.461000   QDSP54   0.125000
    XP544    QRSP54   0.123000   QKJP54   0.093000
    XP544    QNJP54   0.037000   QPFP54   0.013000
    XP544    QLPP54   0.025000   QOTP54   0.152000
    XP544    LOBROW2843 1.000000
    XP545    RCAPP54  1.000000   QCRP54   -1.000000
    XP545    QGAP54   0.474000   QDSP54   0.112000
    XP545    QRSP54   0.127000   QKJP54   0.093000
    XP545    QNJP54   0.038000   QPFP54   0.012000
    XP545    QLPP54   0.024000   QOTP54   0.157000
    XP545    LOBROW2844 1.000000
    XP546    RCAPP54  1.000000   QCRP54   -1.000000
    XP546    QGAP54   0.471000   QDSP54   0.122000
    XP546    QRSP54   0.127000   QKJP54   0.082000
    XP546    QNJP54   0.035000   QPFP54   0.011000
    XP546    QLPP54   0.023000   QOTP54   0.164000
    XP546    LOBROW2845 1.000000
    XP547    RCAPP54  1.000000   QCRP54   -1.000000
    XP547    QGAP54   0.460000   QDSP54   0.116000
    XP547    QRSP54   0.137000   QKJP54   0.081000
    XP547    QNJP54   0.040000   QPFP54   0.011000
    XP547    QLPP54   0.027000   QOTP54   0.163000
    XP547    LOBROW2846 1.000000
    XP548    RCAPP54  1.000000   QCRP54   -1.000000
    XP548    QGAP54   0.462000   QDSP54   0.135000
    XP548    QRSP54   0.146000   QKJP54   0.071000
    XP548    QNJP54   0.036000   QPFP54   0.012000
    XP548    QLPP54   0.023000   QOTP54   0.153000
    XP548    LOBROW2847 1.000000
    XP549    RCAPP54  1.000000   QCRP54   -1.000000
    XP549    QGAP54   0.434000   QDSP54   0.135000
    XP549    QRSP54   0.168000   QKJP54   0.086000
    XP549    QNJP54   0.033000   QPFP54   0.014000
    XP549    QLPP54   0.020000   QOTP54   0.144000
    XP549    LOBROW2848 1.000000
    XP5410   RCAPP54  1.000000   QCRP54   -1.000000
    XP5410   QGAP54   0.426000   QDSP54   0.135000
    XP5410   QRSP54   0.192000   QKJP54   0.082000
    XP5410   QNJP54   0.029000   QPFP54   0.013000
    XP5410   QLPP54   0.021000   QOTP54   0.131000
    XP5410   LOBROW2849 1.000000
    XP5411   RCAPP54  1.000000   QCRP54   -1.000000
    XP5411   QGAP54   0.433000   QDSP54   0.136000
    XP5411   QRSP54   0.192000   QKJP54   0.082000
    XP5411   QNJP54   0.031000   QPFP54   0.008000
    XP5411   QLPP54   0.018000   QOTP54   0.133000
    XP5411   LOBROW2850 1.000000
    XP5412   RCAPP54  1.000000   QCRP54   -1.000000
    XP5412   QGAP54   0.421000   QDSP54   0.137000
    XP5412   QRSP54   0.198000   QKJP54   0.095000
    XP5412   QNJP54   0.029000   QPFP54   0.015000
    XP5412   QLPP54   0.018000   QOTP54   0.134000
    XP5412   LOBROW2851 1.000000
    XP5413   RCAPP54  1.000000   QCRP54   -1.000000
    XP5413   QGAP54   0.418000   QDSP54   0.132000
    XP5413   QRSP54   0.191000   QKJP54   0.092000
    XP5413   QNJP54   0.029000   QPFP54   0.011000
    XP5413   QLPP54   0.022000   QOTP54   0.139000
    XP5413   LOBROW2852 1.000000
    XP5414   RCAPP54  1.000000   QCRP54   -1.000000
    XP5414   QGAP54   0.427000   QDSP54   0.127000
    XP5414   QRSP54   0.162000   QKJP54   0.093000
    XP5414   QNJP54   0.030000   QPFP54   0.014000
    XP5414   QLPP54   0.023000   QOTP54   0.140000
    XP5414   LOBROW2853 1.000000
    XP5415   RCAPP54  1.000000   QCRP54   -1.000000
    XP5415   QGAP54   0.447000   QDSP54   0.113000
    XP5415   QRSP54   0.187000   QKJP54   0.090000
    XP5415   QNJP54   0.026000   QPFP54   0.014000
    XP5415   QLPP54   0.023000   QOTP54   0.140000
    XP5415   LOBROW2854 1.000000
    XP5416   RCAPP54  1.000000   QCRP54   -1.000000
    XP5416   QGAP54   0.447000   QDSP54   0.131000
    XP5416   QRSP54   0.170000   QKJP54   0.086000
    XP5416   QNJP54   0.025000   QPFP54   0.013000
    XP5416   QLPP54   0.020000   QOTP54   0.157000
    XP5416   LOBROW2855 1.000000
    XP5417   RCAPP54  1.000000   QCRP54   -1.000000
    XP5417   QGAP54   0.452000   QDSP54   0.130000
    XP5417   QRSP54   0.153000   QKJP54   0.090000
    XP5417   QNJP54   0.019000   QPFP54   0.012000
    XP5417   QLPP54   0.025000   QOTP54   0.150000
    XP5417   LOBROW2856 1.000000
    XP5418   RCAPP54  1.000000   QCRP54   -1.000000
    XP5418   QGAP54   0.462000   QDSP54   0.137000
    XP5418   QRSP54   0.146000   QKJP54   0.089000
    XP5418   QNJP54   0.026000   QPFP54   0.011000
    XP5418   QLPP54   0.028000   QOTP54   0.153000
    XP5418   LOBROW2857 1.000000
    XP5419   RCAPP54  1.000000   QCRP54   -1.000000
    XP5419   QGAP54   0.447000   QDSP54   0.145000
    XP5419   QRSP54   0.149000   QKJP54   0.083000
    XP5419   QNJP54   0.027000   QPFP54   0.015000
    XP5419   QLPP54   0.025000   QOTP54   0.151000
    XP5419   LOBROW2858 1.000000
    XP5420   RCAPP54  1.000000   QCRP54   -1.000000
    XP5420   QGAP54   0.446000   QDSP54   0.148000
    XP5420   QRSP54   0.168000   QKJP54   0.082000
    XP5420   QNJP54   0.026000   QPFP54   0.011000
    XP5420   QLPP54   0.020000   QOTP54   0.147000
    XP5420   LOBROW2859 1.000000
    XP5421   RCAPP54  1.000000   QCRP54   -1.000000
    XP5421   QGAP54   0.430000   QDSP54   0.139000
    XP5421   QRSP54   0.187000   QKJP54   0.089000
    XP5421   QNJP54   0.022000   QPFP54   0.012000
    XP5421   QLPP54   0.016000   QOTP54   0.139000
    XP5421   LOBROW2860 1.000000
    XP5422   RCAPP54  1.000000   QCRP54   -1.000000
    XP5422   QGAP54   0.407000   QDSP54   0.149000
    XP5422   QRSP54   0.208000   QKJP54   0.078000
    XP5422   QNJP54   0.029000   QPFP54   0.012000
    XP5422   QLPP54   0.019000   QOTP54   0.139000
    XP5422   LOBROW2861 1.000000
    XP5423   RCAPP54  1.000000   QCRP54   -1.000000
    XP5423   QGAP54   0.443000   QDSP54   0.138000
    XP5423   QRSP54   0.191000   QKJP54   0.081000
    XP5423   QNJP54   0.027000   QPFP54   0.010000
    XP5423   QLPP54   0.018000   QOTP54   0.135000
    XP5423   LOBROW2862 1.000000
    XP5424   RCAPP54  1.000000   QCRP54   -1.000000
    XP5424   QGAP54   0.439000   QDSP54   0.121000
    XP5424   QRSP54   0.194000   QKJP54   0.086000
    XP5424   QNJP54   0.024000   QPFP54   0.012000
    XP5424   QLPP54   0.022000   QOTP54   0.139000
    XP5424   LOBROW2863 1.000000
    XP551    RCAPP55  1.000000   QCRP55   -1.000000
    XP551    QGAP55   0.422000   QDSP55   0.118000
    XP551    QRSP55   0.189000   QKJP55   0.094000
    XP551    QNJP55   0.036000   QPFP55   0.008000
    XP551    QLPP55   0.023000   QOTP55   0.132000
    XP551    LOBROW2864 1.000000
    XP552    RCAPP55  1.000000   QCRP55   -1.000000
    XP552    QGAP55   0.428000   QDSP55   0.127000
    XP552    QRSP55   0.164000   QKJP55   0.084000
    XP552    QNJP55   0.039000   QPFP55   0.016000
    XP552    QLPP55   0.025000   QOTP55   0.147000
    XP552    LOBROW2865 1.000000
    XP553    RCAPP55  1.000000   QCRP55   -1.000000
    XP553    QGAP55   0.459000   QDSP55   0.118000
    XP553    QRSP55   0.150000   QKJP55   0.091000
    XP553    QNJP55   0.038000   QPFP55   0.008000
    XP553    QLPP55   0.026000   QOTP55   0.146000
    XP553    LOBROW2866 1.000000
    XP554    RCAPP55  1.000000   QCRP55   -1.000000
    XP554    QGAP55   0.461000   QDSP55   0.125000
    XP554    QRSP55   0.123000   QKJP55   0.093000
    XP554    QNJP55   0.037000   QPFP55   0.013000
    XP554    QLPP55   0.025000   QOTP55   0.152000
    XP554    LOBROW2867 1.000000
    XP555    RCAPP55  1.000000   QCRP55   -1.000000
    XP555    QGAP55   0.474000   QDSP55   0.112000
    XP555    QRSP55   0.127000   QKJP55   0.093000
    XP555    QNJP55   0.038000   QPFP55   0.012000
    XP555    QLPP55   0.024000   QOTP55   0.157000
    XP555    LOBROW2868 1.000000
    XP556    RCAPP55  1.000000   QCRP55   -1.000000
    XP556    QGAP55   0.471000   QDSP55   0.122000
    XP556    QRSP55   0.127000   QKJP55   0.082000
    XP556    QNJP55   0.035000   QPFP55   0.011000
    XP556    QLPP55   0.023000   QOTP55   0.164000
    XP556    LOBROW2869 1.000000
    XP557    RCAPP55  1.000000   QCRP55   -1.000000
    XP557    QGAP55   0.460000   QDSP55   0.116000
    XP557    QRSP55   0.137000   QKJP55   0.081000
    XP557    QNJP55   0.040000   QPFP55   0.011000
    XP557    QLPP55   0.027000   QOTP55   0.163000
    XP557    LOBROW2870 1.000000
    XP558    RCAPP55  1.000000   QCRP55   -1.000000
    XP558    QGAP55   0.462000   QDSP55   0.135000
    XP558    QRSP55   0.146000   QKJP55   0.071000
    XP558    QNJP55   0.036000   QPFP55   0.012000
    XP558    QLPP55   0.023000   QOTP55   0.153000
    XP558    LOBROW2871 1.000000
    XP559    RCAPP55  1.000000   QCRP55   -1.000000
    XP559    QGAP55   0.434000   QDSP55   0.135000
    XP559    QRSP55   0.168000   QKJP55   0.086000
    XP559    QNJP55   0.033000   QPFP55   0.014000
    XP559    QLPP55   0.020000   QOTP55   0.144000
    XP559    LOBROW2872 1.000000
    XP5510   RCAPP55  1.000000   QCRP55   -1.000000
    XP5510   QGAP55   0.426000   QDSP55   0.135000
    XP5510   QRSP55   0.192000   QKJP55   0.082000
    XP5510   QNJP55   0.029000   QPFP55   0.013000
    XP5510   QLPP55   0.021000   QOTP55   0.131000
    XP5510   LOBROW2873 1.000000
    XP5511   RCAPP55  1.000000   QCRP55   -1.000000
    XP5511   QGAP55   0.433000   QDSP55   0.136000
    XP5511   QRSP55   0.192000   QKJP55   0.082000
    XP5511   QNJP55   0.031000   QPFP55   0.008000
    XP5511   QLPP55   0.018000   QOTP55   0.133000
    XP5511   LOBROW2874 1.000000
    XP5512   RCAPP55  1.000000   QCRP55   -1.000000
    XP5512   QGAP55   0.421000   QDSP55   0.137000
    XP5512   QRSP55   0.198000   QKJP55   0.095000
    XP5512   QNJP55   0.029000   QPFP55   0.015000
    XP5512   QLPP55   0.018000   QOTP55   0.134000
    XP5512   LOBROW2875 1.000000
    XP5513   RCAPP55  1.000000   QCRP55   -1.000000
    XP5513   QGAP55   0.418000   QDSP55   0.132000
    XP5513   QRSP55   0.191000   QKJP55   0.092000
    XP5513   QNJP55   0.029000   QPFP55   0.011000
    XP5513   QLPP55   0.022000   QOTP55   0.139000
    XP5513   LOBROW2876 1.000000
    XP5514   RCAPP55  1.000000   QCRP55   -1.000000
    XP5514   QGAP55   0.427000   QDSP55   0.127000
    XP5514   QRSP55   0.162000   QKJP55   0.093000
    XP5514   QNJP55   0.030000   QPFP55   0.014000
    XP5514   QLPP55   0.023000   QOTP55   0.140000
    XP5514   LOBROW2877 1.000000
    XP5515   RCAPP55  1.000000   QCRP55   -1.000000
    XP5515   QGAP55   0.447000   QDSP55   0.113000
    XP5515   QRSP55   0.187000   QKJP55   0.090000
    XP5515   QNJP55   0.026000   QPFP55   0.014000
    XP5515   QLPP55   0.023000   QOTP55   0.140000
    XP5515   LOBROW2878 1.000000
    XP5516   RCAPP55  1.000000   QCRP55   -1.000000
    XP5516   QGAP55   0.447000   QDSP55   0.131000
    XP5516   QRSP55   0.170000   QKJP55   0.086000
    XP5516   QNJP55   0.025000   QPFP55   0.013000
    XP5516   QLPP55   0.020000   QOTP55   0.157000
    XP5516   LOBROW2879 1.000000
    XP5517   RCAPP55  1.000000   QCRP55   -1.000000
    XP5517   QGAP55   0.452000   QDSP55   0.130000
    XP5517   QRSP55   0.153000   QKJP55   0.090000
    XP5517   QNJP55   0.019000   QPFP55   0.012000
    XP5517   QLPP55   0.025000   QOTP55   0.150000
    XP5517   LOBROW2880 1.000000
    XP5518   RCAPP55  1.000000   QCRP55   -1.000000
    XP5518   QGAP55   0.462000   QDSP55   0.137000
    XP5518   QRSP55   0.146000   QKJP55   0.089000
    XP5518   QNJP55   0.026000   QPFP55   0.011000
    XP5518   QLPP55   0.028000   QOTP55   0.153000
    XP5518   LOBROW2881 1.000000
    XP5519   RCAPP55  1.000000   QCRP55   -1.000000
    XP5519   QGAP55   0.447000   QDSP55   0.145000
    XP5519   QRSP55   0.149000   QKJP55   0.083000
    XP5519   QNJP55   0.027000   QPFP55   0.015000
    XP5519   QLPP55   0.025000   QOTP55   0.151000
    XP5519   LOBROW2882 1.000000
    XP5520   RCAPP55  1.000000   QCRP55   -1.000000
    XP5520   QGAP55   0.446000   QDSP55   0.148000
    XP5520   QRSP55   0.168000   QKJP55   0.082000
    XP5520   QNJP55   0.026000   QPFP55   0.011000
    XP5520   QLPP55   0.020000   QOTP55   0.147000
    XP5520   LOBROW2883 1.000000
    XP5521   RCAPP55  1.000000   QCRP55   -1.000000
    XP5521   QGAP55   0.430000   QDSP55   0.139000
    XP5521   QRSP55   0.187000   QKJP55   0.089000
    XP5521   QNJP55   0.022000   QPFP55   0.012000
    XP5521   QLPP55   0.016000   QOTP55   0.139000
    XP5521   LOBROW2884 1.000000
    XP5522   RCAPP55  1.000000   QCRP55   -1.000000
    XP5522   QGAP55   0.407000   QDSP55   0.149000
    XP5522   QRSP55   0.208000   QKJP55   0.078000
    XP5522   QNJP55   0.029000   QPFP55   0.012000
    XP5522   QLPP55   0.019000   QOTP55   0.139000
    XP5522   LOBROW2885 1.000000
    XP5523   RCAPP55  1.000000   QCRP55   -1.000000
    XP5523   QGAP55   0.443000   QDSP55   0.138000
    XP5523   QRSP55   0.191000   QKJP55   0.081000
    XP5523   QNJP55   0.027000   QPFP55   0.010000
    XP5523   QLPP55   0.018000   QOTP55   0.135000
    XP5523   LOBROW2886 1.000000
    XP5524   RCAPP55  1.000000   QCRP55   -1.000000
    XP5524   QGAP55   0.439000   QDSP55   0.121000
    XP5524   QRSP55   0.194000   QKJP55   0.086000
    XP5524   QNJP55   0.024000   QPFP55   0.012000
    XP5524   QLPP55   0.022000   QOTP55   0.139000
    XP5524   LOBROW2887 1.000000
    XP561    RCAPP56  1.000000   QCRP56   -1.000000
    XP561    QGAP56   0.422000   QDSP56   0.118000
    XP561    QRSP56   0.189000   QKJP56   0.094000
    XP561    QNJP56   0.036000   QPFP56   0.008000
    XP561    QLPP56   0.023000   QOTP56   0.132000
    XP561    LOBROW2888 1.000000
    XP562    RCAPP56  1.000000   QCRP56   -1.000000
    XP562    QGAP56   0.428000   QDSP56   0.127000
    XP562    QRSP56   0.164000   QKJP56   0.084000
    XP562    QNJP56   0.039000   QPFP56   0.016000
    XP562    QLPP56   0.025000   QOTP56   0.147000
    XP562    LOBROW2889 1.000000
    XP563    RCAPP56  1.000000   QCRP56   -1.000000
    XP563    QGAP56   0.459000   QDSP56   0.118000
    XP563    QRSP56   0.150000   QKJP56   0.091000
    XP563    QNJP56   0.038000   QPFP56   0.008000
    XP563    QLPP56   0.026000   QOTP56   0.146000
    XP563    LOBROW2890 1.000000
    XP564    RCAPP56  1.000000   QCRP56   -1.000000
    XP564    QGAP56   0.461000   QDSP56   0.125000
    XP564    QRSP56   0.123000   QKJP56   0.093000
    XP564    QNJP56   0.037000   QPFP56   0.013000
    XP564    QLPP56   0.025000   QOTP56   0.152000
    XP564    LOBROW2891 1.000000
    XP565    RCAPP56  1.000000   QCRP56   -1.000000
    XP565    QGAP56   0.474000   QDSP56   0.112000
    XP565    QRSP56   0.127000   QKJP56   0.093000
    XP565    QNJP56   0.038000   QPFP56   0.012000
    XP565    QLPP56   0.024000   QOTP56   0.157000
    XP565    LOBROW2892 1.000000
    XP566    RCAPP56  1.000000   QCRP56   -1.000000
    XP566    QGAP56   0.471000   QDSP56   0.122000
    XP566    QRSP56   0.127000   QKJP56   0.082000
    XP566    QNJP56   0.035000   QPFP56   0.011000
    XP566    QLPP56   0.023000   QOTP56   0.164000
    XP566    LOBROW2893 1.000000
    XP567    RCAPP56  1.000000   QCRP56   -1.000000
    XP567    QGAP56   0.460000   QDSP56   0.116000
    XP567    QRSP56   0.137000   QKJP56   0.081000
    XP567    QNJP56   0.040000   QPFP56   0.011000
    XP567    QLPP56   0.027000   QOTP56   0.163000
    XP567    LOBROW2894 1.000000
    XP568    RCAPP56  1.000000   QCRP56   -1.000000
    XP568    QGAP56   0.462000   QDSP56   0.135000
    XP568    QRSP56   0.146000   QKJP56   0.071000
    XP568    QNJP56   0.036000   QPFP56   0.012000
    XP568    QLPP56   0.023000   QOTP56   0.153000
    XP568    LOBROW2895 1.000000
    XP569    RCAPP56  1.000000   QCRP56   -1.000000
    XP569    QGAP56   0.434000   QDSP56   0.135000
    XP569    QRSP56   0.168000   QKJP56   0.086000
    XP569    QNJP56   0.033000   QPFP56   0.014000
    XP569    QLPP56   0.020000   QOTP56   0.144000
    XP569    LOBROW2896 1.000000
    XP5610   RCAPP56  1.000000   QCRP56   -1.000000
    XP5610   QGAP56   0.426000   QDSP56   0.135000
    XP5610   QRSP56   0.192000   QKJP56   0.082000
    XP5610   QNJP56   0.029000   QPFP56   0.013000
    XP5610   QLPP56   0.021000   QOTP56   0.131000
    XP5610   LOBROW2897 1.000000
    XP5611   RCAPP56  1.000000   QCRP56   -1.000000
    XP5611   QGAP56   0.433000   QDSP56   0.136000
    XP5611   QRSP56   0.192000   QKJP56   0.082000
    XP5611   QNJP56   0.031000   QPFP56   0.008000
    XP5611   QLPP56   0.018000   QOTP56   0.133000
    XP5611   LOBROW2898 1.000000
    XP5612   RCAPP56  1.000000   QCRP56   -1.000000
    XP5612   QGAP56   0.421000   QDSP56   0.137000
    XP5612   QRSP56   0.198000   QKJP56   0.095000
    XP5612   QNJP56   0.029000   QPFP56   0.015000
    XP5612   QLPP56   0.018000   QOTP56   0.134000
    XP5612   LOBROW2899 1.000000
    XP5613   RCAPP56  1.000000   QCRP56   -1.000000
    XP5613   QGAP56   0.418000   QDSP56   0.132000
    XP5613   QRSP56   0.191000   QKJP56   0.092000
    XP5613   QNJP56   0.029000   QPFP56   0.011000
    XP5613   QLPP56   0.022000   QOTP56   0.139000
    XP5613   LOBROW2900 1.000000
    XP5614   RCAPP56  1.000000   QCRP56   -1.000000
    XP5614   QGAP56   0.427000   QDSP56   0.127000
    XP5614   QRSP56   0.162000   QKJP56   0.093000
    XP5614   QNJP56   0.030000   QPFP56   0.014000
    XP5614   QLPP56   0.023000   QOTP56   0.140000
    XP5614   LOBROW2901 1.000000
    XP5615   RCAPP56  1.000000   QCRP56   -1.000000
    XP5615   QGAP56   0.447000   QDSP56   0.113000
    XP5615   QRSP56   0.187000   QKJP56   0.090000
    XP5615   QNJP56   0.026000   QPFP56   0.014000
    XP5615   QLPP56   0.023000   QOTP56   0.140000
    XP5615   LOBROW2902 1.000000
    XP5616   RCAPP56  1.000000   QCRP56   -1.000000
    XP5616   QGAP56   0.447000   QDSP56   0.131000
    XP5616   QRSP56   0.170000   QKJP56   0.086000
    XP5616   QNJP56   0.025000   QPFP56   0.013000
    XP5616   QLPP56   0.020000   QOTP56   0.157000
    XP5616   LOBROW2903 1.000000
    XP5617   RCAPP56  1.000000   QCRP56   -1.000000
    XP5617   QGAP56   0.452000   QDSP56   0.130000
    XP5617   QRSP56   0.153000   QKJP56   0.090000
    XP5617   QNJP56   0.019000   QPFP56   0.012000
    XP5617   QLPP56   0.025000   QOTP56   0.150000
    XP5617   LOBROW2904 1.000000
    XP5618   RCAPP56  1.000000   QCRP56   -1.000000
    XP5618   QGAP56   0.462000   QDSP56   0.137000
    XP5618   QRSP56   0.146000   QKJP56   0.089000
    XP5618   QNJP56   0.026000   QPFP56   0.011000
    XP5618   QLPP56   0.028000   QOTP56   0.153000
    XP5618   LOBROW2905 1.000000
    XP5619   RCAPP56  1.000000   QCRP56   -1.000000
    XP5619   QGAP56   0.447000   QDSP56   0.145000
    XP5619   QRSP56   0.149000   QKJP56   0.083000
    XP5619   QNJP56   0.027000   QPFP56   0.015000
    XP5619   QLPP56   0.025000   QOTP56   0.151000
    XP5619   LOBROW2906 1.000000
    XP5620   RCAPP56  1.000000   QCRP56   -1.000000
    XP5620   QGAP56   0.446000   QDSP56   0.148000
    XP5620   QRSP56   0.168000   QKJP56   0.082000
    XP5620   QNJP56   0.026000   QPFP56   0.011000
    XP5620   QLPP56   0.020000   QOTP56   0.147000
    XP5620   LOBROW2907 1.000000
    XP5621   RCAPP56  1.000000   QCRP56   -1.000000
    XP5621   QGAP56   0.430000   QDSP56   0.139000
    XP5621   QRSP56   0.187000   QKJP56   0.089000
    XP5621   QNJP56   0.022000   QPFP56   0.012000
    XP5621   QLPP56   0.016000   QOTP56   0.139000
    XP5621   LOBROW2908 1.000000
    XP5622   RCAPP56  1.000000   QCRP56   -1.000000
    XP5622   QGAP56   0.407000   QDSP56   0.149000
    XP5622   QRSP56   0.208000   QKJP56   0.078000
    XP5622   QNJP56   0.029000   QPFP56   0.012000
    XP5622   QLPP56   0.019000   QOTP56   0.139000
    XP5622   LOBROW2909 1.000000
    XP5623   RCAPP56  1.000000   QCRP56   -1.000000
    XP5623   QGAP56   0.443000   QDSP56   0.138000
    XP5623   QRSP56   0.191000   QKJP56   0.081000
    XP5623   QNJP56   0.027000   QPFP56   0.010000
    XP5623   QLPP56   0.018000   QOTP56   0.135000
    XP5623   LOBROW2910 1.000000
    XP5624   RCAPP56  1.000000   QCRP56   -1.000000
    XP5624   QGAP56   0.439000   QDSP56   0.121000
    XP5624   QRSP56   0.194000   QKJP56   0.086000
    XP5624   QNJP56   0.024000   QPFP56   0.012000
    XP5624   QLPP56   0.022000   QOTP56   0.139000
    XP5624   LOBROW2911 1.000000
    XP571    RCAPP57  1.000000   QCRP57   -1.000000
    XP571    QGAP57   0.422000   QDSP57   0.118000
    XP571    QRSP57   0.189000   QKJP57   0.094000
    XP571    QNJP57   0.036000   QPFP57   0.008000
    XP571    QLPP57   0.023000   QOTP57   0.132000
    XP571    LOBROW2912 1.000000
    XP572    RCAPP57  1.000000   QCRP57   -1.000000
    XP572    QGAP57   0.428000   QDSP57   0.127000
    XP572    QRSP57   0.164000   QKJP57   0.084000
    XP572    QNJP57   0.039000   QPFP57   0.016000
    XP572    QLPP57   0.025000   QOTP57   0.147000
    XP572    LOBROW2913 1.000000
    XP573    RCAPP57  1.000000   QCRP57   -1.000000
    XP573    QGAP57   0.459000   QDSP57   0.118000
    XP573    QRSP57   0.150000   QKJP57   0.091000
    XP573    QNJP57   0.038000   QPFP57   0.008000
    XP573    QLPP57   0.026000   QOTP57   0.146000
    XP573    LOBROW2914 1.000000
    XP574    RCAPP57  1.000000   QCRP57   -1.000000
    XP574    QGAP57   0.461000   QDSP57   0.125000
    XP574    QRSP57   0.123000   QKJP57   0.093000
    XP574    QNJP57   0.037000   QPFP57   0.013000
    XP574    QLPP57   0.025000   QOTP57   0.152000
    XP574    LOBROW2915 1.000000
    XP575    RCAPP57  1.000000   QCRP57   -1.000000
    XP575    QGAP57   0.474000   QDSP57   0.112000
    XP575    QRSP57   0.127000   QKJP57   0.093000
    XP575    QNJP57   0.038000   QPFP57   0.012000
    XP575    QLPP57   0.024000   QOTP57   0.157000
    XP575    LOBROW2916 1.000000
    XP576    RCAPP57  1.000000   QCRP57   -1.000000
    XP576    QGAP57   0.471000   QDSP57   0.122000
    XP576    QRSP57   0.127000   QKJP57   0.082000
    XP576    QNJP57   0.035000   QPFP57   0.011000
    XP576    QLPP57   0.023000   QOTP57   0.164000
    XP576    LOBROW2917 1.000000
    XP577    RCAPP57  1.000000   QCRP57   -1.000000
    XP577    QGAP57   0.460000   QDSP57   0.116000
    XP577    QRSP57   0.137000   QKJP57   0.081000
    XP577    QNJP57   0.040000   QPFP57   0.011000
    XP577    QLPP57   0.027000   QOTP57   0.163000
    XP577    LOBROW2918 1.000000
    XP578    RCAPP57  1.000000   QCRP57   -1.000000
    XP578    QGAP57   0.462000   QDSP57   0.135000
    XP578    QRSP57   0.146000   QKJP57   0.071000
    XP578    QNJP57   0.036000   QPFP57   0.012000
    XP578    QLPP57   0.023000   QOTP57   0.153000
    XP578    LOBROW2919 1.000000
    XP579    RCAPP57  1.000000   QCRP57   -1.000000
    XP579    QGAP57   0.434000   QDSP57   0.135000
    XP579    QRSP57   0.168000   QKJP57   0.086000
    XP579    QNJP57   0.033000   QPFP57   0.014000
    XP579    QLPP57   0.020000   QOTP57   0.144000
    XP579    LOBROW2920 1.000000
    XP5710   RCAPP57  1.000000   QCRP57   -1.000000
    XP5710   QGAP57   0.426000   QDSP57   0.135000
    XP5710   QRSP57   0.192000   QKJP57   0.082000
    XP5710   QNJP57   0.029000   QPFP57   0.013000
    XP5710   QLPP57   0.021000   QOTP57   0.131000
    XP5710   LOBROW2921 1.000000
    XP5711   RCAPP57  1.000000   QCRP57   -1.000000
    XP5711   QGAP57   0.433000   QDSP57   0.136000
    XP5711   QRSP57   0.192000   QKJP57   0.082000
    XP5711   QNJP57   0.031000   QPFP57   0.008000
    XP5711   QLPP57   0.018000   QOTP57   0.133000
    XP5711   LOBROW2922 1.000000
    XP5712   RCAPP57  1.000000   QCRP57   -1.000000
    XP5712   QGAP57   0.421000   QDSP57   0.137000
    XP5712   QRSP57   0.198000   QKJP57   0.095000
    XP5712   QNJP57   0.029000   QPFP57   0.015000
    XP5712   QLPP57   0.018000   QOTP57   0.134000
    XP5712   LOBROW2923 1.000000
    XP5713   RCAPP57  1.000000   QCRP57   -1.000000
    XP5713   QGAP57   0.418000   QDSP57   0.132000
    XP5713   QRSP57   0.191000   QKJP57   0.092000
    XP5713   QNJP57   0.029000   QPFP57   0.011000
    XP5713   QLPP57   0.022000   QOTP57   0.139000
    XP5713   LOBROW2924 1.000000
    XP5714   RCAPP57  1.000000   QCRP57   -1.000000
    XP5714   QGAP57   0.427000   QDSP57   0.127000
    XP5714   QRSP57   0.162000   QKJP57   0.093000
    XP5714   QNJP57   0.030000   QPFP57   0.014000
    XP5714   QLPP57   0.023000   QOTP57   0.140000
    XP5714   LOBROW2925 1.000000
    XP5715   RCAPP57  1.000000   QCRP57   -1.000000
    XP5715   QGAP57   0.447000   QDSP57   0.113000
    XP5715   QRSP57   0.187000   QKJP57   0.090000
    XP5715   QNJP57   0.026000   QPFP57   0.014000
    XP5715   QLPP57   0.023000   QOTP57   0.140000
    XP5715   LOBROW2926 1.000000
    XP5716   RCAPP57  1.000000   QCRP57   -1.000000
    XP5716   QGAP57   0.447000   QDSP57   0.131000
    XP5716   QRSP57   0.170000   QKJP57   0.086000
    XP5716   QNJP57   0.025000   QPFP57   0.013000
    XP5716   QLPP57   0.020000   QOTP57   0.157000
    XP5716   LOBROW2927 1.000000
    XP5717   RCAPP57  1.000000   QCRP57   -1.000000
    XP5717   QGAP57   0.452000   QDSP57   0.130000
    XP5717   QRSP57   0.153000   QKJP57   0.090000
    XP5717   QNJP57   0.019000   QPFP57   0.012000
    XP5717   QLPP57   0.025000   QOTP57   0.150000
    XP5717   LOBROW2928 1.000000
    XP5718   RCAPP57  1.000000   QCRP57   -1.000000
    XP5718   QGAP57   0.462000   QDSP57   0.137000
    XP5718   QRSP57   0.146000   QKJP57   0.089000
    XP5718   QNJP57   0.026000   QPFP57   0.011000
    XP5718   QLPP57   0.028000   QOTP57   0.153000
    XP5718   LOBROW2929 1.000000
    XP5719   RCAPP57  1.000000   QCRP57   -1.000000
    XP5719   QGAP57   0.447000   QDSP57   0.145000
    XP5719   QRSP57   0.149000   QKJP57   0.083000
    XP5719   QNJP57   0.027000   QPFP57   0.015000
    XP5719   QLPP57   0.025000   QOTP57   0.151000
    XP5719   LOBROW2930 1.000000
    XP5720   RCAPP57  1.000000   QCRP57   -1.000000
    XP5720   QGAP57   0.446000   QDSP57   0.148000
    XP5720   QRSP57   0.168000   QKJP57   0.082000
    XP5720   QNJP57   0.026000   QPFP57   0.011000
    XP5720   QLPP57   0.020000   QOTP57   0.147000
    XP5720   LOBROW2931 1.000000
    XP5721   RCAPP57  1.000000   QCRP57   -1.000000
    XP5721   QGAP57   0.430000   QDSP57   0.139000
    XP5721   QRSP57   0.187000   QKJP57   0.089000
    XP5721   QNJP57   0.022000   QPFP57   0.012000
    XP5721   QLPP57   0.016000   QOTP57   0.139000
    XP5721   LOBROW2932 1.000000
    XP5722   RCAPP57  1.000000   QCRP57   -1.000000
    XP5722   QGAP57   0.407000   QDSP57   0.149000
    XP5722   QRSP57   0.208000   QKJP57   0.078000
    XP5722   QNJP57   0.029000   QPFP57   0.012000
    XP5722   QLPP57   0.019000   QOTP57   0.139000
    XP5722   LOBROW2933 1.000000
    XP5723   RCAPP57  1.000000   QCRP57   -1.000000
    XP5723   QGAP57   0.443000   QDSP57   0.138000
    XP5723   QRSP57   0.191000   QKJP57   0.081000
    XP5723   QNJP57   0.027000   QPFP57   0.010000
    XP5723   QLPP57   0.018000   QOTP57   0.135000
    XP5723   LOBROW2934 1.000000
    XP5724   RCAPP57  1.000000   QCRP57   -1.000000
    XP5724   QGAP57   0.439000   QDSP57   0.121000
    XP5724   QRSP57   0.194000   QKJP57   0.086000
    XP5724   QNJP57   0.024000   QPFP57   0.012000
    XP5724   QLPP57   0.022000   QOTP57   0.139000
    XP5724   LOBROW2935 1.000000
    XP581    RCAPP58  1.000000   QCRP58   -1.000000
    XP581    QGAP58   0.422000   QDSP58   0.118000
    XP581    QRSP58   0.189000   QKJP58   0.094000
    XP581    QNJP58   0.036000   QPFP58   0.008000
    XP581    QLPP58   0.023000   QOTP58   0.132000
    XP581    LOBROW2936 1.000000
    XP582    RCAPP58  1.000000   QCRP58   -1.000000
    XP582    QGAP58   0.428000   QDSP58   0.127000
    XP582    QRSP58   0.164000   QKJP58   0.084000
    XP582    QNJP58   0.039000   QPFP58   0.016000
    XP582    QLPP58   0.025000   QOTP58   0.147000
    XP582    LOBROW2937 1.000000
    XP583    RCAPP58  1.000000   QCRP58   -1.000000
    XP583    QGAP58   0.459000   QDSP58   0.118000
    XP583    QRSP58   0.150000   QKJP58   0.091000
    XP583    QNJP58   0.038000   QPFP58   0.008000
    XP583    QLPP58   0.026000   QOTP58   0.146000
    XP583    LOBROW2938 1.000000
    XP584    RCAPP58  1.000000   QCRP58   -1.000000
    XP584    QGAP58   0.461000   QDSP58   0.125000
    XP584    QRSP58   0.123000   QKJP58   0.093000
    XP584    QNJP58   0.037000   QPFP58   0.013000
    XP584    QLPP58   0.025000   QOTP58   0.152000
    XP584    LOBROW2939 1.000000
    XP585    RCAPP58  1.000000   QCRP58   -1.000000
    XP585    QGAP58   0.474000   QDSP58   0.112000
    XP585    QRSP58   0.127000   QKJP58   0.093000
    XP585    QNJP58   0.038000   QPFP58   0.012000
    XP585    QLPP58   0.024000   QOTP58   0.157000
    XP585    LOBROW2940 1.000000
    XP586    RCAPP58  1.000000   QCRP58   -1.000000
    XP586    QGAP58   0.471000   QDSP58   0.122000
    XP586    QRSP58   0.127000   QKJP58   0.082000
    XP586    QNJP58   0.035000   QPFP58   0.011000
    XP586    QLPP58   0.023000   QOTP58   0.164000
    XP586    LOBROW2941 1.000000
    XP587    RCAPP58  1.000000   QCRP58   -1.000000
    XP587    QGAP58   0.460000   QDSP58   0.116000
    XP587    QRSP58   0.137000   QKJP58   0.081000
    XP587    QNJP58   0.040000   QPFP58   0.011000
    XP587    QLPP58   0.027000   QOTP58   0.163000
    XP587    LOBROW2942 1.000000
    XP588    RCAPP58  1.000000   QCRP58   -1.000000
    XP588    QGAP58   0.462000   QDSP58   0.135000
    XP588    QRSP58   0.146000   QKJP58   0.071000
    XP588    QNJP58   0.036000   QPFP58   0.012000
    XP588    QLPP58   0.023000   QOTP58   0.153000
    XP588    LOBROW2943 1.000000
    XP589    RCAPP58  1.000000   QCRP58   -1.000000
    XP589    QGAP58   0.434000   QDSP58   0.135000
    XP589    QRSP58   0.168000   QKJP58   0.086000
    XP589    QNJP58   0.033000   QPFP58   0.014000
    XP589    QLPP58   0.020000   QOTP58   0.144000
    XP589    LOBROW2944 1.000000
    XP5810   RCAPP58  1.000000   QCRP58   -1.000000
    XP5810   QGAP58   0.426000   QDSP58   0.135000
    XP5810   QRSP58   0.192000   QKJP58   0.082000
    XP5810   QNJP58   0.029000   QPFP58   0.013000
    XP5810   QLPP58   0.021000   QOTP58   0.131000
    XP5810   LOBROW2945 1.000000
    XP5811   RCAPP58  1.000000   QCRP58   -1.000000
    XP5811   QGAP58   0.433000   QDSP58   0.136000
    XP5811   QRSP58   0.192000   QKJP58   0.082000
    XP5811   QNJP58   0.031000   QPFP58   0.008000
    XP5811   QLPP58   0.018000   QOTP58   0.133000
    XP5811   LOBROW2946 1.000000
    XP5812   RCAPP58  1.000000   QCRP58   -1.000000
    XP5812   QGAP58   0.421000   QDSP58   0.137000
    XP5812   QRSP58   0.198000   QKJP58   0.095000
    XP5812   QNJP58   0.029000   QPFP58   0.015000
    XP5812   QLPP58   0.018000   QOTP58   0.134000
    XP5812   LOBROW2947 1.000000
    XP5813   RCAPP58  1.000000   QCRP58   -1.000000
    XP5813   QGAP58   0.418000   QDSP58   0.132000
    XP5813   QRSP58   0.191000   QKJP58   0.092000
    XP5813   QNJP58   0.029000   QPFP58   0.011000
    XP5813   QLPP58   0.022000   QOTP58   0.139000
    XP5813   LOBROW2948 1.000000
    XP5814   RCAPP58  1.000000   QCRP58   -1.000000
    XP5814   QGAP58   0.427000   QDSP58   0.127000
    XP5814   QRSP58   0.162000   QKJP58   0.093000
    XP5814   QNJP58   0.030000   QPFP58   0.014000
    XP5814   QLPP58   0.023000   QOTP58   0.140000
    XP5814   LOBROW2949 1.000000
    XP5815   RCAPP58  1.000000   QCRP58   -1.000000
    XP5815   QGAP58   0.447000   QDSP58   0.113000
    XP5815   QRSP58   0.187000   QKJP58   0.090000
    XP5815   QNJP58   0.026000   QPFP58   0.014000
    XP5815   QLPP58   0.023000   QOTP58   0.140000
    XP5815   LOBROW2950 1.000000
    XP5816   RCAPP58  1.000000   QCRP58   -1.000000
    XP5816   QGAP58   0.447000   QDSP58   0.131000
    XP5816   QRSP58   0.170000   QKJP58   0.086000
    XP5816   QNJP58   0.025000   QPFP58   0.013000
    XP5816   QLPP58   0.020000   QOTP58   0.157000
    XP5816   LOBROW2951 1.000000
    XP5817   RCAPP58  1.000000   QCRP58   -1.000000
    XP5817   QGAP58   0.452000   QDSP58   0.130000
    XP5817   QRSP58   0.153000   QKJP58   0.090000
    XP5817   QNJP58   0.019000   QPFP58   0.012000
    XP5817   QLPP58   0.025000   QOTP58   0.150000
    XP5817   LOBROW2952 1.000000
    XP5818   RCAPP58  1.000000   QCRP58   -1.000000
    XP5818   QGAP58   0.462000   QDSP58   0.137000
    XP5818   QRSP58   0.146000   QKJP58   0.089000
    XP5818   QNJP58   0.026000   QPFP58   0.011000
    XP5818   QLPP58   0.028000   QOTP58   0.153000
    XP5818   LOBROW2953 1.000000
    XP5819   RCAPP58  1.000000   QCRP58   -1.000000
    XP5819   QGAP58   0.447000   QDSP58   0.145000
    XP5819   QRSP58   0.149000   QKJP58   0.083000
    XP5819   QNJP58   0.027000   QPFP58   0.015000
    XP5819   QLPP58   0.025000   QOTP58   0.151000
    XP5819   LOBROW2954 1.000000
    XP5820   RCAPP58  1.000000   QCRP58   -1.000000
    XP5820   QGAP58   0.446000   QDSP58   0.148000
    XP5820   QRSP58   0.168000   QKJP58   0.082000
    XP5820   QNJP58   0.026000   QPFP58   0.011000
    XP5820   QLPP58   0.020000   QOTP58   0.147000
    XP5820   LOBROW2955 1.000000
    XP5821   RCAPP58  1.000000   QCRP58   -1.000000
    XP5821   QGAP58   0.430000   QDSP58   0.139000
    XP5821   QRSP58   0.187000   QKJP58   0.089000
    XP5821   QNJP58   0.022000   QPFP58   0.012000
    XP5821   QLPP58   0.016000   QOTP58   0.139000
    XP5821   LOBROW2956 1.000000
    XP5822   RCAPP58  1.000000   QCRP58   -1.000000
    XP5822   QGAP58   0.407000   QDSP58   0.149000
    XP5822   QRSP58   0.208000   QKJP58   0.078000
    XP5822   QNJP58   0.029000   QPFP58   0.012000
    XP5822   QLPP58   0.019000   QOTP58   0.139000
    XP5822   LOBROW2957 1.000000
    XP5823   RCAPP58  1.000000   QCRP58   -1.000000
    XP5823   QGAP58   0.443000   QDSP58   0.138000
    XP5823   QRSP58   0.191000   QKJP58   0.081000
    XP5823   QNJP58   0.027000   QPFP58   0.010000
    XP5823   QLPP58   0.018000   QOTP58   0.135000
    XP5823   LOBROW2958 1.000000
    XP5824   RCAPP58  1.000000   QCRP58   -1.000000
    XP5824   QGAP58   0.439000   QDSP58   0.121000
    XP5824   QRSP58   0.194000   QKJP58   0.086000
    XP5824   QNJP58   0.024000   QPFP58   0.012000
    XP5824   QLPP58   0.022000   QOTP58   0.139000
    XP5824   LOBROW2959 1.000000
    BP11GL   QGLP11   -1.000000   QGAP11   0.280600
    BP11GL   QLPP11   0.527800   QOTP11   0.191600
    BP11UN   QCRP11   1.000000   QUNP11   -1.000000
    BP12GL   QGLP12   -1.000000   QGAP12   0.280600
    BP12GL   QLPP12   0.527800   QOTP12   0.191600
    BP12UN   QCRP12   1.000000   QUNP12   -1.000000
    BP13GL   QGLP13   -1.000000   QGAP13   0.280600
    BP13GL   QLPP13   0.527800   QOTP13   0.191600
    BP13UN   QCRP13   1.000000   QUNP13   -1.000000
    BP14GL   QGLP14   -1.000000   QGAP14   0.280600
    BP14GL   QLPP14   0.527800   QOTP14   0.191600
    BP14UN   QCRP14   1.000000   QUNP14   -1.000000
    BP15GL   QGLP15   -1.000000   QGAP15   0.280600
    BP15GL   QLPP15   0.527800   QOTP15   0.191600
    BP15UN   QCRP15   1.000000   QUNP15   -1.000000
    BP16GL   QGLP16   -1.000000   QGAP16   0.280600
    BP16GL   QLPP16   0.527800   QOTP16   0.191600
    BP16UN   QCRP16   1.000000   QUNP16   -1.000000
    BP17GL   QGLP17   -1.000000   QGAP17   0.280600
    BP17GL   QLPP17   0.527800   QOTP17   0.191600
    BP17UN   QCRP17   1.000000   QUNP17   -1.000000
    BP18GL   QGLP18   -1.000000   QGAP18   0.280600
    BP18GL   QLPP18   0.527800   QOTP18   0.191600
    BP18UN   QCRP18   1.000000   QUNP18   -1.000000
    BP21GL   QGLP21   -1.000000   QGAP21   0.635800
    BP21GL   QLPP21   0.254500   QOTP21   0.109700
    BP21UN   QCRP21   1.000000   QUNP21   -1.000000
    BP22GL   QGLP22   -1.000000   QGAP22   0.635800
    BP22GL   QLPP22   0.254500   QOTP22   0.109700
    BP22UN   QCRP22   1.000000   QUNP22   -1.000000
    BP23GL   QGLP23   -1.000000   QGAP23   0.635800
    BP23GL   QLPP23   0.254500   QOTP23   0.109700
    BP23UN   QCRP23   1.000000   QUNP23   -1.000000
    BP24GL   QGLP24   -1.000000   QGAP24   0.635800
    BP24GL   QLPP24   0.254500   QOTP24   0.109700
    BP24UN   QCRP24   1.000000   QUNP24   -1.000000
    BP25GL   QGLP25   -1.000000   QGAP25   0.635800
    BP25GL   QLPP25   0.254500   QOTP25   0.109700
    BP25UN   QCRP25   1.000000   QUNP25   -1.000000
    BP26GL   QGLP26   -1.000000   QGAP26   0.635800
    BP26GL   QLPP26   0.254500   QOTP26   0.109700
    BP26UN   QCRP26   1.000000   QUNP26   -1.000000
    BP27GL   QGLP27   -1.000000   QGAP27   0.635800
    BP27GL   QLPP27   0.254500   QOTP27   0.109700
    BP27UN   QCRP27   1.000000   QUNP27   -1.000000
    BP28GL   QGLP28   -1.000000   QGAP28   0.635800
    BP28GL   QLPP28   0.254500   QOTP28   0.109700
    BP28UN   QCRP28   1.000000   QUNP28   -1.000000
    BP31GL   QGLP31   -1.000000   QGAP31   0.385900
    BP31GL   QDSP31   0.001900   QLPP31   0.429300
    BP31GL   QOTP31   0.182900
    BP31UN   QCRP31   1.000000   QUNP31   -1.000000
    BP32GL   QGLP32   -1.000000   QGAP32   0.385900
    BP32GL   QDSP32   0.001900   QLPP32   0.429300
    BP32GL   QOTP32   0.182900
    BP32UN   QCRP32   1.000000   QUNP32   -1.000000
    BP33GL   QGLP33   -1.000000   QGAP33   0.385900
    BP33GL   QDSP33   0.001900   QLPP33   0.429300
    BP33GL   QOTP33   0.182900
    BP33UN   QCRP33   1.000000   QUNP33   -1.000000
    BP34GL   QGLP34   -1.000000   QGAP34   0.385900
    BP34GL   QDSP34   0.001900   QLPP34   0.429300
    BP34GL   QOTP34   0.182900
    BP34UN   QCRP34   1.000000   QUNP34   -1.000000
    BP35GL   QGLP35   -1.000000   QGAP35   0.385900
    BP35GL   QDSP35   0.001900   QLPP35   0.429300
    BP35GL   QOTP35   0.182900
    BP35UN   QCRP35   1.000000   QUNP35   -1.000000
    BP36GL   QGLP36   -1.000000   QGAP36   0.385900
    BP36GL   QDSP36   0.001900   QLPP36   0.429300
    BP36GL   QOTP36   0.182900
    BP36UN   QCRP36   1.000000   QUNP36   -1.000000
    BP37GL   QGLP37   -1.000000   QGAP37   0.385900
    BP37GL   QDSP37   0.001900   QLPP37   0.429300
    BP37GL   QOTP37   0.182900
    BP37UN   QCRP37   1.000000   QUNP37   -1.000000
    BP38GL   QGLP38   -1.000000   QGAP38   0.385900
    BP38GL   QDSP38   0.001900   QLPP38   0.429300
    BP38GL   QOTP38   0.182900
    BP38UN   QCRP38   1.000000   QUNP38   -1.000000
    BP41GL   QGLP41   -1.000000   QGAP41   0.678000
    BP41GL   QLPP41   0.322000
    BP41UN   QCRP41   1.000000   QUNP41   -1.000000
    BP42GL   QGLP42   -1.000000   QGAP42   0.678000
    BP42GL   QLPP42   0.322000
    BP42UN   QCRP42   1.000000   QUNP42   -1.000000
    BP43GL   QGLP43   -1.000000   QGAP43   0.678000
    BP43GL   QLPP43   0.322000
    BP43UN   QCRP43   1.000000   QUNP43   -1.000000
    BP44GL   QGLP44   -1.000000   QGAP44   0.678000
    BP44GL   QLPP44   0.322000
    BP44UN   QCRP44   1.000000   QUNP44   -1.000000
    BP45GL   QGLP45   -1.000000   QGAP45   0.678000
    BP45GL   QLPP45   0.322000
    BP45UN   QCRP45   1.000000   QUNP45   -1.000000
    BP46GL   QGLP46   -1.000000   QGAP46   0.678000
    BP46GL   QLPP46   0.322000
    BP46UN   QCRP46   1.000000   QUNP46   -1.000000
    BP47GL   QGLP47   -1.000000   QGAP47   0.678000
    BP47GL   QLPP47   0.322000
    BP47UN   QCRP47   1.000000   QUNP47   -1.000000
    BP48GL   QGLP48   -1.000000   QGAP48   0.678000
    BP48GL   QLPP48   0.322000
    BP48UN   QCRP48   1.000000   QUNP48   -1.000000
    BP51GL   QGLP51   -1.000000   QGAP51   1.087000
    BP51GL   QLPP51   -0.087000
    BP51UN   QCRP51   1.000000   QUNP51   -1.000000
    BP52GL   QGLP52   -1.000000   QGAP52   1.087000
    BP52GL   QLPP52   -0.087000
    BP52UN   QCRP52   1.000000   QUNP52   -1.000000
    BP53GL   QGLP53   -1.000000   QGAP53   1.087000
    BP53GL   QLPP53   -0.087000
    BP53UN   QCRP53   1.000000   QUNP53   -1.000000
    BP54GL   QGLP54   -1.000000   QGAP54   1.087000
    BP54GL   QLPP54   -0.087000
    BP54UN   QCRP54   1.000000   QUNP54   -1.000000
    BP55GL   QGLP55   -1.000000   QGAP55   1.087000
    BP55GL   QLPP55   -0.087000
    BP55UN   QCRP55   1.000000   QUNP55   -1.000000
    BP56GL   QGLP56   -1.000000   QGAP56   1.087000
    BP56GL   QLPP56   -0.087000
    BP56UN   QCRP56   1.000000   QUNP56   -1.000000
    BP57GL   QGLP57   -1.000000   QGAP57   1.087000
    BP57GL   QLPP57   -0.087000
    BP57UN   QCRP57   1.000000   QUNP57   -1.000000
    BP58GL   QGLP58   -1.000000   QGAP58   1.087000
    BP58GL   QLPP58   -0.087000
    BP58UN   QCRP58   1.000000   QUNP58   -1.000000
    RCRP1P21 QCRP11   1.000000   QCRP21   -1.000000
    RCRP1P21 LOBROW3000 1.000000   UPBROW3001 1.000000
    RCRP1P22 QCRP12   1.000000   QCRP22   -1.000000
    RCRP1P22 LOBROW3002 1.000000   UPBROW3003 1.000000
    RCRP1P23 QCRP13   1.000000   QCRP23   -1.000000
    RCRP1P23 LOBROW3004 1.000000   UPBROW3005 1.000000
    RCRP1P24 QCRP14   1.000000   QCRP24   -1.000000
    RCRP1P24 LOBROW3006 1.000000   UPBROW3007 1.000000
    RCRP1P25 QCRP15   1.000000   QCRP25   -1.000000
    RCRP1P25 LOBROW3008 1.000000   UPBROW3009 1.000000
    RCRP1P26 QCRP16   1.000000   QCRP26   -1.000000
    RCRP1P26 LOBROW3010 1.000000   UPBROW3011 1.000000
    RCRP1P27 QCRP17   1.000000   QCRP27   -1.000000
    RCRP1P27 LOBROW3012 1.000000   UPBROW3013 1.000000
    RCRP1P28 QCRP18   1.000000   QCRP28   -1.000000
    RCRP1P28 LOBROW3014 1.000000   UPBROW3015 1.000000
    RCRP1P31 QCRP11   1.000000   QCRP31   -1.000000
    RCRP1P31 LOBROW3016 1.000000   UPBROW3017 1.000000
    RCRP1P32 QCRP12   1.000000   QCRP32   -1.000000
    RCRP1P32 LOBROW3018 1.000000   UPBROW3019 1.000000
    RCRP1P33 QCRP13   1.000000   QCRP33   -1.000000
    RCRP1P33 LOBROW3020 1.000000   UPBROW3021 1.000000
    RCRP1P34 QCRP14   1.000000   QCRP34   -1.000000
    RCRP1P34 LOBROW3022 1.000000   UPBROW3023 1.000000
    RCRP1P35 QCRP15   1.000000   QCRP35   -1.000000
    RCRP1P35 LOBROW3024 1.000000   UPBROW3025 1.000000
    RCRP1P36 QCRP16   1.000000   QCRP36   -1.000000
    RCRP1P36 LOBROW3026 1.000000   UPBROW3027 1.000000
    RCRP1P37 QCRP17   1.000000   QCRP37   -1.000000
    RCRP1P37 LOBROW3028 1.000000   UPBROW3029 1.000000
    RCRP1P38 QCRP18   1.000000   QCRP38   -1.000000
    RCRP1P38 LOBROW3030 1.000000   UPBROW3031 1.000000
    RCRP1P41 QCRP11   1.000000   QCRP41   -1.000000
    RCRP1P41 LOBROW3032 1.000000   UPBROW3033 1.000000
    RCRP1P42 QCRP12   1.000000   QCRP42   -1.000000
    RCRP1P42 LOBROW3034 1.000000   UPBROW3035 1.000000
    RCRP1P43 QCRP13   1.000000   QCRP43   -1.000000
    RCRP1P43 LOBROW3036 1.000000   UPBROW3037 1.000000
    RCRP1P44 QCRP14   1.000000   QCRP44   -1.000000
    RCRP1P44 LOBROW3038 1.000000   UPBROW3039 1.000000
    RCRP1P45 QCRP15   1.000000   QCRP45   -1.000000
    RCRP1P45 LOBROW3040 1.000000   UPBROW3041 1.000000
    RCRP1P46 QCRP16   1.000000   QCRP46   -1.000000
    RCRP1P46 LOBROW3042 1.000000   UPBROW3043 1.000000
    RCRP1P47 QCRP17   1.000000   QCRP47   -1.000000
    RCRP1P47 LOBROW3044 1.000000   UPBROW3045 1.000000
    RCRP1P48 QCRP18   1.000000   QCRP48   -1.000000
    RCRP1P48 LOBROW3046 1.000000   UPBROW3047 1.000000
    RCRP2P11 QCRP21   1.000000   QCRP11   -1.000000
    RCRP2P11 LOBROW3048 1.000000   UPBROW3049 1.000000
    RCRP2P12 QCRP22   1.000000   QCRP12   -1.000000
    RCRP2P12 LOBROW3050 1.000000   UPBROW3051 1.000000
    RCRP2P13 QCRP23   1.000000   QCRP13   -1.000000
    RCRP2P13 LOBROW3052 1.000000   UPBROW3053 1.000000
    RCRP2P14 QCRP24   1.000000   QCRP14   -1.000000
    RCRP2P14 LOBROW3054 1.000000   UPBROW3055 1.000000
    RCRP2P15 QCRP25   1.000000   QCRP15   -1.000000
    RCRP2P15 LOBROW3056 1.000000   UPBROW3057 1.000000
    RCRP2P16 QCRP26   1.000000   QCRP16   -1.000000
    RCRP2P16 LOBROW3058 1.000000   UPBROW3059 1.000000
    RCRP2P17 QCRP27   1.000000   QCRP17   -1.000000
    RCRP2P17 LOBROW3060 1.000000   UPBROW3061 1.000000
    RCRP2P18 QCRP28   1.000000   QCRP18   -1.000000
    RCRP2P18 LOBROW3062 1.000000   UPBROW3063 1.000000
    RCRP2P31 QCRP21   1.000000   QCRP31   -1.000000
    RCRP2P31 LOBROW3064 1.000000   UPBROW3065 1.000000
    RCRP2P32 QCRP22   1.000000   QCRP32   -1.000000
    RCRP2P32 LOBROW3066 1.000000   UPBROW3067 1.000000
    RCRP2P33 QCRP23   1.000000   QCRP33   -1.000000
    RCRP2P33 LOBROW3068 1.000000   UPBROW3069 1.000000
    RCRP2P34 QCRP24   1.000000   QCRP34   -1.000000
    RCRP2P34 LOBROW3070 1.000000   UPBROW3071 1.000000
    RCRP2P35 QCRP25   1.000000   QCRP35   -1.000000
    RCRP2P35 LOBROW3072 1.000000   UPBROW3073 1.000000
    RCRP2P36 QCRP26   1.000000   QCRP36   -1.000000
    RCRP2P36 LOBROW3074 1.000000   UPBROW3075 1.000000
    RCRP2P37 QCRP27   1.000000   QCRP37   -1.000000
    RCRP2P37 LOBROW3076 1.000000   UPBROW3077 1.000000
    RCRP2P38 QCRP28   1.000000   QCRP38   -1.000000
    RCRP2P38 LOBROW3078 1.000000   UPBROW3079 1.000000
    RCRP2P41 QCRP21   1.000000   QCRP41   -1.000000
    RCRP2P41 LOBROW3080 1.000000   UPBROW3081 1.000000
    RCRP2P42 QCRP22   1.000000   QCRP42   -1.000000
    RCRP2P42 LOBROW3082 1.000000   UPBROW3083 1.000000
    RCRP2P43 QCRP23   1.000000   QCRP43   -1.000000
    RCRP2P43 LOBROW3084 1.000000   UPBROW3085 1.000000
    RCRP2P44 QCRP24   1.000000   QCRP44   -1.000000
    RCRP2P44 LOBROW3086 1.000000   UPBROW3087 1.000000
    RCRP2P45 QCRP25   1.000000   QCRP45   -1.000000
    RCRP2P45 LOBROW3088 1.000000   UPBROW3089 1.000000
    RCRP2P46 QCRP26   1.000000   QCRP46   -1.000000
    RCRP2P46 LOBROW3090 1.000000   UPBROW3091 1.000000
    RCRP2P47 QCRP27   1.000000   QCRP47   -1.000000
    RCRP2P47 LOBROW3092 1.000000   UPBROW3093 1.000000
    RCRP2P48 QCRP28   1.000000   QCRP48   -1.000000
    RCRP2P48 LOBROW3094 1.000000   UPBROW3095 1.000000
    RCRP3P11 QCRP31   1.000000   QCRP11   -1.000000
    RCRP3P11 LOBROW3096 1.000000   UPBROW3097 1.000000
    RCRP3P12 QCRP32   1.000000   QCRP12   -1.000000
    RCRP3P12 LOBROW3098 1.000000   UPBROW3099 1.000000
    RCRP3P13 QCRP33   1.000000   QCRP13   -1.000000
    RCRP3P13 LOBROW3100 1.000000   UPBROW3101 1.000000
    RCRP3P14 QCRP34   1.000000   QCRP14   -1.000000
    RCRP3P14 LOBROW3102 1.000000   UPBROW3103 1.000000
    RCRP3P15 QCRP35   1.000000   QCRP15   -1.000000
    RCRP3P15 LOBROW3104 1.000000   UPBROW3105 1.000000
    RCRP3P16 QCRP36   1.000000   QCRP16   -1.000000
    RCRP3P16 LOBROW3106 1.000000   UPBROW3107 1.000000
    RCRP3P17 QCRP37   1.000000   QCRP17   -1.000000
    RCRP3P17 LOBROW3108 1.000000   UPBROW3109 1.000000
    RCRP3P18 QCRP38   1.000000   QCRP18   -1.000000
    RCRP3P18 LOBROW3110 1.000000   UPBROW3111 1.000000
    RCRP3P21 QCRP31   1.000000   QCRP21   -1.000000
    RCRP3P21 LOBROW3112 1.000000   UPBROW3113 1.000000
    RCRP3P22 QCRP32   1.000000   QCRP22   -1.000000
    RCRP3P22 LOBROW3114 1.000000   UPBROW3115 1.000000
    RCRP3P23 QCRP33   1.000000   QCRP23   -1.000000
    RCRP3P23 LOBROW3116 1.000000   UPBROW3117 1.000000
    RCRP3P24 QCRP34   1.000000   QCRP24   -1.000000
    RCRP3P24 LOBROW3118 1.000000   UPBROW3119 1.000000
    RCRP3P25 QCRP35   1.000000   QCRP25   -1.000000
    RCRP3P25 LOBROW3120 1.000000   UPBROW3121 1.000000
    RCRP3P26 QCRP36   1.000000   QCRP26   -1.000000
    RCRP3P26 LOBROW3122 1.000000   UPBROW3123 1.000000
    RCRP3P27 QCRP37   1.000000   QCRP27   -1.000000
    RCRP3P27 LOBROW3124 1.000000   UPBROW3125 1.000000
    RCRP3P28 QCRP38   1.000000   QCRP28   -1.000000
    RCRP3P28 LOBROW3126 1.000000   UPBROW3127 1.000000
    RCRP3P41 QCRP31   1.000000   QCRP41   -1.000000
    RCRP3P41 LOBROW3128 1.000000   UPBROW3129 1.000000
    RCRP3P42 QCRP32   1.000000   QCRP42   -1.000000
    RCRP3P42 LOBROW3130 1.000000   UPBROW3131 1.000000
    RCRP3P43 QCRP33   1.000000   QCRP43   -1.000000
    RCRP3P43 LOBROW3132 1.000000   UPBROW3133 1.000000
    RCRP3P44 QCRP34   1.000000   QCRP44   -1.000000
    RCRP3P44 LOBROW3134 1.000000   UPBROW3135 1.000000
    RCRP3P45 QCRP35   1.000000   QCRP45   -1.000000
    RCRP3P45 LOBROW3136 1.000000   UPBROW3137 1.000000
    RCRP3P46 QCRP36   1.000000   QCRP46   -1.000000
    RCRP3P46 LOBROW3138 1.000000   UPBROW3139 1.000000
    RCRP3P47 QCRP37   1.000000   QCRP47   -1.000000
    RCRP3P47 LOBROW3140 1.000000   UPBROW3141 1.000000
    RCRP3P48 QCRP38   1.000000   QCRP48   -1.000000
    RCRP3P48 LOBROW3142 1.000000   UPBROW3143 1.000000
    RCRP4P21 QCRP41   1.000000   QCRP21   -1.000000
    RCRP4P21 LOBROW3144 1.000000   UPBROW3145 1.000000
    RCRP4P22 QCRP42   1.000000   QCRP22   -1.000000
    RCRP4P22 LOBROW3146 1.000000   UPBROW3147 1.000000
    RCRP4P23 QCRP43   1.000000   QCRP23   -1.000000
    RCRP4P23 LOBROW3148 1.000000   UPBROW3149 1.000000
    RCRP4P24 QCRP44   1.000000   QCRP24   -1.000000
    RCRP4P24 LOBROW3150 1.000000   UPBROW3151 1.000000
    RCRP4P25 QCRP45   1.000000   QCRP25   -1.000000
    RCRP4P25 LOBROW3152 1.000000   UPBROW3153 1.000000
    RCRP4P26 QCRP46   1.000000   QCRP26   -1.000000
    RCRP4P26 LOBROW3154 1.000000   UPBROW3155 1.000000
    RCRP4P27 QCRP47   1.000000   QCRP27   -1.000000
    RCRP4P27 LOBROW3156 1.000000   UPBROW3157 1.000000
    RCRP4P28 QCRP48   1.000000   QCRP28   -1.000000
    RCRP4P28 LOBROW3158 1.000000   UPBROW3159 1.000000
    RCRP4P31 QCRP41   1.000000   QCRP31   -1.000000
    RCRP4P31 LOBROW3160 1.000000   UPBROW3161 1.000000
    RCRP4P32 QCRP42   1.000000   QCRP32   -1.000000
    RCRP4P32 LOBROW3162 1.000000   UPBROW3163 1.000000
    RCRP4P33 QCRP43   1.000000   QCRP33   -1.000000
    RCRP4P33 LOBROW3164 1.000000   UPBROW3165 1.000000
    RCRP4P34 QCRP44   1.000000   QCRP34   -1.000000
    RCRP4P34 LOBROW3166 1.000000   UPBROW3167 1.000000
    RCRP4P35 QCRP45   1.000000   QCRP35   -1.000000
    RCRP4P35 LOBROW3168 1.000000   UPBROW3169 1.000000
    RCRP4P36 QCRP46   1.000000   QCRP36   -1.000000
    RCRP4P36 LOBROW3170 1.000000   UPBROW3171 1.000000
    RCRP4P37 QCRP47   1.000000   QCRP37   -1.000000
    RCRP4P37 LOBROW3172 1.000000   UPBROW3173 1.000000
    RCRP4P38 QCRP48   1.000000   QCRP38   -1.000000
    RCRP4P38 LOBROW3174 1.000000   UPBROW3175 1.000000
    RCRP4P51 QCRP41   1.000000   QCRP51   -1.000000
    RCRP4P51 LOBROW3176 1.000000   UPBROW3177 1.000000
    RCRP4P52 QCRP42   1.000000   QCRP52   -1.000000
    RCRP4P52 LOBROW3178 1.000000   UPBROW3179 1.000000
    RCRP4P53 QCRP43   1.000000   QCRP53   -1.000000
    RCRP4P53 LOBROW3180 1.000000   UPBROW3181 1.000000
    RCRP4P54 QCRP44   1.000000   QCRP54   -1.000000
    RCRP4P54 LOBROW3182 1.000000   UPBROW3183 1.000000
    RCRP4P55 QCRP45   1.000000   QCRP55   -1.000000
    RCRP4P55 LOBROW3184 1.000000   UPBROW3185 1.000000
    RCRP4P56 QCRP46   1.000000   QCRP56   -1.000000
    RCRP4P56 LOBROW3186 1.000000   UPBROW3187 1.000000
    RCRP4P57 QCRP47   1.000000   QCRP57   -1.000000
    RCRP4P57 LOBROW3188 1.000000   UPBROW3189 1.000000
    RCRP4P58 QCRP48   1.000000   QCRP58   -1.000000
    RCRP4P58 LOBROW3190 1.000000   UPBROW3191 1.000000
    RCRP5P31 QCRP51   1.000000   QCRP31   -1.000000
    RCRP5P31 LOBROW3192 1.000000   UPBROW3193 1.000000
    RCRP5P32 QCRP52   1.000000   QCRP32   -1.000000
    RCRP5P32 LOBROW3194 1.000000   UPBROW3195 1.000000
    RCRP5P33 QCRP53   1.000000   QCRP33   -1.000000
    RCRP5P33 LOBROW3196 1.000000   UPBROW3197 1.000000
    RCRP5P34 QCRP54   1.000000   QCRP34   -1.000000
    RCRP5P34 LOBROW3198 1.000000   UPBROW3199 1.000000
    RCRP5P35 QCRP55   1.000000   QCRP35   -1.000000
    RCRP5P35 LOBROW3200 1.000000   UPBROW3201 1.000000
    RCRP5P36 QCRP56   1.000000   QCRP36   -1.000000
    RCRP5P36 LOBROW3202 1.000000   UPBROW3203 1.000000
    RCRP5P37 QCRP57   1.000000   QCRP37   -1.000000
    RCRP5P37 LOBROW3204 1.000000   UPBROW3205 1.000000
    RCRP5P38 QCRP58   1.000000   QCRP38   -1.000000
    RCRP5P38 LOBROW3206 1.000000   UPBROW3207 1.000000
    RCRP5P41 QCRP51   1.000000   QCRP41   -1.000000
    RCRP5P41 LOBROW3208 1.000000   UPBROW3209 1.000000
    RCRP5P42 QCRP52   1.000000   QCRP42   -1.000000
    RCRP5P42 LOBROW3210 1.000000   UPBROW3211 1.000000
    RCRP5P43 QCRP53   1.000000   QCRP43   -1.000000
    RCRP5P43 LOBROW3212 1.000000   UPBROW3213 1.000000
    RCRP5P44 QCRP54   1.000000   QCRP44   -1.000000
    RCRP5P44 LOBROW3214 1.000000   UPBROW3215 1.000000
    RCRP5P45 QCRP55   1.000000   QCRP45   -1.000000
    RCRP5P45 LOBROW3216 1.000000   UPBROW3217 1.000000
    RCRP5P46 QCRP56   1.000000   QCRP46   -1.000000
    RCRP5P46 LOBROW3218 1.000000   UPBROW3219 1.000000
    RCRP5P47 QCRP57   1.000000   QCRP47   -1.000000
    RCRP5P47 LOBROW3220 1.000000   UPBROW3221 1.000000
    RCRP5P48 QCRP58   1.000000   QCRP48   -1.000000
    RCRP5P48 LOBROW3222 1.000000   UPBROW3223 1.000000
    RGLP1P21 QGLP11   1.000000   QGLP21   -1.000000
    RGLP1P21 LOBROW3224 1.000000   UPBROW3225 1.000000
    RGLP1P22 QGLP12   1.000000   QGLP22   -1.000000
    RGLP1P22 LOBROW3226 1.000000   UPBROW3227 1.000000
    RGLP1P23 QGLP13   1.000000   QGLP23   -1.000000
    RGLP1P23 LOBROW3228 1.000000   UPBROW3229 1.000000
    RGLP1P24 QGLP14   1.000000   QGLP24   -1.000000
    RGLP1P24 LOBROW3230 1.000000   UPBROW3231 1.000000
    RGLP1P25 QGLP15   1.000000   QGLP25   -1.000000
    RGLP1P25 LOBROW3232 1.000000   UPBROW3233 1.000000
    RGLP1P26 QGLP16   1.000000   QGLP26   -1.000000
    RGLP1P26 LOBROW3234 1.000000   UPBROW3235 1.000000
    RGLP1P27 QGLP17   1.000000   QGLP27   -1.000000
    RGLP1P27 LOBROW3236 1.000000   UPBROW3237 1.000000
    RGLP1P28 QGLP18   1.000000   QGLP28   -1.000000
    RGLP1P28 LOBROW3238 1.000000   UPBROW3239 1.000000
    RGLP1P31 QGLP11   1.000000   QGLP31   -1.000000
    RGLP1P31 LOBROW3240 1.000000   UPBROW3241 1.000000
    RGLP1P32 QGLP12   1.000000   QGLP32   -1.000000
    RGLP1P32 LOBROW3242 1.000000   UPBROW3243 1.000000
    RGLP1P33 QGLP13   1.000000   QGLP33   -1.000000
    RGLP1P33 LOBROW3244 1.000000   UPBROW3245 1.000000
    RGLP1P34 QGLP14   1.000000   QGLP34   -1.000000
    RGLP1P34 LOBROW3246 1.000000   UPBROW3247 1.000000
    RGLP1P35 QGLP15   1.000000   QGLP35   -1.000000
    RGLP1P35 LOBROW3248 1.000000   UPBROW3249 1.000000
    RGLP1P36 QGLP16   1.000000   QGLP36   -1.000000
    RGLP1P36 LOBROW3250 1.000000   UPBROW3251 1.000000
    RGLP1P37 QGLP17   1.000000   QGLP37   -1.000000
    RGLP1P37 LOBROW3252 1.000000   UPBROW3253 1.000000
    RGLP1P38 QGLP18   1.000000   QGLP38   -1.000000
    RGLP1P38 LOBROW3254 1.000000   UPBROW3255 1.000000
    RGLP2P31 QGLP21   1.000000   QGLP31   -1.000000
    RGLP2P31 LOBROW3256 1.000000   UPBROW3257 1.000000
    RGLP2P32 QGLP22   1.000000   QGLP32   -1.000000
    RGLP2P32 LOBROW3258 1.000000   UPBROW3259 1.000000
    RGLP2P33 QGLP23   1.000000   QGLP33   -1.000000
    RGLP2P33 LOBROW3260 1.000000   UPBROW3261 1.000000
    RGLP2P34 QGLP24   1.000000   QGLP34   -1.000000
    RGLP2P34 LOBROW3262 1.000000   UPBROW3263 1.000000
    RGLP2P35 QGLP25   1.000000   QGLP35   -1.000000
    RGLP2P35 LOBROW3264 1.000000   UPBROW3265 1.000000
    RGLP2P36 QGLP26   1.000000   QGLP36   -1.000000
    RGLP2P36 LOBROW3266 1.000000   UPBROW3267 1.000000
    RGLP2P37 QGLP27   1.000000   QGLP37   -1.000000
    RGLP2P37 LOBROW3268 1.000000   UPBROW3269 1.000000
    RGLP2P38 QGLP28   1.000000   QGLP38   -1.000000
    RGLP2P38 LOBROW3270 1.000000   UPBROW3271 1.000000
    RGLP2P41 QGLP21   1.000000   QGLP41   -1.000000
    RGLP2P41 LOBROW3272 1.000000   UPBROW3273 1.000000
    RGLP2P42 QGLP22   1.000000   QGLP42   -1.000000
    RGLP2P42 LOBROW3274 1.000000   UPBROW3275 1.000000
    RGLP2P43 QGLP23   1.000000   QGLP43   -1.000000
    RGLP2P43 LOBROW3276 1.000000   UPBROW3277 1.000000
    RGLP2P44 QGLP24   1.000000   QGLP44   -1.000000
    RGLP2P44 LOBROW3278 1.000000   UPBROW3279 1.000000
    RGLP2P45 QGLP25   1.000000   QGLP45   -1.000000
    RGLP2P45 LOBROW3280 1.000000   UPBROW3281 1.000000
    RGLP2P46 QGLP26   1.000000   QGLP46   -1.000000
    RGLP2P46 LOBROW3282 1.000000   UPBROW3283 1.000000
    RGLP2P47 QGLP27   1.000000   QGLP47   -1.000000
    RGLP2P47 LOBROW3284 1.000000   UPBROW3285 1.000000
    RGLP2P48 QGLP28   1.000000   QGLP48   -1.000000
    RGLP2P48 LOBROW3286 1.000000   UPBROW3287 1.000000
    RGLP3P21 QGLP31   1.000000   QGLP21   -1.000000
    RGLP3P21 LOBROW3288 1.000000   UPBROW3289 1.000000
    RGLP3P22 QGLP32   1.000000   QGLP22   -1.000000
    RGLP3P22 LOBROW3290 1.000000   UPBROW3291 1.000000
    RGLP3P23 QGLP33   1.000000   QGLP23   -1.000000
    RGLP3P23 LOBROW3292 1.000000   UPBROW3293 1.000000
    RGLP3P24 QGLP34   1.000000   QGLP24   -1.000000
    RGLP3P24 LOBROW3294 1.000000   UPBROW3295 1.000000
    RGLP3P25 QGLP35   1.000000   QGLP25   -1.000000
    RGLP3P25 LOBROW3296 1.000000   UPBROW3297 1.000000
    RGLP3P26 QGLP36   1.000000   QGLP26   -1.000000
    RGLP3P26 LOBROW3298 1.000000   UPBROW3299 1.000000
    RGLP3P27 QGLP37   1.000000   QGLP27   -1.000000
    RGLP3P27 LOBROW3300 1.000000   UPBROW3301 1.000000
    RGLP3P28 QGLP38   1.000000   QGLP28   -1.000000
    RGLP3P28 LOBROW3302 1.000000   UPBROW3303 1.000000
    RGLP3P41 QGLP31   1.000000   QGLP41   -1.000000
    RGLP3P41 LOBROW3304 1.000000   UPBROW3305 1.000000
    RGLP3P42 QGLP32   1.000000   QGLP42   -1.000000
    RGLP3P42 LOBROW3306 1.000000   UPBROW3307 1.000000
    RGLP3P43 QGLP33   1.000000   QGLP43   -1.000000
    RGLP3P43 LOBROW3308 1.000000   UPBROW3309 1.000000
    RGLP3P44 QGLP34   1.000000   QGLP44   -1.000000
    RGLP3P44 LOBROW3310 1.000000   UPBROW3311 1.000000
    RGLP3P45 QGLP35   1.000000   QGLP45   -1.000000
    RGLP3P45 LOBROW3312 1.000000   UPBROW3313 1.000000
    RGLP3P46 QGLP36   1.000000   QGLP46   -1.000000
    RGLP3P46 LOBROW3314 1.000000   UPBROW3315 1.000000
    RGLP3P47 QGLP37   1.000000   QGLP47   -1.000000
    RGLP3P47 LOBROW3316 1.000000   UPBROW3317 1.000000
    RGLP3P48 QGLP38   1.000000   QGLP48   -1.000000
    RGLP3P48 LOBROW3318 1.000000   UPBROW3319 1.000000
    RGLP4P31 QGLP41   1.000000   QGLP31   -1.000000
    RGLP4P31 LOBROW3320 1.000000   UPBROW3321 1.000000
    RGLP4P32 QGLP42   1.000000   QGLP32   -1.000000
    RGLP4P32 LOBROW3322 1.000000   UPBROW3323 1.000000
    RGLP4P33 QGLP43   1.000000   QGLP33   -1.000000
    RGLP4P33 LOBROW3324 1.000000   UPBROW3325 1.000000
    RGLP4P34 QGLP44   1.000000   QGLP34   -1.000000
    RGLP4P34 LOBROW3326 1.000000   UPBROW3327 1.000000
    RGLP4P35 QGLP45   1.000000   QGLP35   -1.000000
    RGLP4P35 LOBROW3328 1.000000   UPBROW3329 1.000000
    RGLP4P36 QGLP46   1.000000   QGLP36   -1.000000
    RGLP4P36 LOBROW3330 1.000000   UPBROW3331 1.000000
    RGLP4P37 QGLP47   1.000000   QGLP37   -1.000000
    RGLP4P37 LOBROW3332 1.000000   UPBROW3333 1.000000
    RGLP4P38 QGLP48   1.000000   QGLP38   -1.000000
    RGLP4P38 LOBROW3334 1.000000   UPBROW3335 1.000000
    RUNP1P31 QUNP11   1.000000   QUNP31   -1.000000
    RUNP1P31 LOBROW3336 1.000000   UPBROW3337 1.000000
    RUNP1P32 QUNP12   1.000000   QUNP32   -1.000000
    RUNP1P32 LOBROW3338 1.000000   UPBROW3339 1.000000
    RUNP1P33 QUNP13   1.000000   QUNP33   -1.000000
    RUNP1P33 LOBROW3340 1.000000   UPBROW3341 1.000000
    RUNP1P34 QUNP14   1.000000   QUNP34   -1.000000
    RUNP1P34 LOBROW3342 1.000000   UPBROW3343 1.000000
    RUNP1P35 QUNP15   1.000000   QUNP35   -1.000000
    RUNP1P35 LOBROW3344 1.000000   UPBROW3345 1.000000
    RUNP1P36 QUNP16   1.000000   QUNP36   -1.000000
    RUNP1P36 LOBROW3346 1.000000   UPBROW3347 1.000000
    RUNP1P37 QUNP17   1.000000   QUNP37   -1.000000
    RUNP1P37 LOBROW3348 1.000000   UPBROW3349 1.000000
    RUNP1P38 QUNP18   1.000000   QUNP38   -1.000000
    RUNP1P38 LOBROW3350 1.000000   UPBROW3351 1.000000
    RUNP2P31 QUNP21   1.000000   QUNP31   -1.000000
    RUNP2P31 LOBROW3352 1.000000   UPBROW3353 1.000000
    RUNP2P32 QUNP22   1.000000   QUNP32   -1.000000
    RUNP2P32 LOBROW3354 1.000000   UPBROW3355 1.000000
    RUNP2P33 QUNP23   1.000000   QUNP33   -1.000000
    RUNP2P33 LOBROW3356 1.000000   UPBROW3357 1.000000
    RUNP2P34 QUNP24   1.000000   QUNP34   -1.000000
    RUNP2P34 LOBROW3358 1.000000   UPBROW3359 1.000000
    RUNP2P35 QUNP25   1.000000   QUNP35   -1.000000
    RUNP2P35 LOBROW3360 1.000000   UPBROW3361 1.000000
    RUNP2P36 QUNP26   1.000000   QUNP36   -1.000000
    RUNP2P36 LOBROW3362 1.000000   UPBROW3363 1.000000
    RUNP2P37 QUNP27   1.000000   QUNP37   -1.000000
    RUNP2P37 LOBROW3364 1.000000   UPBROW3365 1.000000
    RUNP2P38 QUNP28   1.000000   QUNP38   -1.000000
    RUNP2P38 LOBROW3366 1.000000   UPBROW3367 1.000000
    RUNP5P31 QUNP51   1.000000   QUNP31   -1.000000
    RUNP5P31 LOBROW3368 1.000000   UPBROW3369 1.000000
    RUNP5P32 QUNP52   1.000000   QUNP32   -1.000000
    RUNP5P32 LOBROW3370 1.000000   UPBROW3371 1.000000
    RUNP5P33 QUNP53   1.000000   QUNP33   -1.000000
    RUNP5P33 LOBROW3372 1.000000   UPBROW3373 1.000000
    RUNP5P34 QUNP54   1.000000   QUNP34   -1.000000
    RUNP5P34 LOBROW3374 1.000000   UPBROW3375 1.000000
    RUNP5P35 QUNP55   1.000000   QUNP35   -1.000000
    RUNP5P35 LOBROW3376 1.000000   UPBROW3377 1.000000
    RUNP5P36 QUNP56   1.000000   QUNP36   -1.000000
    RUNP5P36 LOBROW3378 1.000000   UPBROW3379 1.000000
    RUNP5P37 QUNP57   1.000000   QUNP37   -1.000000
    RUNP5P37 LOBROW3380 1.000000   UPBROW3381 1.000000
    RUNP5P38 QUNP58   1.000000   QUNP38   -1.000000
    RUNP5P38 LOBROW3382 1.000000   UPBROW3383 1.000000
    RGAP1P21 AP1P21   1.000000   QGAP11   1.000000
    RGAP1P21 QGAP21   -1.000000   LOBROW3384 1.000000
    RGAP1P21 UPBROW3385 1.000000
    RGAP1P22 AP1P22   1.000000   QGAP12   1.000000
    RGAP1P22 QGAP22   -1.000000   LOBROW3386 1.000000
    RGAP1P22 UPBROW3387 1.000000
    RGAP1P23 AP1P23   1.000000   QGAP13   1.000000
    RGAP1P23 QGAP23   -1.000000   LOBROW3388 1.000000
    RGAP1P23 UPBROW3389 1.000000
    RGAP1P24 AP1P24   1.000000   QGAP14   1.000000
    RGAP1P24 QGAP24   -1.000000   LOBROW3390 1.000000
    RGAP1P24 UPBROW3391 1.000000
    RGAP1P25 AP1P25   1.000000   QGAP15   1.000000
    RGAP1P25 QGAP25   -1.000000   LOBROW3392 1.000000
    RGAP1P25 UPBROW3393 1.000000
    RGAP1P26 AP1P26   1.000000   QGAP16   1.000000
    RGAP1P26 QGAP26   -1.000000   LOBROW3394 1.000000
    RGAP1P26 UPBROW3395 1.000000
    RGAP1P27 AP1P27   1.000000   QGAP17   1.000000
    RGAP1P27 QGAP27   -1.000000   LOBROW3396 1.000000
    RGAP1P27 UPBROW3397 1.000000
    RGAP1P28 AP1P28   1.000000   QGAP18   1.000000
    RGAP1P28 QGAP28   -1.000000   LOBROW3398 1.000000
    RGAP1P28 UPBROW3399 1.000000
    RGAP1P31 AP1P31   1.000000   QGAP11   1.000000
    RGAP1P31 QGAP31   -1.000000   LOBROW3400 1.000000
    RGAP1P31 UPBROW3401 1.000000
    RGAP1P32 AP1P32   1.000000   QGAP12   1.000000
    RGAP1P32 QGAP32   -1.000000   LOBROW3402 1.000000
    RGAP1P32 UPBROW3403 1.000000
    RGAP1P33 AP1P33   1.000000   QGAP13   1.000000
    RGAP1P33 QGAP33   -1.000000   LOBROW3404 1.000000
    RGAP1P33 UPBROW3405 1.000000
    RGAP1P34 AP1P34   1.000000   QGAP14   1.000000
    RGAP1P34 QGAP34   -1.000000   LOBROW3406 1.000000
    RGAP1P34 UPBROW3407 1.000000
    RGAP1P35 AP1P35   1.000000   QGAP15   1.000000
    RGAP1P35 QGAP35   -1.000000   LOBROW3408 1.000000
    RGAP1P35 UPBROW3409 1.000000
    RGAP1P36 AP1P36   1.000000   QGAP16   1.000000
    RGAP1P36 QGAP36   -1.000000   LOBROW3410 1.000000
    RGAP1P36 UPBROW3411 1.000000
    RGAP1P37 AP1P37   1.000000   QGAP17   1.000000
    RGAP1P37 QGAP37   -1.000000   LOBROW3412 1.000000
    RGAP1P37 UPBROW3413 1.000000
    RGAP1P38 AP1P38   1.000000   QGAP18   1.000000
    RGAP1P38 QGAP38   -1.000000   LOBROW3414 1.000000
    RGAP1P38 UPBROW3415 1.000000
    RGAP2P11 AP2P11   1.000000   QGAP21   1.000000
    RGAP2P11 QGAP11   -1.000000   LOBROW3416 1.000000
    RGAP2P11 UPBROW3417 1.000000
    RGAP2P12 AP2P12   1.000000   QGAP22   1.000000
    RGAP2P12 QGAP12   -1.000000   LOBROW3418 1.000000
    RGAP2P12 UPBROW3419 1.000000
    RGAP2P13 AP2P13   1.000000   QGAP23   1.000000
    RGAP2P13 QGAP13   -1.000000   LOBROW3420 1.000000
    RGAP2P13 UPBROW3421 1.000000
    RGAP2P14 AP2P14   1.000000   QGAP24   1.000000
    RGAP2P14 QGAP14   -1.000000   LOBROW3422 1.000000
    RGAP2P14 UPBROW3423 1.000000
    RGAP2P15 AP2P15   1.000000   QGAP25   1.000000
    RGAP2P15 QGAP15   -1.000000   LOBROW3424 1.000000
    RGAP2P15 UPBROW3425 1.000000
    RGAP2P16 AP2P16   1.000000   QGAP26   1.000000
    RGAP2P16 QGAP16   -1.000000   LOBROW3426 1.000000
    RGAP2P16 UPBROW3427 1.000000
    RGAP2P17 AP2P17   1.000000   QGAP27   1.000000
    RGAP2P17 QGAP17   -1.000000   LOBROW3428 1.000000
    RGAP2P17 UPBROW3429 1.000000
    RGAP2P18 AP2P18   1.000000   QGAP28   1.000000
    RGAP2P18 QGAP18   -1.000000   LOBROW3430 1.000000
    RGAP2P18 UPBROW3431 1.000000
    RGAP2P31 AP2P31   1.000000   QGAP21   1.000000
    RGAP2P31 QGAP31   -1.000000   LOBROW3432 1.000000
    RGAP2P31 UPBROW3433 1.000000
    RGAP2P32 AP2P32   1.000000   QGAP22   1.000000
    RGAP2P32 QGAP32   -1.000000   LOBROW3434 1.000000
    RGAP2P32 UPBROW3435 1.000000
    RGAP2P33 AP2P33   1.000000   QGAP23   1.000000
    RGAP2P33 QGAP33   -1.000000   LOBROW3436 1.000000
    RGAP2P33 UPBROW3437 1.000000
    RGAP2P34 AP2P34   1.000000   QGAP24   1.000000
    RGAP2P34 QGAP34   -1.000000   LOBROW3438 1.000000
    RGAP2P34 UPBROW3439 1.000000
    RGAP2P35 AP2P35   1.000000   QGAP25   1.000000
    RGAP2P35 QGAP35   -1.000000   LOBROW3440 1.000000
    RGAP2P35 UPBROW3441 1.000000
    RGAP2P36 AP2P36   1.000000   QGAP26   1.000000
    RGAP2P36 QGAP36   -1.000000   LOBROW3442 1.000000
    RGAP2P36 UPBROW3443 1.000000
    RGAP2P37 AP2P37   1.000000   QGAP27   1.000000
    RGAP2P37 QGAP37   -1.000000   LOBROW3444 1.000000
    RGAP2P37 UPBROW3445 1.000000
    RGAP2P38 AP2P38   1.000000   QGAP28   1.000000
    RGAP2P38 QGAP38   -1.000000   LOBROW3446 1.000000
    RGAP2P38 UPBROW3447 1.000000
    RGAP2P41 AP2P41   1.000000   QGAP21   1.000000
    RGAP2P41 QGAP41   -1.000000   LOBROW3448 1.000000
    RGAP2P41 UPBROW3449 1.000000
    RGAP2P42 AP2P42   1.000000   QGAP22   1.000000
    RGAP2P42 QGAP42   -1.000000   LOBROW3450 1.000000
    RGAP2P42 UPBROW3451 1.000000
    RGAP2P43 AP2P43   1.000000   QGAP23   1.000000
    RGAP2P43 QGAP43   -1.000000   LOBROW3452 1.000000
    RGAP2P43 UPBROW3453 1.000000
    RGAP2P44 AP2P44   1.000000   QGAP24   1.000000
    RGAP2P44 QGAP44   -1.000000   LOBROW3454 1.000000
    RGAP2P44 UPBROW3455 1.000000
    RGAP2P45 AP2P45   1.000000   QGAP25   1.000000
    RGAP2P45 QGAP45   -1.000000   LOBROW3456 1.000000
    RGAP2P45 UPBROW3457 1.000000
    RGAP2P46 AP2P46   1.000000   QGAP26   1.000000
    RGAP2P46 QGAP46   -1.000000   LOBROW3458 1.000000
    RGAP2P46 UPBROW3459 1.000000
    RGAP2P47 AP2P47   1.000000   QGAP27   1.000000
    RGAP2P47 QGAP47   -1.000000   LOBROW3460 1.000000
    RGAP2P47 UPBROW3461 1.000000
    RGAP2P48 AP2P48   1.000000   QGAP28   1.000000
    RGAP2P48 QGAP48   -1.000000   LOBROW3462 1.000000
    RGAP2P48 UPBROW3463 1.000000
    RGAP3P21 AP3P21   1.000000   QGAP31   1.000000
    RGAP3P21 QGAP21   -1.000000   LOBROW3464 1.000000
    RGAP3P21 UPBROW3465 1.000000
    RGAP3P22 AP3P22   1.000000   QGAP32   1.000000
    RGAP3P22 QGAP22   -1.000000   LOBROW3466 1.000000
    RGAP3P22 UPBROW3467 1.000000
    RGAP3P23 AP3P23   1.000000   QGAP33   1.000000
    RGAP3P23 QGAP23   -1.000000   LOBROW3468 1.000000
    RGAP3P23 UPBROW3469 1.000000
    RGAP3P24 AP3P24   1.000000   QGAP34   1.000000
    RGAP3P24 QGAP24   -1.000000   LOBROW3470 1.000000
    RGAP3P24 UPBROW3471 1.000000
    RGAP3P25 AP3P25   1.000000   QGAP35   1.000000
    RGAP3P25 QGAP25   -1.000000   LOBROW3472 1.000000
    RGAP3P25 UPBROW3473 1.000000
    RGAP3P26 AP3P26   1.000000   QGAP36   1.000000
    RGAP3P26 QGAP26   -1.000000   LOBROW3474 1.000000
    RGAP3P26 UPBROW3475 1.000000
    RGAP3P27 AP3P27   1.000000   QGAP37   1.000000
    RGAP3P27 QGAP27   -1.000000   LOBROW3476 1.000000
    RGAP3P27 UPBROW3477 1.000000
    RGAP3P28 AP3P28   1.000000   QGAP38   1.000000
    RGAP3P28 QGAP28   -1.000000   LOBROW3478 1.000000
    RGAP3P28 UPBROW3479 1.000000
    RGAP4P21 AP4P21   1.000000   QGAP41   1.000000
    RGAP4P21 QGAP21   -1.000000   LOBROW3480 1.000000
    RGAP4P21 UPBROW3481 1.000000
    RGAP4P22 AP4P22   1.000000   QGAP42   1.000000
    RGAP4P22 QGAP22   -1.000000   LOBROW3482 1.000000
    RGAP4P22 UPBROW3483 1.000000
    RGAP4P23 AP4P23   1.000000   QGAP43   1.000000
    RGAP4P23 QGAP23   -1.000000   LOBROW3484 1.000000
    RGAP4P23 UPBROW3485 1.000000
    RGAP4P24 AP4P24   1.000000   QGAP44   1.000000
    RGAP4P24 QGAP24   -1.000000   LOBROW3486 1.000000
    RGAP4P24 UPBROW3487 1.000000
    RGAP4P25 AP4P25   1.000000   QGAP45   1.000000
    RGAP4P25 QGAP25   -1.000000   LOBROW3488 1.000000
    RGAP4P25 UPBROW3489 1.000000
    RGAP4P26 AP4P26   1.000000   QGAP46   1.000000
    RGAP4P26 QGAP26   -1.000000   LOBROW3490 1.000000
    RGAP4P26 UPBROW3491 1.000000
    RGAP4P27 AP4P27   1.000000   QGAP47   1.000000
    RGAP4P27 QGAP27   -1.000000   LOBROW3492 1.000000
    RGAP4P27 UPBROW3493 1.000000
    RGAP4P28 AP4P28   1.000000   QGAP48   1.000000
    RGAP4P28 QGAP28   -1.000000   LOBROW3494 1.000000
    RGAP4P28 UPBROW3495 1.000000
    RGAP4P31 AP4P31   1.000000   QGAP41   1.000000
    RGAP4P31 QGAP31   -1.000000   LOBROW3496 1.000000
    RGAP4P31 UPBROW3497 1.000000
    RGAP4P32 AP4P32   1.000000   QGAP42   1.000000
    RGAP4P32 QGAP32   -1.000000   LOBROW3498 1.000000
    RGAP4P32 UPBROW3499 1.000000
    RGAP4P33 AP4P33   1.000000   QGAP43   1.000000
    RGAP4P33 QGAP33   -1.000000   LOBROW3500 1.000000
    RGAP4P33 UPBROW3501 1.000000
    RGAP4P34 AP4P34   1.000000   QGAP44   1.000000
    RGAP4P34 QGAP34   -1.000000   LOBROW3502 1.000000
    RGAP4P34 UPBROW3503 1.000000
    RGAP4P35 AP4P35   1.000000   QGAP45   1.000000
    RGAP4P35 QGAP35   -1.000000   LOBROW3504 1.000000
    RGAP4P35 UPBROW3505 1.000000
    RGAP4P36 AP4P36   1.000000   QGAP46   1.000000
    RGAP4P36 QGAP36   -1.000000   LOBROW3506 1.000000
    RGAP4P36 UPBROW3507 1.000000
    RGAP4P37 AP4P37   1.000000   QGAP47   1.000000
    RGAP4P37 QGAP37   -1.000000   LOBROW3508 1.000000
    RGAP4P37 UPBROW3509 1.000000
    RGAP4P38 AP4P38   1.000000   QGAP48   1.000000
    RGAP4P38 QGAP38   -1.000000   LOBROW3510 1.000000
    RGAP4P38 UPBROW3511 1.000000
    RGAP5P31 AP5P31   1.000000   QGAP51   1.000000
    RGAP5P31 QGAP31   -1.000000   LOBROW3512 1.000000
    RGAP5P31 UPBROW3513 1.000000
    RGAP5P32 AP5P32   1.000000   QGAP52   1.000000
    RGAP5P32 QGAP32   -1.000000   LOBROW3514 1.000000
    RGAP5P32 UPBROW3515 1.000000
    RGAP5P33 AP5P33   1.000000   QGAP53   1.000000
    RGAP5P33 QGAP33   -1.000000   LOBROW3516 1.000000
    RGAP5P33 UPBROW3517 1.000000
    RGAP5P34 AP5P34   1.000000   QGAP54   1.000000
    RGAP5P34 QGAP34   -1.000000   LOBROW3518 1.000000
    RGAP5P34 UPBROW3519 1.000000
    RGAP5P35 AP5P35   1.000000   QGAP55   1.000000
    RGAP5P35 QGAP35   -1.000000   LOBROW3520 1.000000
    RGAP5P35 UPBROW3521 1.000000
    RGAP5P36 AP5P36   1.000000   QGAP56   1.000000
    RGAP5P36 QGAP36   -1.000000   LOBROW3522 1.000000
    RGAP5P36 UPBROW3523 1.000000
    RGAP5P37 AP5P37   1.000000   QGAP57   1.000000
    RGAP5P37 QGAP37   -1.000000   LOBROW3524 1.000000
    RGAP5P37 UPBROW3525 1.000000
    RGAP5P38 AP5P38   1.000000   QGAP58   1.000000
    RGAP5P38 QGAP38   -1.000000   LOBROW3526 1.000000
    RGAP5P38 UPBROW3527 1.000000
    RGAP5P41 AP5P41   1.000000   QGAP51   1.000000
    RGAP5P41 QGAP41   -1.000000   LOBROW3528 1.000000
    RGAP5P41 UPBROW3529 1.000000
    RGAP5P42 AP5P42   1.000000   QGAP52   1.000000
    RGAP5P42 QGAP42   -1.000000   LOBROW3530 1.000000
    RGAP5P42 UPBROW3531 1.000000
    RGAP5P43 AP5P43   1.000000   QGAP53   1.000000
    RGAP5P43 QGAP43   -1.000000   LOBROW3532 1.000000
    RGAP5P43 UPBROW3533 1.000000
    RGAP5P44 AP5P44   1.000000   QGAP54   1.000000
    RGAP5P44 QGAP44   -1.000000   LOBROW3534 1.000000
    RGAP5P44 UPBROW3535 1.000000
    RGAP5P45 AP5P45   1.000000   QGAP55   1.000000
    RGAP5P45 QGAP45   -1.000000   LOBROW3536 1.000000
    RGAP5P45 UPBROW3537 1.000000
    RGAP5P46 AP5P46   1.000000   QGAP56   1.000000
    RGAP5P46 QGAP46   -1.000000   LOBROW3538 1.000000
    RGAP5P46 UPBROW3539 1.000000
    RGAP5P47 AP5P47   1.000000   QGAP57   1.000000
    RGAP5P47 QGAP47   -1.000000   LOBROW3540 1.000000
    RGAP5P47 UPBROW3541 1.000000
    RGAP5P48 AP5P48   1.000000   QGAP58   1.000000
    RGAP5P48 QGAP48   -1.000000   LOBROW3542 1.000000
    RGAP5P48 UPBROW3543 1.000000
    RDSP1P21 AP1P21   1.000000   QDSP11   1.000000
    RDSP1P21 QDSP21   -1.000000   LOBROW3544 1.000000
    RDSP1P21 UPBROW3545 1.000000
    RDSP1P22 AP1P22   1.000000   QDSP12   1.000000
    RDSP1P22 QDSP22   -1.000000   LOBROW3546 1.000000
    RDSP1P22 UPBROW3547 1.000000
    RDSP1P23 AP1P23   1.000000   QDSP13   1.000000
    RDSP1P23 QDSP23   -1.000000   LOBROW3548 1.000000
    RDSP1P23 UPBROW3549 1.000000
    RDSP1P24 AP1P24   1.000000   QDSP14   1.000000
    RDSP1P24 QDSP24   -1.000000   LOBROW3550 1.000000
    RDSP1P24 UPBROW3551 1.000000
    RDSP1P25 AP1P25   1.000000   QDSP15   1.000000
    RDSP1P25 QDSP25   -1.000000   LOBROW3552 1.000000
    RDSP1P25 UPBROW3553 1.000000
    RDSP1P26 AP1P26   1.000000   QDSP16   1.000000
    RDSP1P26 QDSP26   -1.000000   LOBROW3554 1.000000
    RDSP1P26 UPBROW3555 1.000000
    RDSP1P27 AP1P27   1.000000   QDSP17   1.000000
    RDSP1P27 QDSP27   -1.000000   LOBROW3556 1.000000
    RDSP1P27 UPBROW3557 1.000000
    RDSP1P28 AP1P28   1.000000   QDSP18   1.000000
    RDSP1P28 QDSP28   -1.000000   LOBROW3558 1.000000
    RDSP1P28 UPBROW3559 1.000000
    RDSP1P31 AP1P31   1.000000   QDSP11   1.000000
    RDSP1P31 QDSP31   -1.000000   LOBROW3560 1.000000
    RDSP1P31 UPBROW3561 1.000000
    RDSP1P32 AP1P32   1.000000   QDSP12   1.000000
    RDSP1P32 QDSP32   -1.000000   LOBROW3562 1.000000
    RDSP1P32 UPBROW3563 1.000000
    RDSP1P33 AP1P33   1.000000   QDSP13   1.000000
    RDSP1P33 QDSP33   -1.000000   LOBROW3564 1.000000
    RDSP1P33 UPBROW3565 1.000000
    RDSP1P34 AP1P34   1.000000   QDSP14   1.000000
    RDSP1P34 QDSP34   -1.000000   LOBROW3566 1.000000
    RDSP1P34 UPBROW3567 1.000000
    RDSP1P35 AP1P35   1.000000   QDSP15   1.000000
    RDSP1P35 QDSP35   -1.000000   LOBROW3568 1.000000
    RDSP1P35 UPBROW3569 1.000000
    RDSP1P36 AP1P36   1.000000   QDSP16   1.000000
    RDSP1P36 QDSP36   -1.000000   LOBROW3570 1.000000
    RDSP1P36 UPBROW3571 1.000000
    RDSP1P37 AP1P37   1.000000   QDSP17   1.000000
    RDSP1P37 QDSP37   -1.000000   LOBROW3572 1.000000
    RDSP1P37 UPBROW3573 1.000000
    RDSP1P38 AP1P38   1.000000   QDSP18   1.000000
    RDSP1P38 QDSP38   -1.000000   LOBROW3574 1.000000
    RDSP1P38 UPBROW3575 1.000000
    RDSP2P11 AP2P11   1.000000   QDSP21   1.000000
    RDSP2P11 QDSP11   -1.000000   LOBROW3576 1.000000
    RDSP2P11 UPBROW3577 1.000000
    RDSP2P12 AP2P12   1.000000   QDSP22   1.000000
    RDSP2P12 QDSP12   -1.000000   LOBROW3578 1.000000
    RDSP2P12 UPBROW3579 1.000000
    RDSP2P13 AP2P13   1.000000   QDSP23   1.000000
    RDSP2P13 QDSP13   -1.000000   LOBROW3580 1.000000
    RDSP2P13 UPBROW3581 1.000000
    RDSP2P14 AP2P14   1.000000   QDSP24   1.000000
    RDSP2P14 QDSP14   -1.000000   LOBROW3582 1.000000
    RDSP2P14 UPBROW3583 1.000000
    RDSP2P15 AP2P15   1.000000   QDSP25   1.000000
    RDSP2P15 QDSP15   -1.000000   LOBROW3584 1.000000
    RDSP2P15 UPBROW3585 1.000000
    RDSP2P16 AP2P16   1.000000   QDSP26   1.000000
    RDSP2P16 QDSP16   -1.000000   LOBROW3586 1.000000
    RDSP2P16 UPBROW3587 1.000000
    RDSP2P17 AP2P17   1.000000   QDSP27   1.000000
    RDSP2P17 QDSP17   -1.000000   LOBROW3588 1.000000
    RDSP2P17 UPBROW3589 1.000000
    RDSP2P18 AP2P18   1.000000   QDSP28   1.000000
    RDSP2P18 QDSP18   -1.000000   LOBROW3590 1.000000
    RDSP2P18 UPBROW3591 1.000000
    RDSP2P31 AP2P31   1.000000   QDSP21   1.000000
    RDSP2P31 QDSP31   -1.000000   LOBROW3592 1.000000
    RDSP2P31 UPBROW3593 1.000000
    RDSP2P32 AP2P32   1.000000   QDSP22   1.000000
    RDSP2P32 QDSP32   -1.000000   LOBROW3594 1.000000
    RDSP2P32 UPBROW3595 1.000000
    RDSP2P33 AP2P33   1.000000   QDSP23   1.000000
    RDSP2P33 QDSP33   -1.000000   LOBROW3596 1.000000
    RDSP2P33 UPBROW3597 1.000000
    RDSP2P34 AP2P34   1.000000   QDSP24   1.000000
    RDSP2P34 QDSP34   -1.000000   LOBROW3598 1.000000
    RDSP2P34 UPBROW3599 1.000000
    RDSP2P35 AP2P35   1.000000   QDSP25   1.000000
    RDSP2P35 QDSP35   -1.000000   LOBROW3600 1.000000
    RDSP2P35 UPBROW3601 1.000000
    RDSP2P36 AP2P36   1.000000   QDSP26   1.000000
    RDSP2P36 QDSP36   -1.000000   LOBROW3602 1.000000
    RDSP2P36 UPBROW3603 1.000000
    RDSP2P37 AP2P37   1.000000   QDSP27   1.000000
    RDSP2P37 QDSP37   -1.000000   LOBROW3604 1.000000
    RDSP2P37 UPBROW3605 1.000000
    RDSP2P38 AP2P38   1.000000   QDSP28   1.000000
    RDSP2P38 QDSP38   -1.000000   LOBROW3606 1.000000
    RDSP2P38 UPBROW3607 1.000000
    RDSP2P41 AP2P41   1.000000   QDSP21   1.000000
    RDSP2P41 QDSP41   -1.000000   LOBROW3608 1.000000
    RDSP2P41 UPBROW3609 1.000000
    RDSP2P42 AP2P42   1.000000   QDSP22   1.000000
    RDSP2P42 QDSP42   -1.000000   LOBROW3610 1.000000
    RDSP2P42 UPBROW3611 1.000000
    RDSP2P43 AP2P43   1.000000   QDSP23   1.000000
    RDSP2P43 QDSP43   -1.000000   LOBROW3612 1.000000
    RDSP2P43 UPBROW3613 1.000000
    RDSP2P44 AP2P44   1.000000   QDSP24   1.000000
    RDSP2P44 QDSP44   -1.000000   LOBROW3614 1.000000
    RDSP2P44 UPBROW3615 1.000000
    RDSP2P45 AP2P45   1.000000   QDSP25   1.000000
    RDSP2P45 QDSP45   -1.000000   LOBROW3616 1.000000
    RDSP2P45 UPBROW3617 1.000000
    RDSP2P46 AP2P46   1.000000   QDSP26   1.000000
    RDSP2P46 QDSP46   -1.000000   LOBROW3618 1.000000
    RDSP2P46 UPBROW3619 1.000000
    RDSP2P47 AP2P47   1.000000   QDSP27   1.000000
    RDSP2P47 QDSP47   -1.000000   LOBROW3620 1.000000
    RDSP2P47 UPBROW3621 1.000000
    RDSP2P48 AP2P48   1.000000   QDSP28   1.000000
    RDSP2P48 QDSP48   -1.000000   LOBROW3622 1.000000
    RDSP2P48 UPBROW3623 1.000000
    RDSP3P21 AP3P21   1.000000   QDSP31   1.000000
    RDSP3P21 QDSP21   -1.000000   LOBROW3624 1.000000
    RDSP3P21 UPBROW3625 1.000000
    RDSP3P22 AP3P22   1.000000   QDSP32   1.000000
    RDSP3P22 QDSP22   -1.000000   LOBROW3626 1.000000
    RDSP3P22 UPBROW3627 1.000000
    RDSP3P23 AP3P23   1.000000   QDSP33   1.000000
    RDSP3P23 QDSP23   -1.000000   LOBROW3628 1.000000
    RDSP3P23 UPBROW3629 1.000000
    RDSP3P24 AP3P24   1.000000   QDSP34   1.000000
    RDSP3P24 QDSP24   -1.000000   LOBROW3630 1.000000
    RDSP3P24 UPBROW3631 1.000000
    RDSP3P25 AP3P25   1.000000   QDSP35   1.000000
    RDSP3P25 QDSP25   -1.000000   LOBROW3632 1.000000
    RDSP3P25 UPBROW3633 1.000000
    RDSP3P26 AP3P26   1.000000   QDSP36   1.000000
    RDSP3P26 QDSP26   -1.000000   LOBROW3634 1.000000
    RDSP3P26 UPBROW3635 1.000000
    RDSP3P27 AP3P27   1.000000   QDSP37   1.000000
    RDSP3P27 QDSP27   -1.000000   LOBROW3636 1.000000
    RDSP3P27 UPBROW3637 1.000000
    RDSP3P28 AP3P28   1.000000   QDSP38   1.000000
    RDSP3P28 QDSP28   -1.000000   LOBROW3638 1.000000
    RDSP3P28 UPBROW3639 1.000000
    RDSP4P21 AP4P21   1.000000   QDSP41   1.000000
    RDSP4P21 QDSP21   -1.000000   LOBROW3640 1.000000
    RDSP4P21 UPBROW3641 1.000000
    RDSP4P22 AP4P22   1.000000   QDSP42   1.000000
    RDSP4P22 QDSP22   -1.000000   LOBROW3642 1.000000
    RDSP4P22 UPBROW3643 1.000000
    RDSP4P23 AP4P23   1.000000   QDSP43   1.000000
    RDSP4P23 QDSP23   -1.000000   LOBROW3644 1.000000
    RDSP4P23 UPBROW3645 1.000000
    RDSP4P24 AP4P24   1.000000   QDSP44   1.000000
    RDSP4P24 QDSP24   -1.000000   LOBROW3646 1.000000
    RDSP4P24 UPBROW3647 1.000000
    RDSP4P25 AP4P25   1.000000   QDSP45   1.000000
    RDSP4P25 QDSP25   -1.000000   LOBROW3648 1.000000
    RDSP4P25 UPBROW3649 1.000000
    RDSP4P26 AP4P26   1.000000   QDSP46   1.000000
    RDSP4P26 QDSP26   -1.000000   LOBROW3650 1.000000
    RDSP4P26 UPBROW3651 1.000000
    RDSP4P27 AP4P27   1.000000   QDSP47   1.000000
    RDSP4P27 QDSP27   -1.000000   LOBROW3652 1.000000
    RDSP4P27 UPBROW3653 1.000000
    RDSP4P28 AP4P28   1.000000   QDSP48   1.000000
    RDSP4P28 QDSP28   -1.000000   LOBROW3654 1.000000
    RDSP4P28 UPBROW3655 1.000000
    RDSP4P31 AP4P31   1.000000   QDSP41   1.000000
    RDSP4P31 QDSP31   -1.000000   LOBROW3656 1.000000
    RDSP4P31 UPBROW3657 1.000000
    RDSP4P32 AP4P32   1.000000   QDSP42   1.000000
    RDSP4P32 QDSP32   -1.000000   LOBROW3658 1.000000
    RDSP4P32 UPBROW3659 1.000000
    RDSP4P33 AP4P33   1.000000   QDSP43   1.000000
    RDSP4P33 QDSP33   -1.000000   LOBROW3660 1.000000
    RDSP4P33 UPBROW3661 1.000000
    RDSP4P34 AP4P34   1.000000   QDSP44   1.000000
    RDSP4P34 QDSP34   -1.000000   LOBROW3662 1.000000
    RDSP4P34 UPBROW3663 1.000000
    RDSP4P35 AP4P35   1.000000   QDSP45   1.000000
    RDSP4P35 QDSP35   -1.000000   LOBROW3664 1.000000
    RDSP4P35 UPBROW3665 1.000000
    RDSP4P36 AP4P36   1.000000   QDSP46   1.000000
    RDSP4P36 QDSP36   -1.000000   LOBROW3666 1.000000
    RDSP4P36 UPBROW3667 1.000000
    RDSP4P37 AP4P37   1.000000   QDSP47   1.000000
    RDSP4P37 QDSP37   -1.000000   LOBROW3668 1.000000
    RDSP4P37 UPBROW3669 1.000000
    RDSP4P38 AP4P38   1.000000   QDSP48   1.000000
    RDSP4P38 QDSP38   -1.000000   LOBROW3670 1.000000
    RDSP4P38 UPBROW3671 1.000000
    RDSP5P31 AP5P31   1.000000   QDSP51   1.000000
    RDSP5P31 QDSP31   -1.000000   LOBROW3672 1.000000
    RDSP5P31 UPBROW3673 1.000000
    RDSP5P32 AP5P32   1.000000   QDSP52   1.000000
    RDSP5P32 QDSP32   -1.000000   LOBROW3674 1.000000
    RDSP5P32 UPBROW3675 1.000000
    RDSP5P33 AP5P33   1.000000   QDSP53   1.000000
    RDSP5P33 QDSP33   -1.000000   LOBROW3676 1.000000
    RDSP5P33 UPBROW3677 1.000000
    RDSP5P34 AP5P34   1.000000   QDSP54   1.000000
    RDSP5P34 QDSP34   -1.000000   LOBROW3678 1.000000
    RDSP5P34 UPBROW3679 1.000000
    RDSP5P35 AP5P35   1.000000   QDSP55   1.000000
    RDSP5P35 QDSP35   -1.000000   LOBROW3680 1.000000
    RDSP5P35 UPBROW3681 1.000000
    RDSP5P36 AP5P36   1.000000   QDSP56   1.000000
    RDSP5P36 QDSP36   -1.000000   LOBROW3682 1.000000
    RDSP5P36 UPBROW3683 1.000000
    RDSP5P37 AP5P37   1.000000   QDSP57   1.000000
    RDSP5P37 QDSP37   -1.000000   LOBROW3684 1.000000
    RDSP5P37 UPBROW3685 1.000000
    RDSP5P38 AP5P38   1.000000   QDSP58   1.000000
    RDSP5P38 QDSP38   -1.000000   LOBROW3686 1.000000
    RDSP5P38 UPBROW3687 1.000000
    RDSP5P41 AP5P41   1.000000   QDSP51   1.000000
    RDSP5P41 QDSP41   -1.000000   LOBROW3688 1.000000
    RDSP5P41 UPBROW3689 1.000000
    RDSP5P42 AP5P42   1.000000   QDSP52   1.000000
    RDSP5P42 QDSP42   -1.000000   LOBROW3690 1.000000
    RDSP5P42 UPBROW3691 1.000000
    RDSP5P43 AP5P43   1.000000   QDSP53   1.000000
    RDSP5P43 QDSP43   -1.000000   LOBROW3692 1.000000
    RDSP5P43 UPBROW3693 1.000000
    RDSP5P44 AP5P44   1.000000   QDSP54   1.000000
    RDSP5P44 QDSP44   -1.000000   LOBROW3694 1.000000
    RDSP5P44 UPBROW3695 1.000000
    RDSP5P45 AP5P45   1.000000   QDSP55   1.000000
    RDSP5P45 QDSP45   -1.000000   LOBROW3696 1.000000
    RDSP5P45 UPBROW3697 1.000000
    RDSP5P46 AP5P46   1.000000   QDSP56   1.000000
    RDSP5P46 QDSP46   -1.000000   LOBROW3698 1.000000
    RDSP5P46 UPBROW3699 1.000000
    RDSP5P47 AP5P47   1.000000   QDSP57   1.000000
    RDSP5P47 QDSP47   -1.000000   LOBROW3700 1.000000
    RDSP5P47 UPBROW3701 1.000000
    RDSP5P48 AP5P48   1.000000   QDSP58   1.000000
    RDSP5P48 QDSP48   -1.000000   LOBROW3702 1.000000
    RDSP5P48 UPBROW3703 1.000000
    RRSP1P31 QRSP11   1.000000   QRSP31   -1.000000
    RRSP1P31 LOBROW3704 1.000000   UPBROW3705 1.000000
    RRSP1P32 QRSP12   1.000000   QRSP32   -1.000000
    RRSP1P32 LOBROW3706 1.000000   UPBROW3707 1.000000
    RRSP1P33 QRSP13   1.000000   QRSP33   -1.000000
    RRSP1P33 LOBROW3708 1.000000   UPBROW3709 1.000000
    RRSP1P34 QRSP14   1.000000   QRSP34   -1.000000
    RRSP1P34 LOBROW3710 1.000000   UPBROW3711 1.000000
    RRSP1P35 QRSP15   1.000000   QRSP35   -1.000000
    RRSP1P35 LOBROW3712 1.000000   UPBROW3713 1.000000
    RRSP1P36 QRSP16   1.000000   QRSP36   -1.000000
    RRSP1P36 LOBROW3714 1.000000   UPBROW3715 1.000000
    RRSP1P37 QRSP17   1.000000   QRSP37   -1.000000
    RRSP1P37 LOBROW3716 1.000000   UPBROW3717 1.000000
    RRSP1P38 QRSP18   1.000000   QRSP38   -1.000000
    RRSP1P38 LOBROW3718 1.000000   UPBROW3719 1.000000
    RRSP2P31 QRSP21   1.000000   QRSP31   -1.000000
    RRSP2P31 LOBROW3720 1.000000   UPBROW3721 1.000000
    RRSP2P32 QRSP22   1.000000   QRSP32   -1.000000
    RRSP2P32 LOBROW3722 1.000000   UPBROW3723 1.000000
    RRSP2P33 QRSP23   1.000000   QRSP33   -1.000000
    RRSP2P33 LOBROW3724 1.000000   UPBROW3725 1.000000
    RRSP2P34 QRSP24   1.000000   QRSP34   -1.000000
    RRSP2P34 LOBROW3726 1.000000   UPBROW3727 1.000000
    RRSP2P35 QRSP25   1.000000   QRSP35   -1.000000
    RRSP2P35 LOBROW3728 1.000000   UPBROW3729 1.000000
    RRSP2P36 QRSP26   1.000000   QRSP36   -1.000000
    RRSP2P36 LOBROW3730 1.000000   UPBROW3731 1.000000
    RRSP2P37 QRSP27   1.000000   QRSP37   -1.000000
    RRSP2P37 LOBROW3732 1.000000   UPBROW3733 1.000000
    RRSP2P38 QRSP28   1.000000   QRSP38   -1.000000
    RRSP2P38 LOBROW3734 1.000000   UPBROW3735 1.000000
    RRSP5P31 QRSP51   1.000000   QRSP31   -1.000000
    RRSP5P31 LOBROW3736 1.000000   UPBROW3737 1.000000
    RRSP5P32 QRSP52   1.000000   QRSP32   -1.000000
    RRSP5P32 LOBROW3738 1.000000   UPBROW3739 1.000000
    RRSP5P33 QRSP53   1.000000   QRSP33   -1.000000
    RRSP5P33 LOBROW3740 1.000000   UPBROW3741 1.000000
    RRSP5P34 QRSP54   1.000000   QRSP34   -1.000000
    RRSP5P34 LOBROW3742 1.000000   UPBROW3743 1.000000
    RRSP5P35 QRSP55   1.000000   QRSP35   -1.000000
    RRSP5P35 LOBROW3744 1.000000   UPBROW3745 1.000000
    RRSP5P36 QRSP56   1.000000   QRSP36   -1.000000
    RRSP5P36 LOBROW3746 1.000000   UPBROW3747 1.000000
    RRSP5P37 QRSP57   1.000000   QRSP37   -1.000000
    RRSP5P37 LOBROW3748 1.000000   UPBROW3749 1.000000
    RRSP5P38 QRSP58   1.000000   QRSP38   -1.000000
    RRSP5P38 LOBROW3750 1.000000   UPBROW3751 1.000000
    RKJP1P31 AP1P31   1.000000   QKJP11   1.000000
    RKJP1P31 QKJP31   -1.000000   LOBROW3752 1.000000
    RKJP1P31 UPBROW3753 1.000000
    RKJP1P32 AP1P32   1.000000   QKJP12   1.000000
    RKJP1P32 QKJP32   -1.000000   LOBROW3754 1.000000
    RKJP1P32 UPBROW3755 1.000000
    RKJP1P33 AP1P33   1.000000   QKJP13   1.000000
    RKJP1P33 QKJP33   -1.000000   LOBROW3756 1.000000
    RKJP1P33 UPBROW3757 1.000000
    RKJP1P34 AP1P34   1.000000   QKJP14   1.000000
    RKJP1P34 QKJP34   -1.000000   LOBROW3758 1.000000
    RKJP1P34 UPBROW3759 1.000000
    RKJP1P35 AP1P35   1.000000   QKJP15   1.000000
    RKJP1P35 QKJP35   -1.000000   LOBROW3760 1.000000
    RKJP1P35 UPBROW3761 1.000000
    RKJP1P36 AP1P36   1.000000   QKJP16   1.000000
    RKJP1P36 QKJP36   -1.000000   LOBROW3762 1.000000
    RKJP1P36 UPBROW3763 1.000000
    RKJP1P37 AP1P37   1.000000   QKJP17   1.000000
    RKJP1P37 QKJP37   -1.000000   LOBROW3764 1.000000
    RKJP1P37 UPBROW3765 1.000000
    RKJP1P38 AP1P38   1.000000   QKJP18   1.000000
    RKJP1P38 QKJP38   -1.000000   LOBROW3766 1.000000
    RKJP1P38 UPBROW3767 1.000000
    RKJP2P11 AP2P11   1.000000   QKJP21   1.000000
    RKJP2P11 QKJP11   -1.000000   LOBROW3768 1.000000
    RKJP2P11 UPBROW3769 1.000000
    RKJP2P12 AP2P12   1.000000   QKJP22   1.000000
    RKJP2P12 QKJP12   -1.000000   LOBROW3770 1.000000
    RKJP2P12 UPBROW3771 1.000000
    RKJP2P13 AP2P13   1.000000   QKJP23   1.000000
    RKJP2P13 QKJP13   -1.000000   LOBROW3772 1.000000
    RKJP2P13 UPBROW3773 1.000000
    RKJP2P14 AP2P14   1.000000   QKJP24   1.000000
    RKJP2P14 QKJP14   -1.000000   LOBROW3774 1.000000
    RKJP2P14 UPBROW3775 1.000000
    RKJP2P15 AP2P15   1.000000   QKJP25   1.000000
    RKJP2P15 QKJP15   -1.000000   LOBROW3776 1.000000
    RKJP2P15 UPBROW3777 1.000000
    RKJP2P16 AP2P16   1.000000   QKJP26   1.000000
    RKJP2P16 QKJP16   -1.000000   LOBROW3778 1.000000
    RKJP2P16 UPBROW3779 1.000000
    RKJP2P17 AP2P17   1.000000   QKJP27   1.000000
    RKJP2P17 QKJP17   -1.000000   LOBROW3780 1.000000
    RKJP2P17 UPBROW3781 1.000000
    RKJP2P18 AP2P18   1.000000   QKJP28   1.000000
    RKJP2P18 QKJP18   -1.000000   LOBROW3782 1.000000
    RKJP2P18 UPBROW3783 1.000000
    RKJP2P31 AP2P31   1.000000   QKJP21   1.000000
    RKJP2P31 QKJP31   -1.000000   LOBROW3784 1.000000
    RKJP2P31 UPBROW3785 1.000000
    RKJP2P32 AP2P32   1.000000   QKJP22   1.000000
    RKJP2P32 QKJP32   -1.000000   LOBROW3786 1.000000
    RKJP2P32 UPBROW3787 1.000000
    RKJP2P33 AP2P33   1.000000   QKJP23   1.000000
    RKJP2P33 QKJP33   -1.000000   LOBROW3788 1.000000
    RKJP2P33 UPBROW3789 1.000000
    RKJP2P34 AP2P34   1.000000   QKJP24   1.000000
    RKJP2P34 QKJP34   -1.000000   LOBROW3790 1.000000
    RKJP2P34 UPBROW3791 1.000000
    RKJP2P35 AP2P35   1.000000   QKJP25   1.000000
    RKJP2P35 QKJP35   -1.000000   LOBROW3792 1.000000
    RKJP2P35 UPBROW3793 1.000000
    RKJP2P36 AP2P36   1.000000   QKJP26   1.000000
    RKJP2P36 QKJP36   -1.000000   LOBROW3794 1.000000
    RKJP2P36 UPBROW3795 1.000000
    RKJP2P37 AP2P37   1.000000   QKJP27   1.000000
    RKJP2P37 QKJP37   -1.000000   LOBROW3796 1.000000
    RKJP2P37 UPBROW3797 1.000000
    RKJP2P38 AP2P38   1.000000   QKJP28   1.000000
    RKJP2P38 QKJP38   -1.000000   LOBROW3798 1.000000
    RKJP2P38 UPBROW3799 1.000000
    RKJP2P41 AP2P41   1.000000   QKJP21   1.000000
    RKJP2P41 QKJP41   -1.000000   LOBROW3800 1.000000
    RKJP2P41 UPBROW3801 1.000000
    RKJP2P42 AP2P42   1.000000   QKJP22   1.000000
    RKJP2P42 QKJP42   -1.000000   LOBROW3802 1.000000
    RKJP2P42 UPBROW3803 1.000000
    RKJP2P43 AP2P43   1.000000   QKJP23   1.000000
    RKJP2P43 QKJP43   -1.000000   LOBROW3804 1.000000
    RKJP2P43 UPBROW3805 1.000000
    RKJP2P44 AP2P44   1.000000   QKJP24   1.000000
    RKJP2P44 QKJP44   -1.000000   LOBROW3806 1.000000
    RKJP2P44 UPBROW3807 1.000000
    RKJP2P45 AP2P45   1.000000   QKJP25   1.000000
    RKJP2P45 QKJP45   -1.000000   LOBROW3808 1.000000
    RKJP2P45 UPBROW3809 1.000000
    RKJP2P46 AP2P46   1.000000   QKJP26   1.000000
    RKJP2P46 QKJP46   -1.000000   LOBROW3810 1.000000
    RKJP2P46 UPBROW3811 1.000000
    RKJP2P47 AP2P47   1.000000   QKJP27   1.000000
    RKJP2P47 QKJP47   -1.000000   LOBROW3812 1.000000
    RKJP2P47 UPBROW3813 1.000000
    RKJP2P48 AP2P48   1.000000   QKJP28   1.000000
    RKJP2P48 QKJP48   -1.000000   LOBROW3814 1.000000
    RKJP2P48 UPBROW3815 1.000000
    RKJP3P21 AP3P21   1.000000   QKJP31   1.000000
    RKJP3P21 QKJP21   -1.000000   LOBROW3816 1.000000
    RKJP3P21 UPBROW3817 1.000000
    RKJP3P22 AP3P22   1.000000   QKJP32   1.000000
    RKJP3P22 QKJP22   -1.000000   LOBROW3818 1.000000
    RKJP3P22 UPBROW3819 1.000000
    RKJP3P23 AP3P23   1.000000   QKJP33   1.000000
    RKJP3P23 QKJP23   -1.000000   LOBROW3820 1.000000
    RKJP3P23 UPBROW3821 1.000000
    RKJP3P24 AP3P24   1.000000   QKJP34   1.000000
    RKJP3P24 QKJP24   -1.000000   LOBROW3822 1.000000
    RKJP3P24 UPBROW3823 1.000000
    RKJP3P25 AP3P25   1.000000   QKJP35   1.000000
    RKJP3P25 QKJP25   -1.000000   LOBROW3824 1.000000
    RKJP3P25 UPBROW3825 1.000000
    RKJP3P26 AP3P26   1.000000   QKJP36   1.000000
    RKJP3P26 QKJP26   -1.000000   LOBROW3826 1.000000
    RKJP3P26 UPBROW3827 1.000000
    RKJP3P27 AP3P27   1.000000   QKJP37   1.000000
    RKJP3P27 QKJP27   -1.000000   LOBROW3828 1.000000
    RKJP3P27 UPBROW3829 1.000000
    RKJP3P28 AP3P28   1.000000   QKJP38   1.000000
    RKJP3P28 QKJP28   -1.000000   LOBROW3830 1.000000
    RKJP3P28 UPBROW3831 1.000000
    RKJP4P31 AP4P31   1.000000   QKJP41   1.000000
    RKJP4P31 QKJP31   -1.000000   LOBROW3832 1.000000
    RKJP4P31 UPBROW3833 1.000000
    RKJP4P32 AP4P32   1.000000   QKJP42   1.000000
    RKJP4P32 QKJP32   -1.000000   LOBROW3834 1.000000
    RKJP4P32 UPBROW3835 1.000000
    RKJP4P33 AP4P33   1.000000   QKJP43   1.000000
    RKJP4P33 QKJP33   -1.000000   LOBROW3836 1.000000
    RKJP4P33 UPBROW3837 1.000000
    RKJP4P34 AP4P34   1.000000   QKJP44   1.000000
    RKJP4P34 QKJP34   -1.000000   LOBROW3838 1.000000
    RKJP4P34 UPBROW3839 1.000000
    RKJP4P35 AP4P35   1.000000   QKJP45   1.000000
    RKJP4P35 QKJP35   -1.000000   LOBROW3840 1.000000
    RKJP4P35 UPBROW3841 1.000000
    RKJP4P36 AP4P36   1.000000   QKJP46   1.000000
    RKJP4P36 QKJP36   -1.000000   LOBROW3842 1.000000
    RKJP4P36 UPBROW3843 1.000000
    RKJP4P37 AP4P37   1.000000   QKJP47   1.000000
    RKJP4P37 QKJP37   -1.000000   LOBROW3844 1.000000
    RKJP4P37 UPBROW3845 1.000000
    RKJP4P38 AP4P38   1.000000   QKJP48   1.000000
    RKJP4P38 QKJP38   -1.000000   LOBROW3846 1.000000
    RKJP4P38 UPBROW3847 1.000000
    RKJP5P31 AP5P31   1.000000   QKJP51   1.000000
    RKJP5P31 QKJP31   -1.000000   LOBROW3848 1.000000
    RKJP5P31 UPBROW3849 1.000000
    RKJP5P32 AP5P32   1.000000   QKJP52   1.000000
    RKJP5P32 QKJP32   -1.000000   LOBROW3850 1.000000
    RKJP5P32 UPBROW3851 1.000000
    RKJP5P33 AP5P33   1.000000   QKJP53   1.000000
    RKJP5P33 QKJP33   -1.000000   LOBROW3852 1.000000
    RKJP5P33 UPBROW3853 1.000000
    RKJP5P34 AP5P34   1.000000   QKJP54   1.000000
    RKJP5P34 QKJP34   -1.000000   LOBROW3854 1.000000
    RKJP5P34 UPBROW3855 1.000000
    RKJP5P35 AP5P35   1.000000   QKJP55   1.000000
    RKJP5P35 QKJP35   -1.000000   LOBROW3856 1.000000
    RKJP5P35 UPBROW3857 1.000000
    RKJP5P36 AP5P36   1.000000   QKJP56   1.000000
    RKJP5P36 QKJP36   -1.000000   LOBROW3858 1.000000
    RKJP5P36 UPBROW3859 1.000000
    RKJP5P37 AP5P37   1.000000   QKJP57   1.000000
    RKJP5P37 QKJP37   -1.000000   LOBROW3860 1.000000
    RKJP5P37 UPBROW3861 1.000000
    RKJP5P38 AP5P38   1.000000   QKJP58   1.000000
    RKJP5P38 QKJP38   -1.000000   LOBROW3862 1.000000
    RKJP5P38 UPBROW3863 1.000000
    RKJP5P41 AP5P41   1.000000   QKJP51   1.000000
    RKJP5P41 QKJP41   -1.000000   LOBROW3864 1.000000
    RKJP5P41 UPBROW3865 1.000000
    NEGBP11UN601 QCRP11   -1.000000   QUNP11   1.000000
    NEGBP11UN601 UPBROW2960 1.000000
    NEGBP12UN602 QCRP12   -1.000000   QUNP12   1.000000
    NEGBP12UN602 UPBROW2961 1.000000
    NEGBP13UN603 QCRP13   -1.000000   QUNP13   1.000000
    NEGBP13UN603 UPBROW2962 1.000000
    NEGBP14UN604 QCRP14   -1.000000   QUNP14   1.000000
    NEGBP14UN604 UPBROW2963 1.000000
    NEGBP15UN605 QCRP15   -1.000000   QUNP15   1.000000
    NEGBP15UN605 UPBROW2964 1.000000
    NEGBP16UN606 QCRP16   -1.000000   QUNP16   1.000000
    NEGBP16UN606 UPBROW2965 1.000000
    NEGBP17UN607 QCRP17   -1.000000   QUNP17   1.000000
    NEGBP17UN607 UPBROW2966 1.000000
    NEGBP18UN608 QCRP18   -1.000000   QUNP18   1.000000
    NEGBP18UN608 UPBROW2967 1.000000
    NEGBP21UN609 QCRP21   -1.000000   QUNP21   1.000000
    NEGBP21UN609 UPBROW2968 1.000000
    NEGBP22UN610 QCRP22   -1.000000   QUNP22   1.000000
    NEGBP22UN610 UPBROW2969 1.000000
    NEGBP23UN611 QCRP23   -1.000000   QUNP23   1.000000
    NEGBP23UN611 UPBROW2970 1.000000
    NEGBP24UN612 QCRP24   -1.000000   QUNP24   1.000000
    NEGBP24UN612 UPBROW2971 1.000000
    NEGBP25UN613 QCRP25   -1.000000   QUNP25   1.000000
    NEGBP25UN613 UPBROW2972 1.000000
    NEGBP26UN614 QCRP26   -1.000000   QUNP26   1.000000
    NEGBP26UN614 UPBROW2973 1.000000
    NEGBP27UN615 QCRP27   -1.000000   QUNP27   1.000000
    NEGBP27UN615 UPBROW2974 1.000000
    NEGBP28UN616 QCRP28   -1.000000   QUNP28   1.000000
    NEGBP28UN616 UPBROW2975 1.000000
    NEGBP31UN617 QCRP31   -1.000000   QUNP31   1.000000
    NEGBP31UN617 UPBROW2976 1.000000
    NEGBP32UN618 QCRP32   -1.000000   QUNP32   1.000000
    NEGBP32UN618 UPBROW2977 1.000000
    NEGBP33UN619 QCRP33   -1.000000   QUNP33   1.000000
    NEGBP33UN619 UPBROW2978 1.000000
    NEGBP34UN620 QCRP34   -1.000000   QUNP34   1.000000
    NEGBP34UN620 UPBROW2979 1.000000
    NEGBP35UN621 QCRP35   -1.000000   QUNP35   1.000000
    NEGBP35UN621 UPBROW2980 1.000000
    NEGBP36UN622 QCRP36   -1.000000   QUNP36   1.000000
    NEGBP36UN622 UPBROW2981 1.000000
    NEGBP37UN623 QCRP37   -1.000000   QUNP37   1.000000
    NEGBP37UN623 UPBROW2982 1.000000
    NEGBP38UN624 QCRP38   -1.000000   QUNP38   1.000000
    NEGBP38UN624 UPBROW2983 1.000000
    NEGBP41UN625 QCRP41   -1.000000   QUNP41   1.000000
    NEGBP41UN625 UPBROW2984 1.000000
    NEGBP42UN626 QCRP42   -1.000000   QUNP42   1.000000
    NEGBP42UN626 UPBROW2985 1.000000
    NEGBP43UN627 QCRP43   -1.000000   QUNP43   1.000000
    NEGBP43UN627 UPBROW2986 1.000000
    NEGBP44UN628 QCRP44   -1.000000   QUNP44   1.000000
    NEGBP44UN628 UPBROW2987 1.000000
    NEGBP45UN629 QCRP45   -1.000000   QUNP45   1.000000
    NEGBP45UN629 UPBROW2988 1.000000
    NEGBP46UN630 QCRP46   -1.000000   QUNP46   1.000000
    NEGBP46UN630 UPBROW2989 1.000000
    NEGBP47UN631 QCRP47   -1.000000   QUNP47   1.000000
    NEGBP47UN631 UPBROW2990 1.000000
    NEGBP48UN632 QCRP48   -1.000000   QUNP48   1.000000
    NEGBP48UN632 UPBROW2991 1.000000
    NEGBP51UN633 QCRP51   -1.000000   QUNP51   1.000000
    NEGBP51UN633 UPBROW2992 1.000000
    NEGBP52UN634 QCRP52   -1.000000   QUNP52   1.000000
    NEGBP52UN634 UPBROW2993 1.000000
    NEGBP53UN635 QCRP53   -1.000000   QUNP53   1.000000
    NEGBP53UN635 UPBROW2994 1.000000
    NEGBP54UN636 QCRP54   -1.000000   QUNP54   1.000000
    NEGBP54UN636 UPBROW2995 1.000000
    NEGBP55UN637 QCRP55   -1.000000   QUNP55   1.000000
    NEGBP55UN637 UPBROW2996 1.000000
    NEGBP56UN638 QCRP56   -1.000000   QUNP56   1.000000
    NEGBP56UN638 UPBROW2997 1.000000
    NEGBP57UN639 QCRP57   -1.000000   QUNP57   1.000000
    NEGBP57UN639 UPBROW2998 1.000000
    NEGBP58UN640 QCRP58   -1.000000   QUNP58   1.000000
    NEGBP58UN640 UPBROW2999 1.000000
    SLACK641 ERCPP11L 1.000000
    SLACK642 ERCPP12L 1.000000
    SLACK643 ERCPP13L 1.000000
    SLACK644 ERCPP14L 1.000000
    SLACK645 ERCPP15L 1.000000
    SLACK646 ERCPP16L 1.000000
    SLACK647 ERCPP17L 1.000000
    SLACK648 ERCPP18L 1.000000
    SLACK649 ERCPP21L 1.000000
    SLACK650 ERCPP22L 1.000000
    SLACK651 ERCPP23L 1.000000
    SLACK652 ERCPP24L 1.000000
    SLACK653 ERCPP25L 1.000000
    SLACK654 ERCPP26L 1.000000
    SLACK655 ERCPP27L 1.000000
    SLACK656 ERCPP28L 1.000000
    SLACK657 ERCPP31L 1.000000
    SLACK658 ERCPP32L 1.000000
    SLACK659 ERCPP33L 1.000000
    SLACK660 ERCPP34L 1.000000
    SLACK661 ERCPP35L 1.000000
    SLACK662 ERCPP36L 1.000000
    SLACK663 ERCPP37L 1.000000
    SLACK664 ERCPP38L 1.000000
    SLACK665 ERCPP41L 1.000000
    SLACK666 ERCPP42L 1.000000
    SLACK667 ERCPP43L 1.000000
    SLACK668 ERCPP44L 1.000000
    SLACK669 ERCPP45L 1.000000
    SLACK670 ERCPP46L 1.000000
    SLACK671 ERCPP47L 1.000000
    SLACK672 ERCPP48L 1.000000
    SLACK673 ERCPP51L 1.000000
    SLACK674 ERCPP52L 1.000000
    SLACK675 ERCPP53L 1.000000
    SLACK676 ERCPP54L 1.000000
    SLACK677 ERCPP55L 1.000000
    SLACK678 ERCPP56L 1.000000
    SLACK679 ERCPP57L 1.000000
    SLACK680 ERCPP58L 1.000000
    SLACK681 ERCPP11G 1.000000
    SLACK682 ERCPP12G 1.000000
    SLACK683 ERCPP13G 1.000000
    SLACK684 ERCPP14G 1.000000
    SLACK685 ERCPP15G 1.000000
    SLACK686 ERCPP16G 1.000000
    SLACK687 ERCPP17G 1.000000
    SLACK688 ERCPP18G 1.000000
    SLACK689 ERCPP21G 1.000000
    SLACK690 ERCPP22G 1.000000
    SLACK691 ERCPP23G 1.000000
    SLACK692 ERCPP24G 1.000000
    SLACK693 ERCPP25G 1.000000
    SLACK694 ERCPP26G 1.000000
    SLACK695 ERCPP27G 1.000000
    SLACK696 ERCPP28G 1.000000
    SLACK697 ERCPP31G 1.000000
    SLACK698 ERCPP32G 1.000000
    SLACK699 ERCPP33G 1.000000
    SLACK700 ERCPP34G 1.000000
    SLACK701 ERCPP35G 1.000000
    SLACK702 ERCPP36G 1.000000
    SLACK703 ERCPP37G 1.000000
    SLACK704 ERCPP38G 1.000000
    SLACK705 ERCPP41G 1.000000
    SLACK706 ERCPP42G 1.000000
    SLACK707 ERCPP43G 1.000000
    SLACK708 ERCPP44G 1.000000
    SLACK709 ERCPP45G 1.000000
    SLACK710 ERCPP46G 1.000000
    SLACK711 ERCPP47G 1.000000
    SLACK712 ERCPP48G 1.000000
    SLACK713 ERCPP51G 1.000000
    SLACK714 ERCPP52G 1.000000
    SLACK715 ERCPP53G 1.000000
    SLACK716 ERCPP54G 1.000000
    SLACK717 ERCPP55G 1.000000
    SLACK718 ERCPP56G 1.000000
    SLACK719 ERCPP57G 1.000000
    SLACK720 ERCPP58G 1.000000
    SLACK721 TRCP1L   1.000000
    SLACK722 TRCP2L   1.000000
    SLACK723 TRCP3L   1.000000
    SLACK724 TRCP4L   1.000000
    SLACK725 TRCP5L   1.000000
    SLACK726 TRCP6L   1.000000
    SLACK727 TRCP7L   1.000000
    SLACK728 TRCP1G   1.000000
    SLACK729 TRCP2G   1.000000
    SLACK730 TRCP3G   1.000000
    SLACK731 TRCP4G   1.000000
    SLACK732 TRCP5G   1.000000
    SLACK733 TRCP6G   1.000000
    SLACK734 TRCP7G   1.000000
    SLACK735 AP1P21   1.000000
    SLACK736 AP1P22   1.000000
    SLACK737 AP1P23   1.000000
    SLACK738 AP1P24   1.000000
    SLACK739 AP1P25   1.000000
    SLACK740 AP1P26   1.000000
    SLACK741 AP1P27   1.000000
    SLACK742 AP1P28   1.000000
    SLACK743 AP1P31   1.000000
    SLACK744 AP1P32   1.000000
    SLACK745 AP1P33   1.000000
    SLACK746 AP1P34   1.000000
    SLACK747 AP1P35   1.000000
    SLACK748 AP1P36   1.000000
    SLACK749 AP1P37   1.000000
    SLACK750 AP1P38   1.000000
    SLACK751 AP1P51   1.000000
    SLACK752 AP1P52   1.000000
    SLACK753 AP1P53   1.000000
    SLACK754 AP1P54   1.000000
    SLACK755 AP1P55   1.000000
    SLACK756 AP1P56   1.000000
    SLACK757 AP1P57   1.000000
    SLACK758 AP1P58   1.000000
    SLACK759 AP2P11   1.000000
    SLACK760 AP2P12   1.000000
    SLACK761 AP2P13   1.000000
    SLACK762 AP2P14   1.000000
    SLACK763 AP2P15   1.000000
    SLACK764 AP2P16   1.000000
    SLACK765 AP2P17   1.000000
    SLACK766 AP2P18   1.000000
    SLACK767 AP2P31   1.000000
    SLACK768 AP2P32   1.000000
    SLACK769 AP2P33   1.000000
    SLACK770 AP2P34   1.000000
    SLACK771 AP2P35   1.000000
    SLACK772 AP2P36   1.000000
    SLACK773 AP2P37   1.000000
    SLACK774 AP2P38   1.000000
    SLACK775 AP2P41   1.000000
    SLACK776 AP2P42   1.000000
    SLACK777 AP2P43   1.000000
    SLACK778 AP2P44   1.000000
    SLACK779 AP2P45   1.000000
    SLACK780 AP2P46   1.000000
    SLACK781 AP2P47   1.000000
    SLACK782 AP2P48   1.000000
    SLACK783 AP3P21   1.000000
    SLACK784 AP3P22   1.000000
    SLACK785 AP3P23   1.000000
    SLACK786 AP3P24   1.000000
    SLACK787 AP3P25   1.000000
    SLACK788 AP3P26   1.000000
    SLACK789 AP3P27   1.000000
    SLACK790 AP3P28   1.000000
    SLACK791 AP4P21   1.000000
    SLACK792 AP4P22   1.000000
    SLACK793 AP4P23   1.000000
    SLACK794 AP4P24   1.000000
    SLACK795 AP4P25   1.000000
    SLACK796 AP4P26   1.000000
    SLACK797 AP4P27   1.000000
    SLACK798 AP4P28   1.000000
    SLACK799 AP4P31   1.000000
    SLACK800 AP4P32   1.000000
    SLACK801 AP4P33   1.000000
    SLACK802 AP4P34   1.000000
    SLACK803 AP4P35   1.000000
    SLACK804 AP4P36   1.000000
    SLACK805 AP4P37   1.000000
    SLACK806 AP4P38   1.000000
    SLACK807 AP5P31   1.000000
    SLACK808 AP5P32   1.000000
    SLACK809 AP5P33   1.000000
    SLACK810 AP5P34   1.000000
    SLACK811 AP5P35   1.000000
    SLACK812 AP5P36   1.000000
    SLACK813 AP5P37   1.000000
    SLACK814 AP5P38   1.000000
    SLACK815 AP5P41   1.000000
    SLACK816 AP5P42   1.000000
    SLACK817 AP5P43   1.000000
    SLACK818 AP5P44   1.000000
    SLACK819 AP5P45   1.000000
    SLACK820 AP5P46   1.000000
    SLACK821 AP5P47   1.000000
    SLACK822 AP5P48   1.000000
    SLACK823 UPBROW0  1.000000
    SLACK824 LOBROW1  -1.000000
    SLACK825 UPBROW2  1.000000
    SLACK826 LOBROW3  -1.000000
    SLACK827 UPBROW4  1.000000
    SLACK828 LOBROW5  -1.000000
    SLACK829 UPBROW6  1.000000
    SLACK830 LOBROW7  -1.000000
    SLACK831 UPBROW8  1.000000
    SLACK832 LOBROW9  -1.000000
    SLACK833 UPBROW10 1.000000
    SLACK834 LOBROW11 -1.000000
    SLACK835 UPBROW12 1.000000
    SLACK836 LOBROW13 -1.000000
    SLACK837 UPBROW14 1.000000
    SLACK838 LOBROW15 -1.000000
    SLACK839 UPBROW16 1.000000
    SLACK840 LOBROW17 -1.000000
    SLACK841 UPBROW18 1.000000
    SLACK842 LOBROW19 -1.000000
    SLACK843 UPBROW20 1.000000
    SLACK844 LOBROW21 -1.000000
    SLACK845 UPBROW22 1.000000
    SLACK846 LOBROW23 -1.000000
    SLACK847 UPBROW24 1.000000
    SLACK848 LOBROW25 -1.000000
    SLACK849 UPBROW26 1.000000
    SLACK850 LOBROW27 -1.000000
    SLACK851 UPBROW28 1.000000
    SLACK852 LOBROW29 -1.000000
    SLACK853 UPBROW30 1.000000
    SLACK854 LOBROW31 -1.000000
    SLACK855 UPBROW32 1.000000
    SLACK856 LOBROW33 -1.000000
    SLACK857 UPBROW34 1.000000
    SLACK858 LOBROW35 -1.000000
    SLACK859 UPBROW36 1.000000
    SLACK860 LOBROW37 -1.000000
    SLACK861 UPBROW38 1.000000
    SLACK862 LOBROW39 -1.000000
    SLACK863 UPBROW40 1.000000
    SLACK864 LOBROW41 -1.000000
    SLACK865 UPBROW42 1.000000
    SLACK866 LOBROW43 -1.000000
    SLACK867 UPBROW44 1.000000
    SLACK868 LOBROW45 -1.000000
    SLACK869 UPBROW46 1.000000
    SLACK870 LOBROW47 -1.000000
    SLACK871 UPBROW48 1.000000
    SLACK872 LOBROW49 -1.000000
    SLACK873 UPBROW50 1.000000
    SLACK874 LOBROW51 -1.000000
    SLACK875 UPBROW52 1.000000
    SLACK876 LOBROW53 -1.000000
    SLACK877 UPBROW54 1.000000
    SLACK878 LOBROW55 -1.000000
    SLACK879 UPBROW56 1.000000
    SLACK880 LOBROW57 -1.000000
    SLACK881 UPBROW58 1.000000
    SLACK882 LOBROW59 -1.000000
    SLACK883 UPBROW60 1.000000
    SLACK884 LOBROW61 -1.000000
    SLACK885 UPBROW62 1.000000
    SLACK886 LOBROW63 -1.000000
    SLACK887 UPBROW64 1.000000
    SLACK888 LOBROW65 -1.000000
    SLACK889 UPBROW66 1.000000
    SLACK890 LOBROW67 -1.000000
    SLACK891 UPBROW68 1.000000
    SLACK892 LOBROW69 -1.000000
    SLACK893 UPBROW70 1.000000
    SLACK894 LOBROW71 -1.000000
    SLACK895 UPBROW72 1.000000
    SLACK896 LOBROW73 -1.000000
    SLACK897 UPBROW74 1.000000
    SLACK898 LOBROW75 -1.000000
    SLACK899 UPBROW76 1.000000
    SLACK900 LOBROW77 -1.000000
    SLACK901 UPBROW78 1.000000
    SLACK902 LOBROW79 -1.000000
    SLACK903 UPBROW80 1.000000
    SLACK904 LOBROW81 -1.000000
    SLACK905 UPBROW82 1.000000
    SLACK906 LOBROW83 -1.000000
    SLACK907 UPBROW84 1.000000
    SLACK908 LOBROW85 -1.000000
    SLACK909 UPBROW86 1.000000
    SLACK910 LOBROW87 -1.000000
    SLACK911 UPBROW88 1.000000
    SLACK912 LOBROW89 -1.000000
    SLACK913 UPBROW90 1.000000
    SLACK914 LOBROW91 -1.000000
    SLACK915 UPBROW92 1.000000
    SLACK916 LOBROW93 -1.000000
    SLACK917 UPBROW94 1.000000
    SLACK918 LOBROW95 -1.000000
    SLACK919 UPBROW96 1.000000
    SLACK920 LOBROW97 -1.000000
    SLACK921 UPBROW98 1.000000
    SLACK922 LOBROW99 -1.000000
    SLACK923 UPBROW100 1.000000
    SLACK924 LOBROW101 -1.000000
    SLACK925 UPBROW102 1.000000
    SLACK926 LOBROW103 -1.000000
    SLACK927 UPBROW104 1.000000
    SLACK928 LOBROW105 -1.000000
    SLACK929 UPBROW106 1.000000
    SLACK930 LOBROW107 -1.000000
    SLACK931 UPBROW108 1.000000
    SLACK932 LOBROW109 -1.000000
    SLACK933 UPBROW110 1.000000
    SLACK934 LOBROW111 -1.000000
    SLACK935 UPBROW112 1.000000
    SLACK936 LOBROW113 -1.000000
    SLACK937 UPBROW114 1.000000
    SLACK938 LOBROW115 -1.000000
    SLACK939 UPBROW116 1.000000
    SLACK940 LOBROW117 -1.000000
    SLACK941 UPBROW118 1.000000
    SLACK942 LOBROW119 -1.000000
    SLACK943 UPBROW120 1.000000
    SLACK944 LOBROW121 -1.000000
    SLACK945 UPBROW122 1.000000
    SLACK946 LOBROW123 -1.000000
    SLACK947 UPBROW124 1.000000
    SLACK948 LOBROW125 -1.000000
    SLACK949 UPBROW126 1.000000
    SLACK950 LOBROW127 -1.000000
    SLACK951 UPBROW128 1.000000
    SLACK952 LOBROW129 -1.000000
    SLACK953 UPBROW130 1.000000
    SLACK954 LOBROW131 -1.000000
    SLACK955 UPBROW132 1.000000
    SLACK956 LOBROW133 -1.000000
    SLACK957 UPBROW134 1.000000
    SLACK958 LOBROW135 -1.000000
    SLACK959 UPBROW136 1.000000
    SLACK960 LOBROW137 -1.000000
    SLACK961 UPBROW138 1.000000
    SLACK962 LOBROW139 -1.000000
    SLACK963 UPBROW140 1.000000
    SLACK964 LOBROW141 -1.000000
    SLACK965 UPBROW142 1.000000
    SLACK966 LOBROW143 -1.000000
    SLACK967 UPBROW144 1.000000
    SLACK968 LOBROW145 -1.000000
    SLACK969 UPBROW146 1.000000
    SLACK970 LOBROW147 -1.000000
    SLACK971 UPBROW148 1.000000
    SLACK972 LOBROW149 -1.000000
    SLACK973 UPBROW150 1.000000
    SLACK974 LOBROW151 -1.000000
    SLACK975 UPBROW152 1.000000
    SLACK976 LOBROW153 -1.000000
    SLACK977 UPBROW154 1.000000
    SLACK978 LOBROW155 -1.000000
    SLACK979 UPBROW156 1.000000
    SLACK980 LOBROW157 -1.000000
    SLACK981 UPBROW158 1.000000
    SLACK982 LOBROW159 -1.000000
    SLACK983 UPBROW160 1.000000
    SLACK984 LOBROW161 -1.000000
    SLACK985 UPBROW162 1.000000
    SLACK986 LOBROW163 -1.000000
    SLACK987 UPBROW164 1.000000
    SLACK988 LOBROW165 -1.000000
    SLACK989 UPBROW166 1.000000
    SLACK990 LOBROW167 -1.000000
    SLACK991 UPBROW168 1.000000
    SLACK992 LOBROW169 -1.000000
    SLACK993 UPBROW170 1.000000
    SLACK994 LOBROW171 -1.000000
    SLACK995 UPBROW172 1.000000
    SLACK996 LOBROW173 -1.000000
    SLACK997 UPBROW174 1.000000
    SLACK998 LOBROW175 -1.000000
    SLACK999 UPBROW176 1.000000
    SLACK1000 LOBROW177 -1.000000
    SLACK1001 UPBROW178 1.000000
    SLACK1002 LOBROW179 -1.000000
    SLACK1003 UPBROW180 1.000000
    SLACK1004 LOBROW181 -1.000000
    SLACK1005 UPBROW182 1.000000
    SLACK1006 LOBROW183 -1.000000
    SLACK1007 UPBROW184 1.000000
    SLACK1008 LOBROW185 -1.000000
    SLACK1009 UPBROW186 1.000000
    SLACK1010 LOBROW187 -1.000000
    SLACK1011 UPBROW188 1.000000
    SLACK1012 LOBROW189 -1.000000
    SLACK1013 UPBROW190 1.000000
    SLACK1014 LOBROW191 -1.000000
    SLACK1015 UPBROW192 1.000000
    SLACK1016 LOBROW193 -1.000000
    SLACK1017 UPBROW194 1.000000
    SLACK1018 LOBROW195 -1.000000
    SLACK1019 UPBROW196 1.000000
    SLACK1020 LOBROW197 -1.000000
    SLACK1021 UPBROW198 1.000000
    SLACK1022 LOBROW199 -1.000000
    SLACK1023 UPBROW200 1.000000
    SLACK1024 LOBROW201 -1.000000
    SLACK1025 UPBROW202 1.000000
    SLACK1026 LOBROW203 -1.000000
    SLACK1027 UPBROW204 1.000000
    SLACK1028 LOBROW205 -1.000000
    SLACK1029 UPBROW206 1.000000
    SLACK1030 LOBROW207 -1.000000
    SLACK1031 UPBROW208 1.000000
    SLACK1032 LOBROW209 -1.000000
    SLACK1033 UPBROW210 1.000000
    SLACK1034 LOBROW211 -1.000000
    SLACK1035 UPBROW212 1.000000
    SLACK1036 LOBROW213 -1.000000
    SLACK1037 UPBROW214 1.000000
    SLACK1038 LOBROW215 -1.000000
    SLACK1039 UPBROW216 1.000000
    SLACK1040 LOBROW217 -1.000000
    SLACK1041 UPBROW218 1.000000
    SLACK1042 LOBROW219 -1.000000
    SLACK1043 UPBROW220 1.000000
    SLACK1044 LOBROW221 -1.000000
    SLACK1045 UPBROW222 1.000000
    SLACK1046 LOBROW223 -1.000000
    SLACK1047 UPBROW224 1.000000
    SLACK1048 LOBROW225 -1.000000
    SLACK1049 UPBROW226 1.000000
    SLACK1050 LOBROW227 -1.000000
    SLACK1051 UPBROW228 1.000000
    SLACK1052 LOBROW229 -1.000000
    SLACK1053 UPBROW230 1.000000
    SLACK1054 LOBROW231 -1.000000
    SLACK1055 UPBROW232 1.000000
    SLACK1056 LOBROW233 -1.000000
    SLACK1057 UPBROW234 1.000000
    SLACK1058 LOBROW235 -1.000000
    SLACK1059 UPBROW236 1.000000
    SLACK1060 LOBROW237 -1.000000
    SLACK1061 UPBROW238 1.000000
    SLACK1062 LOBROW239 -1.000000
    SLACK1063 UPBROW240 1.000000
    SLACK1064 LOBROW241 -1.000000
    SLACK1065 UPBROW242 1.000000
    SLACK1066 LOBROW243 -1.000000
    SLACK1067 UPBROW244 1.000000
    SLACK1068 LOBROW245 -1.000000
    SLACK1069 UPBROW246 1.000000
    SLACK1070 LOBROW247 -1.000000
    SLACK1071 UPBROW248 1.000000
    SLACK1072 LOBROW249 -1.000000
    SLACK1073 UPBROW250 1.000000
    SLACK1074 LOBROW251 -1.000000
    SLACK1075 UPBROW252 1.000000
    SLACK1076 LOBROW253 -1.000000
    SLACK1077 UPBROW254 1.000000
    SLACK1078 LOBROW255 -1.000000
    SLACK1079 UPBROW256 1.000000
    SLACK1080 LOBROW257 -1.000000
    SLACK1081 UPBROW258 1.000000
    SLACK1082 LOBROW259 -1.000000
    SLACK1083 UPBROW260 1.000000
    SLACK1084 LOBROW261 -1.000000
    SLACK1085 UPBROW262 1.000000
    SLACK1086 LOBROW263 -1.000000
    SLACK1087 UPBROW264 1.000000
    SLACK1088 LOBROW265 -1.000000
    SLACK1089 UPBROW266 1.000000
    SLACK1090 LOBROW267 -1.000000
    SLACK1091 UPBROW268 1.000000
    SLACK1092 LOBROW269 -1.000000
    SLACK1093 UPBROW270 1.000000
    SLACK1094 LOBROW271 -1.000000
    SLACK1095 UPBROW272 1.000000
    SLACK1096 LOBROW273 -1.000000
    SLACK1097 UPBROW274 1.000000
    SLACK1098 LOBROW275 -1.000000
    SLACK1099 UPBROW276 1.000000
    SLACK1100 LOBROW277 -1.000000
    SLACK1101 UPBROW278 1.000000
    SLACK1102 LOBROW279 -1.000000
    SLACK1103 UPBROW280 1.000000
    SLACK1104 LOBROW281 -1.000000
    SLACK1105 UPBROW282 1.000000
    SLACK1106 LOBROW283 -1.000000
    SLACK1107 UPBROW284 1.000000
    SLACK1108 LOBROW285 -1.000000
    SLACK1109 UPBROW286 1.000000
    SLACK1110 LOBROW287 -1.000000
    SLACK1111 UPBROW288 1.000000
    SLACK1112 LOBROW289 -1.000000
    SLACK1113 UPBROW290 1.000000
    SLACK1114 LOBROW291 -1.000000
    SLACK1115 UPBROW292 1.000000
    SLACK1116 LOBROW293 -1.000000
    SLACK1117 UPBROW294 1.000000
    SLACK1118 LOBROW295 -1.000000
    SLACK1119 UPBROW296 1.000000
    SLACK1120 LOBROW297 -1.000000
    SLACK1121 UPBROW298 1.000000
    SLACK1122 LOBROW299 -1.000000
    SLACK1123 UPBROW300 1.000000
    SLACK1124 LOBROW301 -1.000000
    SLACK1125 UPBROW302 1.000000
    SLACK1126 LOBROW303 -1.000000
    SLACK1127 UPBROW304 1.000000
    SLACK1128 LOBROW305 -1.000000
    SLACK1129 UPBROW306 1.000000
    SLACK1130 LOBROW307 -1.000000
    SLACK1131 UPBROW308 1.000000
    SLACK1132 LOBROW309 -1.000000
    SLACK1133 UPBROW310 1.000000
    SLACK1134 LOBROW311 -1.000000
    SLACK1135 UPBROW312 1.000000
    SLACK1136 LOBROW313 -1.000000
    SLACK1137 UPBROW314 1.000000
    SLACK1138 LOBROW315 -1.000000
    SLACK1139 UPBROW316 1.000000
    SLACK1140 LOBROW317 -1.000000
    SLACK1141 UPBROW318 1.000000
    SLACK1142 LOBROW319 -1.000000
    SLACK1143 UPBROW320 1.000000
    SLACK1144 LOBROW321 -1.000000
    SLACK1145 UPBROW322 1.000000
    SLACK1146 LOBROW323 -1.000000
    SLACK1147 UPBROW324 1.000000
    SLACK1148 LOBROW325 -1.000000
    SLACK1149 UPBROW326 1.000000
    SLACK1150 LOBROW327 -1.000000
    SLACK1151 UPBROW328 1.000000
    SLACK1152 LOBROW329 -1.000000
    SLACK1153 UPBROW330 1.000000
    SLACK1154 LOBROW331 -1.000000
    SLACK1155 UPBROW332 1.000000
    SLACK1156 LOBROW333 -1.000000
    SLACK1157 UPBROW334 1.000000
    SLACK1158 LOBROW335 -1.000000
    SLACK1159 UPBROW336 1.000000
    SLACK1160 LOBROW337 -1.000000
    SLACK1161 UPBROW338 1.000000
    SLACK1162 LOBROW339 -1.000000
    SLACK1163 UPBROW340 1.000000
    SLACK1164 LOBROW341 -1.000000
    SLACK1165 UPBROW342 1.000000
    SLACK1166 LOBROW343 -1.000000
    SLACK1167 UPBROW344 1.000000
    SLACK1168 LOBROW345 -1.000000
    SLACK1169 UPBROW346 1.000000
    SLACK1170 LOBROW347 -1.000000
    SLACK1171 UPBROW348 1.000000
    SLACK1172 LOBROW349 -1.000000
    SLACK1173 UPBROW350 1.000000
    SLACK1174 LOBROW351 -1.000000
    SLACK1175 UPBROW352 1.000000
    SLACK1176 LOBROW353 -1.000000
    SLACK1177 UPBROW354 1.000000
    SLACK1178 LOBROW355 -1.000000
    SLACK1179 UPBROW356 1.000000
    SLACK1180 LOBROW357 -1.000000
    SLACK1181 UPBROW358 1.000000
    SLACK1182 LOBROW359 -1.000000
    SLACK1183 UPBROW360 1.000000
    SLACK1184 LOBROW361 -1.000000
    SLACK1185 UPBROW362 1.000000
    SLACK1186 LOBROW363 -1.000000
    SLACK1187 UPBROW364 1.000000
    SLACK1188 LOBROW365 -1.000000
    SLACK1189 UPBROW366 1.000000
    SLACK1190 LOBROW367 -1.000000
    SLACK1191 UPBROW368 1.000000
    SLACK1192 LOBROW369 -1.000000
    SLACK1193 UPBROW370 1.000000
    SLACK1194 LOBROW371 -1.000000
    SLACK1195 UPBROW372 1.000000
    SLACK1196 LOBROW373 -1.000000
    SLACK1197 UPBROW374 1.000000
    SLACK1198 LOBROW375 -1.000000
    SLACK1199 UPBROW376 1.000000
    SLACK1200 LOBROW377 -1.000000
    SLACK1201 UPBROW378 1.000000
    SLACK1202 LOBROW379 -1.000000
    SLACK1203 UPBROW380 1.000000
    SLACK1204 LOBROW381 -1.000000
    SLACK1205 UPBROW382 1.000000
    SLACK1206 LOBROW383 -1.000000
    SLACK1207 UPBROW384 1.000000
    SLACK1208 LOBROW385 -1.000000
    SLACK1209 UPBROW386 1.000000
    SLACK1210 LOBROW387 -1.000000
    SLACK1211 UPBROW388 1.000000
    SLACK1212 LOBROW389 -1.000000
    SLACK1213 UPBROW390 1.000000
    SLACK1214 LOBROW391 -1.000000
    SLACK1215 UPBROW392 1.000000
    SLACK1216 LOBROW393 -1.000000
    SLACK1217 UPBROW394 1.000000
    SLACK1218 LOBROW395 -1.000000
    SLACK1219 UPBROW396 1.000000
    SLACK1220 LOBROW397 -1.000000
    SLACK1221 UPBROW398 1.000000
    SLACK1222 LOBROW399 -1.000000
    SLACK1223 UPBROW400 1.000000
    SLACK1224 LOBROW401 -1.000000
    SLACK1225 UPBROW402 1.000000
    SLACK1226 LOBROW403 -1.000000
    SLACK1227 UPBROW404 1.000000
    SLACK1228 LOBROW405 -1.000000
    SLACK1229 UPBROW406 1.000000
    SLACK1230 LOBROW407 -1.000000
    SLACK1231 UPBROW408 1.000000
    SLACK1232 LOBROW409 -1.000000
    SLACK1233 UPBROW410 1.000000
    SLACK1234 LOBROW411 -1.000000
    SLACK1235 UPBROW412 1.000000
    SLACK1236 LOBROW413 -1.000000
    SLACK1237 UPBROW414 1.000000
    SLACK1238 LOBROW415 -1.000000
    SLACK1239 UPBROW416 1.000000
    SLACK1240 LOBROW417 -1.000000
    SLACK1241 UPBROW418 1.000000
    SLACK1242 LOBROW419 -1.000000
    SLACK1243 UPBROW420 1.000000
    SLACK1244 LOBROW421 -1.000000
    SLACK1245 UPBROW422 1.000000
    SLACK1246 LOBROW423 -1.000000
    SLACK1247 UPBROW424 1.000000
    SLACK1248 LOBROW425 -1.000000
    SLACK1249 UPBROW426 1.000000
    SLACK1250 LOBROW427 -1.000000
    SLACK1251 UPBROW428 1.000000
    SLACK1252 LOBROW429 -1.000000
    SLACK1253 UPBROW430 1.000000
    SLACK1254 LOBROW431 -1.000000
    SLACK1255 UPBROW432 1.000000
    SLACK1256 LOBROW433 -1.000000
    SLACK1257 UPBROW434 1.000000
    SLACK1258 LOBROW435 -1.000000
    SLACK1259 UPBROW436 1.000000
    SLACK1260 LOBROW437 -1.000000
    SLACK1261 UPBROW438 1.000000
    SLACK1262 LOBROW439 -1.000000
    SLACK1263 UPBROW440 1.000000
    SLACK1264 LOBROW441 -1.000000
    SLACK1265 UPBROW442 1.000000
    SLACK1266 LOBROW443 -1.000000
    SLACK1267 UPBROW444 1.000000
    SLACK1268 LOBROW445 -1.000000
    SLACK1269 UPBROW446 1.000000
    SLACK1270 LOBROW447 -1.000000
    SLACK1271 UPBROW448 1.000000
    SLACK1272 LOBROW449 -1.000000
    SLACK1273 UPBROW450 1.000000
    SLACK1274 LOBROW451 -1.000000
    SLACK1275 UPBROW452 1.000000
    SLACK1276 LOBROW453 -1.000000
    SLACK1277 UPBROW454 1.000000
    SLACK1278 LOBROW455 -1.000000
    SLACK1279 UPBROW456 1.000000
    SLACK1280 LOBROW457 -1.000000
    SLACK1281 UPBROW458 1.000000
    SLACK1282 LOBROW459 -1.000000
    SLACK1283 UPBROW460 1.000000
    SLACK1284 LOBROW461 -1.000000
    SLACK1285 UPBROW462 1.000000
    SLACK1286 LOBROW463 -1.000000
    SLACK1287 UPBROW464 1.000000
    SLACK1288 LOBROW465 -1.000000
    SLACK1289 UPBROW466 1.000000
    SLACK1290 LOBROW467 -1.000000
    SLACK1291 UPBROW468 1.000000
    SLACK1292 LOBROW469 -1.000000
    SLACK1293 UPBROW470 1.000000
    SLACK1294 LOBROW471 -1.000000
    SLACK1295 UPBROW472 1.000000
    SLACK1296 LOBROW473 -1.000000
    SLACK1297 UPBROW474 1.000000
    SLACK1298 LOBROW475 -1.000000
    SLACK1299 UPBROW476 1.000000
    SLACK1300 LOBROW477 -1.000000
    SLACK1301 UPBROW478 1.000000
    SLACK1302 LOBROW479 -1.000000
    SLACK1303 UPBROW480 1.000000
    SLACK1304 LOBROW481 -1.000000
    SLACK1305 UPBROW482 1.000000
    SLACK1306 LOBROW483 -1.000000
    SLACK1307 UPBROW484 1.000000
    SLACK1308 LOBROW485 -1.000000
    SLACK1309 UPBROW486 1.000000
    SLACK1310 LOBROW487 -1.000000
    SLACK1311 UPBROW488 1.000000
    SLACK1312 LOBROW489 -1.000000
    SLACK1313 UPBROW490 1.000000
    SLACK1314 LOBROW491 -1.000000
    SLACK1315 UPBROW492 1.000000
    SLACK1316 LOBROW493 -1.000000
    SLACK1317 UPBROW494 1.000000
    SLACK1318 LOBROW495 -1.000000
    SLACK1319 UPBROW496 1.000000
    SLACK1320 LOBROW497 -1.000000
    SLACK1321 UPBROW498 1.000000
    SLACK1322 LOBROW499 -1.000000
    SLACK1323 UPBROW500 1.000000
    SLACK1324 LOBROW501 -1.000000
    SLACK1325 UPBROW502 1.000000
    SLACK1326 LOBROW503 -1.000000
    SLACK1327 UPBROW504 1.000000
    SLACK1328 LOBROW505 -1.000000
    SLACK1329 UPBROW506 1.000000
    SLACK1330 LOBROW507 -1.000000
    SLACK1331 UPBROW508 1.000000
    SLACK1332 LOBROW509 -1.000000
    SLACK1333 UPBROW510 1.000000
    SLACK1334 LOBROW511 -1.000000
    SLACK1335 UPBROW512 1.000000
    SLACK1336 LOBROW513 -1.000000
    SLACK1337 UPBROW514 1.000000
    SLACK1338 LOBROW515 -1.000000
    SLACK1339 UPBROW516 1.000000
    SLACK1340 LOBROW517 -1.000000
    SLACK1341 UPBROW518 1.000000
    SLACK1342 LOBROW519 -1.000000
    SLACK1343 UPBROW520 1.000000
    SLACK1344 LOBROW521 -1.000000
    SLACK1345 UPBROW522 1.000000
    SLACK1346 LOBROW523 -1.000000
    SLACK1347 UPBROW524 1.000000
    SLACK1348 LOBROW525 -1.000000
    SLACK1349 UPBROW526 1.000000
    SLACK1350 LOBROW527 -1.000000
    SLACK1351 UPBROW528 1.000000
    SLACK1352 LOBROW529 -1.000000
    SLACK1353 UPBROW530 1.000000
    SLACK1354 LOBROW531 -1.000000
    SLACK1355 UPBROW532 1.000000
    SLACK1356 LOBROW533 -1.000000
    SLACK1357 UPBROW534 1.000000
    SLACK1358 LOBROW535 -1.000000
    SLACK1359 UPBROW536 1.000000
    SLACK1360 LOBROW537 -1.000000
    SLACK1361 UPBROW538 1.000000
    SLACK1362 LOBROW539 -1.000000
    SLACK1363 UPBROW540 1.000000
    SLACK1364 LOBROW541 -1.000000
    SLACK1365 UPBROW542 1.000000
    SLACK1366 LOBROW543 -1.000000
    SLACK1367 UPBROW544 1.000000
    SLACK1368 LOBROW545 -1.000000
    SLACK1369 UPBROW546 1.000000
    SLACK1370 LOBROW547 -1.000000
    SLACK1371 UPBROW548 1.000000
    SLACK1372 LOBROW549 -1.000000
    SLACK1373 UPBROW550 1.000000
    SLACK1374 LOBROW551 -1.000000
    SLACK1375 UPBROW552 1.000000
    SLACK1376 LOBROW553 -1.000000
    SLACK1377 UPBROW554 1.000000
    SLACK1378 LOBROW555 -1.000000
    SLACK1379 UPBROW556 1.000000
    SLACK1380 LOBROW557 -1.000000
    SLACK1381 UPBROW558 1.000000
    SLACK1382 LOBROW559 -1.000000
    SLACK1383 UPBROW560 1.000000
    SLACK1384 LOBROW561 -1.000000
    SLACK1385 UPBROW562 1.000000
    SLACK1386 LOBROW563 -1.000000
    SLACK1387 UPBROW564 1.000000
    SLACK1388 LOBROW565 -1.000000
    SLACK1389 UPBROW566 1.000000
    SLACK1390 LOBROW567 -1.000000
    SLACK1391 UPBROW568 1.000000
    SLACK1392 LOBROW569 -1.000000
    SLACK1393 UPBROW570 1.000000
    SLACK1394 LOBROW571 -1.000000
    SLACK1395 UPBROW572 1.000000
    SLACK1396 LOBROW573 -1.000000
    SLACK1397 UPBROW574 1.000000
    SLACK1398 LOBROW575 -1.000000
    SLACK1399 UPBROW576 1.000000
    SLACK1400 LOBROW577 -1.000000
    SLACK1401 UPBROW578 1.000000
    SLACK1402 LOBROW579 -1.000000
    SLACK1403 UPBROW580 1.000000
    SLACK1404 LOBROW581 -1.000000
    SLACK1405 UPBROW582 1.000000
    SLACK1406 LOBROW583 -1.000000
    SLACK1407 UPBROW584 1.000000
    SLACK1408 LOBROW585 -1.000000
    SLACK1409 UPBROW586 1.000000
    SLACK1410 LOBROW587 -1.000000
    SLACK1411 UPBROW588 1.000000
    SLACK1412 LOBROW589 -1.000000
    SLACK1413 UPBROW590 1.000000
    SLACK1414 LOBROW591 -1.000000
    SLACK1415 UPBROW592 1.000000
    SLACK1416 LOBROW593 -1.000000
    SLACK1417 UPBROW594 1.000000
    SLACK1418 LOBROW595 -1.000000
    SLACK1419 UPBROW596 1.000000
    SLACK1420 LOBROW597 -1.000000
    SLACK1421 UPBROW598 1.000000
    SLACK1422 LOBROW599 -1.000000
    SLACK1423 UPBROW600 1.000000
    SLACK1424 LOBROW601 -1.000000
    SLACK1425 UPBROW602 1.000000
    SLACK1426 LOBROW603 -1.000000
    SLACK1427 UPBROW604 1.000000
    SLACK1428 LOBROW605 -1.000000
    SLACK1429 UPBROW606 1.000000
    SLACK1430 LOBROW607 -1.000000
    SLACK1431 UPBROW608 1.000000
    SLACK1432 LOBROW609 -1.000000
    SLACK1433 UPBROW610 1.000000
    SLACK1434 LOBROW611 -1.000000
    SLACK1435 UPBROW612 1.000000
    SLACK1436 LOBROW613 -1.000000
    SLACK1437 UPBROW614 1.000000
    SLACK1438 LOBROW615 -1.000000
    SLACK1439 UPBROW616 1.000000
    SLACK1440 LOBROW617 -1.000000
    SLACK1441 UPBROW618 1.000000
    SLACK1442 LOBROW619 -1.000000
    SLACK1443 UPBROW620 1.000000
    SLACK1444 LOBROW621 -1.000000
    SLACK1445 UPBROW622 1.000000
    SLACK1446 LOBROW623 -1.000000
    SLACK1447 UPBROW624 1.000000
    SLACK1448 LOBROW625 -1.000000
    SLACK1449 UPBROW626 1.000000
    SLACK1450 LOBROW627 -1.000000
    SLACK1451 UPBROW628 1.000000
    SLACK1452 LOBROW629 -1.000000
    SLACK1453 UPBROW630 1.000000
    SLACK1454 LOBROW631 -1.000000
    SLACK1455 UPBROW632 1.000000
    SLACK1456 LOBROW633 -1.000000
    SLACK1457 UPBROW634 1.000000
    SLACK1458 LOBROW635 -1.000000
    SLACK1459 UPBROW636 1.000000
    SLACK1460 LOBROW637 -1.000000
    SLACK1461 UPBROW638 1.000000
    SLACK1462 LOBROW639 -1.000000
    SLACK1463 UPBROW640 1.000000
    SLACK1464 LOBROW641 -1.000000
    SLACK1465 UPBROW642 1.000000
    SLACK1466 LOBROW643 -1.000000
    SLACK1467 UPBROW644 1.000000
    SLACK1468 LOBROW645 -1.000000
    SLACK1469 UPBROW646 1.000000
    SLACK1470 LOBROW647 -1.000000
    SLACK1471 UPBROW648 1.000000
    SLACK1472 LOBROW649 -1.000000
    SLACK1473 UPBROW650 1.000000
    SLACK1474 LOBROW651 -1.000000
    SLACK1475 UPBROW652 1.000000
    SLACK1476 LOBROW653 -1.000000
    SLACK1477 UPBROW654 1.000000
    SLACK1478 LOBROW655 -1.000000
    SLACK1479 UPBROW656 1.000000
    SLACK1480 LOBROW657 -1.000000
    SLACK1481 UPBROW658 1.000000
    SLACK1482 LOBROW659 -1.000000
    SLACK1483 UPBROW660 1.000000
    SLACK1484 LOBROW661 -1.000000
    SLACK1485 UPBROW662 1.000000
    SLACK1486 LOBROW663 -1.000000
    SLACK1487 UPBROW664 1.000000
    SLACK1488 LOBROW665 -1.000000
    SLACK1489 UPBROW666 1.000000
    SLACK1490 LOBROW667 -1.000000
    SLACK1491 UPBROW668 1.000000
    SLACK1492 LOBROW669 -1.000000
    SLACK1493 UPBROW670 1.000000
    SLACK1494 LOBROW671 -1.000000
    SLACK1495 UPBROW672 1.000000
    SLACK1496 LOBROW673 -1.000000
    SLACK1497 UPBROW674 1.000000
    SLACK1498 LOBROW675 -1.000000
    SLACK1499 UPBROW676 1.000000
    SLACK1500 LOBROW677 -1.000000
    SLACK1501 UPBROW678 1.000000
    SLACK1502 LOBROW679 -1.000000
    SLACK1503 LOBROW680 -1.000000
    SLACK1504 UPBROW681 1.000000
    SLACK1505 LOBROW682 -1.000000
    SLACK1506 UPBROW683 1.000000
    SLACK1507 LOBROW684 -1.000000
    SLACK1508 UPBROW685 1.000000
    SLACK1509 LOBROW686 -1.000000
    SLACK1510 UPBROW687 1.000000
    SLACK1511 LOBROW688 -1.000000
    SLACK1512 UPBROW689 1.000000
    SLACK1513 LOBROW690 -1.000000
    SLACK1514 UPBROW691 1.000000
    SLACK1515 LOBROW692 -1.000000
    SLACK1516 UPBROW693 1.000000
    SLACK1517 LOBROW694 -1.000000
    SLACK1518 UPBROW695 1.000000
    SLACK1519 LOBROW696 -1.000000
    SLACK1520 UPBROW697 1.000000
    SLACK1521 LOBROW698 -1.000000
    SLACK1522 UPBROW699 1.000000
    SLACK1523 LOBROW700 -1.000000
    SLACK1524 UPBROW701 1.000000
    SLACK1525 LOBROW702 -1.000000
    SLACK1526 UPBROW703 1.000000
    SLACK1527 LOBROW704 -1.000000
    SLACK1528 UPBROW705 1.000000
    SLACK1529 LOBROW706 -1.000000
    SLACK1530 UPBROW707 1.000000
    SLACK1531 LOBROW708 -1.000000
    SLACK1532 UPBROW709 1.000000
    SLACK1533 LOBROW710 -1.000000
    SLACK1534 UPBROW711 1.000000
    SLACK1535 LOBROW712 -1.000000
    SLACK1536 UPBROW713 1.000000
    SLACK1537 LOBROW714 -1.000000
    SLACK1538 UPBROW715 1.000000
    SLACK1539 LOBROW716 -1.000000
    SLACK1540 UPBROW717 1.000000
    SLACK1541 LOBROW718 -1.000000
    SLACK1542 UPBROW719 1.000000
    SLACK1543 LOBROW720 -1.000000
    SLACK1544 UPBROW721 1.000000
    SLACK1545 LOBROW722 -1.000000
    SLACK1546 UPBROW723 1.000000
    SLACK1547 LOBROW724 -1.000000
    SLACK1548 UPBROW725 1.000000
    SLACK1549 LOBROW726 -1.000000
    SLACK1550 UPBROW727 1.000000
    SLACK1551 LOBROW728 -1.000000
    SLACK1552 UPBROW729 1.000000
    SLACK1553 LOBROW730 -1.000000
    SLACK1554 UPBROW731 1.000000
    SLACK1555 LOBROW732 -1.000000
    SLACK1556 UPBROW733 1.000000
    SLACK1557 LOBROW734 -1.000000
    SLACK1558 UPBROW735 1.000000
    SLACK1559 LOBROW736 -1.000000
    SLACK1560 UPBROW737 1.000000
    SLACK1561 LOBROW738 -1.000000
    SLACK1562 UPBROW739 1.000000
    SLACK1563 LOBROW740 -1.000000
    SLACK1564 UPBROW741 1.000000
    SLACK1565 LOBROW742 -1.000000
    SLACK1566 UPBROW743 1.000000
    SLACK1567 LOBROW744 -1.000000
    SLACK1568 UPBROW745 1.000000
    SLACK1569 LOBROW746 -1.000000
    SLACK1570 UPBROW747 1.000000
    SLACK1571 LOBROW748 -1.000000
    SLACK1572 UPBROW749 1.000000
    SLACK1573 LOBROW750 -1.000000
    SLACK1574 UPBROW751 1.000000
    SLACK1575 LOBROW752 -1.000000
    SLACK1576 UPBROW753 1.000000
    SLACK1577 LOBROW754 -1.000000
    SLACK1578 UPBROW755 1.000000
    SLACK1579 LOBROW756 -1.000000
    SLACK1580 UPBROW757 1.000000
    SLACK1581 LOBROW758 -1.000000
    SLACK1582 UPBROW759 1.000000
    SLACK1583 LOBROW760 -1.000000
    SLACK1584 UPBROW761 1.000000
    SLACK1585 LOBROW762 -1.000000
    SLACK1586 UPBROW763 1.000000
    SLACK1587 LOBROW764 -1.000000
    SLACK1588 UPBROW765 1.000000
    SLACK1589 LOBROW766 -1.000000
    SLACK1590 UPBROW767 1.000000
    SLACK1591 LOBROW768 -1.000000
    SLACK1592 UPBROW769 1.000000
    SLACK1593 LOBROW770 -1.000000
    SLACK1594 UPBROW771 1.000000
    SLACK1595 LOBROW772 -1.000000
    SLACK1596 UPBROW773 1.000000
    SLACK1597 LOBROW774 -1.000000
    SLACK1598 UPBROW775 1.000000
    SLACK1599 LOBROW776 -1.000000
    SLACK1600 UPBROW777 1.000000
    SLACK1601 LOBROW778 -1.000000
    SLACK1602 UPBROW779 1.000000
    SLACK1603 LOBROW780 -1.000000
    SLACK1604 UPBROW781 1.000000
    SLACK1605 LOBROW782 -1.000000
    SLACK1606 UPBROW783 1.000000
    SLACK1607 LOBROW784 -1.000000
    SLACK1608 UPBROW785 1.000000
    SLACK1609 LOBROW786 -1.000000
    SLACK1610 UPBROW787 1.000000
    SLACK1611 LOBROW788 -1.000000
    SLACK1612 UPBROW789 1.000000
    SLACK1613 LOBROW790 -1.000000
    SLACK1614 UPBROW791 1.000000
    SLACK1615 LOBROW792 -1.000000
    SLACK1616 UPBROW793 1.000000
    SLACK1617 LOBROW794 -1.000000
    SLACK1618 UPBROW795 1.000000
    SLACK1619 LOBROW796 -1.000000
    SLACK1620 UPBROW797 1.000000
    SLACK1621 LOBROW798 -1.000000
    SLACK1622 UPBROW799 1.000000
    SLACK1623 LOBROW800 -1.000000
    SLACK1624 UPBROW801 1.000000
    SLACK1625 LOBROW802 -1.000000
    SLACK1626 UPBROW803 1.000000
    SLACK1627 LOBROW804 -1.000000
    SLACK1628 UPBROW805 1.000000
    SLACK1629 LOBROW806 -1.000000
    SLACK1630 UPBROW807 1.000000
    SLACK1631 LOBROW808 -1.000000
    SLACK1632 UPBROW809 1.000000
    SLACK1633 LOBROW810 -1.000000
    SLACK1634 UPBROW811 1.000000
    SLACK1635 LOBROW812 -1.000000
    SLACK1636 UPBROW813 1.000000
    SLACK1637 LOBROW814 -1.000000
    SLACK1638 UPBROW815 1.000000
    SLACK1639 LOBROW816 -1.000000
    SLACK1640 UPBROW817 1.000000
    SLACK1641 LOBROW818 -1.000000
    SLACK1642 UPBROW819 1.000000
    SLACK1643 LOBROW820 -1.000000
    SLACK1644 UPBROW821 1.000000
    SLACK1645 LOBROW822 -1.000000
    SLACK1646 UPBROW823 1.000000
    SLACK1647 LOBROW824 -1.000000
    SLACK1648 UPBROW825 1.000000
    SLACK1649 LOBROW826 -1.000000
    SLACK1650 UPBROW827 1.000000
    SLACK1651 LOBROW828 -1.000000
    SLACK1652 UPBROW829 1.000000
    SLACK1653 LOBROW830 -1.000000
    SLACK1654 UPBROW831 1.000000
    SLACK1655 LOBROW832 -1.000000
    SLACK1656 UPBROW833 1.000000
    SLACK1657 LOBROW834 -1.000000
    SLACK1658 UPBROW835 1.000000
    SLACK1659 LOBROW836 -1.000000
    SLACK1660 UPBROW837 1.000000
    SLACK1661 LOBROW838 -1.000000
    SLACK1662 UPBROW839 1.000000
    SLACK1663 LOBROW840 -1.000000
    SLACK1664 UPBROW841 1.000000
    SLACK1665 LOBROW842 -1.000000
    SLACK1666 UPBROW843 1.000000
    SLACK1667 LOBROW844 -1.000000
    SLACK1668 UPBROW845 1.000000
    SLACK1669 LOBROW846 -1.000000
    SLACK1670 UPBROW847 1.000000
    SLACK1671 LOBROW848 -1.000000
    SLACK1672 UPBROW849 1.000000
    SLACK1673 LOBROW850 -1.000000
    SLACK1674 UPBROW851 1.000000
    SLACK1675 LOBROW852 -1.000000
    SLACK1676 UPBROW853 1.000000
    SLACK1677 LOBROW854 -1.000000
    SLACK1678 UPBROW855 1.000000
    SLACK1679 LOBROW856 -1.000000
    SLACK1680 UPBROW857 1.000000
    SLACK1681 LOBROW858 -1.000000
    SLACK1682 UPBROW859 1.000000
    SLACK1683 LOBROW860 -1.000000
    SLACK1684 UPBROW861 1.000000
    SLACK1685 LOBROW862 -1.000000
    SLACK1686 UPBROW863 1.000000
    SLACK1687 LOBROW864 -1.000000
    SLACK1688 UPBROW865 1.000000
    SLACK1689 LOBROW866 -1.000000
    SLACK1690 UPBROW867 1.000000
    SLACK1691 LOBROW868 -1.000000
    SLACK1692 UPBROW869 1.000000
    SLACK1693 LOBROW870 -1.000000
    SLACK1694 UPBROW871 1.000000
    SLACK1695 LOBROW872 -1.000000
    SLACK1696 UPBROW873 1.000000
    SLACK1697 LOBROW874 -1.000000
    SLACK1698 UPBROW875 1.000000
    SLACK1699 LOBROW876 -1.000000
    SLACK1700 UPBROW877 1.000000
    SLACK1701 LOBROW878 -1.000000
    SLACK1702 UPBROW879 1.000000
    SLACK1703 LOBROW880 -1.000000
    SLACK1704 UPBROW881 1.000000
    SLACK1705 LOBROW882 -1.000000
    SLACK1706 UPBROW883 1.000000
    SLACK1707 LOBROW884 -1.000000
    SLACK1708 UPBROW885 1.000000
    SLACK1709 LOBROW886 -1.000000
    SLACK1710 UPBROW887 1.000000
    SLACK1711 LOBROW888 -1.000000
    SLACK1712 UPBROW889 1.000000
    SLACK1713 LOBROW890 -1.000000
    SLACK1714 UPBROW891 1.000000
    SLACK1715 LOBROW892 -1.000000
    SLACK1716 UPBROW893 1.000000
    SLACK1717 LOBROW894 -1.000000
    SLACK1718 UPBROW895 1.000000
    SLACK1719 LOBROW896 -1.000000
    SLACK1720 UPBROW897 1.000000
    SLACK1721 LOBROW898 -1.000000
    SLACK1722 UPBROW899 1.000000
    SLACK1723 LOBROW900 -1.000000
    SLACK1724 UPBROW901 1.000000
    SLACK1725 LOBROW902 -1.000000
    SLACK1726 UPBROW903 1.000000
    SLACK1727 LOBROW904 -1.000000
    SLACK1728 UPBROW905 1.000000
    SLACK1729 LOBROW906 -1.000000
    SLACK1730 UPBROW907 1.000000
    SLACK1731 LOBROW908 -1.000000
    SLACK1732 UPBROW909 1.000000
    SLACK1733 LOBROW910 -1.000000
    SLACK1734 UPBROW911 1.000000
    SLACK1735 LOBROW912 -1.000000
    SLACK1736 UPBROW913 1.000000
    SLACK1737 LOBROW914 -1.000000
    SLACK1738 UPBROW915 1.000000
    SLACK1739 LOBROW916 -1.000000
    SLACK1740 UPBROW917 1.000000
    SLACK1741 LOBROW918 -1.000000
    SLACK1742 UPBROW919 1.000000
    SLACK1743 LOBROW920 -1.000000
    SLACK1744 UPBROW921 1.000000
    SLACK1745 LOBROW922 -1.000000
    SLACK1746 UPBROW923 1.000000
    SLACK1747 LOBROW924 -1.000000
    SLACK1748 UPBROW925 1.000000
    SLACK1749 LOBROW926 -1.000000
    SLACK1750 UPBROW927 1.000000
    SLACK1751 LOBROW928 -1.000000
    SLACK1752 UPBROW929 1.000000
    SLACK1753 LOBROW930 -1.000000
    SLACK1754 UPBROW931 1.000000
    SLACK1755 LOBROW932 -1.000000
    SLACK1756 UPBROW933 1.000000
    SLACK1757 LOBROW934 -1.000000
    SLACK1758 UPBROW935 1.000000
    SLACK1759 LOBROW936 -1.000000
    SLACK1760 UPBROW937 1.000000
    SLACK1761 LOBROW938 -1.000000
    SLACK1762 UPBROW939 1.000000
    SLACK1763 LOBROW940 -1.000000
    SLACK1764 UPBROW941 1.000000
    SLACK1765 LOBROW942 -1.000000
    SLACK1766 UPBROW943 1.000000
    SLACK1767 LOBROW944 -1.000000
    SLACK1768 UPBROW945 1.000000
    SLACK1769 LOBROW946 -1.000000
    SLACK1770 UPBROW947 1.000000
    SLACK1771 LOBROW948 -1.000000
    SLACK1772 UPBROW949 1.000000
    SLACK1773 LOBROW950 -1.000000
    SLACK1774 UPBROW951 1.000000
    SLACK1775 LOBROW952 -1.000000
    SLACK1776 UPBROW953 1.000000
    SLACK1777 LOBROW954 -1.000000
    SLACK1778 UPBROW955 1.000000
    SLACK1779 LOBROW956 -1.000000
    SLACK1780 UPBROW957 1.000000
    SLACK1781 LOBROW958 -1.000000
    SLACK1782 UPBROW959 1.000000
    SLACK1783 LOBROW960 -1.000000
    SLACK1784 UPBROW961 1.000000
    SLACK1785 LOBROW962 -1.000000
    SLACK1786 UPBROW963 1.000000
    SLACK1787 LOBROW964 -1.000000
    SLACK1788 UPBROW965 1.000000
    SLACK1789 LOBROW966 -1.000000
    SLACK1790 UPBROW967 1.000000
    SLACK1791 LOBROW968 -1.000000
    SLACK1792 UPBROW969 1.000000
    SLACK1793 LOBROW970 -1.000000
    SLACK1794 UPBROW971 1.000000
    SLACK1795 LOBROW972 -1.000000
    SLACK1796 UPBROW973 1.000000
    SLACK1797 LOBROW974 -1.000000
    SLACK1798 UPBROW975 1.000000
    SLACK1799 LOBROW976 -1.000000
    SLACK1800 UPBROW977 1.000000
    SLACK1801 LOBROW978 -1.000000
    SLACK1802 UPBROW979 1.000000
    SLACK1803 LOBROW980 -1.000000
    SLACK1804 UPBROW981 1.000000
    SLACK1805 LOBROW982 -1.000000
    SLACK1806 UPBROW983 1.000000
    SLACK1807 LOBROW984 -1.000000
    SLACK1808 UPBROW985 1.000000
    SLACK1809 LOBROW986 -1.000000
    SLACK1810 UPBROW987 1.000000
    SLACK1811 LOBROW988 -1.000000
    SLACK1812 UPBROW989 1.000000
    SLACK1813 LOBROW990 -1.000000
    SLACK1814 UPBROW991 1.000000
    SLACK1815 LOBROW992 -1.000000
    SLACK1816 UPBROW993 1.000000
    SLACK1817 LOBROW994 -1.000000
    SLACK1818 UPBROW995 1.000000
    SLACK1819 LOBROW996 -1.000000
    SLACK1820 UPBROW997 1.000000
    SLACK1821 LOBROW998 -1.000000
    SLACK1822 UPBROW999 1.000000
    SLACK1823 LOBROW1000 -1.000000
    SLACK1824 UPBROW1001 1.000000
    SLACK1825 LOBROW1002 -1.000000
    SLACK1826 UPBROW1003 1.000000
    SLACK1827 LOBROW1004 -1.000000
    SLACK1828 UPBROW1005 1.000000
    SLACK1829 LOBROW1006 -1.000000
    SLACK1830 UPBROW1007 1.000000
    SLACK1831 LOBROW1008 -1.000000
    SLACK1832 UPBROW1009 1.000000
    SLACK1833 LOBROW1010 -1.000000
    SLACK1834 UPBROW1011 1.000000
    SLACK1835 LOBROW1012 -1.000000
    SLACK1836 UPBROW1013 1.000000
    SLACK1837 LOBROW1014 -1.000000
    SLACK1838 UPBROW1015 1.000000
    SLACK1839 LOBROW1016 -1.000000
    SLACK1840 UPBROW1017 1.000000
    SLACK1841 LOBROW1018 -1.000000
    SLACK1842 UPBROW1019 1.000000
    SLACK1843 LOBROW1020 -1.000000
    SLACK1844 UPBROW1021 1.000000
    SLACK1845 LOBROW1022 -1.000000
    SLACK1846 UPBROW1023 1.000000
    SLACK1847 LOBROW1024 -1.000000
    SLACK1848 UPBROW1025 1.000000
    SLACK1849 LOBROW1026 -1.000000
    SLACK1850 UPBROW1027 1.000000
    SLACK1851 LOBROW1028 -1.000000
    SLACK1852 UPBROW1029 1.000000
    SLACK1853 LOBROW1030 -1.000000
    SLACK1854 UPBROW1031 1.000000
    SLACK1855 LOBROW1032 -1.000000
    SLACK1856 UPBROW1033 1.000000
    SLACK1857 LOBROW1034 -1.000000
    SLACK1858 UPBROW1035 1.000000
    SLACK1859 LOBROW1036 -1.000000
    SLACK1860 UPBROW1037 1.000000
    SLACK1861 LOBROW1038 -1.000000
    SLACK1862 UPBROW1039 1.000000
    SLACK1863 LOBROW1040 -1.000000
    SLACK1864 UPBROW1041 1.000000
    SLACK1865 LOBROW1042 -1.000000
    SLACK1866 UPBROW1043 1.000000
    SLACK1867 LOBROW1044 -1.000000
    SLACK1868 UPBROW1045 1.000000
    SLACK1869 LOBROW1046 -1.000000
    SLACK1870 UPBROW1047 1.000000
    SLACK1871 LOBROW1048 -1.000000
    SLACK1872 UPBROW1049 1.000000
    SLACK1873 LOBROW1050 -1.000000
    SLACK1874 UPBROW1051 1.000000
    SLACK1875 LOBROW1052 -1.000000
    SLACK1876 UPBROW1053 1.000000
    SLACK1877 LOBROW1054 -1.000000
    SLACK1878 UPBROW1055 1.000000
    SLACK1879 LOBROW1056 -1.000000
    SLACK1880 UPBROW1057 1.000000
    SLACK1881 LOBROW1058 -1.000000
    SLACK1882 UPBROW1059 1.000000
    SLACK1883 LOBROW1060 -1.000000
    SLACK1884 UPBROW1061 1.000000
    SLACK1885 LOBROW1062 -1.000000
    SLACK1886 UPBROW1063 1.000000
    SLACK1887 LOBROW1064 -1.000000
    SLACK1888 UPBROW1065 1.000000
    SLACK1889 LOBROW1066 -1.000000
    SLACK1890 UPBROW1067 1.000000
    SLACK1891 LOBROW1068 -1.000000
    SLACK1892 UPBROW1069 1.000000
    SLACK1893 LOBROW1070 -1.000000
    SLACK1894 UPBROW1071 1.000000
    SLACK1895 LOBROW1072 -1.000000
    SLACK1896 UPBROW1073 1.000000
    SLACK1897 LOBROW1074 -1.000000
    SLACK1898 UPBROW1075 1.000000
    SLACK1899 LOBROW1076 -1.000000
    SLACK1900 UPBROW1077 1.000000
    SLACK1901 LOBROW1078 -1.000000
    SLACK1902 UPBROW1079 1.000000
    SLACK1903 LOBROW1080 -1.000000
    SLACK1904 UPBROW1081 1.000000
    SLACK1905 LOBROW1082 -1.000000
    SLACK1906 UPBROW1083 1.000000
    SLACK1907 LOBROW1084 -1.000000
    SLACK1908 UPBROW1085 1.000000
    SLACK1909 LOBROW1086 -1.000000
    SLACK1910 UPBROW1087 1.000000
    SLACK1911 LOBROW1088 -1.000000
    SLACK1912 UPBROW1089 1.000000
    SLACK1913 LOBROW1090 -1.000000
    SLACK1914 UPBROW1091 1.000000
    SLACK1915 LOBROW1092 -1.000000
    SLACK1916 UPBROW1093 1.000000
    SLACK1917 LOBROW1094 -1.000000
    SLACK1918 UPBROW1095 1.000000
    SLACK1919 LOBROW1096 -1.000000
    SLACK1920 UPBROW1097 1.000000
    SLACK1921 LOBROW1098 -1.000000
    SLACK1922 UPBROW1099 1.000000
    SLACK1923 LOBROW1100 -1.000000
    SLACK1924 UPBROW1101 1.000000
    SLACK1925 LOBROW1102 -1.000000
    SLACK1926 UPBROW1103 1.000000
    SLACK1927 LOBROW1104 -1.000000
    SLACK1928 UPBROW1105 1.000000
    SLACK1929 LOBROW1106 -1.000000
    SLACK1930 UPBROW1107 1.000000
    SLACK1931 LOBROW1108 -1.000000
    SLACK1932 UPBROW1109 1.000000
    SLACK1933 LOBROW1110 -1.000000
    SLACK1934 UPBROW1111 1.000000
    SLACK1935 LOBROW1112 -1.000000
    SLACK1936 UPBROW1113 1.000000
    SLACK1937 LOBROW1114 -1.000000
    SLACK1938 UPBROW1115 1.000000
    SLACK1939 LOBROW1116 -1.000000
    SLACK1940 UPBROW1117 1.000000
    SLACK1941 LOBROW1118 -1.000000
    SLACK1942 UPBROW1119 1.000000
    SLACK1943 LOBROW1120 -1.000000
    SLACK1944 UPBROW1121 1.000000
    SLACK1945 LOBROW1122 -1.000000
    SLACK1946 UPBROW1123 1.000000
    SLACK1947 LOBROW1124 -1.000000
    SLACK1948 UPBROW1125 1.000000
    SLACK1949 LOBROW1126 -1.000000
    SLACK1950 UPBROW1127 1.000000
    SLACK1951 LOBROW1128 -1.000000
    SLACK1952 UPBROW1129 1.000000
    SLACK1953 LOBROW1130 -1.000000
    SLACK1954 UPBROW1131 1.000000
    SLACK1955 LOBROW1132 -1.000000
    SLACK1956 UPBROW1133 1.000000
    SLACK1957 LOBROW1134 -1.000000
    SLACK1958 UPBROW1135 1.000000
    SLACK1959 LOBROW1136 -1.000000
    SLACK1960 UPBROW1137 1.000000
    SLACK1961 LOBROW1138 -1.000000
    SLACK1962 UPBROW1139 1.000000
    SLACK1963 LOBROW1140 -1.000000
    SLACK1964 UPBROW1141 1.000000
    SLACK1965 LOBROW1142 -1.000000
    SLACK1966 UPBROW1143 1.000000
    SLACK1967 LOBROW1144 -1.000000
    SLACK1968 UPBROW1145 1.000000
    SLACK1969 LOBROW1146 -1.000000
    SLACK1970 UPBROW1147 1.000000
    SLACK1971 LOBROW1148 -1.000000
    SLACK1972 UPBROW1149 1.000000
    SLACK1973 LOBROW1150 -1.000000
    SLACK1974 UPBROW1151 1.000000
    SLACK1975 LOBROW1152 -1.000000
    SLACK1976 UPBROW1153 1.000000
    SLACK1977 LOBROW1154 -1.000000
    SLACK1978 UPBROW1155 1.000000
    SLACK1979 LOBROW1156 -1.000000
    SLACK1980 UPBROW1157 1.000000
    SLACK1981 LOBROW1158 -1.000000
    SLACK1982 UPBROW1159 1.000000
    SLACK1983 LOBROW1160 -1.000000
    SLACK1984 UPBROW1161 1.000000
    SLACK1985 LOBROW1162 -1.000000
    SLACK1986 UPBROW1163 1.000000
    SLACK1987 LOBROW1164 -1.000000
    SLACK1988 UPBROW1165 1.000000
    SLACK1989 LOBROW1166 -1.000000
    SLACK1990 UPBROW1167 1.000000
    SLACK1991 LOBROW1168 -1.000000
    SLACK1992 UPBROW1169 1.000000
    SLACK1993 LOBROW1170 -1.000000
    SLACK1994 UPBROW1171 1.000000
    SLACK1995 LOBROW1172 -1.000000
    SLACK1996 UPBROW1173 1.000000
    SLACK1997 LOBROW1174 -1.000000
    SLACK1998 UPBROW1175 1.000000
    SLACK1999 LOBROW1176 -1.000000
    SLACK2000 UPBROW1177 1.000000
    SLACK2001 LOBROW1178 -1.000000
    SLACK2002 UPBROW1179 1.000000
    SLACK2003 LOBROW1180 -1.000000
    SLACK2004 UPBROW1181 1.000000
    SLACK2005 LOBROW1182 -1.000000
    SLACK2006 UPBROW1183 1.000000
    SLACK2007 LOBROW1184 -1.000000
    SLACK2008 UPBROW1185 1.000000
    SLACK2009 LOBROW1186 -1.000000
    SLACK2010 UPBROW1187 1.000000
    SLACK2011 LOBROW1188 -1.000000
    SLACK2012 UPBROW1189 1.000000
    SLACK2013 LOBROW1190 -1.000000
    SLACK2014 UPBROW1191 1.000000
    SLACK2015 LOBROW1192 -1.000000
    SLACK2016 UPBROW1193 1.000000
    SLACK2017 LOBROW1194 -1.000000
    SLACK2018 UPBROW1195 1.000000
    SLACK2019 LOBROW1196 -1.000000
    SLACK2020 UPBROW1197 1.000000
    SLACK2021 LOBROW1198 -1.000000
    SLACK2022 UPBROW1199 1.000000
    SLACK2023 LOBROW1200 -1.000000
    SLACK2024 UPBROW1201 1.000000
    SLACK2025 LOBROW1202 -1.000000
    SLACK2026 UPBROW1203 1.000000
    SLACK2027 LOBROW1204 -1.000000
    SLACK2028 UPBROW1205 1.000000
    SLACK2029 LOBROW1206 -1.000000
    SLACK2030 UPBROW1207 1.000000
    SLACK2031 LOBROW1208 -1.000000
    SLACK2032 UPBROW1209 1.000000
    SLACK2033 LOBROW1210 -1.000000
    SLACK2034 UPBROW1211 1.000000
    SLACK2035 LOBROW1212 -1.000000
    SLACK2036 UPBROW1213 1.000000
    SLACK2037 LOBROW1214 -1.000000
    SLACK2038 UPBROW1215 1.000000
    SLACK2039 LOBROW1216 -1.000000
    SLACK2040 UPBROW1217 1.000000
    SLACK2041 LOBROW1218 -1.000000
    SLACK2042 UPBROW1219 1.000000
    SLACK2043 LOBROW1220 -1.000000
    SLACK2044 UPBROW1221 1.000000
    SLACK2045 LOBROW1222 -1.000000
    SLACK2046 UPBROW1223 1.000000
    SLACK2047 LOBROW1224 -1.000000
    SLACK2048 UPBROW1225 1.000000
    SLACK2049 LOBROW1226 -1.000000
    SLACK2050 UPBROW1227 1.000000
    SLACK2051 LOBROW1228 -1.000000
    SLACK2052 UPBROW1229 1.000000
    SLACK2053 LOBROW1230 -1.000000
    SLACK2054 UPBROW1231 1.000000
    SLACK2055 LOBROW1232 -1.000000
    SLACK2056 UPBROW1233 1.000000
    SLACK2057 LOBROW1234 -1.000000
    SLACK2058 UPBROW1235 1.000000
    SLACK2059 LOBROW1236 -1.000000
    SLACK2060 UPBROW1237 1.000000
    SLACK2061 LOBROW1238 -1.000000
    SLACK2062 UPBROW1239 1.000000
    SLACK2063 LOBROW1240 -1.000000
    SLACK2064 UPBROW1241 1.000000
    SLACK2065 LOBROW1242 -1.000000
    SLACK2066 UPBROW1243 1.000000
    SLACK2067 LOBROW1244 -1.000000
    SLACK2068 UPBROW1245 1.000000
    SLACK2069 LOBROW1246 -1.000000
    SLACK2070 UPBROW1247 1.000000
    SLACK2071 LOBROW1248 -1.000000
    SLACK2072 UPBROW1249 1.000000
    SLACK2073 LOBROW1250 -1.000000
    SLACK2074 UPBROW1251 1.000000
    SLACK2075 LOBROW1252 -1.000000
    SLACK2076 UPBROW1253 1.000000
    SLACK2077 LOBROW1254 -1.000000
    SLACK2078 UPBROW1255 1.000000
    SLACK2079 LOBROW1256 -1.000000
    SLACK2080 UPBROW1257 1.000000
    SLACK2081 LOBROW1258 -1.000000
    SLACK2082 UPBROW1259 1.000000
    SLACK2083 LOBROW1260 -1.000000
    SLACK2084 UPBROW1261 1.000000
    SLACK2085 LOBROW1262 -1.000000
    SLACK2086 UPBROW1263 1.000000
    SLACK2087 LOBROW1264 -1.000000
    SLACK2088 UPBROW1265 1.000000
    SLACK2089 LOBROW1266 -1.000000
    SLACK2090 UPBROW1267 1.000000
    SLACK2091 LOBROW1268 -1.000000
    SLACK2092 UPBROW1269 1.000000
    SLACK2093 LOBROW1270 -1.000000
    SLACK2094 UPBROW1271 1.000000
    SLACK2095 LOBROW1272 -1.000000
    SLACK2096 UPBROW1273 1.000000
    SLACK2097 LOBROW1274 -1.000000
    SLACK2098 UPBROW1275 1.000000
    SLACK2099 LOBROW1276 -1.000000
    SLACK2100 UPBROW1277 1.000000
    SLACK2101 LOBROW1278 -1.000000
    SLACK2102 UPBROW1279 1.000000
    SLACK2103 LOBROW1280 -1.000000
    SLACK2104 UPBROW1281 1.000000
    SLACK2105 LOBROW1282 -1.000000
    SLACK2106 UPBROW1283 1.000000
    SLACK2107 LOBROW1284 -1.000000
    SLACK2108 UPBROW1285 1.000000
    SLACK2109 LOBROW1286 -1.000000
    SLACK2110 UPBROW1287 1.000000
    SLACK2111 LOBROW1288 -1.000000
    SLACK2112 UPBROW1289 1.000000
    SLACK2113 LOBROW1290 -1.000000
    SLACK2114 UPBROW1291 1.000000
    SLACK2115 LOBROW1292 -1.000000
    SLACK2116 UPBROW1293 1.000000
    SLACK2117 LOBROW1294 -1.000000
    SLACK2118 UPBROW1295 1.000000
    SLACK2119 LOBROW1296 -1.000000
    SLACK2120 UPBROW1297 1.000000
    SLACK2121 LOBROW1298 -1.000000
    SLACK2122 UPBROW1299 1.000000
    SLACK2123 LOBROW1300 -1.000000
    SLACK2124 UPBROW1301 1.000000
    SLACK2125 LOBROW1302 -1.000000
    SLACK2126 UPBROW1303 1.000000
    SLACK2127 LOBROW1304 -1.000000
    SLACK2128 UPBROW1305 1.000000
    SLACK2129 LOBROW1306 -1.000000
    SLACK2130 UPBROW1307 1.000000
    SLACK2131 LOBROW1308 -1.000000
    SLACK2132 UPBROW1309 1.000000
    SLACK2133 LOBROW1310 -1.000000
    SLACK2134 UPBROW1311 1.000000
    SLACK2135 LOBROW1312 -1.000000
    SLACK2136 UPBROW1313 1.000000
    SLACK2137 LOBROW1314 -1.000000
    SLACK2138 UPBROW1315 1.000000
    SLACK2139 LOBROW1316 -1.000000
    SLACK2140 UPBROW1317 1.000000
    SLACK2141 LOBROW1318 -1.000000
    SLACK2142 UPBROW1319 1.000000
    SLACK2143 LOBROW1320 -1.000000
    SLACK2144 UPBROW1321 1.000000
    SLACK2145 LOBROW1322 -1.000000
    SLACK2146 UPBROW1323 1.000000
    SLACK2147 LOBROW1324 -1.000000
    SLACK2148 UPBROW1325 1.000000
    SLACK2149 LOBROW1326 -1.000000
    SLACK2150 UPBROW1327 1.000000
    SLACK2151 LOBROW1328 -1.000000
    SLACK2152 UPBROW1329 1.000000
    SLACK2153 LOBROW1330 -1.000000
    SLACK2154 UPBROW1331 1.000000
    SLACK2155 LOBROW1332 -1.000000
    SLACK2156 UPBROW1333 1.000000
    SLACK2157 LOBROW1334 -1.000000
    SLACK2158 UPBROW1335 1.000000
    SLACK2159 LOBROW1336 -1.000000
    SLACK2160 UPBROW1337 1.000000
    SLACK2161 LOBROW1338 -1.000000
    SLACK2162 UPBROW1339 1.000000
    SLACK2163 LOBROW1340 -1.000000
    SLACK2164 UPBROW1341 1.000000
    SLACK2165 LOBROW1342 -1.000000
    SLACK2166 UPBROW1343 1.000000
    SLACK2167 LOBROW1344 -1.000000
    SLACK2168 UPBROW1345 1.000000
    SLACK2169 LOBROW1346 -1.000000
    SLACK2170 UPBROW1347 1.000000
    SLACK2171 LOBROW1348 -1.000000
    SLACK2172 UPBROW1349 1.000000
    SLACK2173 LOBROW1350 -1.000000
    SLACK2174 UPBROW1351 1.000000
    SLACK2175 LOBROW1352 -1.000000
    SLACK2176 UPBROW1353 1.000000
    SLACK2177 LOBROW1354 -1.000000
    SLACK2178 UPBROW1355 1.000000
    SLACK2179 LOBROW1356 -1.000000
    SLACK2180 UPBROW1357 1.000000
    SLACK2181 LOBROW1358 -1.000000
    SLACK2182 UPBROW1359 1.000000
    SLACK2183 LOBROW1360 -1.000000
    SLACK2184 UPBROW1361 1.000000
    SLACK2185 LOBROW1362 -1.000000
    SLACK2186 UPBROW1363 1.000000
    SLACK2187 LOBROW1364 -1.000000
    SLACK2188 UPBROW1365 1.000000
    SLACK2189 LOBROW1366 -1.000000
    SLACK2190 UPBROW1367 1.000000
    SLACK2191 LOBROW1368 -1.000000
    SLACK2192 UPBROW1369 1.000000
    SLACK2193 LOBROW1370 -1.000000
    SLACK2194 UPBROW1371 1.000000
    SLACK2195 LOBROW1372 -1.000000
    SLACK2196 UPBROW1373 1.000000
    SLACK2197 LOBROW1374 -1.000000
    SLACK2198 UPBROW1375 1.000000
    SLACK2199 LOBROW1376 -1.000000
    SLACK2200 UPBROW1377 1.000000
    SLACK2201 LOBROW1378 -1.000000
    SLACK2202 UPBROW1379 1.000000
    SLACK2203 LOBROW1380 -1.000000
    SLACK2204 UPBROW1381 1.000000
    SLACK2205 LOBROW1382 -1.000000
    SLACK2206 UPBROW1383 1.000000
    SLACK2207 LOBROW1384 -1.000000
    SLACK2208 UPBROW1385 1.000000
    SLACK2209 LOBROW1386 -1.000000
    SLACK2210 UPBROW1387 1.000000
    SLACK2211 LOBROW1388 -1.000000
    SLACK2212 UPBROW1389 1.000000
    SLACK2213 LOBROW1390 -1.000000
    SLACK2214 UPBROW1391 1.000000
    SLACK2215 LOBROW1392 -1.000000
    SLACK2216 UPBROW1393 1.000000
    SLACK2217 LOBROW1394 -1.000000
    SLACK2218 UPBROW1395 1.000000
    SLACK2219 LOBROW1396 -1.000000
    SLACK2220 UPBROW1397 1.000000
    SLACK2221 LOBROW1398 -1.000000
    SLACK2222 UPBROW1399 1.000000
    SLACK2223 LOBROW1400 -1.000000
    SLACK2224 LOBROW1401 -1.000000
    SLACK2225 LOBROW1402 -1.000000
    SLACK2226 LOBROW1403 -1.000000
    SLACK2227 LOBROW1404 -1.000000
    SLACK2228 LOBROW1405 -1.000000
    SLACK2229 LOBROW1406 -1.000000
    SLACK2230 LOBROW1407 -1.000000
    SLACK2231 LOBROW1408 -1.000000
    SLACK2232 LOBROW1409 -1.000000
    SLACK2233 LOBROW1410 -1.000000
    SLACK2234 LOBROW1411 -1.000000
    SLACK2235 LOBROW1412 -1.000000
    SLACK2236 LOBROW1413 -1.000000
    SLACK2237 LOBROW1414 -1.000000
    SLACK2238 LOBROW1415 -1.000000
    SLACK2239 LOBROW1416 -1.000000
    SLACK2240 LOBROW1417 -1.000000
    SLACK2241 LOBROW1418 -1.000000
    SLACK2242 LOBROW1419 -1.000000
    SLACK2243 LOBROW1420 -1.000000
    SLACK2244 LOBROW1421 -1.000000
    SLACK2245 LOBROW1422 -1.000000
    SLACK2246 LOBROW1423 -1.000000
    SLACK2247 LOBROW1424 -1.000000
    SLACK2248 LOBROW1425 -1.000000
    SLACK2249 LOBROW1426 -1.000000
    SLACK2250 LOBROW1427 -1.000000
    SLACK2251 LOBROW1428 -1.000000
    SLACK2252 LOBROW1429 -1.000000
    SLACK2253 LOBROW1430 -1.000000
    SLACK2254 LOBROW1431 -1.000000
    SLACK2255 LOBROW1432 -1.000000
    SLACK2256 LOBROW1433 -1.000000
    SLACK2257 LOBROW1434 -1.000000
    SLACK2258 LOBROW1435 -1.000000
    SLACK2259 LOBROW1436 -1.000000
    SLACK2260 LOBROW1437 -1.000000
    SLACK2261 LOBROW1438 -1.000000
    SLACK2262 LOBROW1439 -1.000000
    SLACK2263 LOBROW1440 -1.000000
    SLACK2264 UPBROW1441 1.000000
    SLACK2265 LOBROW1442 -1.000000
    SLACK2266 UPBROW1443 1.000000
    SLACK2267 LOBROW1444 -1.000000
    SLACK2268 UPBROW1445 1.000000
    SLACK2269 LOBROW1446 -1.000000
    SLACK2270 UPBROW1447 1.000000
    SLACK2271 LOBROW1448 -1.000000
    SLACK2272 UPBROW1449 1.000000
    SLACK2273 LOBROW1450 -1.000000
    SLACK2274 UPBROW1451 1.000000
    SLACK2275 LOBROW1452 -1.000000
    SLACK2276 UPBROW1453 1.000000
    SLACK2277 LOBROW1454 -1.000000
    SLACK2278 UPBROW1455 1.000000
    SLACK2279 LOBROW1456 -1.000000
    SLACK2280 UPBROW1457 1.000000
    SLACK2281 LOBROW1458 -1.000000
    SLACK2282 UPBROW1459 1.000000
    SLACK2283 LOBROW1460 -1.000000
    SLACK2284 UPBROW1461 1.000000
    SLACK2285 LOBROW1462 -1.000000
    SLACK2286 UPBROW1463 1.000000
    SLACK2287 LOBROW1464 -1.000000
    SLACK2288 UPBROW1465 1.000000
    SLACK2289 LOBROW1466 -1.000000
    SLACK2290 UPBROW1467 1.000000
    SLACK2291 LOBROW1468 -1.000000
    SLACK2292 UPBROW1469 1.000000
    SLACK2293 LOBROW1470 -1.000000
    SLACK2294 UPBROW1471 1.000000
    SLACK2295 LOBROW1472 -1.000000
    SLACK2296 UPBROW1473 1.000000
    SLACK2297 LOBROW1474 -1.000000
    SLACK2298 UPBROW1475 1.000000
    SLACK2299 LOBROW1476 -1.000000
    SLACK2300 UPBROW1477 1.000000
    SLACK2301 LOBROW1478 -1.000000
    SLACK2302 UPBROW1479 1.000000
    SLACK2303 LOBROW1480 -1.000000
    SLACK2304 UPBROW1481 1.000000
    SLACK2305 LOBROW1482 -1.000000
    SLACK2306 UPBROW1483 1.000000
    SLACK2307 LOBROW1484 -1.000000
    SLACK2308 UPBROW1485 1.000000
    SLACK2309 LOBROW1486 -1.000000
    SLACK2310 UPBROW1487 1.000000
    SLACK2311 LOBROW1488 -1.000000
    SLACK2312 UPBROW1489 1.000000
    SLACK2313 LOBROW1490 -1.000000
    SLACK2314 UPBROW1491 1.000000
    SLACK2315 LOBROW1492 -1.000000
    SLACK2316 UPBROW1493 1.000000
    SLACK2317 LOBROW1494 -1.000000
    SLACK2318 UPBROW1495 1.000000
    SLACK2319 LOBROW1496 -1.000000
    SLACK2320 UPBROW1497 1.000000
    SLACK2321 LOBROW1498 -1.000000
    SLACK2322 UPBROW1499 1.000000
    SLACK2323 LOBROW1500 -1.000000
    SLACK2324 UPBROW1501 1.000000
    SLACK2325 LOBROW1502 -1.000000
    SLACK2326 UPBROW1503 1.000000
    SLACK2327 LOBROW1504 -1.000000
    SLACK2328 UPBROW1505 1.000000
    SLACK2329 LOBROW1506 -1.000000
    SLACK2330 UPBROW1507 1.000000
    SLACK2331 LOBROW1508 -1.000000
    SLACK2332 UPBROW1509 1.000000
    SLACK2333 LOBROW1510 -1.000000
    SLACK2334 UPBROW1511 1.000000
    SLACK2335 LOBROW1512 -1.000000
    SLACK2336 UPBROW1513 1.000000
    SLACK2337 LOBROW1514 -1.000000
    SLACK2338 UPBROW1515 1.000000
    SLACK2339 LOBROW1516 -1.000000
    SLACK2340 UPBROW1517 1.000000
    SLACK2341 LOBROW1518 -1.000000
    SLACK2342 UPBROW1519 1.000000
    SLACK2343 LOBROW1520 -1.000000
    SLACK2344 UPBROW1521 1.000000
    SLACK2345 LOBROW1522 -1.000000
    SLACK2346 UPBROW1523 1.000000
    SLACK2347 LOBROW1524 -1.000000
    SLACK2348 UPBROW1525 1.000000
    SLACK2349 LOBROW1526 -1.000000
    SLACK2350 UPBROW1527 1.000000
    SLACK2351 LOBROW1528 -1.000000
    SLACK2352 UPBROW1529 1.000000
    SLACK2353 LOBROW1530 -1.000000
    SLACK2354 UPBROW1531 1.000000
    SLACK2355 LOBROW1532 -1.000000
    SLACK2356 UPBROW1533 1.000000
    SLACK2357 LOBROW1534 -1.000000
    SLACK2358 UPBROW1535 1.000000
    SLACK2359 LOBROW1536 -1.000000
    SLACK2360 UPBROW1537 1.000000
    SLACK2361 LOBROW1538 -1.000000
    SLACK2362 UPBROW1539 1.000000
    SLACK2363 LOBROW1540 -1.000000
    SLACK2364 UPBROW1541 1.000000
    SLACK2365 LOBROW1542 -1.000000
    SLACK2366 UPBROW1543 1.000000
    SLACK2367 LOBROW1544 -1.000000
    SLACK2368 UPBROW1545 1.000000
    SLACK2369 LOBROW1546 -1.000000
    SLACK2370 UPBROW1547 1.000000
    SLACK2371 LOBROW1548 -1.000000
    SLACK2372 UPBROW1549 1.000000
    SLACK2373 LOBROW1550 -1.000000
    SLACK2374 UPBROW1551 1.000000
    SLACK2375 LOBROW1552 -1.000000
    SLACK2376 UPBROW1553 1.000000
    SLACK2377 LOBROW1554 -1.000000
    SLACK2378 UPBROW1555 1.000000
    SLACK2379 LOBROW1556 -1.000000
    SLACK2380 UPBROW1557 1.000000
    SLACK2381 LOBROW1558 -1.000000
    SLACK2382 UPBROW1559 1.000000
    SLACK2383 LOBROW1560 -1.000000
    SLACK2384 UPBROW1561 1.000000
    SLACK2385 LOBROW1562 -1.000000
    SLACK2386 UPBROW1563 1.000000
    SLACK2387 LOBROW1564 -1.000000
    SLACK2388 UPBROW1565 1.000000
    SLACK2389 LOBROW1566 -1.000000
    SLACK2390 UPBROW1567 1.000000
    SLACK2391 LOBROW1568 -1.000000
    SLACK2392 UPBROW1569 1.000000
    SLACK2393 LOBROW1570 -1.000000
    SLACK2394 UPBROW1571 1.000000
    SLACK2395 LOBROW1572 -1.000000
    SLACK2396 UPBROW1573 1.000000
    SLACK2397 LOBROW1574 -1.000000
    SLACK2398 UPBROW1575 1.000000
    SLACK2399 LOBROW1576 -1.000000
    SLACK2400 UPBROW1577 1.000000
    SLACK2401 LOBROW1578 -1.000000
    SLACK2402 UPBROW1579 1.000000
    SLACK2403 LOBROW1580 -1.000000
    SLACK2404 UPBROW1581 1.000000
    SLACK2405 LOBROW1582 -1.000000
    SLACK2406 UPBROW1583 1.000000
    SLACK2407 LOBROW1584 -1.000000
    SLACK2408 UPBROW1585 1.000000
    SLACK2409 LOBROW1586 -1.000000
    SLACK2410 UPBROW1587 1.000000
    SLACK2411 LOBROW1588 -1.000000
    SLACK2412 UPBROW1589 1.000000
    SLACK2413 LOBROW1590 -1.000000
    SLACK2414 UPBROW1591 1.000000
    SLACK2415 LOBROW1592 -1.000000
    SLACK2416 UPBROW1593 1.000000
    SLACK2417 LOBROW1594 -1.000000
    SLACK2418 UPBROW1595 1.000000
    SLACK2419 LOBROW1596 -1.000000
    SLACK2420 UPBROW1597 1.000000
    SLACK2421 LOBROW1598 -1.000000
    SLACK2422 UPBROW1599 1.000000
    SLACK2423 LOBROW1600 -1.000000
    SLACK2424 UPBROW1601 1.000000
    SLACK2425 LOBROW1602 -1.000000
    SLACK2426 UPBROW1603 1.000000
    SLACK2427 LOBROW1604 -1.000000
    SLACK2428 UPBROW1605 1.000000
    SLACK2429 LOBROW1606 -1.000000
    SLACK2430 UPBROW1607 1.000000
    SLACK2431 LOBROW1608 -1.000000
    SLACK2432 UPBROW1609 1.000000
    SLACK2433 LOBROW1610 -1.000000
    SLACK2434 UPBROW1611 1.000000
    SLACK2435 LOBROW1612 -1.000000
    SLACK2436 UPBROW1613 1.000000
    SLACK2437 LOBROW1614 -1.000000
    SLACK2438 UPBROW1615 1.000000
    SLACK2439 LOBROW1616 -1.000000
    SLACK2440 UPBROW1617 1.000000
    SLACK2441 LOBROW1618 -1.000000
    SLACK2442 UPBROW1619 1.000000
    SLACK2443 LOBROW1620 -1.000000
    SLACK2444 UPBROW1621 1.000000
    SLACK2445 LOBROW1622 -1.000000
    SLACK2446 UPBROW1623 1.000000
    SLACK2447 LOBROW1624 -1.000000
    SLACK2448 UPBROW1625 1.000000
    SLACK2449 LOBROW1626 -1.000000
    SLACK2450 UPBROW1627 1.000000
    SLACK2451 LOBROW1628 -1.000000
    SLACK2452 UPBROW1629 1.000000
    SLACK2453 LOBROW1630 -1.000000
    SLACK2454 UPBROW1631 1.000000
    SLACK2455 LOBROW1632 -1.000000
    SLACK2456 UPBROW1633 1.000000
    SLACK2457 LOBROW1634 -1.000000
    SLACK2458 UPBROW1635 1.000000
    SLACK2459 LOBROW1636 -1.000000
    SLACK2460 UPBROW1637 1.000000
    SLACK2461 LOBROW1638 -1.000000
    SLACK2462 UPBROW1639 1.000000
    SLACK2463 LOBROW1640 -1.000000
    SLACK2464 UPBROW1641 1.000000
    SLACK2465 LOBROW1642 -1.000000
    SLACK2466 UPBROW1643 1.000000
    SLACK2467 LOBROW1644 -1.000000
    SLACK2468 UPBROW1645 1.000000
    SLACK2469 LOBROW1646 -1.000000
    SLACK2470 UPBROW1647 1.000000
    SLACK2471 LOBROW1648 -1.000000
    SLACK2472 UPBROW1649 1.000000
    SLACK2473 LOBROW1650 -1.000000
    SLACK2474 UPBROW1651 1.000000
    SLACK2475 LOBROW1652 -1.000000
    SLACK2476 UPBROW1653 1.000000
    SLACK2477 LOBROW1654 -1.000000
    SLACK2478 UPBROW1655 1.000000
    SLACK2479 LOBROW1656 -1.000000
    SLACK2480 UPBROW1657 1.000000
    SLACK2481 LOBROW1658 -1.000000
    SLACK2482 UPBROW1659 1.000000
    SLACK2483 LOBROW1660 -1.000000
    SLACK2484 UPBROW1661 1.000000
    SLACK2485 LOBROW1662 -1.000000
    SLACK2486 UPBROW1663 1.000000
    SLACK2487 LOBROW1664 -1.000000
    SLACK2488 UPBROW1665 1.000000
    SLACK2489 LOBROW1666 -1.000000
    SLACK2490 UPBROW1667 1.000000
    SLACK2491 LOBROW1668 -1.000000
    SLACK2492 UPBROW1669 1.000000
    SLACK2493 LOBROW1670 -1.000000
    SLACK2494 UPBROW1671 1.000000
    SLACK2495 LOBROW1672 -1.000000
    SLACK2496 UPBROW1673 1.000000
    SLACK2497 LOBROW1674 -1.000000
    SLACK2498 UPBROW1675 1.000000
    SLACK2499 LOBROW1676 -1.000000
    SLACK2500 UPBROW1677 1.000000
    SLACK2501 LOBROW1678 -1.000000
    SLACK2502 UPBROW1679 1.000000
    SLACK2503 LOBROW1680 -1.000000
    SLACK2504 UPBROW1681 1.000000
    SLACK2505 LOBROW1682 -1.000000
    SLACK2506 UPBROW1683 1.000000
    SLACK2507 LOBROW1684 -1.000000
    SLACK2508 UPBROW1685 1.000000
    SLACK2509 LOBROW1686 -1.000000
    SLACK2510 UPBROW1687 1.000000
    SLACK2511 LOBROW1688 -1.000000
    SLACK2512 UPBROW1689 1.000000
    SLACK2513 LOBROW1690 -1.000000
    SLACK2514 UPBROW1691 1.000000
    SLACK2515 LOBROW1692 -1.000000
    SLACK2516 UPBROW1693 1.000000
    SLACK2517 LOBROW1694 -1.000000
    SLACK2518 UPBROW1695 1.000000
    SLACK2519 LOBROW1696 -1.000000
    SLACK2520 UPBROW1697 1.000000
    SLACK2521 LOBROW1698 -1.000000
    SLACK2522 UPBROW1699 1.000000
    SLACK2523 LOBROW1700 -1.000000
    SLACK2524 UPBROW1701 1.000000
    SLACK2525 LOBROW1702 -1.000000
    SLACK2526 UPBROW1703 1.000000
    SLACK2527 LOBROW1704 -1.000000
    SLACK2528 UPBROW1705 1.000000
    SLACK2529 LOBROW1706 -1.000000
    SLACK2530 UPBROW1707 1.000000
    SLACK2531 LOBROW1708 -1.000000
    SLACK2532 UPBROW1709 1.000000
    SLACK2533 LOBROW1710 -1.000000
    SLACK2534 UPBROW1711 1.000000
    SLACK2535 LOBROW1712 -1.000000
    SLACK2536 UPBROW1713 1.000000
    SLACK2537 LOBROW1714 -1.000000
    SLACK2538 UPBROW1715 1.000000
    SLACK2539 LOBROW1716 -1.000000
    SLACK2540 UPBROW1717 1.000000
    SLACK2541 LOBROW1718 -1.000000
    SLACK2542 UPBROW1719 1.000000
    SLACK2543 LOBROW1720 -1.000000
    SLACK2544 UPBROW1721 1.000000
    SLACK2545 LOBROW1722 -1.000000
    SLACK2546 UPBROW1723 1.000000
    SLACK2547 LOBROW1724 -1.000000
    SLACK2548 UPBROW1725 1.000000
    SLACK2549 LOBROW1726 -1.000000
    SLACK2550 UPBROW1727 1.000000
    SLACK2551 LOBROW1728 -1.000000
    SLACK2552 UPBROW1729 1.000000
    SLACK2553 LOBROW1730 -1.000000
    SLACK2554 UPBROW1731 1.000000
    SLACK2555 LOBROW1732 -1.000000
    SLACK2556 UPBROW1733 1.000000
    SLACK2557 LOBROW1734 -1.000000
    SLACK2558 UPBROW1735 1.000000
    SLACK2559 LOBROW1736 -1.000000
    SLACK2560 UPBROW1737 1.000000
    SLACK2561 LOBROW1738 -1.000000
    SLACK2562 UPBROW1739 1.000000
    SLACK2563 LOBROW1740 -1.000000
    SLACK2564 UPBROW1741 1.000000
    SLACK2565 LOBROW1742 -1.000000
    SLACK2566 UPBROW1743 1.000000
    SLACK2567 LOBROW1744 -1.000000
    SLACK2568 UPBROW1745 1.000000
    SLACK2569 LOBROW1746 -1.000000
    SLACK2570 UPBROW1747 1.000000
    SLACK2571 LOBROW1748 -1.000000
    SLACK2572 UPBROW1749 1.000000
    SLACK2573 LOBROW1750 -1.000000
    SLACK2574 UPBROW1751 1.000000
    SLACK2575 LOBROW1752 -1.000000
    SLACK2576 UPBROW1753 1.000000
    SLACK2577 LOBROW1754 -1.000000
    SLACK2578 UPBROW1755 1.000000
    SLACK2579 LOBROW1756 -1.000000
    SLACK2580 UPBROW1757 1.000000
    SLACK2581 LOBROW1758 -1.000000
    SLACK2582 UPBROW1759 1.000000
    SLACK2583 LOBROW1760 -1.000000
    SLACK2584 LOBROW1761 -1.000000
    SLACK2585 LOBROW1762 -1.000000
    SLACK2586 LOBROW1763 -1.000000
    SLACK2587 LOBROW1764 -1.000000
    SLACK2588 LOBROW1765 -1.000000
    SLACK2589 LOBROW1766 -1.000000
    SLACK2590 LOBROW1767 -1.000000
    SLACK2591 LOBROW1768 -1.000000
    SLACK2592 LOBROW1769 -1.000000
    SLACK2593 LOBROW1770 -1.000000
    SLACK2594 LOBROW1771 -1.000000
    SLACK2595 LOBROW1772 -1.000000
    SLACK2596 LOBROW1773 -1.000000
    SLACK2597 LOBROW1774 -1.000000
    SLACK2598 LOBROW1775 -1.000000
    SLACK2599 LOBROW1776 -1.000000
    SLACK2600 LOBROW1777 -1.000000
    SLACK2601 LOBROW1778 -1.000000
    SLACK2602 LOBROW1779 -1.000000
    SLACK2603 LOBROW1780 -1.000000
    SLACK2604 LOBROW1781 -1.000000
    SLACK2605 LOBROW1782 -1.000000
    SLACK2606 LOBROW1783 -1.000000
    SLACK2607 LOBROW1784 -1.000000
    SLACK2608 LOBROW1785 -1.000000
    SLACK2609 LOBROW1786 -1.000000
    SLACK2610 LOBROW1787 -1.000000
    SLACK2611 LOBROW1788 -1.000000
    SLACK2612 LOBROW1789 -1.000000
    SLACK2613 LOBROW1790 -1.000000
    SLACK2614 LOBROW1791 -1.000000
    SLACK2615 LOBROW1792 -1.000000
    SLACK2616 LOBROW1793 -1.000000
    SLACK2617 LOBROW1794 -1.000000
    SLACK2618 LOBROW1795 -1.000000
    SLACK2619 LOBROW1796 -1.000000
    SLACK2620 LOBROW1797 -1.000000
    SLACK2621 LOBROW1798 -1.000000
    SLACK2622 LOBROW1799 -1.000000
    SLACK2623 LOBROW1800 -1.000000
    SLACK2624 LOBROW1801 -1.000000
    SLACK2625 LOBROW1802 -1.000000
    SLACK2626 LOBROW1803 -1.000000
    SLACK2627 LOBROW1804 -1.000000
    SLACK2628 LOBROW1805 -1.000000
    SLACK2629 LOBROW1806 -1.000000
    SLACK2630 LOBROW1807 -1.000000
    SLACK2631 LOBROW1808 -1.000000
    SLACK2632 LOBROW1809 -1.000000
    SLACK2633 LOBROW1810 -1.000000
    SLACK2634 LOBROW1811 -1.000000
    SLACK2635 LOBROW1812 -1.000000
    SLACK2636 LOBROW1813 -1.000000
    SLACK2637 LOBROW1814 -1.000000
    SLACK2638 LOBROW1815 -1.000000
    SLACK2639 LOBROW1816 -1.000000
    SLACK2640 LOBROW1817 -1.000000
    SLACK2641 LOBROW1818 -1.000000
    SLACK2642 LOBROW1819 -1.000000
    SLACK2643 LOBROW1820 -1.000000
    SLACK2644 LOBROW1821 -1.000000
    SLACK2645 LOBROW1822 -1.000000
    SLACK2646 LOBROW1823 -1.000000
    SLACK2647 LOBROW1824 -1.000000
    SLACK2648 LOBROW1825 -1.000000
    SLACK2649 LOBROW1826 -1.000000
    SLACK2650 LOBROW1827 -1.000000
    SLACK2651 LOBROW1828 -1.000000
    SLACK2652 LOBROW1829 -1.000000
    SLACK2653 LOBROW1830 -1.000000
    SLACK2654 LOBROW1831 -1.000000
    SLACK2655 LOBROW1832 -1.000000
    SLACK2656 LOBROW1833 -1.000000
    SLACK2657 LOBROW1834 -1.000000
    SLACK2658 LOBROW1835 -1.000000
    SLACK2659 LOBROW1836 -1.000000
    SLACK2660 LOBROW1837 -1.000000
    SLACK2661 LOBROW1838 -1.000000
    SLACK2662 LOBROW1839 -1.000000
    SLACK2663 LOBROW1840 -1.000000
    SLACK2664 LOBROW1841 -1.000000
    SLACK2665 LOBROW1842 -1.000000
    SLACK2666 LOBROW1843 -1.000000
    SLACK2667 LOBROW1844 -1.000000
    SLACK2668 LOBROW1845 -1.000000
    SLACK2669 LOBROW1846 -1.000000
    SLACK2670 LOBROW1847 -1.000000
    SLACK2671 LOBROW1848 -1.000000
    SLACK2672 LOBROW1849 -1.000000
    SLACK2673 LOBROW1850 -1.000000
    SLACK2674 LOBROW1851 -1.000000
    SLACK2675 LOBROW1852 -1.000000
    SLACK2676 LOBROW1853 -1.000000
    SLACK2677 LOBROW1854 -1.000000
    SLACK2678 LOBROW1855 -1.000000
    SLACK2679 LOBROW1856 -1.000000
    SLACK2680 LOBROW1857 -1.000000
    SLACK2681 LOBROW1858 -1.000000
    SLACK2682 LOBROW1859 -1.000000
    SLACK2683 LOBROW1860 -1.000000
    SLACK2684 LOBROW1861 -1.000000
    SLACK2685 LOBROW1862 -1.000000
    SLACK2686 LOBROW1863 -1.000000
    SLACK2687 LOBROW1864 -1.000000
    SLACK2688 LOBROW1865 -1.000000
    SLACK2689 LOBROW1866 -1.000000
    SLACK2690 LOBROW1867 -1.000000
    SLACK2691 LOBROW1868 -1.000000
    SLACK2692 LOBROW1869 -1.000000
    SLACK2693 LOBROW1870 -1.000000
    SLACK2694 LOBROW1871 -1.000000
    SLACK2695 LOBROW1872 -1.000000
    SLACK2696 LOBROW1873 -1.000000
    SLACK2697 LOBROW1874 -1.000000
    SLACK2698 LOBROW1875 -1.000000
    SLACK2699 LOBROW1876 -1.000000
    SLACK2700 LOBROW1877 -1.000000
    SLACK2701 LOBROW1878 -1.000000
    SLACK2702 LOBROW1879 -1.000000
    SLACK2703 LOBROW1880 -1.000000
    SLACK2704 LOBROW1881 -1.000000
    SLACK2705 LOBROW1882 -1.000000
    SLACK2706 LOBROW1883 -1.000000
    SLACK2707 LOBROW1884 -1.000000
    SLACK2708 LOBROW1885 -1.000000
    SLACK2709 LOBROW1886 -1.000000
    SLACK2710 LOBROW1887 -1.000000
    SLACK2711 LOBROW1888 -1.000000
    SLACK2712 LOBROW1889 -1.000000
    SLACK2713 LOBROW1890 -1.000000
    SLACK2714 LOBROW1891 -1.000000
    SLACK2715 LOBROW1892 -1.000000
    SLACK2716 LOBROW1893 -1.000000
    SLACK2717 LOBROW1894 -1.000000
    SLACK2718 LOBROW1895 -1.000000
    SLACK2719 LOBROW1896 -1.000000
    SLACK2720 LOBROW1897 -1.000000
    SLACK2721 LOBROW1898 -1.000000
    SLACK2722 LOBROW1899 -1.000000
    SLACK2723 LOBROW1900 -1.000000
    SLACK2724 LOBROW1901 -1.000000
    SLACK2725 LOBROW1902 -1.000000
    SLACK2726 LOBROW1903 -1.000000
    SLACK2727 LOBROW1904 -1.000000
    SLACK2728 LOBROW1905 -1.000000
    SLACK2729 LOBROW1906 -1.000000
    SLACK2730 LOBROW1907 -1.000000
    SLACK2731 LOBROW1908 -1.000000
    SLACK2732 LOBROW1909 -1.000000
    SLACK2733 LOBROW1910 -1.000000
    SLACK2734 LOBROW1911 -1.000000
    SLACK2735 LOBROW1912 -1.000000
    SLACK2736 LOBROW1913 -1.000000
    SLACK2737 LOBROW1914 -1.000000
    SLACK2738 LOBROW1915 -1.000000
    SLACK2739 LOBROW1916 -1.000000
    SLACK2740 LOBROW1917 -1.000000
    SLACK2741 LOBROW1918 -1.000000
    SLACK2742 LOBROW1919 -1.000000
    SLACK2743 LOBROW1920 -1.000000
    SLACK2744 UPBROW1921 1.000000
    SLACK2745 LOBROW1922 -1.000000
    SLACK2746 UPBROW1923 1.000000
    SLACK2747 LOBROW1924 -1.000000
    SLACK2748 UPBROW1925 1.000000
    SLACK2749 LOBROW1926 -1.000000
    SLACK2750 UPBROW1927 1.000000
    SLACK2751 LOBROW1928 -1.000000
    SLACK2752 UPBROW1929 1.000000
    SLACK2753 LOBROW1930 -1.000000
    SLACK2754 UPBROW1931 1.000000
    SLACK2755 LOBROW1932 -1.000000
    SLACK2756 UPBROW1933 1.000000
    SLACK2757 LOBROW1934 -1.000000
    SLACK2758 UPBROW1935 1.000000
    SLACK2759 LOBROW1936 -1.000000
    SLACK2760 UPBROW1937 1.000000
    SLACK2761 LOBROW1938 -1.000000
    SLACK2762 UPBROW1939 1.000000
    SLACK2763 LOBROW1940 -1.000000
    SLACK2764 UPBROW1941 1.000000
    SLACK2765 LOBROW1942 -1.000000
    SLACK2766 UPBROW1943 1.000000
    SLACK2767 LOBROW1944 -1.000000
    SLACK2768 UPBROW1945 1.000000
    SLACK2769 LOBROW1946 -1.000000
    SLACK2770 UPBROW1947 1.000000
    SLACK2771 LOBROW1948 -1.000000
    SLACK2772 UPBROW1949 1.000000
    SLACK2773 LOBROW1950 -1.000000
    SLACK2774 UPBROW1951 1.000000
    SLACK2775 LOBROW1952 -1.000000
    SLACK2776 UPBROW1953 1.000000
    SLACK2777 LOBROW1954 -1.000000
    SLACK2778 UPBROW1955 1.000000
    SLACK2779 LOBROW1956 -1.000000
    SLACK2780 UPBROW1957 1.000000
    SLACK2781 LOBROW1958 -1.000000
    SLACK2782 UPBROW1959 1.000000
    SLACK2783 LOBROW1960 -1.000000
    SLACK2784 UPBROW1961 1.000000
    SLACK2785 LOBROW1962 -1.000000
    SLACK2786 UPBROW1963 1.000000
    SLACK2787 LOBROW1964 -1.000000
    SLACK2788 UPBROW1965 1.000000
    SLACK2789 LOBROW1966 -1.000000
    SLACK2790 UPBROW1967 1.000000
    SLACK2791 LOBROW1968 -1.000000
    SLACK2792 UPBROW1969 1.000000
    SLACK2793 LOBROW1970 -1.000000
    SLACK2794 UPBROW1971 1.000000
    SLACK2795 LOBROW1972 -1.000000
    SLACK2796 UPBROW1973 1.000000
    SLACK2797 LOBROW1974 -1.000000
    SLACK2798 UPBROW1975 1.000000
    SLACK2799 LOBROW1976 -1.000000
    SLACK2800 UPBROW1977 1.000000
    SLACK2801 LOBROW1978 -1.000000
    SLACK2802 UPBROW1979 1.000000
    SLACK2803 LOBROW1980 -1.000000
    SLACK2804 UPBROW1981 1.000000
    SLACK2805 LOBROW1982 -1.000000
    SLACK2806 UPBROW1983 1.000000
    SLACK2807 LOBROW1984 -1.000000
    SLACK2808 UPBROW1985 1.000000
    SLACK2809 LOBROW1986 -1.000000
    SLACK2810 UPBROW1987 1.000000
    SLACK2811 LOBROW1988 -1.000000
    SLACK2812 UPBROW1989 1.000000
    SLACK2813 LOBROW1990 -1.000000
    SLACK2814 UPBROW1991 1.000000
    SLACK2815 LOBROW1992 -1.000000
    SLACK2816 UPBROW1993 1.000000
    SLACK2817 LOBROW1994 -1.000000
    SLACK2818 UPBROW1995 1.000000
    SLACK2819 LOBROW1996 -1.000000
    SLACK2820 UPBROW1997 1.000000
    SLACK2821 LOBROW1998 -1.000000
    SLACK2822 UPBROW1999 1.000000
    SLACK2823 LOBROW2000 -1.000000
    SLACK2824 LOBROW2001 -1.000000
    SLACK2825 LOBROW2002 -1.000000
    SLACK2826 LOBROW2003 -1.000000
    SLACK2827 LOBROW2004 -1.000000
    SLACK2828 LOBROW2005 -1.000000
    SLACK2829 LOBROW2006 -1.000000
    SLACK2830 LOBROW2007 -1.000000
    SLACK2831 LOBROW2008 -1.000000
    SLACK2832 LOBROW2009 -1.000000
    SLACK2833 LOBROW2010 -1.000000
    SLACK2834 LOBROW2011 -1.000000
    SLACK2835 LOBROW2012 -1.000000
    SLACK2836 LOBROW2013 -1.000000
    SLACK2837 LOBROW2014 -1.000000
    SLACK2838 LOBROW2015 -1.000000
    SLACK2839 LOBROW2016 -1.000000
    SLACK2840 LOBROW2017 -1.000000
    SLACK2841 LOBROW2018 -1.000000
    SLACK2842 LOBROW2019 -1.000000
    SLACK2843 LOBROW2020 -1.000000
    SLACK2844 LOBROW2021 -1.000000
    SLACK2845 LOBROW2022 -1.000000
    SLACK2846 LOBROW2023 -1.000000
    SLACK2847 LOBROW2024 -1.000000
    SLACK2848 LOBROW2025 -1.000000
    SLACK2849 LOBROW2026 -1.000000
    SLACK2850 LOBROW2027 -1.000000
    SLACK2851 LOBROW2028 -1.000000
    SLACK2852 LOBROW2029 -1.000000
    SLACK2853 LOBROW2030 -1.000000
    SLACK2854 LOBROW2031 -1.000000
    SLACK2855 LOBROW2032 -1.000000
    SLACK2856 LOBROW2033 -1.000000
    SLACK2857 LOBROW2034 -1.000000
    SLACK2858 LOBROW2035 -1.000000
    SLACK2859 LOBROW2036 -1.000000
    SLACK2860 LOBROW2037 -1.000000
    SLACK2861 LOBROW2038 -1.000000
    SLACK2862 LOBROW2039 -1.000000
    SLACK2863 LOBROW2040 -1.000000
    SLACK2864 LOBROW2041 -1.000000
    SLACK2865 LOBROW2042 -1.000000
    SLACK2866 LOBROW2043 -1.000000
    SLACK2867 LOBROW2044 -1.000000
    SLACK2868 LOBROW2045 -1.000000
    SLACK2869 LOBROW2046 -1.000000
    SLACK2870 LOBROW2047 -1.000000
    SLACK2871 LOBROW2048 -1.000000
    SLACK2872 LOBROW2049 -1.000000
    SLACK2873 LOBROW2050 -1.000000
    SLACK2874 LOBROW2051 -1.000000
    SLACK2875 LOBROW2052 -1.000000
    SLACK2876 LOBROW2053 -1.000000
    SLACK2877 LOBROW2054 -1.000000
    SLACK2878 LOBROW2055 -1.000000
    SLACK2879 LOBROW2056 -1.000000
    SLACK2880 LOBROW2057 -1.000000
    SLACK2881 LOBROW2058 -1.000000
    SLACK2882 LOBROW2059 -1.000000
    SLACK2883 LOBROW2060 -1.000000
    SLACK2884 LOBROW2061 -1.000000
    SLACK2885 LOBROW2062 -1.000000
    SLACK2886 LOBROW2063 -1.000000
    SLACK2887 LOBROW2064 -1.000000
    SLACK2888 LOBROW2065 -1.000000
    SLACK2889 LOBROW2066 -1.000000
    SLACK2890 LOBROW2067 -1.000000
    SLACK2891 LOBROW2068 -1.000000
    SLACK2892 LOBROW2069 -1.000000
    SLACK2893 LOBROW2070 -1.000000
    SLACK2894 LOBROW2071 -1.000000
    SLACK2895 LOBROW2072 -1.000000
    SLACK2896 LOBROW2073 -1.000000
    SLACK2897 LOBROW2074 -1.000000
    SLACK2898 LOBROW2075 -1.000000
    SLACK2899 LOBROW2076 -1.000000
    SLACK2900 LOBROW2077 -1.000000
    SLACK2901 LOBROW2078 -1.000000
    SLACK2902 LOBROW2079 -1.000000
    SLACK2903 LOBROW2080 -1.000000
    SLACK2904 LOBROW2081 -1.000000
    SLACK2905 LOBROW2082 -1.000000
    SLACK2906 LOBROW2083 -1.000000
    SLACK2907 LOBROW2084 -1.000000
    SLACK2908 LOBROW2085 -1.000000
    SLACK2909 LOBROW2086 -1.000000
    SLACK2910 LOBROW2087 -1.000000
    SLACK2911 LOBROW2088 -1.000000
    SLACK2912 LOBROW2089 -1.000000
    SLACK2913 LOBROW2090 -1.000000
    SLACK2914 LOBROW2091 -1.000000
    SLACK2915 LOBROW2092 -1.000000
    SLACK2916 LOBROW2093 -1.000000
    SLACK2917 LOBROW2094 -1.000000
    SLACK2918 LOBROW2095 -1.000000
    SLACK2919 LOBROW2096 -1.000000
    SLACK2920 LOBROW2097 -1.000000
    SLACK2921 LOBROW2098 -1.000000
    SLACK2922 LOBROW2099 -1.000000
    SLACK2923 LOBROW2100 -1.000000
    SLACK2924 LOBROW2101 -1.000000
    SLACK2925 LOBROW2102 -1.000000
    SLACK2926 LOBROW2103 -1.000000
    SLACK2927 LOBROW2104 -1.000000
    SLACK2928 LOBROW2105 -1.000000
    SLACK2929 LOBROW2106 -1.000000
    SLACK2930 LOBROW2107 -1.000000
    SLACK2931 LOBROW2108 -1.000000
    SLACK2932 LOBROW2109 -1.000000
    SLACK2933 LOBROW2110 -1.000000
    SLACK2934 LOBROW2111 -1.000000
    SLACK2935 LOBROW2112 -1.000000
    SLACK2936 LOBROW2113 -1.000000
    SLACK2937 LOBROW2114 -1.000000
    SLACK2938 LOBROW2115 -1.000000
    SLACK2939 LOBROW2116 -1.000000
    SLACK2940 LOBROW2117 -1.000000
    SLACK2941 LOBROW2118 -1.000000
    SLACK2942 LOBROW2119 -1.000000
    SLACK2943 LOBROW2120 -1.000000
    SLACK2944 LOBROW2121 -1.000000
    SLACK2945 LOBROW2122 -1.000000
    SLACK2946 LOBROW2123 -1.000000
    SLACK2947 LOBROW2124 -1.000000
    SLACK2948 LOBROW2125 -1.000000
    SLACK2949 LOBROW2126 -1.000000
    SLACK2950 LOBROW2127 -1.000000
    SLACK2951 LOBROW2128 -1.000000
    SLACK2952 LOBROW2129 -1.000000
    SLACK2953 LOBROW2130 -1.000000
    SLACK2954 LOBROW2131 -1.000000
    SLACK2955 LOBROW2132 -1.000000
    SLACK2956 LOBROW2133 -1.000000
    SLACK2957 LOBROW2134 -1.000000
    SLACK2958 LOBROW2135 -1.000000
    SLACK2959 LOBROW2136 -1.000000
    SLACK2960 LOBROW2137 -1.000000
    SLACK2961 LOBROW2138 -1.000000
    SLACK2962 LOBROW2139 -1.000000
    SLACK2963 LOBROW2140 -1.000000
    SLACK2964 LOBROW2141 -1.000000
    SLACK2965 LOBROW2142 -1.000000
    SLACK2966 LOBROW2143 -1.000000
    SLACK2967 LOBROW2144 -1.000000
    SLACK2968 LOBROW2145 -1.000000
    SLACK2969 LOBROW2146 -1.000000
    SLACK2970 LOBROW2147 -1.000000
    SLACK2971 LOBROW2148 -1.000000
    SLACK2972 LOBROW2149 -1.000000
    SLACK2973 LOBROW2150 -1.000000
    SLACK2974 LOBROW2151 -1.000000
    SLACK2975 LOBROW2152 -1.000000
    SLACK2976 LOBROW2153 -1.000000
    SLACK2977 LOBROW2154 -1.000000
    SLACK2978 LOBROW2155 -1.000000
    SLACK2979 LOBROW2156 -1.000000
    SLACK2980 LOBROW2157 -1.000000
    SLACK2981 LOBROW2158 -1.000000
    SLACK2982 LOBROW2159 -1.000000
    SLACK2983 LOBROW2160 -1.000000
    SLACK2984 LOBROW2161 -1.000000
    SLACK2985 LOBROW2162 -1.000000
    SLACK2986 LOBROW2163 -1.000000
    SLACK2987 LOBROW2164 -1.000000
    SLACK2988 LOBROW2165 -1.000000
    SLACK2989 LOBROW2166 -1.000000
    SLACK2990 LOBROW2167 -1.000000
    SLACK2991 LOBROW2168 -1.000000
    SLACK2992 LOBROW2169 -1.000000
    SLACK2993 LOBROW2170 -1.000000
    SLACK2994 LOBROW2171 -1.000000
    SLACK2995 LOBROW2172 -1.000000
    SLACK2996 LOBROW2173 -1.000000
    SLACK2997 LOBROW2174 -1.000000
    SLACK2998 LOBROW2175 -1.000000
    SLACK2999 LOBROW2176 -1.000000
    SLACK3000 LOBROW2177 -1.000000
    SLACK3001 LOBROW2178 -1.000000
    SLACK3002 LOBROW2179 -1.000000
    SLACK3003 LOBROW2180 -1.000000
    SLACK3004 LOBROW2181 -1.000000
    SLACK3005 LOBROW2182 -1.000000
    SLACK3006 LOBROW2183 -1.000000
    SLACK3007 LOBROW2184 -1.000000
    SLACK3008 LOBROW2185 -1.000000
    SLACK3009 LOBROW2186 -1.000000
    SLACK3010 LOBROW2187 -1.000000
    SLACK3011 LOBROW2188 -1.000000
    SLACK3012 LOBROW2189 -1.000000
    SLACK3013 LOBROW2190 -1.000000
    SLACK3014 LOBROW2191 -1.000000
    SLACK3015 LOBROW2192 -1.000000
    SLACK3016 LOBROW2193 -1.000000
    SLACK3017 LOBROW2194 -1.000000
    SLACK3018 LOBROW2195 -1.000000
    SLACK3019 LOBROW2196 -1.000000
    SLACK3020 LOBROW2197 -1.000000
    SLACK3021 LOBROW2198 -1.000000
    SLACK3022 LOBROW2199 -1.000000
    SLACK3023 LOBROW2200 -1.000000
    SLACK3024 LOBROW2201 -1.000000
    SLACK3025 LOBROW2202 -1.000000
    SLACK3026 LOBROW2203 -1.000000
    SLACK3027 LOBROW2204 -1.000000
    SLACK3028 LOBROW2205 -1.000000
    SLACK3029 LOBROW2206 -1.000000
    SLACK3030 LOBROW2207 -1.000000
    SLACK3031 LOBROW2208 -1.000000
    SLACK3032 LOBROW2209 -1.000000
    SLACK3033 LOBROW2210 -1.000000
    SLACK3034 LOBROW2211 -1.000000
    SLACK3035 LOBROW2212 -1.000000
    SLACK3036 LOBROW2213 -1.000000
    SLACK3037 LOBROW2214 -1.000000
    SLACK3038 LOBROW2215 -1.000000
    SLACK3039 LOBROW2216 -1.000000
    SLACK3040 LOBROW2217 -1.000000
    SLACK3041 LOBROW2218 -1.000000
    SLACK3042 LOBROW2219 -1.000000
    SLACK3043 LOBROW2220 -1.000000
    SLACK3044 LOBROW2221 -1.000000
    SLACK3045 LOBROW2222 -1.000000
    SLACK3046 LOBROW2223 -1.000000
    SLACK3047 LOBROW2224 -1.000000
    SLACK3048 LOBROW2225 -1.000000
    SLACK3049 LOBROW2226 -1.000000
    SLACK3050 LOBROW2227 -1.000000
    SLACK3051 LOBROW2228 -1.000000
    SLACK3052 LOBROW2229 -1.000000
    SLACK3053 LOBROW2230 -1.000000
    SLACK3054 LOBROW2231 -1.000000
    SLACK3055 LOBROW2232 -1.000000
    SLACK3056 LOBROW2233 -1.000000
    SLACK3057 LOBROW2234 -1.000000
    SLACK3058 LOBROW2235 -1.000000
    SLACK3059 LOBROW2236 -1.000000
    SLACK3060 LOBROW2237 -1.000000
    SLACK3061 LOBROW2238 -1.000000
    SLACK3062 LOBROW2239 -1.000000
    SLACK3063 LOBROW2240 -1.000000
    SLACK3064 LOBROW2241 -1.000000
    SLACK3065 LOBROW2242 -1.000000
    SLACK3066 LOBROW2243 -1.000000
    SLACK3067 LOBROW2244 -1.000000
    SLACK3068 LOBROW2245 -1.000000
    SLACK3069 LOBROW2246 -1.000000
    SLACK3070 LOBROW2247 -1.000000
    SLACK3071 LOBROW2248 -1.000000
    SLACK3072 LOBROW2249 -1.000000
    SLACK3073 LOBROW2250 -1.000000
    SLACK3074 LOBROW2251 -1.000000
    SLACK3075 LOBROW2252 -1.000000
    SLACK3076 LOBROW2253 -1.000000
    SLACK3077 LOBROW2254 -1.000000
    SLACK3078 LOBROW2255 -1.000000
    SLACK3079 LOBROW2256 -1.000000
    SLACK3080 LOBROW2257 -1.000000
    SLACK3081 LOBROW2258 -1.000000
    SLACK3082 LOBROW2259 -1.000000
    SLACK3083 LOBROW2260 -1.000000
    SLACK3084 LOBROW2261 -1.000000
    SLACK3085 LOBROW2262 -1.000000
    SLACK3086 LOBROW2263 -1.000000
    SLACK3087 LOBROW2264 -1.000000
    SLACK3088 LOBROW2265 -1.000000
    SLACK3089 LOBROW2266 -1.000000
    SLACK3090 LOBROW2267 -1.000000
    SLACK3091 LOBROW2268 -1.000000
    SLACK3092 LOBROW2269 -1.000000
    SLACK3093 LOBROW2270 -1.000000
    SLACK3094 LOBROW2271 -1.000000
    SLACK3095 LOBROW2272 -1.000000
    SLACK3096 LOBROW2273 -1.000000
    SLACK3097 LOBROW2274 -1.000000
    SLACK3098 LOBROW2275 -1.000000
    SLACK3099 LOBROW2276 -1.000000
    SLACK3100 LOBROW2277 -1.000000
    SLACK3101 LOBROW2278 -1.000000
    SLACK3102 LOBROW2279 -1.000000
    SLACK3103 LOBROW2280 -1.000000
    SLACK3104 LOBROW2281 -1.000000
    SLACK3105 LOBROW2282 -1.000000
    SLACK3106 LOBROW2283 -1.000000
    SLACK3107 LOBROW2284 -1.000000
    SLACK3108 LOBROW2285 -1.000000
    SLACK3109 LOBROW2286 -1.000000
    SLACK3110 LOBROW2287 -1.000000
    SLACK3111 LOBROW2288 -1.000000
    SLACK3112 LOBROW2289 -1.000000
    SLACK3113 LOBROW2290 -1.000000
    SLACK3114 LOBROW2291 -1.000000
    SLACK3115 LOBROW2292 -1.000000
    SLACK3116 LOBROW2293 -1.000000
    SLACK3117 LOBROW2294 -1.000000
    SLACK3118 LOBROW2295 -1.000000
    SLACK3119 LOBROW2296 -1.000000
    SLACK3120 LOBROW2297 -1.000000
    SLACK3121 LOBROW2298 -1.000000
    SLACK3122 LOBROW2299 -1.000000
    SLACK3123 LOBROW2300 -1.000000
    SLACK3124 LOBROW2301 -1.000000
    SLACK3125 LOBROW2302 -1.000000
    SLACK3126 LOBROW2303 -1.000000
    SLACK3127 LOBROW2304 -1.000000
    SLACK3128 LOBROW2305 -1.000000
    SLACK3129 LOBROW2306 -1.000000
    SLACK3130 LOBROW2307 -1.000000
    SLACK3131 LOBROW2308 -1.000000
    SLACK3132 LOBROW2309 -1.000000
    SLACK3133 LOBROW2310 -1.000000
    SLACK3134 LOBROW2311 -1.000000
    SLACK3135 LOBROW2312 -1.000000
    SLACK3136 LOBROW2313 -1.000000
    SLACK3137 LOBROW2314 -1.000000
    SLACK3138 LOBROW2315 -1.000000
    SLACK3139 LOBROW2316 -1.000000
    SLACK3140 LOBROW2317 -1.000000
    SLACK3141 LOBROW2318 -1.000000
    SLACK3142 LOBROW2319 -1.000000
    SLACK3143 LOBROW2320 -1.000000
    SLACK3144 LOBROW2321 -1.000000
    SLACK3145 LOBROW2322 -1.000000
    SLACK3146 LOBROW2323 -1.000000
    SLACK3147 LOBROW2324 -1.000000
    SLACK3148 LOBROW2325 -1.000000
    SLACK3149 LOBROW2326 -1.000000
    SLACK3150 LOBROW2327 -1.000000
    SLACK3151 LOBROW2328 -1.000000
    SLACK3152 LOBROW2329 -1.000000
    SLACK3153 LOBROW2330 -1.000000
    SLACK3154 LOBROW2331 -1.000000
    SLACK3155 LOBROW2332 -1.000000
    SLACK3156 LOBROW2333 -1.000000
    SLACK3157 LOBROW2334 -1.000000
    SLACK3158 LOBROW2335 -1.000000
    SLACK3159 LOBROW2336 -1.000000
    SLACK3160 LOBROW2337 -1.000000
    SLACK3161 LOBROW2338 -1.000000
    SLACK3162 LOBROW2339 -1.000000
    SLACK3163 LOBROW2340 -1.000000
    SLACK3164 LOBROW2341 -1.000000
    SLACK3165 LOBROW2342 -1.000000
    SLACK3166 LOBROW2343 -1.000000
    SLACK3167 LOBROW2344 -1.000000
    SLACK3168 LOBROW2345 -1.000000
    SLACK3169 LOBROW2346 -1.000000
    SLACK3170 LOBROW2347 -1.000000
    SLACK3171 LOBROW2348 -1.000000
    SLACK3172 LOBROW2349 -1.000000
    SLACK3173 LOBROW2350 -1.000000
    SLACK3174 LOBROW2351 -1.000000
    SLACK3175 LOBROW2352 -1.000000
    SLACK3176 LOBROW2353 -1.000000
    SLACK3177 LOBROW2354 -1.000000
    SLACK3178 LOBROW2355 -1.000000
    SLACK3179 LOBROW2356 -1.000000
    SLACK3180 LOBROW2357 -1.000000
    SLACK3181 LOBROW2358 -1.000000
    SLACK3182 LOBROW2359 -1.000000
    SLACK3183 LOBROW2360 -1.000000
    SLACK3184 LOBROW2361 -1.000000
    SLACK3185 LOBROW2362 -1.000000
    SLACK3186 LOBROW2363 -1.000000
    SLACK3187 LOBROW2364 -1.000000
    SLACK3188 LOBROW2365 -1.000000
    SLACK3189 LOBROW2366 -1.000000
    SLACK3190 LOBROW2367 -1.000000
    SLACK3191 LOBROW2368 -1.000000
    SLACK3192 LOBROW2369 -1.000000
    SLACK3193 LOBROW2370 -1.000000
    SLACK3194 LOBROW2371 -1.000000
    SLACK3195 LOBROW2372 -1.000000
    SLACK3196 LOBROW2373 -1.000000
    SLACK3197 LOBROW2374 -1.000000
    SLACK3198 LOBROW2375 -1.000000
    SLACK3199 LOBROW2376 -1.000000
    SLACK3200 LOBROW2377 -1.000000
    SLACK3201 LOBROW2378 -1.000000
    SLACK3202 LOBROW2379 -1.000000
    SLACK3203 LOBROW2380 -1.000000
    SLACK3204 LOBROW2381 -1.000000
    SLACK3205 LOBROW2382 -1.000000
    SLACK3206 LOBROW2383 -1.000000
    SLACK3207 LOBROW2384 -1.000000
    SLACK3208 LOBROW2385 -1.000000
    SLACK3209 LOBROW2386 -1.000000
    SLACK3210 LOBROW2387 -1.000000
    SLACK3211 LOBROW2388 -1.000000
    SLACK3212 LOBROW2389 -1.000000
    SLACK3213 LOBROW2390 -1.000000
    SLACK3214 LOBROW2391 -1.000000
    SLACK3215 LOBROW2392 -1.000000
    SLACK3216 LOBROW2393 -1.000000
    SLACK3217 LOBROW2394 -1.000000
    SLACK3218 LOBROW2395 -1.000000
    SLACK3219 LOBROW2396 -1.000000
    SLACK3220 LOBROW2397 -1.000000
    SLACK3221 LOBROW2398 -1.000000
    SLACK3222 LOBROW2399 -1.000000
    SLACK3223 LOBROW2400 -1.000000
    SLACK3224 LOBROW2401 -1.000000
    SLACK3225 LOBROW2402 -1.000000
    SLACK3226 LOBROW2403 -1.000000
    SLACK3227 LOBROW2404 -1.000000
    SLACK3228 LOBROW2405 -1.000000
    SLACK3229 LOBROW2406 -1.000000
    SLACK3230 LOBROW2407 -1.000000
    SLACK3231 LOBROW2408 -1.000000
    SLACK3232 LOBROW2409 -1.000000
    SLACK3233 LOBROW2410 -1.000000
    SLACK3234 LOBROW2411 -1.000000
    SLACK3235 LOBROW2412 -1.000000
    SLACK3236 LOBROW2413 -1.000000
    SLACK3237 LOBROW2414 -1.000000
    SLACK3238 LOBROW2415 -1.000000
    SLACK3239 LOBROW2416 -1.000000
    SLACK3240 LOBROW2417 -1.000000
    SLACK3241 LOBROW2418 -1.000000
    SLACK3242 LOBROW2419 -1.000000
    SLACK3243 LOBROW2420 -1.000000
    SLACK3244 LOBROW2421 -1.000000
    SLACK3245 LOBROW2422 -1.000000
    SLACK3246 LOBROW2423 -1.000000
    SLACK3247 LOBROW2424 -1.000000
    SLACK3248 LOBROW2425 -1.000000
    SLACK3249 LOBROW2426 -1.000000
    SLACK3250 LOBROW2427 -1.000000
    SLACK3251 LOBROW2428 -1.000000
    SLACK3252 LOBROW2429 -1.000000
    SLACK3253 LOBROW2430 -1.000000
    SLACK3254 LOBROW2431 -1.000000
    SLACK3255 LOBROW2432 -1.000000
    SLACK3256 LOBROW2433 -1.000000
    SLACK3257 LOBROW2434 -1.000000
    SLACK3258 LOBROW2435 -1.000000
    SLACK3259 LOBROW2436 -1.000000
    SLACK3260 LOBROW2437 -1.000000
    SLACK3261 LOBROW2438 -1.000000
    SLACK3262 LOBROW2439 -1.000000
    SLACK3263 LOBROW2440 -1.000000
    SLACK3264 LOBROW2441 -1.000000
    SLACK3265 LOBROW2442 -1.000000
    SLACK3266 LOBROW2443 -1.000000
    SLACK3267 LOBROW2444 -1.000000
    SLACK3268 LOBROW2445 -1.000000
    SLACK3269 LOBROW2446 -1.000000
    SLACK3270 LOBROW2447 -1.000000
    SLACK3271 LOBROW2448 -1.000000
    SLACK3272 LOBROW2449 -1.000000
    SLACK3273 LOBROW2450 -1.000000
    SLACK3274 LOBROW2451 -1.000000
    SLACK3275 LOBROW2452 -1.000000
    SLACK3276 LOBROW2453 -1.000000
    SLACK3277 LOBROW2454 -1.000000
    SLACK3278 LOBROW2455 -1.000000
    SLACK3279 LOBROW2456 -1.000000
    SLACK3280 LOBROW2457 -1.000000
    SLACK3281 LOBROW2458 -1.000000
    SLACK3282 LOBROW2459 -1.000000
    SLACK3283 LOBROW2460 -1.000000
    SLACK3284 LOBROW2461 -1.000000
    SLACK3285 LOBROW2462 -1.000000
    SLACK3286 LOBROW2463 -1.000000
    SLACK3287 LOBROW2464 -1.000000
    SLACK3288 LOBROW2465 -1.000000
    SLACK3289 LOBROW2466 -1.000000
    SLACK3290 LOBROW2467 -1.000000
    SLACK3291 LOBROW2468 -1.000000
    SLACK3292 LOBROW2469 -1.000000
    SLACK3293 LOBROW2470 -1.000000
    SLACK3294 LOBROW2471 -1.000000
    SLACK3295 LOBROW2472 -1.000000
    SLACK3296 LOBROW2473 -1.000000
    SLACK3297 LOBROW2474 -1.000000
    SLACK3298 LOBROW2475 -1.000000
    SLACK3299 LOBROW2476 -1.000000
    SLACK3300 LOBROW2477 -1.000000
    SLACK3301 LOBROW2478 -1.000000
    SLACK3302 LOBROW2479 -1.000000
    SLACK3303 LOBROW2480 -1.000000
    SLACK3304 LOBROW2481 -1.000000
    SLACK3305 LOBROW2482 -1.000000
    SLACK3306 LOBROW2483 -1.000000
    SLACK3307 LOBROW2484 -1.000000
    SLACK3308 LOBROW2485 -1.000000
    SLACK3309 LOBROW2486 -1.000000
    SLACK3310 LOBROW2487 -1.000000
    SLACK3311 LOBROW2488 -1.000000
    SLACK3312 LOBROW2489 -1.000000
    SLACK3313 LOBROW2490 -1.000000
    SLACK3314 LOBROW2491 -1.000000
    SLACK3315 LOBROW2492 -1.000000
    SLACK3316 LOBROW2493 -1.000000
    SLACK3317 LOBROW2494 -1.000000
    SLACK3318 LOBROW2495 -1.000000
    SLACK3319 LOBROW2496 -1.000000
    SLACK3320 LOBROW2497 -1.000000
    SLACK3321 LOBROW2498 -1.000000
    SLACK3322 LOBROW2499 -1.000000
    SLACK3323 LOBROW2500 -1.000000
    SLACK3324 LOBROW2501 -1.000000
    SLACK3325 LOBROW2502 -1.000000
    SLACK3326 LOBROW2503 -1.000000
    SLACK3327 LOBROW2504 -1.000000
    SLACK3328 LOBROW2505 -1.000000
    SLACK3329 LOBROW2506 -1.000000
    SLACK3330 LOBROW2507 -1.000000
    SLACK3331 LOBROW2508 -1.000000
    SLACK3332 LOBROW2509 -1.000000
    SLACK3333 LOBROW2510 -1.000000
    SLACK3334 LOBROW2511 -1.000000
    SLACK3335 LOBROW2512 -1.000000
    SLACK3336 LOBROW2513 -1.000000
    SLACK3337 LOBROW2514 -1.000000
    SLACK3338 LOBROW2515 -1.000000
    SLACK3339 LOBROW2516 -1.000000
    SLACK3340 LOBROW2517 -1.000000
    SLACK3341 LOBROW2518 -1.000000
    SLACK3342 LOBROW2519 -1.000000
    SLACK3343 LOBROW2520 -1.000000
    SLACK3344 LOBROW2521 -1.000000
    SLACK3345 LOBROW2522 -1.000000
    SLACK3346 LOBROW2523 -1.000000
    SLACK3347 LOBROW2524 -1.000000
    SLACK3348 LOBROW2525 -1.000000
    SLACK3349 LOBROW2526 -1.000000
    SLACK3350 LOBROW2527 -1.000000
    SLACK3351 LOBROW2528 -1.000000
    SLACK3352 LOBROW2529 -1.000000
    SLACK3353 LOBROW2530 -1.000000
    SLACK3354 LOBROW2531 -1.000000
    SLACK3355 LOBROW2532 -1.000000
    SLACK3356 LOBROW2533 -1.000000
    SLACK3357 LOBROW2534 -1.000000
    SLACK3358 LOBROW2535 -1.000000
    SLACK3359 LOBROW2536 -1.000000
    SLACK3360 LOBROW2537 -1.000000
    SLACK3361 LOBROW2538 -1.000000
    SLACK3362 LOBROW2539 -1.000000
    SLACK3363 LOBROW2540 -1.000000
    SLACK3364 LOBROW2541 -1.000000
    SLACK3365 LOBROW2542 -1.000000
    SLACK3366 LOBROW2543 -1.000000
    SLACK3367 LOBROW2544 -1.000000
    SLACK3368 LOBROW2545 -1.000000
    SLACK3369 LOBROW2546 -1.000000
    SLACK3370 LOBROW2547 -1.000000
    SLACK3371 LOBROW2548 -1.000000
    SLACK3372 LOBROW2549 -1.000000
    SLACK3373 LOBROW2550 -1.000000
    SLACK3374 LOBROW2551 -1.000000
    SLACK3375 LOBROW2552 -1.000000
    SLACK3376 LOBROW2553 -1.000000
    SLACK3377 LOBROW2554 -1.000000
    SLACK3378 LOBROW2555 -1.000000
    SLACK3379 LOBROW2556 -1.000000
    SLACK3380 LOBROW2557 -1.000000
    SLACK3381 LOBROW2558 -1.000000
    SLACK3382 LOBROW2559 -1.000000
    SLACK3383 LOBROW2560 -1.000000
    SLACK3384 LOBROW2561 -1.000000
    SLACK3385 LOBROW2562 -1.000000
    SLACK3386 LOBROW2563 -1.000000
    SLACK3387 LOBROW2564 -1.000000
    SLACK3388 LOBROW2565 -1.000000
    SLACK3389 LOBROW2566 -1.000000
    SLACK3390 LOBROW2567 -1.000000
    SLACK3391 LOBROW2568 -1.000000
    SLACK3392 LOBROW2569 -1.000000
    SLACK3393 LOBROW2570 -1.000000
    SLACK3394 LOBROW2571 -1.000000
    SLACK3395 LOBROW2572 -1.000000
    SLACK3396 LOBROW2573 -1.000000
    SLACK3397 LOBROW2574 -1.000000
    SLACK3398 LOBROW2575 -1.000000
    SLACK3399 LOBROW2576 -1.000000
    SLACK3400 LOBROW2577 -1.000000
    SLACK3401 LOBROW2578 -1.000000
    SLACK3402 LOBROW2579 -1.000000
    SLACK3403 LOBROW2580 -1.000000
    SLACK3404 LOBROW2581 -1.000000
    SLACK3405 LOBROW2582 -1.000000
    SLACK3406 LOBROW2583 -1.000000
    SLACK3407 LOBROW2584 -1.000000
    SLACK3408 LOBROW2585 -1.000000
    SLACK3409 LOBROW2586 -1.000000
    SLACK3410 LOBROW2587 -1.000000
    SLACK3411 LOBROW2588 -1.000000
    SLACK3412 LOBROW2589 -1.000000
    SLACK3413 LOBROW2590 -1.000000
    SLACK3414 LOBROW2591 -1.000000
    SLACK3415 LOBROW2592 -1.000000
    SLACK3416 LOBROW2593 -1.000000
    SLACK3417 LOBROW2594 -1.000000
    SLACK3418 LOBROW2595 -1.000000
    SLACK3419 LOBROW2596 -1.000000
    SLACK3420 LOBROW2597 -1.000000
    SLACK3421 LOBROW2598 -1.000000
    SLACK3422 LOBROW2599 -1.000000
    SLACK3423 LOBROW2600 -1.000000
    SLACK3424 LOBROW2601 -1.000000
    SLACK3425 LOBROW2602 -1.000000
    SLACK3426 LOBROW2603 -1.000000
    SLACK3427 LOBROW2604 -1.000000
    SLACK3428 LOBROW2605 -1.000000
    SLACK3429 LOBROW2606 -1.000000
    SLACK3430 LOBROW2607 -1.000000
    SLACK3431 LOBROW2608 -1.000000
    SLACK3432 LOBROW2609 -1.000000
    SLACK3433 LOBROW2610 -1.000000
    SLACK3434 LOBROW2611 -1.000000
    SLACK3435 LOBROW2612 -1.000000
    SLACK3436 LOBROW2613 -1.000000
    SLACK3437 LOBROW2614 -1.000000
    SLACK3438 LOBROW2615 -1.000000
    SLACK3439 LOBROW2616 -1.000000
    SLACK3440 LOBROW2617 -1.000000
    SLACK3441 LOBROW2618 -1.000000
    SLACK3442 LOBROW2619 -1.000000
    SLACK3443 LOBROW2620 -1.000000
    SLACK3444 LOBROW2621 -1.000000
    SLACK3445 LOBROW2622 -1.000000
    SLACK3446 LOBROW2623 -1.000000
    SLACK3447 LOBROW2624 -1.000000
    SLACK3448 LOBROW2625 -1.000000
    SLACK3449 LOBROW2626 -1.000000
    SLACK3450 LOBROW2627 -1.000000
    SLACK3451 LOBROW2628 -1.000000
    SLACK3452 LOBROW2629 -1.000000
    SLACK3453 LOBROW2630 -1.000000
    SLACK3454 LOBROW2631 -1.000000
    SLACK3455 LOBROW2632 -1.000000
    SLACK3456 LOBROW2633 -1.000000
    SLACK3457 LOBROW2634 -1.000000
    SLACK3458 LOBROW2635 -1.000000
    SLACK3459 LOBROW2636 -1.000000
    SLACK3460 LOBROW2637 -1.000000
    SLACK3461 LOBROW2638 -1.000000
    SLACK3462 LOBROW2639 -1.000000
    SLACK3463 LOBROW2640 -1.000000
    SLACK3464 LOBROW2641 -1.000000
    SLACK3465 LOBROW2642 -1.000000
    SLACK3466 LOBROW2643 -1.000000
    SLACK3467 LOBROW2644 -1.000000
    SLACK3468 LOBROW2645 -1.000000
    SLACK3469 LOBROW2646 -1.000000
    SLACK3470 LOBROW2647 -1.000000
    SLACK3471 LOBROW2648 -1.000000
    SLACK3472 LOBROW2649 -1.000000
    SLACK3473 LOBROW2650 -1.000000
    SLACK3474 LOBROW2651 -1.000000
    SLACK3475 LOBROW2652 -1.000000
    SLACK3476 LOBROW2653 -1.000000
    SLACK3477 LOBROW2654 -1.000000
    SLACK3478 LOBROW2655 -1.000000
    SLACK3479 LOBROW2656 -1.000000
    SLACK3480 LOBROW2657 -1.000000
    SLACK3481 LOBROW2658 -1.000000
    SLACK3482 LOBROW2659 -1.000000
    SLACK3483 LOBROW2660 -1.000000
    SLACK3484 LOBROW2661 -1.000000
    SLACK3485 LOBROW2662 -1.000000
    SLACK3486 LOBROW2663 -1.000000
    SLACK3487 LOBROW2664 -1.000000
    SLACK3488 LOBROW2665 -1.000000
    SLACK3489 LOBROW2666 -1.000000
    SLACK3490 LOBROW2667 -1.000000
    SLACK3491 LOBROW2668 -1.000000
    SLACK3492 LOBROW2669 -1.000000
    SLACK3493 LOBROW2670 -1.000000
    SLACK3494 LOBROW2671 -1.000000
    SLACK3495 LOBROW2672 -1.000000
    SLACK3496 LOBROW2673 -1.000000
    SLACK3497 LOBROW2674 -1.000000
    SLACK3498 LOBROW2675 -1.000000
    SLACK3499 LOBROW2676 -1.000000
    SLACK3500 LOBROW2677 -1.000000
    SLACK3501 LOBROW2678 -1.000000
    SLACK3502 LOBROW2679 -1.000000
    SLACK3503 LOBROW2680 -1.000000
    SLACK3504 LOBROW2681 -1.000000
    SLACK3505 LOBROW2682 -1.000000
    SLACK3506 LOBROW2683 -1.000000
    SLACK3507 LOBROW2684 -1.000000
    SLACK3508 LOBROW2685 -1.000000
    SLACK3509 LOBROW2686 -1.000000
    SLACK3510 LOBROW2687 -1.000000
    SLACK3511 LOBROW2688 -1.000000
    SLACK3512 LOBROW2689 -1.000000
    SLACK3513 LOBROW2690 -1.000000
    SLACK3514 LOBROW2691 -1.000000
    SLACK3515 LOBROW2692 -1.000000
    SLACK3516 LOBROW2693 -1.000000
    SLACK3517 LOBROW2694 -1.000000
    SLACK3518 LOBROW2695 -1.000000
    SLACK3519 LOBROW2696 -1.000000
    SLACK3520 LOBROW2697 -1.000000
    SLACK3521 LOBROW2698 -1.000000
    SLACK3522 LOBROW2699 -1.000000
    SLACK3523 LOBROW2700 -1.000000
    SLACK3524 LOBROW2701 -1.000000
    SLACK3525 LOBROW2702 -1.000000
    SLACK3526 LOBROW2703 -1.000000
    SLACK3527 LOBROW2704 -1.000000
    SLACK3528 LOBROW2705 -1.000000
    SLACK3529 LOBROW2706 -1.000000
    SLACK3530 LOBROW2707 -1.000000
    SLACK3531 LOBROW2708 -1.000000
    SLACK3532 LOBROW2709 -1.000000
    SLACK3533 LOBROW2710 -1.000000
    SLACK3534 LOBROW2711 -1.000000
    SLACK3535 LOBROW2712 -1.000000
    SLACK3536 LOBROW2713 -1.000000
    SLACK3537 LOBROW2714 -1.000000
    SLACK3538 LOBROW2715 -1.000000
    SLACK3539 LOBROW2716 -1.000000
    SLACK3540 LOBROW2717 -1.000000
    SLACK3541 LOBROW2718 -1.000000
    SLACK3542 LOBROW2719 -1.000000
    SLACK3543 LOBROW2720 -1.000000
    SLACK3544 LOBROW2721 -1.000000
    SLACK3545 LOBROW2722 -1.000000
    SLACK3546 LOBROW2723 -1.000000
    SLACK3547 LOBROW2724 -1.000000
    SLACK3548 LOBROW2725 -1.000000
    SLACK3549 LOBROW2726 -1.000000
    SLACK3550 LOBROW2727 -1.000000
    SLACK3551 LOBROW2728 -1.000000
    SLACK3552 LOBROW2729 -1.000000
    SLACK3553 LOBROW2730 -1.000000
    SLACK3554 LOBROW2731 -1.000000
    SLACK3555 LOBROW2732 -1.000000
    SLACK3556 LOBROW2733 -1.000000
    SLACK3557 LOBROW2734 -1.000000
    SLACK3558 LOBROW2735 -1.000000
    SLACK3559 LOBROW2736 -1.000000
    SLACK3560 LOBROW2737 -1.000000
    SLACK3561 LOBROW2738 -1.000000
    SLACK3562 LOBROW2739 -1.000000
    SLACK3563 LOBROW2740 -1.000000
    SLACK3564 LOBROW2741 -1.000000
    SLACK3565 LOBROW2742 -1.000000
    SLACK3566 LOBROW2743 -1.000000
    SLACK3567 LOBROW2744 -1.000000
    SLACK3568 LOBROW2745 -1.000000
    SLACK3569 LOBROW2746 -1.000000
    SLACK3570 LOBROW2747 -1.000000
    SLACK3571 LOBROW2748 -1.000000
    SLACK3572 LOBROW2749 -1.000000
    SLACK3573 LOBROW2750 -1.000000
    SLACK3574 LOBROW2751 -1.000000
    SLACK3575 LOBROW2752 -1.000000
    SLACK3576 LOBROW2753 -1.000000
    SLACK3577 LOBROW2754 -1.000000
    SLACK3578 LOBROW2755 -1.000000
    SLACK3579 LOBROW2756 -1.000000
    SLACK3580 LOBROW2757 -1.000000
    SLACK3581 LOBROW2758 -1.000000
    SLACK3582 LOBROW2759 -1.000000
    SLACK3583 LOBROW2760 -1.000000
    SLACK3584 LOBROW2761 -1.000000
    SLACK3585 LOBROW2762 -1.000000
    SLACK3586 LOBROW2763 -1.000000
    SLACK3587 LOBROW2764 -1.000000
    SLACK3588 LOBROW2765 -1.000000
    SLACK3589 LOBROW2766 -1.000000
    SLACK3590 LOBROW2767 -1.000000
    SLACK3591 LOBROW2768 -1.000000
    SLACK3592 LOBROW2769 -1.000000
    SLACK3593 LOBROW2770 -1.000000
    SLACK3594 LOBROW2771 -1.000000
    SLACK3595 LOBROW2772 -1.000000
    SLACK3596 LOBROW2773 -1.000000
    SLACK3597 LOBROW2774 -1.000000
    SLACK3598 LOBROW2775 -1.000000
    SLACK3599 LOBROW2776 -1.000000
    SLACK3600 LOBROW2777 -1.000000
    SLACK3601 LOBROW2778 -1.000000
    SLACK3602 LOBROW2779 -1.000000
    SLACK3603 LOBROW2780 -1.000000
    SLACK3604 LOBROW2781 -1.000000
    SLACK3605 LOBROW2782 -1.000000
    SLACK3606 LOBROW2783 -1.000000
    SLACK3607 LOBROW2784 -1.000000
    SLACK3608 LOBROW2785 -1.000000
    SLACK3609 LOBROW2786 -1.000000
    SLACK3610 LOBROW2787 -1.000000
    SLACK3611 LOBROW2788 -1.000000
    SLACK3612 LOBROW2789 -1.000000
    SLACK3613 LOBROW2790 -1.000000
    SLACK3614 LOBROW2791 -1.000000
    SLACK3615 LOBROW2792 -1.000000
    SLACK3616 LOBROW2793 -1.000000
    SLACK3617 LOBROW2794 -1.000000
    SLACK3618 LOBROW2795 -1.000000
    SLACK3619 LOBROW2796 -1.000000
    SLACK3620 LOBROW2797 -1.000000
    SLACK3621 LOBROW2798 -1.000000
    SLACK3622 LOBROW2799 -1.000000
    SLACK3623 LOBROW2800 -1.000000
    SLACK3624 LOBROW2801 -1.000000
    SLACK3625 LOBROW2802 -1.000000
    SLACK3626 LOBROW2803 -1.000000
    SLACK3627 LOBROW2804 -1.000000
    SLACK3628 LOBROW2805 -1.000000
    SLACK3629 LOBROW2806 -1.000000
    SLACK3630 LOBROW2807 -1.000000
    SLACK3631 LOBROW2808 -1.000000
    SLACK3632 LOBROW2809 -1.000000
    SLACK3633 LOBROW2810 -1.000000
    SLACK3634 LOBROW2811 -1.000000
    SLACK3635 LOBROW2812 -1.000000
    SLACK3636 LOBROW2813 -1.000000
    SLACK3637 LOBROW2814 -1.000000
    SLACK3638 LOBROW2815 -1.000000
    SLACK3639 LOBROW2816 -1.000000
    SLACK3640 LOBROW2817 -1.000000
    SLACK3641 LOBROW2818 -1.000000
    SLACK3642 LOBROW2819 -1.000000
    SLACK3643 LOBROW2820 -1.000000
    SLACK3644 LOBROW2821 -1.000000
    SLACK3645 LOBROW2822 -1.000000
    SLACK3646 LOBROW2823 -1.000000
    SLACK3647 LOBROW2824 -1.000000
    SLACK3648 LOBROW2825 -1.000000
    SLACK3649 LOBROW2826 -1.000000
    SLACK3650 LOBROW2827 -1.000000
    SLACK3651 LOBROW2828 -1.000000
    SLACK3652 LOBROW2829 -1.000000
    SLACK3653 LOBROW2830 -1.000000
    SLACK3654 LOBROW2831 -1.000000
    SLACK3655 LOBROW2832 -1.000000
    SLACK3656 LOBROW2833 -1.000000
    SLACK3657 LOBROW2834 -1.000000
    SLACK3658 LOBROW2835 -1.000000
    SLACK3659 LOBROW2836 -1.000000
    SLACK3660 LOBROW2837 -1.000000
    SLACK3661 LOBROW2838 -1.000000
    SLACK3662 LOBROW2839 -1.000000
    SLACK3663 LOBROW2840 -1.000000
    SLACK3664 LOBROW2841 -1.000000
    SLACK3665 LOBROW2842 -1.000000
    SLACK3666 LOBROW2843 -1.000000
    SLACK3667 LOBROW2844 -1.000000
    SLACK3668 LOBROW2845 -1.000000
    SLACK3669 LOBROW2846 -1.000000
    SLACK3670 LOBROW2847 -1.000000
    SLACK3671 LOBROW2848 -1.000000
    SLACK3672 LOBROW2849 -1.000000
    SLACK3673 LOBROW2850 -1.000000
    SLACK3674 LOBROW2851 -1.000000
    SLACK3675 LOBROW2852 -1.000000
    SLACK3676 LOBROW2853 -1.000000
    SLACK3677 LOBROW2854 -1.000000
    SLACK3678 LOBROW2855 -1.000000
    SLACK3679 LOBROW2856 -1.000000
    SLACK3680 LOBROW2857 -1.000000
    SLACK3681 LOBROW2858 -1.000000
    SLACK3682 LOBROW2859 -1.000000
    SLACK3683 LOBROW2860 -1.000000
    SLACK3684 LOBROW2861 -1.000000
    SLACK3685 LOBROW2862 -1.000000
    SLACK3686 LOBROW2863 -1.000000
    SLACK3687 LOBROW2864 -1.000000
    SLACK3688 LOBROW2865 -1.000000
    SLACK3689 LOBROW2866 -1.000000
    SLACK3690 LOBROW2867 -1.000000
    SLACK3691 LOBROW2868 -1.000000
    SLACK3692 LOBROW2869 -1.000000
    SLACK3693 LOBROW2870 -1.000000
    SLACK3694 LOBROW2871 -1.000000
    SLACK3695 LOBROW2872 -1.000000
    SLACK3696 LOBROW2873 -1.000000
    SLACK3697 LOBROW2874 -1.000000
    SLACK3698 LOBROW2875 -1.000000
    SLACK3699 LOBROW2876 -1.000000
    SLACK3700 LOBROW2877 -1.000000
    SLACK3701 LOBROW2878 -1.000000
    SLACK3702 LOBROW2879 -1.000000
    SLACK3703 LOBROW2880 -1.000000
    SLACK3704 LOBROW2881 -1.000000
    SLACK3705 LOBROW2882 -1.000000
    SLACK3706 LOBROW2883 -1.000000
    SLACK3707 LOBROW2884 -1.000000
    SLACK3708 LOBROW2885 -1.000000
    SLACK3709 LOBROW2886 -1.000000
    SLACK3710 LOBROW2887 -1.000000
    SLACK3711 LOBROW2888 -1.000000
    SLACK3712 LOBROW2889 -1.000000
    SLACK3713 LOBROW2890 -1.000000
    SLACK3714 LOBROW2891 -1.000000
    SLACK3715 LOBROW2892 -1.000000
    SLACK3716 LOBROW2893 -1.000000
    SLACK3717 LOBROW2894 -1.000000
    SLACK3718 LOBROW2895 -1.000000
    SLACK3719 LOBROW2896 -1.000000
    SLACK3720 LOBROW2897 -1.000000
    SLACK3721 LOBROW2898 -1.000000
    SLACK3722 LOBROW2899 -1.000000
    SLACK3723 LOBROW2900 -1.000000
    SLACK3724 LOBROW2901 -1.000000
    SLACK3725 LOBROW2902 -1.000000
    SLACK3726 LOBROW2903 -1.000000
    SLACK3727 LOBROW2904 -1.000000
    SLACK3728 LOBROW2905 -1.000000
    SLACK3729 LOBROW2906 -1.000000
    SLACK3730 LOBROW2907 -1.000000
    SLACK3731 LOBROW2908 -1.000000
    SLACK3732 LOBROW2909 -1.000000
    SLACK3733 LOBROW2910 -1.000000
    SLACK3734 LOBROW2911 -1.000000
    SLACK3735 LOBROW2912 -1.000000
    SLACK3736 LOBROW2913 -1.000000
    SLACK3737 LOBROW2914 -1.000000
    SLACK3738 LOBROW2915 -1.000000
    SLACK3739 LOBROW2916 -1.000000
    SLACK3740 LOBROW2917 -1.000000
    SLACK3741 LOBROW2918 -1.000000
    SLACK3742 LOBROW2919 -1.000000
    SLACK3743 LOBROW2920 -1.000000
    SLACK3744 LOBROW2921 -1.000000
    SLACK3745 LOBROW2922 -1.000000
    SLACK3746 LOBROW2923 -1.000000
    SLACK3747 LOBROW2924 -1.000000
    SLACK3748 LOBROW2925 -1.000000
    SLACK3749 LOBROW2926 -1.000000
    SLACK3750 LOBROW2927 -1.000000
    SLACK3751 LOBROW2928 -1.000000
    SLACK3752 LOBROW2929 -1.000000
    SLACK3753 LOBROW2930 -1.000000
    SLACK3754 LOBROW2931 -1.000000
    SLACK3755 LOBROW2932 -1.000000
    SLACK3756 LOBROW2933 -1.000000
    SLACK3757 LOBROW2934 -1.000000
    SLACK3758 LOBROW2935 -1.000000
    SLACK3759 LOBROW2936 -1.000000
    SLACK3760 LOBROW2937 -1.000000
    SLACK3761 LOBROW2938 -1.000000
    SLACK3762 LOBROW2939 -1.000000
    SLACK3763 LOBROW2940 -1.000000
    SLACK3764 LOBROW2941 -1.000000
    SLACK3765 LOBROW2942 -1.000000
    SLACK3766 LOBROW2943 -1.000000
    SLACK3767 LOBROW2944 -1.000000
    SLACK3768 LOBROW2945 -1.000000
    SLACK3769 LOBROW2946 -1.000000
    SLACK3770 LOBROW2947 -1.000000
    SLACK3771 LOBROW2948 -1.000000
    SLACK3772 LOBROW2949 -1.000000
    SLACK3773 LOBROW2950 -1.000000
    SLACK3774 LOBROW2951 -1.000000
    SLACK3775 LOBROW2952 -1.000000
    SLACK3776 LOBROW2953 -1.000000
    SLACK3777 LOBROW2954 -1.000000
    SLACK3778 LOBROW2955 -1.000000
    SLACK3779 LOBROW2956 -1.000000
    SLACK3780 LOBROW2957 -1.000000
    SLACK3781 LOBROW2958 -1.000000
    SLACK3782 LOBROW2959 -1.000000
    SLACK3783 UPBROW2960 1.000000
    SLACK3784 UPBROW2961 1.000000
    SLACK3785 UPBROW2962 1.000000
    SLACK3786 UPBROW2963 1.000000
    SLACK3787 UPBROW2964 1.000000
    SLACK3788 UPBROW2965 1.000000
    SLACK3789 UPBROW2966 1.000000
    SLACK3790 UPBROW2967 1.000000
    SLACK3791 UPBROW2968 1.000000
    SLACK3792 UPBROW2969 1.000000
    SLACK3793 UPBROW2970 1.000000
    SLACK3794 UPBROW2971 1.000000
    SLACK3795 UPBROW2972 1.000000
    SLACK3796 UPBROW2973 1.000000
    SLACK3797 UPBROW2974 1.000000
    SLACK3798 UPBROW2975 1.000000
    SLACK3799 UPBROW2976 1.000000
    SLACK3800 UPBROW2977 1.000000
    SLACK3801 UPBROW2978 1.000000
    SLACK3802 UPBROW2979 1.000000
    SLACK3803 UPBROW2980 1.000000
    SLACK3804 UPBROW2981 1.000000
    SLACK3805 UPBROW2982 1.000000
    SLACK3806 UPBROW2983 1.000000
    SLACK3807 UPBROW2984 1.000000
    SLACK3808 UPBROW2985 1.000000
    SLACK3809 UPBROW2986 1.000000
    SLACK3810 UPBROW2987 1.000000
    SLACK3811 UPBROW2988 1.000000
    SLACK3812 UPBROW2989 1.000000
    SLACK3813 UPBROW2990 1.000000
    SLACK3814 UPBROW2991 1.000000
    SLACK3815 UPBROW2992 1.000000
    SLACK3816 UPBROW2993 1.000000
    SLACK3817 UPBROW2994 1.000000
    SLACK3818 UPBROW2995 1.000000
    SLACK3819 UPBROW2996 1.000000
    SLACK3820 UPBROW2997 1.000000
    SLACK3821 UPBROW2998 1.000000
    SLACK3822 UPBROW2999 1.000000
    SLACK3823 LOBROW3000 -1.000000
    SLACK3824 UPBROW3001 1.000000
    SLACK3825 LOBROW3002 -1.000000
    SLACK3826 UPBROW3003 1.000000
    SLACK3827 LOBROW3004 -1.000000
    SLACK3828 UPBROW3005 1.000000
    SLACK3829 LOBROW3006 -1.000000
    SLACK3830 UPBROW3007 1.000000
    SLACK3831 LOBROW3008 -1.000000
    SLACK3832 UPBROW3009 1.000000
    SLACK3833 LOBROW3010 -1.000000
    SLACK3834 UPBROW3011 1.000000
    SLACK3835 LOBROW3012 -1.000000
    SLACK3836 UPBROW3013 1.000000
    SLACK3837 LOBROW3014 -1.000000
    SLACK3838 UPBROW3015 1.000000
    SLACK3839 LOBROW3016 -1.000000
    SLACK3840 UPBROW3017 1.000000
    SLACK3841 LOBROW3018 -1.000000
    SLACK3842 UPBROW3019 1.000000
    SLACK3843 LOBROW3020 -1.000000
    SLACK3844 UPBROW3021 1.000000
    SLACK3845 LOBROW3022 -1.000000
    SLACK3846 UPBROW3023 1.000000
    SLACK3847 LOBROW3024 -1.000000
    SLACK3848 UPBROW3025 1.000000
    SLACK3849 LOBROW3026 -1.000000
    SLACK3850 UPBROW3027 1.000000
    SLACK3851 LOBROW3028 -1.000000
    SLACK3852 UPBROW3029 1.000000
    SLACK3853 LOBROW3030 -1.000000
    SLACK3854 UPBROW3031 1.000000
    SLACK3855 LOBROW3032 -1.000000
    SLACK3856 UPBROW3033 1.000000
    SLACK3857 LOBROW3034 -1.000000
    SLACK3858 UPBROW3035 1.000000
    SLACK3859 LOBROW3036 -1.000000
    SLACK3860 UPBROW3037 1.000000
    SLACK3861 LOBROW3038 -1.000000
    SLACK3862 UPBROW3039 1.000000
    SLACK3863 LOBROW3040 -1.000000
    SLACK3864 UPBROW3041 1.000000
    SLACK3865 LOBROW3042 -1.000000
    SLACK3866 UPBROW3043 1.000000
    SLACK3867 LOBROW3044 -1.000000
    SLACK3868 UPBROW3045 1.000000
    SLACK3869 LOBROW3046 -1.000000
    SLACK3870 UPBROW3047 1.000000
    SLACK3871 LOBROW3048 -1.000000
    SLACK3872 UPBROW3049 1.000000
    SLACK3873 LOBROW3050 -1.000000
    SLACK3874 UPBROW3051 1.000000
    SLACK3875 LOBROW3052 -1.000000
    SLACK3876 UPBROW3053 1.000000
    SLACK3877 LOBROW3054 -1.000000
    SLACK3878 UPBROW3055 1.000000
    SLACK3879 LOBROW3056 -1.000000
    SLACK3880 UPBROW3057 1.000000
    SLACK3881 LOBROW3058 -1.000000
    SLACK3882 UPBROW3059 1.000000
    SLACK3883 LOBROW3060 -1.000000
    SLACK3884 UPBROW3061 1.000000
    SLACK3885 LOBROW3062 -1.000000
    SLACK3886 UPBROW3063 1.000000
    SLACK3887 LOBROW3064 -1.000000
    SLACK3888 UPBROW3065 1.000000
    SLACK3889 LOBROW3066 -1.000000
    SLACK3890 UPBROW3067 1.000000
    SLACK3891 LOBROW3068 -1.000000
    SLACK3892 UPBROW3069 1.000000
    SLACK3893 LOBROW3070 -1.000000
    SLACK3894 UPBROW3071 1.000000
    SLACK3895 LOBROW3072 -1.000000
    SLACK3896 UPBROW3073 1.000000
    SLACK3897 LOBROW3074 -1.000000
    SLACK3898 UPBROW3075 1.000000
    SLACK3899 LOBROW3076 -1.000000
    SLACK3900 UPBROW3077 1.000000
    SLACK3901 LOBROW3078 -1.000000
    SLACK3902 UPBROW3079 1.000000
    SLACK3903 LOBROW3080 -1.000000
    SLACK3904 UPBROW3081 1.000000
    SLACK3905 LOBROW3082 -1.000000
    SLACK3906 UPBROW3083 1.000000
    SLACK3907 LOBROW3084 -1.000000
    SLACK3908 UPBROW3085 1.000000
    SLACK3909 LOBROW3086 -1.000000
    SLACK3910 UPBROW3087 1.000000
    SLACK3911 LOBROW3088 -1.000000
    SLACK3912 UPBROW3089 1.000000
    SLACK3913 LOBROW3090 -1.000000
    SLACK3914 UPBROW3091 1.000000
    SLACK3915 LOBROW3092 -1.000000
    SLACK3916 UPBROW3093 1.000000
    SLACK3917 LOBROW3094 -1.000000
    SLACK3918 UPBROW3095 1.000000
    SLACK3919 LOBROW3096 -1.000000
    SLACK3920 UPBROW3097 1.000000
    SLACK3921 LOBROW3098 -1.000000
    SLACK3922 UPBROW3099 1.000000
    SLACK3923 LOBROW3100 -1.000000
    SLACK3924 UPBROW3101 1.000000
    SLACK3925 LOBROW3102 -1.000000
    SLACK3926 UPBROW3103 1.000000
    SLACK3927 LOBROW3104 -1.000000
    SLACK3928 UPBROW3105 1.000000
    SLACK3929 LOBROW3106 -1.000000
    SLACK3930 UPBROW3107 1.000000
    SLACK3931 LOBROW3108 -1.000000
    SLACK3932 UPBROW3109 1.000000
    SLACK3933 LOBROW3110 -1.000000
    SLACK3934 UPBROW3111 1.000000
    SLACK3935 LOBROW3112 -1.000000
    SLACK3936 UPBROW3113 1.000000
    SLACK3937 LOBROW3114 -1.000000
    SLACK3938 UPBROW3115 1.000000
    SLACK3939 LOBROW3116 -1.000000
    SLACK3940 UPBROW3117 1.000000
    SLACK3941 LOBROW3118 -1.000000
    SLACK3942 UPBROW3119 1.000000
    SLACK3943 LOBROW3120 -1.000000
    SLACK3944 UPBROW3121 1.000000
    SLACK3945 LOBROW3122 -1.000000
    SLACK3946 UPBROW3123 1.000000
    SLACK3947 LOBROW3124 -1.000000
    SLACK3948 UPBROW3125 1.000000
    SLACK3949 LOBROW3126 -1.000000
    SLACK3950 UPBROW3127 1.000000
    SLACK3951 LOBROW3128 -1.000000
    SLACK3952 UPBROW3129 1.000000
    SLACK3953 LOBROW3130 -1.000000
    SLACK3954 UPBROW3131 1.000000
    SLACK3955 LOBROW3132 -1.000000
    SLACK3956 UPBROW3133 1.000000
    SLACK3957 LOBROW3134 -1.000000
    SLACK3958 UPBROW3135 1.000000
    SLACK3959 LOBROW3136 -1.000000
    SLACK3960 UPBROW3137 1.000000
    SLACK3961 LOBROW3138 -1.000000
    SLACK3962 UPBROW3139 1.000000
    SLACK3963 LOBROW3140 -1.000000
    SLACK3964 UPBROW3141 1.000000
    SLACK3965 LOBROW3142 -1.000000
    SLACK3966 UPBROW3143 1.000000
    SLACK3967 LOBROW3144 -1.000000
    SLACK3968 UPBROW3145 1.000000
    SLACK3969 LOBROW3146 -1.000000
    SLACK3970 UPBROW3147 1.000000
    SLACK3971 LOBROW3148 -1.000000
    SLACK3972 UPBROW3149 1.000000
    SLACK3973 LOBROW3150 -1.000000
    SLACK3974 UPBROW3151 1.000000
    SLACK3975 LOBROW3152 -1.000000
    SLACK3976 UPBROW3153 1.000000
    SLACK3977 LOBROW3154 -1.000000
    SLACK3978 UPBROW3155 1.000000
    SLACK3979 LOBROW3156 -1.000000
    SLACK3980 UPBROW3157 1.000000
    SLACK3981 LOBROW3158 -1.000000
    SLACK3982 UPBROW3159 1.000000
    SLACK3983 LOBROW3160 -1.000000
    SLACK3984 UPBROW3161 1.000000
    SLACK3985 LOBROW3162 -1.000000
    SLACK3986 UPBROW3163 1.000000
    SLACK3987 LOBROW3164 -1.000000
    SLACK3988 UPBROW3165 1.000000
    SLACK3989 LOBROW3166 -1.000000
    SLACK3990 UPBROW3167 1.000000
    SLACK3991 LOBROW3168 -1.000000
    SLACK3992 UPBROW3169 1.000000
    SLACK3993 LOBROW3170 -1.000000
    SLACK3994 UPBROW3171 1.000000
    SLACK3995 LOBROW3172 -1.000000
    SLACK3996 UPBROW3173 1.000000
    SLACK3997 LOBROW3174 -1.000000
    SLACK3998 UPBROW3175 1.000000
    SLACK3999 LOBROW3176 -1.000000
    SLACK4000 UPBROW3177 1.000000
    SLACK4001 LOBROW3178 -1.000000
    SLACK4002 UPBROW3179 1.000000
    SLACK4003 LOBROW3180 -1.000000
    SLACK4004 UPBROW3181 1.000000
    SLACK4005 LOBROW3182 -1.000000
    SLACK4006 UPBROW3183 1.000000
    SLACK4007 LOBROW3184 -1.000000
    SLACK4008 UPBROW3185 1.000000
    SLACK4009 LOBROW3186 -1.000000
    SLACK4010 UPBROW3187 1.000000
    SLACK4011 LOBROW3188 -1.000000
    SLACK4012 UPBROW3189 1.000000
    SLACK4013 LOBROW3190 -1.000000
    SLACK4014 UPBROW3191 1.000000
    SLACK4015 LOBROW3192 -1.000000
    SLACK4016 UPBROW3193 1.000000
    SLACK4017 LOBROW3194 -1.000000
    SLACK4018 UPBROW3195 1.000000
    SLACK4019 LOBROW3196 -1.000000
    SLACK4020 UPBROW3197 1.000000
    SLACK4021 LOBROW3198 -1.000000
    SLACK4022 UPBROW3199 1.000000
    SLACK4023 LOBROW3200 -1.000000
    SLACK4024 UPBROW3201 1.000000
    SLACK4025 LOBROW3202 -1.000000
    SLACK4026 UPBROW3203 1.000000
    SLACK4027 LOBROW3204 -1.000000
    SLACK4028 UPBROW3205 1.000000
    SLACK4029 LOBROW3206 -1.000000
    SLACK4030 UPBROW3207 1.000000
    SLACK4031 LOBROW3208 -1.000000
    SLACK4032 UPBROW3209 1.000000
    SLACK4033 LOBROW3210 -1.000000
    SLACK4034 UPBROW3211 1.000000
    SLACK4035 LOBROW3212 -1.000000
    SLACK4036 UPBROW3213 1.000000
    SLACK4037 LOBROW3214 -1.000000
    SLACK4038 UPBROW3215 1.000000
    SLACK4039 LOBROW3216 -1.000000
    SLACK4040 UPBROW3217 1.000000
    SLACK4041 LOBROW3218 -1.000000
    SLACK4042 UPBROW3219 1.000000
    SLACK4043 LOBROW3220 -1.000000
    SLACK4044 UPBROW3221 1.000000
    SLACK4045 LOBROW3222 -1.000000
    SLACK4046 UPBROW3223 1.000000
    SLACK4047 LOBROW3224 -1.000000
    SLACK4048 UPBROW3225 1.000000
    SLACK4049 LOBROW3226 -1.000000
    SLACK4050 UPBROW3227 1.000000
    SLACK4051 LOBROW3228 -1.000000
    SLACK4052 UPBROW3229 1.000000
    SLACK4053 LOBROW3230 -1.000000
    SLACK4054 UPBROW3231 1.000000
    SLACK4055 LOBROW3232 -1.000000
    SLACK4056 UPBROW3233 1.000000
    SLACK4057 LOBROW3234 -1.000000
    SLACK4058 UPBROW3235 1.000000
    SLACK4059 LOBROW3236 -1.000000
    SLACK4060 UPBROW3237 1.000000
    SLACK4061 LOBROW3238 -1.000000
    SLACK4062 UPBROW3239 1.000000
    SLACK4063 LOBROW3240 -1.000000
    SLACK4064 UPBROW3241 1.000000
    SLACK4065 LOBROW3242 -1.000000
    SLACK4066 UPBROW3243 1.000000
    SLACK4067 LOBROW3244 -1.000000
    SLACK4068 UPBROW3245 1.000000
    SLACK4069 LOBROW3246 -1.000000
    SLACK4070 UPBROW3247 1.000000
    SLACK4071 LOBROW3248 -1.000000
    SLACK4072 UPBROW3249 1.000000
    SLACK4073 LOBROW3250 -1.000000
    SLACK4074 UPBROW3251 1.000000
    SLACK4075 LOBROW3252 -1.000000
    SLACK4076 UPBROW3253 1.000000
    SLACK4077 LOBROW3254 -1.000000
    SLACK4078 UPBROW3255 1.000000
    SLACK4079 LOBROW3256 -1.000000
    SLACK4080 UPBROW3257 1.000000
    SLACK4081 LOBROW3258 -1.000000
    SLACK4082 UPBROW3259 1.000000
    SLACK4083 LOBROW3260 -1.000000
    SLACK4084 UPBROW3261 1.000000
    SLACK4085 LOBROW3262 -1.000000
    SLACK4086 UPBROW3263 1.000000
    SLACK4087 LOBROW3264 -1.000000
    SLACK4088 UPBROW3265 1.000000
    SLACK4089 LOBROW3266 -1.000000
    SLACK4090 UPBROW3267 1.000000
    SLACK4091 LOBROW3268 -1.000000
    SLACK4092 UPBROW3269 1.000000
    SLACK4093 LOBROW3270 -1.000000
    SLACK4094 UPBROW3271 1.000000
    SLACK4095 LOBROW3272 -1.000000
    SLACK4096 UPBROW3273 1.000000
    SLACK4097 LOBROW3274 -1.000000
    SLACK4098 UPBROW3275 1.000000
    SLACK4099 LOBROW3276 -1.000000
    SLACK4100 UPBROW3277 1.000000
    SLACK4101 LOBROW3278 -1.000000
    SLACK4102 UPBROW3279 1.000000
    SLACK4103 LOBROW3280 -1.000000
    SLACK4104 UPBROW3281 1.000000
    SLACK4105 LOBROW3282 -1.000000
    SLACK4106 UPBROW3283 1.000000
    SLACK4107 LOBROW3284 -1.000000
    SLACK4108 UPBROW3285 1.000000
    SLACK4109 LOBROW3286 -1.000000
    SLACK4110 UPBROW3287 1.000000
    SLACK4111 LOBROW3288 -1.000000
    SLACK4112 UPBROW3289 1.000000
    SLACK4113 LOBROW3290 -1.000000
    SLACK4114 UPBROW3291 1.000000
    SLACK4115 LOBROW3292 -1.000000
    SLACK4116 UPBROW3293 1.000000
    SLACK4117 LOBROW3294 -1.000000
    SLACK4118 UPBROW3295 1.000000
    SLACK4119 LOBROW3296 -1.000000
    SLACK4120 UPBROW3297 1.000000
    SLACK4121 LOBROW3298 -1.000000
    SLACK4122 UPBROW3299 1.000000
    SLACK4123 LOBROW3300 -1.000000
    SLACK4124 UPBROW3301 1.000000
    SLACK4125 LOBROW3302 -1.000000
    SLACK4126 UPBROW3303 1.000000
    SLACK4127 LOBROW3304 -1.000000
    SLACK4128 UPBROW3305 1.000000
    SLACK4129 LOBROW3306 -1.000000
    SLACK4130 UPBROW3307 1.000000
    SLACK4131 LOBROW3308 -1.000000
    SLACK4132 UPBROW3309 1.000000
    SLACK4133 LOBROW3310 -1.000000
    SLACK4134 UPBROW3311 1.000000
    SLACK4135 LOBROW3312 -1.000000
    SLACK4136 UPBROW3313 1.000000
    SLACK4137 LOBROW3314 -1.000000
    SLACK4138 UPBROW3315 1.000000
    SLACK4139 LOBROW3316 -1.000000
    SLACK4140 UPBROW3317 1.000000
    SLACK4141 LOBROW3318 -1.000000
    SLACK4142 UPBROW3319 1.000000
    SLACK4143 LOBROW3320 -1.000000
    SLACK4144 UPBROW3321 1.000000
    SLACK4145 LOBROW3322 -1.000000
    SLACK4146 UPBROW3323 1.000000
    SLACK4147 LOBROW3324 -1.000000
    SLACK4148 UPBROW3325 1.000000
    SLACK4149 LOBROW3326 -1.000000
    SLACK4150 UPBROW3327 1.000000
    SLACK4151 LOBROW3328 -1.000000
    SLACK4152 UPBROW3329 1.000000
    SLACK4153 LOBROW3330 -1.000000
    SLACK4154 UPBROW3331 1.000000
    SLACK4155 LOBROW3332 -1.000000
    SLACK4156 UPBROW3333 1.000000
    SLACK4157 LOBROW3334 -1.000000
    SLACK4158 UPBROW3335 1.000000
    SLACK4159 LOBROW3336 -1.000000
    SLACK4160 UPBROW3337 1.000000
    SLACK4161 LOBROW3338 -1.000000
    SLACK4162 UPBROW3339 1.000000
    SLACK4163 LOBROW3340 -1.000000
    SLACK4164 UPBROW3341 1.000000
    SLACK4165 LOBROW3342 -1.000000
    SLACK4166 UPBROW3343 1.000000
    SLACK4167 LOBROW3344 -1.000000
    SLACK4168 UPBROW3345 1.000000
    SLACK4169 LOBROW3346 -1.000000
    SLACK4170 UPBROW3347 1.000000
    SLACK4171 LOBROW3348 -1.000000
    SLACK4172 UPBROW3349 1.000000
    SLACK4173 LOBROW3350 -1.000000
    SLACK4174 UPBROW3351 1.000000
    SLACK4175 LOBROW3352 -1.000000
    SLACK4176 UPBROW3353 1.000000
    SLACK4177 LOBROW3354 -1.000000
    SLACK4178 UPBROW3355 1.000000
    SLACK4179 LOBROW3356 -1.000000
    SLACK4180 UPBROW3357 1.000000
    SLACK4181 LOBROW3358 -1.000000
    SLACK4182 UPBROW3359 1.000000
    SLACK4183 LOBROW3360 -1.000000
    SLACK4184 UPBROW3361 1.000000
    SLACK4185 LOBROW3362 -1.000000
    SLACK4186 UPBROW3363 1.000000
    SLACK4187 LOBROW3364 -1.000000
    SLACK4188 UPBROW3365 1.000000
    SLACK4189 LOBROW3366 -1.000000
    SLACK4190 UPBROW3367 1.000000
    SLACK4191 LOBROW3368 -1.000000
    SLACK4192 UPBROW3369 1.000000
    SLACK4193 LOBROW3370 -1.000000
    SLACK4194 UPBROW3371 1.000000
    SLACK4195 LOBROW3372 -1.000000
    SLACK4196 UPBROW3373 1.000000
    SLACK4197 LOBROW3374 -1.000000
    SLACK4198 UPBROW3375 1.000000
    SLACK4199 LOBROW3376 -1.000000
    SLACK4200 UPBROW3377 1.000000
    SLACK4201 LOBROW3378 -1.000000
    SLACK4202 UPBROW3379 1.000000
    SLACK4203 LOBROW3380 -1.000000
    SLACK4204 UPBROW3381 1.000000
    SLACK4205 LOBROW3382 -1.000000
    SLACK4206 UPBROW3383 1.000000
    SLACK4207 LOBROW3384 -1.000000
    SLACK4208 UPBROW3385 1.000000
    SLACK4209 LOBROW3386 -1.000000
    SLACK4210 UPBROW3387 1.000000
    SLACK4211 LOBROW3388 -1.000000
    SLACK4212 UPBROW3389 1.000000
    SLACK4213 LOBROW3390 -1.000000
    SLACK4214 UPBROW3391 1.000000
    SLACK4215 LOBROW3392 -1.000000
    SLACK4216 UPBROW3393 1.000000
    SLACK4217 LOBROW3394 -1.000000
    SLACK4218 UPBROW3395 1.000000
    SLACK4219 LOBROW3396 -1.000000
    SLACK4220 UPBROW3397 1.000000
    SLACK4221 LOBROW3398 -1.000000
    SLACK4222 UPBROW3399 1.000000
    SLACK4223 LOBROW3400 -1.000000
    SLACK4224 UPBROW3401 1.000000
    SLACK4225 LOBROW3402 -1.000000
    SLACK4226 UPBROW3403 1.000000
    SLACK4227 LOBROW3404 -1.000000
    SLACK4228 UPBROW3405 1.000000
    SLACK4229 LOBROW3406 -1.000000
    SLACK4230 UPBROW3407 1.000000
    SLACK4231 LOBROW3408 -1.000000
    SLACK4232 UPBROW3409 1.000000
    SLACK4233 LOBROW3410 -1.000000
    SLACK4234 UPBROW3411 1.000000
    SLACK4235 LOBROW3412 -1.000000
    SLACK4236 UPBROW3413 1.000000
    SLACK4237 LOBROW3414 -1.000000
    SLACK4238 UPBROW3415 1.000000
    SLACK4239 LOBROW3416 -1.000000
    SLACK4240 UPBROW3417 1.000000
    SLACK4241 LOBROW3418 -1.000000
    SLACK4242 UPBROW3419 1.000000
    SLACK4243 LOBROW3420 -1.000000
    SLACK4244 UPBROW3421 1.000000
    SLACK4245 LOBROW3422 -1.000000
    SLACK4246 UPBROW3423 1.000000
    SLACK4247 LOBROW3424 -1.000000
    SLACK4248 UPBROW3425 1.000000
    SLACK4249 LOBROW3426 -1.000000
    SLACK4250 UPBROW3427 1.000000
    SLACK4251 LOBROW3428 -1.000000
    SLACK4252 UPBROW3429 1.000000
    SLACK4253 LOBROW3430 -1.000000
    SLACK4254 UPBROW3431 1.000000
    SLACK4255 LOBROW3432 -1.000000
    SLACK4256 UPBROW3433 1.000000
    SLACK4257 LOBROW3434 -1.000000
    SLACK4258 UPBROW3435 1.000000
    SLACK4259 LOBROW3436 -1.000000
    SLACK4260 UPBROW3437 1.000000
    SLACK4261 LOBROW3438 -1.000000
    SLACK4262 UPBROW3439 1.000000
    SLACK4263 LOBROW3440 -1.000000
    SLACK4264 UPBROW3441 1.000000
    SLACK4265 LOBROW3442 -1.000000
    SLACK4266 UPBROW3443 1.000000
    SLACK4267 LOBROW3444 -1.000000
    SLACK4268 UPBROW3445 1.000000
    SLACK4269 LOBROW3446 -1.000000
    SLACK4270 UPBROW3447 1.000000
    SLACK4271 LOBROW3448 -1.000000
    SLACK4272 UPBROW3449 1.000000
    SLACK4273 LOBROW3450 -1.000000
    SLACK4274 UPBROW3451 1.000000
    SLACK4275 LOBROW3452 -1.000000
    SLACK4276 UPBROW3453 1.000000
    SLACK4277 LOBROW3454 -1.000000
    SLACK4278 UPBROW3455 1.000000
    SLACK4279 LOBROW3456 -1.000000
    SLACK4280 UPBROW3457 1.000000
    SLACK4281 LOBROW3458 -1.000000
    SLACK4282 UPBROW3459 1.000000
    SLACK4283 LOBROW3460 -1.000000
    SLACK4284 UPBROW3461 1.000000
    SLACK4285 LOBROW3462 -1.000000
    SLACK4286 UPBROW3463 1.000000
    SLACK4287 LOBROW3464 -1.000000
    SLACK4288 UPBROW3465 1.000000
    SLACK4289 LOBROW3466 -1.000000
    SLACK4290 UPBROW3467 1.000000
    SLACK4291 LOBROW3468 -1.000000
    SLACK4292 UPBROW3469 1.000000
    SLACK4293 LOBROW3470 -1.000000
    SLACK4294 UPBROW3471 1.000000
    SLACK4295 LOBROW3472 -1.000000
    SLACK4296 UPBROW3473 1.000000
    SLACK4297 LOBROW3474 -1.000000
    SLACK4298 UPBROW3475 1.000000
    SLACK4299 LOBROW3476 -1.000000
    SLACK4300 UPBROW3477 1.000000
    SLACK4301 LOBROW3478 -1.000000
    SLACK4302 UPBROW3479 1.000000
    SLACK4303 LOBROW3480 -1.000000
    SLACK4304 UPBROW3481 1.000000
    SLACK4305 LOBROW3482 -1.000000
    SLACK4306 UPBROW3483 1.000000
    SLACK4307 LOBROW3484 -1.000000
    SLACK4308 UPBROW3485 1.000000
    SLACK4309 LOBROW3486 -1.000000
    SLACK4310 UPBROW3487 1.000000
    SLACK4311 LOBROW3488 -1.000000
    SLACK4312 UPBROW3489 1.000000
    SLACK4313 LOBROW3490 -1.000000
    SLACK4314 UPBROW3491 1.000000
    SLACK4315 LOBROW3492 -1.000000
    SLACK4316 UPBROW3493 1.000000
    SLACK4317 LOBROW3494 -1.000000
    SLACK4318 UPBROW3495 1.000000
    SLACK4319 LOBROW3496 -1.000000
    SLACK4320 UPBROW3497 1.000000
    SLACK4321 LOBROW3498 -1.000000
    SLACK4322 UPBROW3499 1.000000
    SLACK4323 LOBROW3500 -1.000000
    SLACK4324 UPBROW3501 1.000000
    SLACK4325 LOBROW3502 -1.000000
    SLACK4326 UPBROW3503 1.000000
    SLACK4327 LOBROW3504 -1.000000
    SLACK4328 UPBROW3505 1.000000
    SLACK4329 LOBROW3506 -1.000000
    SLACK4330 UPBROW3507 1.000000
    SLACK4331 LOBROW3508 -1.000000
    SLACK4332 UPBROW3509 1.000000
    SLACK4333 LOBROW3510 -1.000000
    SLACK4334 UPBROW3511 1.000000
    SLACK4335 LOBROW3512 -1.000000
    SLACK4336 UPBROW3513 1.000000
    SLACK4337 LOBROW3514 -1.000000
    SLACK4338 UPBROW3515 1.000000
    SLACK4339 LOBROW3516 -1.000000
    SLACK4340 UPBROW3517 1.000000
    SLACK4341 LOBROW3518 -1.000000
    SLACK4342 UPBROW3519 1.000000
    SLACK4343 LOBROW3520 -1.000000
    SLACK4344 UPBROW3521 1.000000
    SLACK4345 LOBROW3522 -1.000000
    SLACK4346 UPBROW3523 1.000000
    SLACK4347 LOBROW3524 -1.000000
    SLACK4348 UPBROW3525 1.000000
    SLACK4349 LOBROW3526 -1.000000
    SLACK4350 UPBROW3527 1.000000
    SLACK4351 LOBROW3528 -1.000000
    SLACK4352 UPBROW3529 1.000000
    SLACK4353 LOBROW3530 -1.000000
    SLACK4354 UPBROW3531 1.000000
    SLACK4355 LOBROW3532 -1.000000
    SLACK4356 UPBROW3533 1.000000
    SLACK4357 LOBROW3534 -1.000000
    SLACK4358 UPBROW3535 1.000000
    SLACK4359 LOBROW3536 -1.000000
    SLACK4360 UPBROW3537 1.000000
    SLACK4361 LOBROW3538 -1.000000
    SLACK4362 UPBROW3539 1.000000
    SLACK4363 LOBROW3540 -1.000000
    SLACK4364 UPBROW3541 1.000000
    SLACK4365 LOBROW3542 -1.000000
    SLACK4366 UPBROW3543 1.000000
    SLACK4367 LOBROW3544 -1.000000
    SLACK4368 UPBROW3545 1.000000
    SLACK4369 LOBROW3546 -1.000000
    SLACK4370 UPBROW3547 1.000000
    SLACK4371 LOBROW3548 -1.000000
    SLACK4372 UPBROW3549 1.000000
    SLACK4373 LOBROW3550 -1.000000
    SLACK4374 UPBROW3551 1.000000
    SLACK4375 LOBROW3552 -1.000000
    SLACK4376 UPBROW3553 1.000000
    SLACK4377 LOBROW3554 -1.000000
    SLACK4378 UPBROW3555 1.000000
    SLACK4379 LOBROW3556 -1.000000
    SLACK4380 UPBROW3557 1.000000
    SLACK4381 LOBROW3558 -1.000000
    SLACK4382 UPBROW3559 1.000000
    SLACK4383 LOBROW3560 -1.000000
    SLACK4384 UPBROW3561 1.000000
    SLACK4385 LOBROW3562 -1.000000
    SLACK4386 UPBROW3563 1.000000
    SLACK4387 LOBROW3564 -1.000000
    SLACK4388 UPBROW3565 1.000000
    SLACK4389 LOBROW3566 -1.000000
    SLACK4390 UPBROW3567 1.000000
    SLACK4391 LOBROW3568 -1.000000
    SLACK4392 UPBROW3569 1.000000
    SLACK4393 LOBROW3570 -1.000000
    SLACK4394 UPBROW3571 1.000000
    SLACK4395 LOBROW3572 -1.000000
    SLACK4396 UPBROW3573 1.000000
    SLACK4397 LOBROW3574 -1.000000
    SLACK4398 UPBROW3575 1.000000
    SLACK4399 LOBROW3576 -1.000000
    SLACK4400 UPBROW3577 1.000000
    SLACK4401 LOBROW3578 -1.000000
    SLACK4402 UPBROW3579 1.000000
    SLACK4403 LOBROW3580 -1.000000
    SLACK4404 UPBROW3581 1.000000
    SLACK4405 LOBROW3582 -1.000000
    SLACK4406 UPBROW3583 1.000000
    SLACK4407 LOBROW3584 -1.000000
    SLACK4408 UPBROW3585 1.000000
    SLACK4409 LOBROW3586 -1.000000
    SLACK4410 UPBROW3587 1.000000
    SLACK4411 LOBROW3588 -1.000000
    SLACK4412 UPBROW3589 1.000000
    SLACK4413 LOBROW3590 -1.000000
    SLACK4414 UPBROW3591 1.000000
    SLACK4415 LOBROW3592 -1.000000
    SLACK4416 UPBROW3593 1.000000
    SLACK4417 LOBROW3594 -1.000000
    SLACK4418 UPBROW3595 1.000000
    SLACK4419 LOBROW3596 -1.000000
    SLACK4420 UPBROW3597 1.000000
    SLACK4421 LOBROW3598 -1.000000
    SLACK4422 UPBROW3599 1.000000
    SLACK4423 LOBROW3600 -1.000000
    SLACK4424 UPBROW3601 1.000000
    SLACK4425 LOBROW3602 -1.000000
    SLACK4426 UPBROW3603 1.000000
    SLACK4427 LOBROW3604 -1.000000
    SLACK4428 UPBROW3605 1.000000
    SLACK4429 LOBROW3606 -1.000000
    SLACK4430 UPBROW3607 1.000000
    SLACK4431 LOBROW3608 -1.000000
    SLACK4432 UPBROW3609 1.000000
    SLACK4433 LOBROW3610 -1.000000
    SLACK4434 UPBROW3611 1.000000
    SLACK4435 LOBROW3612 -1.000000
    SLACK4436 UPBROW3613 1.000000
    SLACK4437 LOBROW3614 -1.000000
    SLACK4438 UPBROW3615 1.000000
    SLACK4439 LOBROW3616 -1.000000
    SLACK4440 UPBROW3617 1.000000
    SLACK4441 LOBROW3618 -1.000000
    SLACK4442 UPBROW3619 1.000000
    SLACK4443 LOBROW3620 -1.000000
    SLACK4444 UPBROW3621 1.000000
    SLACK4445 LOBROW3622 -1.000000
    SLACK4446 UPBROW3623 1.000000
    SLACK4447 LOBROW3624 -1.000000
    SLACK4448 UPBROW3625 1.000000
    SLACK4449 LOBROW3626 -1.000000
    SLACK4450 UPBROW3627 1.000000
    SLACK4451 LOBROW3628 -1.000000
    SLACK4452 UPBROW3629 1.000000
    SLACK4453 LOBROW3630 -1.000000
    SLACK4454 UPBROW3631 1.000000
    SLACK4455 LOBROW3632 -1.000000
    SLACK4456 UPBROW3633 1.000000
    SLACK4457 LOBROW3634 -1.000000
    SLACK4458 UPBROW3635 1.000000
    SLACK4459 LOBROW3636 -1.000000
    SLACK4460 UPBROW3637 1.000000
    SLACK4461 LOBROW3638 -1.000000
    SLACK4462 UPBROW3639 1.000000
    SLACK4463 LOBROW3640 -1.000000
    SLACK4464 UPBROW3641 1.000000
    SLACK4465 LOBROW3642 -1.000000
    SLACK4466 UPBROW3643 1.000000
    SLACK4467 LOBROW3644 -1.000000
    SLACK4468 UPBROW3645 1.000000
    SLACK4469 LOBROW3646 -1.000000
    SLACK4470 UPBROW3647 1.000000
    SLACK4471 LOBROW3648 -1.000000
    SLACK4472 UPBROW3649 1.000000
    SLACK4473 LOBROW3650 -1.000000
    SLACK4474 UPBROW3651 1.000000
    SLACK4475 LOBROW3652 -1.000000
    SLACK4476 UPBROW3653 1.000000
    SLACK4477 LOBROW3654 -1.000000
    SLACK4478 UPBROW3655 1.000000
    SLACK4479 LOBROW3656 -1.000000
    SLACK4480 UPBROW3657 1.000000
    SLACK4481 LOBROW3658 -1.000000
    SLACK4482 UPBROW3659 1.000000
    SLACK4483 LOBROW3660 -1.000000
    SLACK4484 UPBROW3661 1.000000
    SLACK4485 LOBROW3662 -1.000000
    SLACK4486 UPBROW3663 1.000000
    SLACK4487 LOBROW3664 -1.000000
    SLACK4488 UPBROW3665 1.000000
    SLACK4489 LOBROW3666 -1.000000
    SLACK4490 UPBROW3667 1.000000
    SLACK4491 LOBROW3668 -1.000000
    SLACK4492 UPBROW3669 1.000000
    SLACK4493 LOBROW3670 -1.000000
    SLACK4494 UPBROW3671 1.000000
    SLACK4495 LOBROW3672 -1.000000
    SLACK4496 UPBROW3673 1.000000
    SLACK4497 LOBROW3674 -1.000000
    SLACK4498 UPBROW3675 1.000000
    SLACK4499 LOBROW3676 -1.000000
    SLACK4500 UPBROW3677 1.000000
    SLACK4501 LOBROW3678 -1.000000
    SLACK4502 UPBROW3679 1.000000
    SLACK4503 LOBROW3680 -1.000000
    SLACK4504 UPBROW3681 1.000000
    SLACK4505 LOBROW3682 -1.000000
    SLACK4506 UPBROW3683 1.000000
    SLACK4507 LOBROW3684 -1.000000
    SLACK4508 UPBROW3685 1.000000
    SLACK4509 LOBROW3686 -1.000000
    SLACK4510 UPBROW3687 1.000000
    SLACK4511 LOBROW3688 -1.000000
    SLACK4512 UPBROW3689 1.000000
    SLACK4513 LOBROW3690 -1.000000
    SLACK4514 UPBROW3691 1.000000
    SLACK4515 LOBROW3692 -1.000000
    SLACK4516 UPBROW3693 1.000000
    SLACK4517 LOBROW3694 -1.000000
    SLACK4518 UPBROW3695 1.000000
    SLACK4519 LOBROW3696 -1.000000
    SLACK4520 UPBROW3697 1.000000
    SLACK4521 LOBROW3698 -1.000000
    SLACK4522 UPBROW3699 1.000000
    SLACK4523 LOBROW3700 -1.000000
    SLACK4524 UPBROW3701 1.000000
    SLACK4525 LOBROW3702 -1.000000
    SLACK4526 UPBROW3703 1.000000
    SLACK4527 LOBROW3704 -1.000000
    SLACK4528 UPBROW3705 1.000000
    SLACK4529 LOBROW3706 -1.000000
    SLACK4530 UPBROW3707 1.000000
    SLACK4531 LOBROW3708 -1.000000
    SLACK4532 UPBROW3709 1.000000
    SLACK4533 LOBROW3710 -1.000000
    SLACK4534 UPBROW3711 1.000000
    SLACK4535 LOBROW3712 -1.000000
    SLACK4536 UPBROW3713 1.000000
    SLACK4537 LOBROW3714 -1.000000
    SLACK4538 UPBROW3715 1.000000
    SLACK4539 LOBROW3716 -1.000000
    SLACK4540 UPBROW3717 1.000000
    SLACK4541 LOBROW3718 -1.000000
    SLACK4542 UPBROW3719 1.000000
    SLACK4543 LOBROW3720 -1.000000
    SLACK4544 UPBROW3721 1.000000
    SLACK4545 LOBROW3722 -1.000000
    SLACK4546 UPBROW3723 1.000000
    SLACK4547 LOBROW3724 -1.000000
    SLACK4548 UPBROW3725 1.000000
    SLACK4549 LOBROW3726 -1.000000
    SLACK4550 UPBROW3727 1.000000
    SLACK4551 LOBROW3728 -1.000000
    SLACK4552 UPBROW3729 1.000000
    SLACK4553 LOBROW3730 -1.000000
    SLACK4554 UPBROW3731 1.000000
    SLACK4555 LOBROW3732 -1.000000
    SLACK4556 UPBROW3733 1.000000
    SLACK4557 LOBROW3734 -1.000000
    SLACK4558 UPBROW3735 1.000000
    SLACK4559 LOBROW3736 -1.000000
    SLACK4560 UPBROW3737 1.000000
    SLACK4561 LOBROW3738 -1.000000
    SLACK4562 UPBROW3739 1.000000
    SLACK4563 LOBROW3740 -1.000000
    SLACK4564 UPBROW3741 1.000000
    SLACK4565 LOBROW3742 -1.000000
    SLACK4566 UPBROW3743 1.000000
    SLACK4567 LOBROW3744 -1.000000
    SLACK4568 UPBROW3745 1.000000
    SLACK4569 LOBROW3746 -1.000000
    SLACK4570 UPBROW3747 1.000000
    SLACK4571 LOBROW3748 -1.000000
    SLACK4572 UPBROW3749 1.000000
    SLACK4573 LOBROW3750 -1.000000
    SLACK4574 UPBROW3751 1.000000
    SLACK4575 LOBROW3752 -1.000000
    SLACK4576 UPBROW3753 1.000000
    SLACK4577 LOBROW3754 -1.000000
    SLACK4578 UPBROW3755 1.000000
    SLACK4579 LOBROW3756 -1.000000
    SLACK4580 UPBROW3757 1.000000
    SLACK4581 LOBROW3758 -1.000000
    SLACK4582 UPBROW3759 1.000000
    SLACK4583 LOBROW3760 -1.000000
    SLACK4584 UPBROW3761 1.000000
    SLACK4585 LOBROW3762 -1.000000
    SLACK4586 UPBROW3763 1.000000
    SLACK4587 LOBROW3764 -1.000000
    SLACK4588 UPBROW3765 1.000000
    SLACK4589 LOBROW3766 -1.000000
    SLACK4590 UPBROW3767 1.000000
    SLACK4591 LOBROW3768 -1.000000
    SLACK4592 UPBROW3769 1.000000
    SLACK4593 LOBROW3770 -1.000000
    SLACK4594 UPBROW3771 1.000000
    SLACK4595 LOBROW3772 -1.000000
    SLACK4596 UPBROW3773 1.000000
    SLACK4597 LOBROW3774 -1.000000
    SLACK4598 UPBROW3775 1.000000
    SLACK4599 LOBROW3776 -1.000000
    SLACK4600 UPBROW3777 1.000000
    SLACK4601 LOBROW3778 -1.000000
    SLACK4602 UPBROW3779 1.000000
    SLACK4603 LOBROW3780 -1.000000
    SLACK4604 UPBROW3781 1.000000
    SLACK4605 LOBROW3782 -1.000000
    SLACK4606 UPBROW3783 1.000000
    SLACK4607 LOBROW3784 -1.000000
    SLACK4608 UPBROW3785 1.000000
    SLACK4609 LOBROW3786 -1.000000
    SLACK4610 UPBROW3787 1.000000
    SLACK4611 LOBROW3788 -1.000000
    SLACK4612 UPBROW3789 1.000000
    SLACK4613 LOBROW3790 -1.000000
    SLACK4614 UPBROW3791 1.000000
    SLACK4615 LOBROW3792 -1.000000
    SLACK4616 UPBROW3793 1.000000
    SLACK4617 LOBROW3794 -1.000000
    SLACK4618 UPBROW3795 1.000000
    SLACK4619 LOBROW3796 -1.000000
    SLACK4620 UPBROW3797 1.000000
    SLACK4621 LOBROW3798 -1.000000
    SLACK4622 UPBROW3799 1.000000
    SLACK4623 LOBROW3800 -1.000000
    SLACK4624 UPBROW3801 1.000000
    SLACK4625 LOBROW3802 -1.000000
    SLACK4626 UPBROW3803 1.000000
    SLACK4627 LOBROW3804 -1.000000
    SLACK4628 UPBROW3805 1.000000
    SLACK4629 LOBROW3806 -1.000000
    SLACK4630 UPBROW3807 1.000000
    SLACK4631 LOBROW3808 -1.000000
    SLACK4632 UPBROW3809 1.000000
    SLACK4633 LOBROW3810 -1.000000
    SLACK4634 UPBROW3811 1.000000
    SLACK4635 LOBROW3812 -1.000000
    SLACK4636 UPBROW3813 1.000000
    SLACK4637 LOBROW3814 -1.000000
    SLACK4638 UPBROW3815 1.000000
    SLACK4639 LOBROW3816 -1.000000
    SLACK4640 UPBROW3817 1.000000
    SLACK4641 LOBROW3818 -1.000000
    SLACK4642 UPBROW3819 1.000000
    SLACK4643 LOBROW3820 -1.000000
    SLACK4644 UPBROW3821 1.000000
    SLACK4645 LOBROW3822 -1.000000
    SLACK4646 UPBROW3823 1.000000
    SLACK4647 LOBROW3824 -1.000000
    SLACK4648 UPBROW3825 1.000000
    SLACK4649 LOBROW3826 -1.000000
    SLACK4650 UPBROW3827 1.000000
    SLACK4651 LOBROW3828 -1.000000
    SLACK4652 UPBROW3829 1.000000
    SLACK4653 LOBROW3830 -1.000000
    SLACK4654 UPBROW3831 1.000000
    SLACK4655 LOBROW3832 -1.000000
    SLACK4656 UPBROW3833 1.000000
    SLACK4657 LOBROW3834 -1.000000
    SLACK4658 UPBROW3835 1.000000
    SLACK4659 LOBROW3836 -1.000000
    SLACK4660 UPBROW3837 1.000000
    SLACK4661 LOBROW3838 -1.000000
    SLACK4662 UPBROW3839 1.000000
    SLACK4663 LOBROW3840 -1.000000
    SLACK4664 UPBROW3841 1.000000
    SLACK4665 LOBROW3842 -1.000000
    SLACK4666 UPBROW3843 1.000000
    SLACK4667 LOBROW3844 -1.000000
    SLACK4668 UPBROW3845 1.000000
    SLACK4669 LOBROW3846 -1.000000
    SLACK4670 UPBROW3847 1.000000
    SLACK4671 LOBROW3848 -1.000000
    SLACK4672 UPBROW3849 1.000000
    SLACK4673 LOBROW3850 -1.000000
    SLACK4674 UPBROW3851 1.000000
    SLACK4675 LOBROW3852 -1.000000
    SLACK4676 UPBROW3853 1.000000
    SLACK4677 LOBROW3854 -1.000000
    SLACK4678 UPBROW3855 1.000000
    SLACK4679 LOBROW3856 -1.000000
    SLACK4680 UPBROW3857 1.000000
    SLACK4681 LOBROW3858 -1.000000
    SLACK4682 UPBROW3859 1.000000
    SLACK4683 LOBROW3860 -1.000000
    SLACK4684 UPBROW3861 1.000000
    SLACK4685 LOBROW3862 -1.000000
    SLACK4686 UPBROW3863 1.000000
    SLACK4687 LOBROW3864 -1.000000
    SLACK4688 UPBROW3865 1.000000
    SLACK4689 LOBROW3866 -1.000000
    SLACK4690 UPBROW3867 1.000000
    SLACK4691 LOBROW3868 -1.000000
    SLACK4692 UPBROW3869 1.000000
    SLACK4693 LOBROW3870 -1.000000
    SLACK4694 UPBROW3871 1.000000
    SLACK4695 LOBROW3872 -1.000000
    SLACK4696 UPBROW3873 1.000000
    SLACK4697 LOBROW3874 -1.000000
    SLACK4698 UPBROW3875 1.000000
    SLACK4699 LOBROW3876 -1.000000
    SLACK4700 UPBROW3877 1.000000
    SLACK4701 LOBROW3878 -1.000000
    SLACK4702 UPBROW3879 1.000000
    SLACK4703 LOBROW3880 -1.000000
    SLACK4704 UPBROW3881 1.000000
    SLACK4705 LOBROW3882 -1.000000
    SLACK4706 UPBROW3883 1.000000
    SLACK4707 LOBROW3884 -1.000000
    SLACK4708 UPBROW3885 1.000000
    SLACK4709 LOBROW3886 -1.000000
    SLACK4710 UPBROW3887 1.000000
    SLACK4711 LOBROW3888 -1.000000
    SLACK4712 UPBROW3889 1.000000
    SLACK4713 LOBROW3890 -1.000000
    SLACK4714 UPBROW3891 1.000000
    SLACK4715 LOBROW3892 -1.000000
    SLACK4716 UPBROW3893 1.000000
    SLACK4717 LOBROW3894 -1.000000
    SLACK4718 UPBROW3895 1.000000
    SLACK4719 LOBROW3896 -1.000000
    SLACK4720 UPBROW3897 1.000000
    SLACK4721 LOBROW3898 -1.000000
    SLACK4722 UPBROW3899 1.000000
    SLACK4723 LOBROW3900 -1.000000
    SLACK4724 UPBROW3901 1.000000
    SLACK4725 LOBROW3902 -1.000000
    SLACK4726 UPBROW3903 1.000000
    SLACK4727 LOBROW3904 -1.000000
    SLACK4728 UPBROW3905 1.000000
    SLACK4729 LOBROW3906 -1.000000
    SLACK4730 UPBROW3907 1.000000
    SLACK4731 LOBROW3908 -1.000000
    SLACK4732 UPBROW3909 1.000000
    SLACK4733 LOBROW3910 -1.000000
    SLACK4734 UPBROW3911 1.000000
    SLACK4735 LOBROW3912 -1.000000
    SLACK4736 UPBROW3913 1.000000
    SLACK4737 LOBROW3914 -1.000000
    SLACK4738 UPBROW3915 1.000000
    SLACK4739 LOBROW3916 -1.000000
    SLACK4740 UPBROW3917 1.000000
    SLACK4741 LOBROW3918 -1.000000
    SLACK4742 UPBROW3919 1.000000
    SLACK4743 LOBROW3920 -1.000000
    SLACK4744 UPBROW3921 1.000000
    SLACK4745 LOBROW3922 -1.000000
    SLACK4746 UPBROW3923 1.000000
    SLACK4747 LOBROW3924 -1.000000
    SLACK4748 UPBROW3925 1.000000
    SLACK4749 LOBROW3926 -1.000000
    SLACK4750 UPBROW3927 1.000000
    SLACK4751 LOBROW3928 -1.000000
    SLACK4752 UPBROW3929 1.000000
    SLACK4753 LOBROW3930 -1.000000
    SLACK4754 UPBROW3931 1.000000
    SLACK4755 LOBROW3932 -1.000000
    SLACK4756 UPBROW3933 1.000000
    SLACK4757 LOBROW3934 -1.000000
    SLACK4758 UPBROW3935 1.000000
    SLACK4759 LOBROW3936 -1.000000
    SLACK4760 UPBROW3937 1.000000
    SLACK4761 LOBROW3938 -1.000000
    SLACK4762 UPBROW3939 1.000000
    SLACK4763 LOBROW3940 -1.000000
    SLACK4764 UPBROW3941 1.000000
    SLACK4765 LOBROW3942 -1.000000
    SLACK4766 UPBROW3943 1.000000
    SLACK4767 LOBROW3944 -1.000000
    SLACK4768 UPBROW3945 1.000000
    SLACK4769 LOBROW3946 -1.000000
    SLACK4770 UPBROW3947 1.000000
    SLACK4771 LOBROW3948 -1.000000
    SLACK4772 UPBROW3949 1.000000
    SLACK4773 LOBROW3950 -1.000000
    SLACK4774 UPBROW3951 1.000000
    SLACK4775 LOBROW3952 -1.000000
    SLACK4776 UPBROW3953 1.000000
    SLACK4777 LOBROW3954 -1.000000
    SLACK4778 UPBROW3955 1.000000
    SLACK4779 LOBROW3956 -1.000000
    SLACK4780 UPBROW3957 1.000000
    SLACK4781 LOBROW3958 -1.000000
    SLACK4782 UPBROW3959 1.000000
    SLACK4783 LOBROW3960 -1.000000
    SLACK4784 UPBROW3961 1.000000
    SLACK4785 LOBROW3962 -1.000000
    SLACK4786 UPBROW3963 1.000000
    SLACK4787 LOBROW3964 -1.000000
    SLACK4788 UPBROW3965 1.000000
    SLACK4789 LOBROW3966 -1.000000
    SLACK4790 UPBROW3967 1.000000
    SLACK4791 LOBROW3968 -1.000000
    SLACK4792 UPBROW3969 1.000000
    SLACK4793 LOBROW3970 -1.000000
    SLACK4794 UPBROW3971 1.000000
    SLACK4795 LOBROW3972 -1.000000
    SLACK4796 UPBROW3973 1.000000
    SLACK4797 LOBROW3974 -1.000000
    SLACK4798 UPBROW3975 1.000000
    SLACK4799 LOBROW3976 -1.000000
    SLACK4800 UPBROW3977 1.000000
    SLACK4801 LOBROW3978 -1.000000
    SLACK4802 UPBROW3979 1.000000
    SLACK4803 LOBROW3980 -1.000000
    SLACK4804 UPBROW3981 1.000000
    SLACK4805 LOBROW3982 -1.000000
    SLACK4806 UPBROW3983 1.000000
    SLACK4807 LOBROW3984 -1.000000
    SLACK4808 UPBROW3985 1.000000
    SLACK4809 LOBROW3986 -1.000000
    SLACK4810 UPBROW3987 1.000000
    SLACK4811 LOBROW3988 -1.000000
    SLACK4812 UPBROW3989 1.000000
    SLACK4813 LOBROW3990 -1.000000
    SLACK4814 UPBROW3991 1.000000
    SLACK4815 LOBROW3992 -1.000000
    SLACK4816 UPBROW3993 1.000000
    SLACK4817 LOBROW3994 -1.000000
    SLACK4818 UPBROW3995 1.000000
    SLACK4819 LOBROW3996 -1.000000
    SLACK4820 UPBROW3997 1.000000
    SLACK4821 LOBROW3998 -1.000000
    SLACK4822 UPBROW3999 1.000000
    SLACK4823 LOBROW4000 -1.000000
    SLACK4824 UPBROW4001 1.000000
    SLACK4825 LOBROW4002 -1.000000
    SLACK4826 UPBROW4003 1.000000
    SLACK4827 LOBROW4004 -1.000000
    SLACK4828 UPBROW4005 1.000000
    SLACK4829 LOBROW4006 -1.000000
    SLACK4830 UPBROW4007 1.000000
    SLACK4831 LOBROW4008 -1.000000
    SLACK4832 UPBROW4009 1.000000
    SLACK4833 LOBROW4010 -1.000000
    SLACK4834 UPBROW4011 1.000000
    SLACK4835 LOBROW4012 -1.000000
    SLACK4836 UPBROW4013 1.000000
    SLACK4837 LOBROW4014 -1.000000
    SLACK4838 UPBROW4015 1.000000
    SLACK4839 LOBROW4016 -1.000000
    SLACK4840 UPBROW4017 1.000000
    SLACK4841 LOBROW4018 -1.000000
    SLACK4842 UPBROW4019 1.000000
    SLACK4843 LOBROW4020 -1.000000
    SLACK4844 UPBROW4021 1.000000
    SLACK4845 LOBROW4022 -1.000000
    SLACK4846 UPBROW4023 1.000000
    SLACK4847 LOBROW4024 -1.000000
    SLACK4848 UPBROW4025 1.000000
    SLACK4849 LOBROW4026 -1.000000
    SLACK4850 UPBROW4027 1.000000
    SLACK4851 LOBROW4028 -1.000000
    SLACK4852 UPBROW4029 1.000000
    SLACK4853 LOBROW4030 -1.000000
    SLACK4854 UPBROW4031 1.000000
    SLACK4855 LOBROW4032 -1.000000
    SLACK4856 UPBROW4033 1.000000
    SLACK4857 LOBROW4034 -1.000000
    SLACK4858 UPBROW4035 1.000000
    SLACK4859 LOBROW4036 -1.000000
    SLACK4860 UPBROW4037 1.000000
    SLACK4861 LOBROW4038 -1.000000
    SLACK4862 UPBROW4039 1.000000
    SLACK4863 LOBROW4040 -1.000000
    SLACK4864 UPBROW4041 1.000000
    SLACK4865 LOBROW4042 -1.000000
    SLACK4866 UPBROW4043 1.000000
    SLACK4867 LOBROW4044 -1.000000
    SLACK4868 UPBROW4045 1.000000
    SLACK4869 LOBROW4046 -1.000000
    SLACK4870 UPBROW4047 1.000000
    SLACK4871 LOBROW4048 -1.000000
    SLACK4872 UPBROW4049 1.000000
    SLACK4873 LOBROW4050 -1.000000
    SLACK4874 UPBROW4051 1.000000
    SLACK4875 LOBROW4052 -1.000000
    SLACK4876 UPBROW4053 1.000000
    SLACK4877 LOBROW4054 -1.000000
    SLACK4878 UPBROW4055 1.000000
    SLACK4879 LOBROW4056 -1.000000
    SLACK4880 UPBROW4057 1.000000
    SLACK4881 LOBROW4058 -1.000000
    SLACK4882 UPBROW4059 1.000000
    SLACK4883 LOBROW4060 -1.000000
    SLACK4884 UPBROW4061 1.000000
    SLACK4885 LOBROW4062 -1.000000
    SLACK4886 UPBROW4063 1.000000
    SLACK4887 LOBROW4064 -1.000000
    SLACK4888 UPBROW4065 1.000000
    SLACK4889 LOBROW4066 -1.000000
    SLACK4890 UPBROW4067 1.000000
    SLACK4891 LOBROW4068 -1.000000
    SLACK4892 UPBROW4069 1.000000
    SLACK4893 LOBROW4070 -1.000000
    SLACK4894 UPBROW4071 1.000000
    SLACK4895 LOBROW4072 -1.000000
    SLACK4896 UPBROW4073 1.000000
    SLACK4897 LOBROW4074 -1.000000
    SLACK4898 UPBROW4075 1.000000
    SLACK4899 LOBROW4076 -1.000000
    SLACK4900 UPBROW4077 1.000000
    SLACK4901 LOBROW4078 -1.000000
    SLACK4902 UPBROW4079 1.000000
    SLACK4903 LOBROW4080 -1.000000
    SLACK4904 UPBROW4081 1.000000
    SLACK4905 LOBROW4082 -1.000000
    SLACK4906 UPBROW4083 1.000000
    SLACK4907 LOBROW4084 -1.000000
    SLACK4908 UPBROW4085 1.000000
    SLACK4909 LOBROW4086 -1.000000
    SLACK4910 UPBROW4087 1.000000
    SLACK4911 LOBROW4088 -1.000000
    SLACK4912 UPBROW4089 1.000000
    SLACK4913 LOBROW4090 -1.000000
    SLACK4914 UPBROW4091 1.000000
    SLACK4915 LOBROW4092 -1.000000
    SLACK4916 UPBROW4093 1.000000
    SLACK4917 LOBROW4094 -1.000000
    SLACK4918 UPBROW4095 1.000000
    SLACK4919 LOBROW4096 -1.000000
    SLACK4920 UPBROW4097 1.000000
    SLACK4921 LOBROW4098 -1.000000
    SLACK4922 UPBROW4099 1.000000
    SLACK4923 LOBROW4100 -1.000000
    SLACK4924 UPBROW4101 1.000000
    SLACK4925 LOBROW4102 -1.000000
    SLACK4926 UPBROW4103 1.000000
    SLACK4927 LOBROW4104 -1.000000
    SLACK4928 UPBROW4105 1.000000
    SLACK4929 LOBROW4106 -1.000000
    SLACK4930 UPBROW4107 1.000000
    SLACK4931 LOBROW4108 -1.000000
    SLACK4932 UPBROW4109 1.000000
    SLACK4933 LOBROW4110 -1.000000
    SLACK4934 UPBROW4111 1.000000
    SLACK4935 LOBROW4112 -1.000000
    SLACK4936 UPBROW4113 1.000000
    SLACK4937 LOBROW4114 -1.000000
    SLACK4938 UPBROW4115 1.000000
    SLACK4939 LOBROW4116 -1.000000
    SLACK4940 UPBROW4117 1.000000
    SLACK4941 LOBROW4118 -1.000000
    SLACK4942 UPBROW4119 1.000000
    SLACK4943 LOBROW4120 -1.000000
    SLACK4944 UPBROW4121 1.000000
    SLACK4945 LOBROW4122 -1.000000
    SLACK4946 UPBROW4123 1.000000
    SLACK4947 LOBROW4124 -1.000000
    SLACK4948 UPBROW4125 1.000000
    SLACK4949 LOBROW4126 -1.000000
    SLACK4950 UPBROW4127 1.000000
    SLACK4951 LOBROW4128 -1.000000
    SLACK4952 UPBROW4129 1.000000
    SLACK4953 LOBROW4130 -1.000000
    SLACK4954 UPBROW4131 1.000000
    SLACK4955 LOBROW4132 -1.000000
    SLACK4956 UPBROW4133 1.000000
    SLACK4957 LOBROW4134 -1.000000
    SLACK4958 UPBROW4135 1.000000
    SLACK4959 LOBROW4136 -1.000000
    SLACK4960 UPBROW4137 1.000000
    SLACK4961 LOBROW4138 -1.000000
    SLACK4962 UPBROW4139 1.000000
    SLACK4963 LOBROW4140 -1.000000
    SLACK4964 UPBROW4141 1.000000
    SLACK4965 LOBROW4142 -1.000000
    SLACK4966 UPBROW4143 1.000000
    SLACK4967 LOBROW4144 -1.000000
    SLACK4968 UPBROW4145 1.000000
    SLACK4969 LOBROW4146 -1.000000
    SLACK4970 UPBROW4147 1.000000
    SLACK4971 LOBROW4148 -1.000000
    SLACK4972 UPBROW4149 1.000000
    SLACK4973 LOBROW4150 -1.000000
    SLACK4974 UPBROW4151 1.000000
    SLACK4975 LOBROW4152 -1.000000
    SLACK4976 UPBROW4153 1.000000
    SLACK4977 LOBROW4154 -1.000000
    SLACK4978 UPBROW4155 1.000000
    SLACK4979 LOBROW4156 -1.000000
    SLACK4980 UPBROW4157 1.000000
    SLACK4981 LOBROW4158 -1.000000
    SLACK4982 UPBROW4159 1.000000
    SLACK4983 LOBROW4160 -1.000000
    SLACK4984 UPBROW4161 1.000000
    SLACK4985 LOBROW4162 -1.000000
    SLACK4986 UPBROW4163 1.000000
    SLACK4987 LOBROW4164 -1.000000
    SLACK4988 UPBROW4165 1.000000
    SLACK4989 LOBROW4166 -1.000000
    SLACK4990 UPBROW4167 1.000000
    SLACK4991 LOBROW4168 -1.000000
    SLACK4992 UPBROW4169 1.000000
    SLACK4993 LOBROW4170 -1.000000
    SLACK4994 UPBROW4171 1.000000
    SLACK4995 LOBROW4172 -1.000000
    SLACK4996 UPBROW4173 1.000000
    SLACK4997 LOBROW4174 -1.000000
    SLACK4998 UPBROW4175 1.000000
    SLACK4999 LOBROW4176 -1.000000
    SLACK5000 UPBROW4177 1.000000
    SLACK5001 LOBROW4178 -1.000000
    SLACK5002 UPBROW4179 1.000000
    SLACK5003 LOBROW4180 -1.000000
    SLACK5004 UPBROW4181 1.000000
    SLACK5005 LOBROW4182 -1.000000
    SLACK5006 UPBROW4183 1.000000
    SLACK5007 LOBROW4184 -1.000000
    SLACK5008 UPBROW4185 1.000000
    SLACK5009 LOBROW4186 -1.000000
    SLACK5010 UPBROW4187 1.000000
    SLACK5011 LOBROW4188 -1.000000
    SLACK5012 UPBROW4189 1.000000
    SLACK5013 LOBROW4190 -1.000000
    SLACK5014 UPBROW4191 1.000000
    SLACK5015 LOBROW4192 -1.000000
    SLACK5016 UPBROW4193 1.000000
    SLACK5017 LOBROW4194 -1.000000
    SLACK5018 UPBROW4195 1.000000
    SLACK5019 LOBROW4196 -1.000000
    SLACK5020 UPBROW4197 1.000000
    SLACK5021 LOBROW4198 -1.000000
    SLACK5022 UPBROW4199 1.000000
    SLACK5023 LOBROW4200 -1.000000
    SLACK5024 UPBROW4201 1.000000
    SLACK5025 LOBROW4202 -1.000000
    SLACK5026 UPBROW4203 1.000000
    SLACK5027 LOBROW4204 -1.000000
    SLACK5028 UPBROW4205 1.000000
    SLACK5029 LOBROW4206 -1.000000
    SLACK5030 UPBROW4207 1.000000
    SLACK5031 LOBROW4208 -1.000000
    SLACK5032 UPBROW4209 1.000000
    SLACK5033 LOBROW4210 -1.000000
    SLACK5034 UPBROW4211 1.000000
    SLACK5035 LOBROW4212 -1.000000
    SLACK5036 UPBROW4213 1.000000
    SLACK5037 LOBROW4214 -1.000000
    SLACK5038 UPBROW4215 1.000000
RHS
    RHS1     RCAPP11  1650.749800
    RHS1     RCAPP12  1650.749800
    RHS1     RCAPP13  1650.749800
    RHS1     RCAPP14  1650.749800
    RHS1     RCAPP15  1650.749800
    RHS1     RCAPP16  1650.749800
    RHS1     RCAPP17  1650.749800
    RHS1     RCAPP18  1650.749800
    RHS1     RCAPP21  3814.859400
    RHS1     RCAPP22  3814.859400
    RHS1     RCAPP23  3814.859400
    RHS1     RCAPP24  3814.859400
    RHS1     RCAPP25  3814.859400
    RHS1     RCAPP26  3814.859400
    RHS1     RCAPP27  3814.859400
    RHS1     RCAPP28  3814.859400
    RHS1     RCAPP31  5786.457000
    RHS1     RCAPP32  5786.457000
    RHS1     RCAPP33  5786.457000
    RHS1     RCAPP34  5786.457000
    RHS1     RCAPP35  5786.457000
    RHS1     RCAPP36  5786.457000
    RHS1     RCAPP37  5786.457000
    RHS1     RCAPP38  5786.457000
    RHS1     RCAPP41  513.359863
    RHS1     RCAPP42  513.359863
    RHS1     RCAPP43  513.359863
    RHS1     RCAPP44  513.359863
    RHS1     RCAPP45  513.359863
    RHS1     RCAPP46  513.359863
    RHS1     RCAPP47  513.359863
    RHS1     RCAPP48  513.359863
    RHS1     RCAPP51  2209.679700
    RHS1     RCAPP52  2209.679700
    RHS1     RCAPP53  2209.679700
    RHS1     RCAPP54  2209.679700
    RHS1     RCAPP55  2209.679700
    RHS1     RCAPP56  2209.679700
    RHS1     RCAPP57  2209.679700
    RHS1     RCAPP58  2209.679700
    RHS1     ERCPP11L 10.000000
    RHS1     ERCPP12L 10.000000
    RHS1     ERCPP13L 10.000000
    RHS1     ERCPP14L 10.000000
    RHS1     ERCPP15L 10.000000
    RHS1     ERCPP16L 10.000000
    RHS1     ERCPP17L 10.000000
    RHS1     ERCPP18L 10.000000
    RHS1     ERCPP21L 10.000000
    RHS1     ERCPP22L 10.000000
    RHS1     ERCPP23L 10.000000
    RHS1     ERCPP24L 10.000000
    RHS1     ERCPP25L 10.000000
    RHS1     ERCPP26L 10.000000
    RHS1     ERCPP27L 10.000000
    RHS1     ERCPP28L 10.000000
    RHS1     ERCPP31L 10.000000
    RHS1     ERCPP32L 10.000000
    RHS1     ERCPP33L 10.000000
    RHS1     ERCPP34L 10.000000
    RHS1     ERCPP35L 10.000000
    RHS1     ERCPP36L 10.000000
    RHS1     ERCPP37L 10.000000
    RHS1     ERCPP38L 10.000000
    RHS1     ERCPP41L 10.000000
    RHS1     ERCPP42L 10.000000
    RHS1     ERCPP43L 10.000000
    RHS1     ERCPP44L 10.000000
    RHS1     ERCPP45L 10.000000
    RHS1     ERCPP46L 10.000000
    RHS1     ERCPP47L 10.000000
    RHS1     ERCPP48L 10.000000
    RHS1     ERCPP51L 10.000000
    RHS1     ERCPP52L 10.000000
    RHS1     ERCPP53L 10.000000
    RHS1     ERCPP54L 10.000000
    RHS1     ERCPP55L 10.000000
    RHS1     ERCPP56L 10.000000
    RHS1     ERCPP57L 10.000000
    RHS1     ERCPP58L 10.000000
    RHS1     ERCPP11G 10.000000
    RHS1     ERCPP12G 10.000000
    RHS1     ERCPP13G 10.000000
    RHS1     ERCPP14G 10.000000
    RHS1     ERCPP15G 10.000000
    RHS1     ERCPP16G 10.000000
    RHS1     ERCPP17G 10.000000
    RHS1     ERCPP18G 10.000000
    RHS1     ERCPP21G 10.000000
    RHS1     ERCPP22G 10.000000
    RHS1     ERCPP23G 10.000000
    RHS1     ERCPP24G 10.000000
    RHS1     ERCPP25G 10.000000
    RHS1     ERCPP26G 10.000000
    RHS1     ERCPP27G 10.000000
    RHS1     ERCPP28G 10.000000
    RHS1     ERCPP31G 10.000000
    RHS1     ERCPP32G 10.000000
    RHS1     ERCPP33G 10.000000
    RHS1     ERCPP34G 10.000000
    RHS1     ERCPP35G 10.000000
    RHS1     ERCPP36G 10.000000
    RHS1     ERCPP37G 10.000000
    RHS1     ERCPP38G 10.000000
    RHS1     ERCPP41G 10.000000
    RHS1     ERCPP42G 10.000000
    RHS1     ERCPP43G 10.000000
    RHS1     ERCPP44G 10.000000
    RHS1     ERCPP45G 10.000000
    RHS1     ERCPP46G 10.000000
    RHS1     ERCPP47G 10.000000
    RHS1     ERCPP48G 10.000000
    RHS1     ERCPP51G 10.000000
    RHS1     ERCPP52G 10.000000
    RHS1     ERCPP53G 10.000000
    RHS1     ERCPP54G 10.000000
    RHS1     ERCPP55G 10.000000
    RHS1     ERCPP56G 10.000000
    RHS1     ERCPP57G 10.000000
    RHS1     ERCPP58G 10.000000
    RHS1     TRCP1L   20.000000
    RHS1     TRCP2L   20.000000
    RHS1     TRCP3L   20.000000
    RHS1     TRCP4L   20.000000
    RHS1     TRCP5L   20.000000
    RHS1     TRCP6L   20.000000
    RHS1     TRCP7L   20.000000
    RHS1     TRCP1G   20.000000
    RHS1     TRCP2G   20.000000
    RHS1     TRCP3G   20.000000
    RHS1     TRCP4G   20.000000
    RHS1     TRCP5G   20.000000
    RHS1     TRCP6G   20.000000
    RHS1     TRCP7G   20.000000
    RHS1     QGAP11   471.250197
    RHS1     QGAP12   2409.561800
    RHS1     QGAP13   2438.315700
    RHS1     QGAP14   2199.024400
    RHS1     QGAP15   2240.650400
    RHS1     QGAP16   2186.647500
    RHS1     QGAP17   2313.181400
    RHS1     QGAP18   2382.836400
    RHS1     QGAP21   142.236899
    RHS1     QGAP22   2453.150900
    RHS1     QGAP23   2385.480500
    RHS1     QGAP24   2360.142300
    RHS1     QGAP25   2332.784700
    RHS1     QGAP26   2207.664600
    RHS1     QGAP27   2311.772500
    RHS1     QGAP28   2434.478800
    RHS1     QGAP31   -790.625744
    RHS1     QGAP32   907.823975
    RHS1     QGAP33   884.968994
    RHS1     QGAP34   931.526123
    RHS1     QGAP35   904.190674
    RHS1     QGAP36   848.376465
    RHS1     QGAP37   986.215820
    RHS1     QGAP38   921.450928
    RHS1     QGAP41   -29.300953
    RHS1     QGAP42   238.725479
    RHS1     QGAP43   242.268051
    RHS1     QGAP44   216.751740
    RHS1     QGAP45   192.061203
    RHS1     QGAP46   174.294144
    RHS1     QGAP47   214.863129
    RHS1     QGAP48   235.932617
    RHS1     QGAP51   299.168651
    RHS1     QGAP52   1025.730500
    RHS1     QGAP53   1031.960900
    RHS1     QGAP54   1003.548800
    RHS1     QGAP55   970.305420
    RHS1     QGAP56   911.011963
    RHS1     QGAP57   1022.965800
    RHS1     QGAP58   1035.292500
    RHS1     QDSP11   -615.233725
    RHS1     QDSP12   821.000244
    RHS1     QDSP13   807.084229
    RHS1     QDSP14   951.501221
    RHS1     QDSP15   1765.649200
    RHS1     QDSP16   1954.322800
    RHS1     QDSP17   1045.082300
    RHS1     QDSP18   792.543213
    RHS1     QDSP21   -770.782681
    RHS1     QDSP22   693.627197
    RHS1     QDSP23   688.807617
    RHS1     QDSP24   777.331299
    RHS1     QDSP25   1039.342300
    RHS1     QDSP26   1024.626000
    RHS1     QDSP27   742.390625
    RHS1     QDSP28   664.186523
    RHS1     QDSP31   -737.093155
    RHS1     QDSP32   310.208740
    RHS1     QDSP33   357.296631
    RHS1     QDSP34   271.512451
    RHS1     QDSP35   246.157944
    RHS1     QDSP36   287.843994
    RHS1     QDSP37   264.251221
    RHS1     QDSP38   290.950439
    RHS1     QDSP41   -29.431349
    RHS1     QDSP42   87.899811
    RHS1     QDSP43   86.472961
    RHS1     QDSP44   102.558868
    RHS1     QDSP45   104.885483
    RHS1     QDSP46   79.025803
    RHS1     QDSP47   86.376877
    RHS1     QDSP48   85.070374
    RHS1     QDSP51   -64.557026
    RHS1     QDSP52   303.261475
    RHS1     QDSP53   266.336426
    RHS1     QDSP54   277.098389
    RHS1     QDSP55   324.961426
    RHS1     QDSP56   288.179443
    RHS1     QDSP57   260.897461
    RHS1     QDSP58   261.247559
    RHS1     QRSP11   598.668706
    RHS1     QRSP12   1462.662600
    RHS1     QRSP13   1491.202900
    RHS1     QRSP14   1522.591600
    RHS1     QRSP15   1785.261000
    RHS1     QRSP16   2016.825700
    RHS1     QRSP17   1651.086900
    RHS1     QRSP18   1701.755100
    RHS1     QRSP21   -79.906095
    RHS1     QRSP22   137.975739
    RHS1     QRSP23   138.166229
    RHS1     QRSP24   149.921982
    RHS1     QRSP25   219.558243
    RHS1     QRSP26   277.031738
    RHS1     QRSP27   166.149963
    RHS1     QRSP28   161.908005
    RHS1     QRSP31   -142.489285
    RHS1     QRSP32   94.584244
    RHS1     QRSP33   97.319870
    RHS1     QRSP34   64.744064
    RHS1     QRSP35   84.984665
    RHS1     QRSP36   121.751724
    RHS1     QRSP37   116.901535
    RHS1     QRSP38   97.903290
    RHS1     QRSP41   -2.364532
    RHS1     QRSP42   17.555679
    RHS1     QRSP43   17.681641
    RHS1     QRSP44   21.381485
    RHS1     QRSP45   28.804001
    RHS1     QRSP46   28.504410
    RHS1     QRSP47   21.653717
    RHS1     QRSP48   21.492981
    RHS1     QRSP51   -148.008362
    RHS1     QRSP52   258.222412
    RHS1     QRSP53   279.627441
    RHS1     QRSP54   253.358826
    RHS1     QRSP55   352.390869
    RHS1     QRSP56   390.882813
    RHS1     QRSP57   315.456543
    RHS1     QRSP58   300.938721
    RHS1     QKJP11   154.359064
    RHS1     QKJP12   359.661865
    RHS1     QKJP13   340.031006
    RHS1     QKJP14   325.185547
    RHS1     QKJP15   370.646484
    RHS1     QKJP16   329.319092
    RHS1     QKJP17   333.424561
    RHS1     QKJP18   332.793701
    RHS1     QKJP21   -11.156937
    RHS1     QKJP22   166.597092
    RHS1     QKJP23   184.574829
    RHS1     QKJP24   173.583984
    RHS1     QKJP25   183.297913
    RHS1     QKJP26   160.483566
    RHS1     QKJP27   168.445313
    RHS1     QKJP28   170.250275
    RHS1     QKJP31   -170.443856
    RHS1     QKJP32   35.344360
    RHS1     QKJP33   64.410385
    RHS1     QKJP34   66.927536
    RHS1     QKJP35   34.905869
    RHS1     QKJP36   42.806305
    RHS1     QKJP37   65.891815
    RHS1     QKJP38   53.898285
    RHS1     QKJP41   12.717309
    RHS1     QKJP42   24.631882
    RHS1     QKJP43   26.123871
    RHS1     QKJP44   24.135834
    RHS1     QKJP45   23.679626
    RHS1     QKJP46   19.909576
    RHS1     QKJP47   21.920731
    RHS1     QKJP48   24.306778
    RHS1     QKJP51   64.923550
    RHS1     QKJP52   249.764893
    RHS1     QKJP53   234.859161
    RHS1     QKJP54   251.166061
    RHS1     QKJP55   251.469116
    RHS1     QKJP56   227.480179
    RHS1     QKJP57   230.316727
    RHS1     QKJP58   238.750259
    RHS1     QNJP11   65.741890
    RHS1     QNJP12   66.774643
    RHS1     QNJP13   72.182785
    RHS1     QNJP14   76.916443
    RHS1     QNJP15   73.391464
    RHS1     QNJP16   52.512360
    RHS1     QNJP17   63.110077
    RHS1     QNJP18   67.242172
    RHS1     QNJP21   -18.975877
    RHS1     QNJP22   39.944595
    RHS1     QNJP23   50.985016
    RHS1     QNJP24   49.780502
    RHS1     QNJP25   46.916931
    RHS1     QNJP26   34.671082
    RHS1     QNJP27   44.780411
    RHS1     QNJP28   43.653915
    RHS1     QNJP31   -23.079664
    RHS1     QNJP32   32.754608
    RHS1     QNJP33   51.255585
    RHS1     QNJP34   39.356964
    RHS1     QNJP35   51.237732
    RHS1     QNJP36   34.538086
    RHS1     QNJP37   43.162613
    RHS1     QNJP38   38.279434
    RHS1     QNJP41   -1.362541
    RHS1     QNJP42   6.309752
    RHS1     QNJP43   7.999480
    RHS1     QNJP44   7.867579
    RHS1     QNJP45   6.778787
    RHS1     QNJP46   6.129068
    RHS1     QNJP47   7.030066
    RHS1     QNJP48   6.880245
    RHS1     QNJP51   16.742396
    RHS1     QNJP52   66.216202
    RHS1     QNJP53   65.576813
    RHS1     QNJP54   91.078323
    RHS1     QNJP55   95.674774
    RHS1     QNJP56   72.149170
    RHS1     QNJP57   73.916260
    RHS1     QNJP58   68.943909
    RHS1     QPFP11   23.205520
    RHS1     QPFP12   24.955856
    RHS1     QPFP13   25.882187
    RHS1     QPFP14   27.432922
    RHS1     QPFP15   24.285355
    RHS1     QPFP16   22.110168
    RHS1     QPFP17   20.099365
    RHS1     QPFP18   21.424911
    RHS1     QPFP21   26.549885
    RHS1     QPFP22   42.395020
    RHS1     QPFP23   38.702026
    RHS1     QPFP24   40.262268
    RHS1     QPFP25   41.472641
    RHS1     QPFP26   30.938339
    RHS1     QPFP27   32.589432
    RHS1     QPFP28   33.234406
    RHS1     QPFP31   201.614570
    RHS1     QPFP32   257.088135
    RHS1     QPFP33   254.167679
    RHS1     QPFP34   245.710724
    RHS1     QPFP35   266.727539
    RHS1     QPFP36   213.200943
    RHS1     QPFP37   209.654633
    RHS1     QPFP38   207.371155
    RHS1     QPFP41   0.736350
    RHS1     QPFP42   0.776239
    RHS1     QPFP43   0.555903
    RHS1     QPFP44   1.069831
    RHS1     QPFP45   1.003999
    RHS1     QPFP46   0.611504
    RHS1     QPFP47   0.571093
    RHS1     QPFP48   0.655061
    RHS1     QPFP51   13.759628
    RHS1     QPFP52   21.784622
    RHS1     QPFP53   24.691956
    RHS1     QPFP54   31.524033
    RHS1     QPFP55   23.510040
    RHS1     QPFP56   17.138657
    RHS1     QPFP57   22.085098
    RHS1     QPFP58   21.314255
    RHS1     QLPP11   51.108932
    RHS1     QLPP12   39.671005
    RHS1     QLPP13   61.847305
    RHS1     QLPP14   52.352951
    RHS1     QLPP15   92.616241
    RHS1     QLPP16   115.967285
    RHS1     QLPP17   55.943115
    RHS1     QLPP18   47.113327
    RHS1     QLPP21   72.114729
    RHS1     QLPP22   105.008316
    RHS1     QLPP23   146.013306
    RHS1     QLPP24   198.559006
    RHS1     QLPP25   330.311523
    RHS1     QLPP26   330.656494
    RHS1     QLPP27   132.247696
    RHS1     QLPP28   136.270401
    RHS1     QLPP31   586.098689
    RHS1     QLPP32   671.301025
    RHS1     QLPP33   708.720215
    RHS1     QLPP34   706.325195
    RHS1     QLPP35   889.798340
    RHS1     QLPP36   844.227783
    RHS1     QLPP37   678.141602
    RHS1     QLPP38   643.164795
    RHS1     QLPP41   35.514396
    RHS1     QLPP42   36.470520
    RHS1     QLPP43   35.190247
    RHS1     QLPP44   37.320923
    RHS1     QLPP45   44.067932
    RHS1     QLPP46   49.050919
    RHS1     QLPP47   41.526245
    RHS1     QLPP48   33.631470
    RHS1     QLPP51   57.291903
    RHS1     QLPP52   63.548340
    RHS1     QLPP53   60.229141
    RHS1     QLPP54   63.440781
    RHS1     QLPP55   83.203278
    RHS1     QLPP56   74.095795
    RHS1     QLPP57   68.140228
    RHS1     QLPP58   57.819061
    RHS1     QOTP11   -339.392818
    RHS1     QOTP12   504.032227
    RHS1     QOTP13   575.973877
    RHS1     QOTP14   567.272461
    RHS1     QOTP15   574.926514
    RHS1     QOTP16   503.333252
    RHS1     QOTP17   461.212891
    RHS1     QOTP18   515.841553
    RHS1     QOTP21   -197.345095
    RHS1     QOTP22   716.281982
    RHS1     QOTP23   744.021484
    RHS1     QOTP24   757.934814
    RHS1     QOTP25   600.689941
    RHS1     QOTP26   528.244141
    RHS1     QOTP27   579.603760
    RHS1     QOTP28   694.925049
    RHS1     QOTP31   -26.024784
    RHS1     QOTP32   692.159668
    RHS1     QOTP33   643.010742
    RHS1     QOTP34   671.126465
    RHS1     QOTP35   638.509766
    RHS1     QOTP36   614.355469
    RHS1     QOTP37   614.669189
    RHS1     QOTP38   628.909668
    RHS1     QOTP41   -107.352010
    RHS1     QOTP42   108.816818
    RHS1     QOTP43   115.964767
    RHS1     QOTP44   100.822281
    RHS1     QOTP45   63.011841
    RHS1     QOTP46   48.899475
    RHS1     QOTP47   75.042664
    RHS1     QOTP48   102.087631
    RHS1     QOTP51   52.178913
    RHS1     QOTP52   372.707031
    RHS1     QOTP53   367.026611
    RHS1     QOTP54   312.843994
    RHS1     QOTP55   333.859619
    RHS1     QOTP56   283.165039
    RHS1     QOTP57   326.468018
    RHS1     QOTP58   330.233398
    RHS1     AP1P21   58.799988
    RHS1     AP1P22   58.799988
    RHS1     AP1P23   58.799988
    RHS1     AP1P24   58.799988
    RHS1     AP1P25   58.799988
    RHS1     AP1P26   58.799988
    RHS1     AP1P27   58.799988
    RHS1     AP1P28   58.799988
    RHS1     AP1P31   3027.000000
    RHS1     AP1P32   3027.000000
    RHS1     AP1P33   3027.000000
    RHS1     AP1P34   3027.000000
    RHS1     AP1P35   3027.000000
    RHS1     AP1P36   3027.000000
    RHS1     AP1P37   3027.000000
    RHS1     AP1P38   3027.000000
    RHS1     AP1P51   4.599999
    RHS1     AP1P52   4.599999
    RHS1     AP1P53   4.599999
    RHS1     AP1P54   4.599999
    RHS1     AP1P55   4.599999
    RHS1     AP1P56   4.599999
    RHS1     AP1P57   4.599999
    RHS1     AP1P58   4.599999
    RHS1     AP2P11   185.500000
    RHS1     AP2P12   185.500000
    RHS1     AP2P13   185.500000
    RHS1     AP2P14   185.500000
    RHS1     AP2P15   185.500000
    RHS1     AP2P16   185.500000
    RHS1     AP2P17   185.500000
    RHS1     AP2P18   185.500000
    RHS1     AP2P31   553.500000
    RHS1     AP2P32   553.500000
    RHS1     AP2P33   553.500000
    RHS1     AP2P34   553.500000
    RHS1     AP2P35   553.500000
    RHS1     AP2P36   553.500000
    RHS1     AP2P37   553.500000
    RHS1     AP2P38   553.500000
    RHS1     AP2P41   29.000000
    RHS1     AP2P42   29.000000
    RHS1     AP2P43   29.000000
    RHS1     AP2P44   29.000000
    RHS1     AP2P45   29.000000
    RHS1     AP2P46   29.000000
    RHS1     AP2P47   29.000000
    RHS1     AP2P48   29.000000
    RHS1     AP3P21   117.000000
    RHS1     AP3P22   117.000000
    RHS1     AP3P23   117.000000
    RHS1     AP3P24   117.000000
    RHS1     AP3P25   117.000000
    RHS1     AP3P26   117.000000
    RHS1     AP3P27   117.000000
    RHS1     AP3P28   117.000000
    RHS1     AP4P21   12.599999
    RHS1     AP4P22   12.599999
    RHS1     AP4P23   12.599999
    RHS1     AP4P24   12.599999
    RHS1     AP4P25   12.599999
    RHS1     AP4P26   12.599999
    RHS1     AP4P27   12.599999
    RHS1     AP4P28   12.599999
    RHS1     AP4P31   35.899994
    RHS1     AP4P32   35.899994
    RHS1     AP4P33   35.899994
    RHS1     AP4P34   35.899994
    RHS1     AP4P35   35.899994
    RHS1     AP4P36   35.899994
    RHS1     AP4P37   35.899994
    RHS1     AP4P38   35.899994
    RHS1     AP5P31   118.000000
    RHS1     AP5P32   118.000000
    RHS1     AP5P33   118.000000
    RHS1     AP5P34   118.000000
    RHS1     AP5P35   118.000000
    RHS1     AP5P36   118.000000
    RHS1     AP5P37   118.000000
    RHS1     AP5P38   118.000000
    RHS1     AP5P41   51.699997
    RHS1     AP5P42   51.699997
    RHS1     AP5P43   51.699997
    RHS1     AP5P44   51.699997
    RHS1     AP5P45   51.699997
    RHS1     AP5P46   51.699997
    RHS1     AP5P47   51.699997
    RHS1     AP5P48   51.699997
    RHS1     AP1P21   33.099991
    RHS1     AP1P22   33.099991
    RHS1     AP1P23   33.099991
    RHS1     AP1P24   33.099991
    RHS1     AP1P25   33.099991
    RHS1     AP1P26   33.099991
    RHS1     AP1P27   33.099991
    RHS1     AP1P28   33.099991
    RHS1     AP1P31   609.000000
    RHS1     AP1P32   609.000000
    RHS1     AP1P33   609.000000
    RHS1     AP1P34   609.000000
    RHS1     AP1P35   609.000000
    RHS1     AP1P36   609.000000
    RHS1     AP1P37   609.000000
    RHS1     AP1P38   609.000000
    RHS1     AP1P51   3.899999
    RHS1     AP1P52   3.899999
    RHS1     AP1P53   3.899999
    RHS1     AP1P54   3.899999
    RHS1     AP1P55   3.899999
    RHS1     AP1P56   3.899999
    RHS1     AP1P57   3.899999
    RHS1     AP1P58   3.899999
    RHS1     AP2P11   50.800003
    RHS1     AP2P12   50.800003
    RHS1     AP2P13   50.800003
    RHS1     AP2P14   50.800003
    RHS1     AP2P15   50.800003
    RHS1     AP2P16   50.800003
    RHS1     AP2P17   50.800003
    RHS1     AP2P18   50.800003
    RHS1     AP2P31   215.600098
    RHS1     AP2P32   215.600098
    RHS1     AP2P33   215.600098
    RHS1     AP2P34   215.600098
    RHS1     AP2P35   215.600098
    RHS1     AP2P36   215.600098
    RHS1     AP2P37   215.600098
    RHS1     AP2P38   215.600098
    RHS1     AP2P41   10.900009
    RHS1     AP2P42   10.900009
    RHS1     AP2P43   10.900009
    RHS1     AP2P44   10.900009
    RHS1     AP2P45   10.900009
    RHS1     AP2P46   10.900009
    RHS1     AP2P47   10.900009
    RHS1     AP2P48   10.900009
    RHS1     AP3P21   57.000000
    RHS1     AP3P22   57.000000
    RHS1     AP3P23   57.000000
    RHS1     AP3P24   57.000000
    RHS1     AP3P25   57.000000
    RHS1     AP3P26   57.000000
    RHS1     AP3P27   57.000000
    RHS1     AP3P28   57.000000
    RHS1     AP4P21   7.599999
    RHS1     AP4P22   7.599999
    RHS1     AP4P23   7.599999
    RHS1     AP4P24   7.599999
    RHS1     AP4P25   7.599999
    RHS1     AP4P26   7.599999
    RHS1     AP4P27   7.599999
    RHS1     AP4P28   7.599999
    RHS1     AP4P31   17.300003
    RHS1     AP4P32   17.300003
    RHS1     AP4P33   17.300003
    RHS1     AP4P34   17.300003
    RHS1     AP4P35   17.300003
    RHS1     AP4P36   17.300003
    RHS1     AP4P37   17.300003
    RHS1     AP4P38   17.300003
    RHS1     AP5P31   76.600006
    RHS1     AP5P32   76.600006
    RHS1     AP5P33   76.600006
    RHS1     AP5P34   76.600006
    RHS1     AP5P35   76.600006
    RHS1     AP5P36   76.600006
    RHS1     AP5P37   76.600006
    RHS1     AP5P38   76.600006
    RHS1     AP5P41   21.600006
    RHS1     AP5P42   21.600006
    RHS1     AP5P43   21.600006
    RHS1     AP5P44   21.600006
    RHS1     AP5P45   21.600006
    RHS1     AP5P46   21.600006
    RHS1     AP5P47   21.600006
    RHS1     AP5P48   21.600006
    BOUNDRHS UPBROW0  1373.398900
    BOUNDRHS LOBROW1  0.000000
    BOUNDRHS UPBROW2  1532.998800
    BOUNDRHS LOBROW3  0.000000
    BOUNDRHS UPBROW4  1532.998800
    BOUNDRHS LOBROW5  0.000000
    BOUNDRHS UPBROW6  1532.998800
    BOUNDRHS LOBROW7  0.000000
    BOUNDRHS UPBROW8  1531.948200
    BOUNDRHS LOBROW9  0.000000
    BOUNDRHS UPBROW10 1243.198200
    BOUNDRHS LOBROW11 0.000000
    BOUNDRHS UPBROW12 1373.398700
    BOUNDRHS LOBROW13 0.000000
    BOUNDRHS UPBROW14 1532.998300
    BOUNDRHS LOBROW15 0.000000
    BOUNDRHS UPBROW16 5.249996
    BOUNDRHS LOBROW17 0.000000
    BOUNDRHS UPBROW18 5.249996
    BOUNDRHS LOBROW19 0.000000
    BOUNDRHS UPBROW20 5.249996
    BOUNDRHS LOBROW21 0.000000
    BOUNDRHS UPBROW22 5.249996
    BOUNDRHS LOBROW23 0.000000
    BOUNDRHS UPBROW24 5.249995
    BOUNDRHS LOBROW25 0.000000
    BOUNDRHS UPBROW26 5.249994
    BOUNDRHS LOBROW27 0.000000
    BOUNDRHS UPBROW28 5.249994
    BOUNDRHS LOBROW29 0.000000
    BOUNDRHS UPBROW30 5.249995
    BOUNDRHS LOBROW31 0.000000
    BOUNDRHS UPBROW32 97.649918
    BOUNDRHS LOBROW33 0.000000
    BOUNDRHS UPBROW34 113.399918
    BOUNDRHS LOBROW35 0.000000
    BOUNDRHS UPBROW36 113.399918
    BOUNDRHS LOBROW37 0.000000
    BOUNDRHS UPBROW38 113.399918
    BOUNDRHS LOBROW39 0.000000
    BOUNDRHS UPBROW40 137.549866
    BOUNDRHS LOBROW41 0.000000
    BOUNDRHS UPBROW42 106.049866
    BOUNDRHS LOBROW43 0.000000
    BOUNDRHS UPBROW44 97.649902
    BOUNDRHS LOBROW45 0.000000
    BOUNDRHS UPBROW46 113.399887
    BOUNDRHS LOBROW47 0.000000
    BOUNDRHS UPBROW48 165.899872
    BOUNDRHS LOBROW49 0.000000
    BOUNDRHS UPBROW50 144.899887
    BOUNDRHS LOBROW51 0.000000
    BOUNDRHS UPBROW52 144.899887
    BOUNDRHS LOBROW53 0.000000
    BOUNDRHS UPBROW54 144.899887
    BOUNDRHS LOBROW55 0.000000
    BOUNDRHS UPBROW56 193.199829
    BOUNDRHS LOBROW57 0.000000
    BOUNDRHS UPBROW58 167.999832
    BOUNDRHS LOBROW59 0.000000
    BOUNDRHS UPBROW60 165.899857
    BOUNDRHS LOBROW61 0.000000
    BOUNDRHS UPBROW62 144.899857
    BOUNDRHS LOBROW63 0.000000
    BOUNDRHS UPBROW64 235.199829
    BOUNDRHS LOBROW65 0.000000
    BOUNDRHS UPBROW66 275.099609
    BOUNDRHS LOBROW67 0.000000
    BOUNDRHS UPBROW68 275.099609
    BOUNDRHS LOBROW69 0.000000
    BOUNDRHS UPBROW70 275.099609
    BOUNDRHS LOBROW71 0.000000
    BOUNDRHS UPBROW72 451.499268
    BOUNDRHS LOBROW73 0.000000
    BOUNDRHS UPBROW74 675.149170
    BOUNDRHS LOBROW75 0.000000
    BOUNDRHS UPBROW76 235.199783
    BOUNDRHS LOBROW77 0.000000
    BOUNDRHS UPBROW78 275.099365
    BOUNDRHS LOBROW79 0.000000
    BOUNDRHS UPBROW80 1760.848600
    BOUNDRHS LOBROW81 0.000000
    BOUNDRHS UPBROW82 1786.048600
    BOUNDRHS LOBROW83 0.000000
    BOUNDRHS UPBROW84 1786.048600
    BOUNDRHS LOBROW85 0.000000
    BOUNDRHS UPBROW86 1786.048600
    BOUNDRHS LOBROW87 0.000000
    BOUNDRHS UPBROW88 2027.548100
    BOUNDRHS LOBROW89 0.000000
    BOUNDRHS UPBROW90 2216.547600
    BOUNDRHS LOBROW91 0.000000
    BOUNDRHS UPBROW92 1760.848400
    BOUNDRHS LOBROW93 0.000000
    BOUNDRHS UPBROW94 1786.048100
    BOUNDRHS LOBROW95 0.000000
    BOUNDRHS UPBROW96 121.799911
    BOUNDRHS LOBROW97 0.000000
    BOUNDRHS UPBROW98 122.849899
    BOUNDRHS LOBROW99 0.000000
    BOUNDRHS UPBROW100 122.849899
    BOUNDRHS LOBROW101 0.000000
    BOUNDRHS UPBROW102 122.849899
    BOUNDRHS LOBROW103 0.000000
    BOUNDRHS UPBROW104 119.699860
    BOUNDRHS LOBROW105 0.000000
    BOUNDRHS UPBROW106 96.599884
    BOUNDRHS LOBROW107 0.000000
    BOUNDRHS UPBROW108 121.799881
    BOUNDRHS LOBROW109 0.000000
    BOUNDRHS UPBROW110 122.849869
    BOUNDRHS LOBROW111 0.000000
    BOUNDRHS UPBROW112 35.699966
    BOUNDRHS LOBROW113 0.000000
    BOUNDRHS UPBROW114 58.799957
    BOUNDRHS LOBROW115 0.000000
    BOUNDRHS UPBROW116 58.799957
    BOUNDRHS LOBROW117 0.000000
    BOUNDRHS UPBROW118 58.799957
    BOUNDRHS LOBROW119 0.000000
    BOUNDRHS UPBROW120 48.299942
    BOUNDRHS LOBROW121 0.000000
    BOUNDRHS UPBROW122 31.499939
    BOUNDRHS LOBROW123 0.000000
    BOUNDRHS UPBROW124 35.699951
    BOUNDRHS LOBROW125 0.000000
    BOUNDRHS UPBROW126 58.799927
    BOUNDRHS LOBROW127 0.000000
    BOUNDRHS UPBROW128 2.099998
    BOUNDRHS LOBROW129 0.000000
    BOUNDRHS UPBROW130 5.249995
    BOUNDRHS LOBROW131 0.000000
    BOUNDRHS UPBROW132 3.149996
    BOUNDRHS LOBROW133 0.000000
    BOUNDRHS UPBROW134 2.099998
    BOUNDRHS LOBROW135 0.000000
    BOUNDRHS UPBROW136 15.749989
    BOUNDRHS LOBROW137 0.000000
    BOUNDRHS UPBROW138 18.899979
    BOUNDRHS LOBROW139 0.000000
    BOUNDRHS UPBROW140 18.899979
    BOUNDRHS LOBROW141 0.000000
    BOUNDRHS UPBROW142 18.899979
    BOUNDRHS LOBROW143 0.000000
    BOUNDRHS UPBROW144 37.799957
    BOUNDRHS LOBROW145 0.000000
    BOUNDRHS UPBROW146 52.499939
    BOUNDRHS LOBROW147 0.000000
    BOUNDRHS UPBROW148 15.749986
    BOUNDRHS LOBROW149 0.000000
    BOUNDRHS UPBROW150 18.899963
    BOUNDRHS LOBROW151 0.000000
    BOUNDRHS UPBROW152 46.199966
    BOUNDRHS LOBROW153 0.000000
    BOUNDRHS UPBROW154 55.649948
    BOUNDRHS LOBROW155 0.000000
    BOUNDRHS UPBROW156 55.649948
    BOUNDRHS LOBROW157 0.000000
    BOUNDRHS UPBROW158 55.649948
    BOUNDRHS LOBROW159 0.000000
    BOUNDRHS UPBROW160 52.499939
    BOUNDRHS LOBROW161 0.000000
    BOUNDRHS UPBROW162 66.149933
    BOUNDRHS LOBROW163 0.000000
    BOUNDRHS UPBROW164 46.199936
    BOUNDRHS LOBROW165 0.000000
    BOUNDRHS UPBROW166 55.649918
    BOUNDRHS LOBROW167 0.000000
    BOUNDRHS UPBROW168 804.299316
    BOUNDRHS LOBROW169 0.000000
    BOUNDRHS UPBROW170 806.399414
    BOUNDRHS LOBROW171 0.000000
    BOUNDRHS UPBROW172 806.399414
    BOUNDRHS LOBROW173 0.000000
    BOUNDRHS UPBROW174 806.399414
    BOUNDRHS LOBROW175 0.000000
    BOUNDRHS UPBROW176 752.848877
    BOUNDRHS LOBROW177 0.000000
    BOUNDRHS UPBROW178 808.498779
    BOUNDRHS LOBROW179 0.000000
    BOUNDRHS UPBROW180 804.299072
    BOUNDRHS LOBROW181 0.000000
    BOUNDRHS UPBROW182 806.399170
    BOUNDRHS LOBROW183 0.000000
    BOUNDRHS UPBROW184 68.249939
    BOUNDRHS LOBROW185 0.000000
    BOUNDRHS UPBROW186 68.249939
    BOUNDRHS LOBROW187 0.000000
    BOUNDRHS UPBROW188 68.249939
    BOUNDRHS LOBROW189 0.000000
    BOUNDRHS UPBROW190 68.249939
    BOUNDRHS LOBROW191 0.000000
    BOUNDRHS UPBROW192 68.249908
    BOUNDRHS LOBROW193 0.000000
    BOUNDRHS UPBROW194 68.249908
    BOUNDRHS LOBROW195 0.000000
    BOUNDRHS UPBROW196 68.249908
    BOUNDRHS LOBROW197 0.000000
    BOUNDRHS UPBROW198 68.249908
    BOUNDRHS LOBROW199 0.000000
    BOUNDRHS UPBROW200 6.299995
    BOUNDRHS LOBROW201 0.000000
    BOUNDRHS UPBROW202 6.299995
    BOUNDRHS LOBROW203 0.000000
    BOUNDRHS UPBROW204 6.299995
    BOUNDRHS LOBROW205 0.000000
    BOUNDRHS UPBROW206 6.299995
    BOUNDRHS LOBROW207 0.000000
    BOUNDRHS UPBROW208 7.349994
    BOUNDRHS LOBROW209 0.000000
    BOUNDRHS UPBROW210 7.349992
    BOUNDRHS LOBROW211 0.000000
    BOUNDRHS UPBROW212 6.299993
    BOUNDRHS LOBROW213 0.000000
    BOUNDRHS UPBROW214 6.299994
    BOUNDRHS LOBROW215 0.000000
    BOUNDRHS UPBROW216 6.299995
    BOUNDRHS LOBROW217 0.000000
    BOUNDRHS UPBROW218 4.199997
    BOUNDRHS LOBROW219 0.000000
    BOUNDRHS UPBROW220 4.199997
    BOUNDRHS LOBROW221 0.000000
    BOUNDRHS UPBROW222 4.199997
    BOUNDRHS LOBROW223 0.000000
    BOUNDRHS UPBROW224 3.149997
    BOUNDRHS LOBROW225 0.000000
    BOUNDRHS UPBROW226 3.149996
    BOUNDRHS LOBROW227 0.000000
    BOUNDRHS UPBROW228 6.299993
    BOUNDRHS LOBROW229 0.000000
    BOUNDRHS UPBROW230 4.199995
    BOUNDRHS LOBROW231 0.000000
    BOUNDRHS UPBROW232 12.599991
    BOUNDRHS LOBROW233 0.000000
    BOUNDRHS UPBROW234 17.849976
    BOUNDRHS LOBROW235 0.000000
    BOUNDRHS UPBROW236 17.849976
    BOUNDRHS LOBROW237 0.000000
    BOUNDRHS UPBROW238 17.849976
    BOUNDRHS LOBROW239 0.000000
    BOUNDRHS UPBROW240 4.199995
    BOUNDRHS LOBROW241 0.000000
    BOUNDRHS UPBROW242 7.349992
    BOUNDRHS LOBROW243 0.000000
    BOUNDRHS UPBROW244 12.599988
    BOUNDRHS LOBROW245 0.000000
    BOUNDRHS UPBROW246 17.849960
    BOUNDRHS LOBROW247 0.000000
    BOUNDRHS UPBROW248 23.099976
    BOUNDRHS LOBROW249 0.000000
    BOUNDRHS UPBROW250 31.499969
    BOUNDRHS LOBROW251 0.000000
    BOUNDRHS UPBROW252 31.499969
    BOUNDRHS LOBROW253 0.000000
    BOUNDRHS UPBROW254 31.499969
    BOUNDRHS LOBROW255 0.000000
    BOUNDRHS UPBROW256 33.599945
    BOUNDRHS LOBROW257 0.000000
    BOUNDRHS UPBROW258 20.999969
    BOUNDRHS LOBROW259 0.000000
    BOUNDRHS UPBROW260 23.099960
    BOUNDRHS LOBROW261 0.000000
    BOUNDRHS UPBROW262 31.499954
    BOUNDRHS LOBROW263 0.000000
    BOUNDRHS UPBROW264 12.599991
    BOUNDRHS LOBROW265 0.000000
    BOUNDRHS UPBROW266 13.649990
    BOUNDRHS LOBROW267 0.000000
    BOUNDRHS UPBROW268 13.649990
    BOUNDRHS LOBROW269 0.000000
    BOUNDRHS UPBROW270 13.649990
    BOUNDRHS LOBROW271 0.000000
    BOUNDRHS UPBROW272 10.499990
    BOUNDRHS LOBROW273 0.000000
    BOUNDRHS UPBROW274 8.399993
    BOUNDRHS LOBROW275 0.000000
    BOUNDRHS UPBROW276 12.599988
    BOUNDRHS LOBROW277 0.000000
    BOUNDRHS UPBROW278 13.649987
    BOUNDRHS LOBROW279 0.000000
    BOUNDRHS UPBROW280 45.149963
    BOUNDRHS LOBROW281 0.000000
    BOUNDRHS UPBROW282 39.899963
    BOUNDRHS LOBROW283 0.000000
    BOUNDRHS UPBROW284 39.899963
    BOUNDRHS LOBROW285 0.000000
    BOUNDRHS UPBROW286 39.899963
    BOUNDRHS LOBROW287 0.000000
    BOUNDRHS UPBROW288 71.399918
    BOUNDRHS LOBROW289 0.000000
    BOUNDRHS UPBROW290 92.399918
    BOUNDRHS LOBROW291 0.000000
    BOUNDRHS UPBROW292 45.149948
    BOUNDRHS LOBROW293 0.000000
    BOUNDRHS UPBROW294 39.899948
    BOUNDRHS LOBROW295 0.000000
    BOUNDRHS UPBROW296 1.049999
    BOUNDRHS LOBROW297 0.000000
    BOUNDRHS UPBROW298 1.049999
    BOUNDRHS LOBROW299 0.000000
    BOUNDRHS UPBROW300 1.049999
    BOUNDRHS LOBROW301 0.000000
    BOUNDRHS UPBROW302 1.049999
    BOUNDRHS LOBROW303 0.000000
    BOUNDRHS UPBROW304 2.099997
    BOUNDRHS LOBROW305 0.000000
    BOUNDRHS UPBROW306 6.299994
    BOUNDRHS LOBROW307 0.000000
    BOUNDRHS UPBROW308 1.049998
    BOUNDRHS LOBROW309 0.000000
    BOUNDRHS UPBROW310 1.049998
    BOUNDRHS LOBROW311 0.000000
    BOUNDRHS UPBROW312 439.949463
    BOUNDRHS LOBROW313 0.000000
    BOUNDRHS UPBROW314 549.149414
    BOUNDRHS LOBROW315 0.000000
    BOUNDRHS UPBROW316 549.149414
    BOUNDRHS LOBROW317 0.000000
    BOUNDRHS UPBROW318 549.149414
    BOUNDRHS LOBROW319 0.000000
    BOUNDRHS UPBROW320 676.198975
    BOUNDRHS LOBROW321 0.000000
    BOUNDRHS UPBROW322 286.649414
    BOUNDRHS LOBROW323 0.000000
    BOUNDRHS UPBROW324 439.949219
    BOUNDRHS LOBROW325 0.000000
    BOUNDRHS UPBROW326 549.149170
    BOUNDRHS LOBROW327 0.000000
    BOUNDRHS UPBROW328 50.399963
    BOUNDRHS LOBROW329 0.000000
    BOUNDRHS UPBROW330 62.999954
    BOUNDRHS LOBROW331 0.000000
    BOUNDRHS UPBROW332 62.999954
    BOUNDRHS LOBROW333 0.000000
    BOUNDRHS UPBROW334 62.999954
    BOUNDRHS LOBROW335 0.000000
    BOUNDRHS UPBROW336 64.049911
    BOUNDRHS LOBROW337 0.000000
    BOUNDRHS UPBROW338 53.549927
    BOUNDRHS LOBROW339 0.000000
    BOUNDRHS UPBROW340 50.399918
    BOUNDRHS LOBROW341 0.000000
    BOUNDRHS UPBROW342 62.999939
    BOUNDRHS LOBROW343 0.000000
    BOUNDRHS UPBROW344 14.699989
    BOUNDRHS LOBROW345 0.000000
    BOUNDRHS UPBROW346 30.449966
    BOUNDRHS LOBROW347 0.000000
    BOUNDRHS UPBROW348 30.449966
    BOUNDRHS LOBROW349 0.000000
    BOUNDRHS UPBROW350 30.449966
    BOUNDRHS LOBROW351 0.000000
    BOUNDRHS UPBROW352 18.899963
    BOUNDRHS LOBROW353 0.000000
    BOUNDRHS UPBROW354 18.899963
    BOUNDRHS LOBROW355 0.000000
    BOUNDRHS UPBROW356 14.699986
    BOUNDRHS LOBROW357 0.000000
    BOUNDRHS UPBROW358 30.449936
    BOUNDRHS LOBROW359 0.000000
    BOUNDRHS UPBROW360 38.849960
    BOUNDRHS LOBROW361 0.000000
    BOUNDRHS UPBROW362 77.699936
    BOUNDRHS LOBROW363 0.000000
    BOUNDRHS UPBROW364 77.699936
    BOUNDRHS LOBROW365 0.000000
    BOUNDRHS UPBROW366 77.699936
    BOUNDRHS LOBROW367 0.000000
    BOUNDRHS UPBROW368 53.549911
    BOUNDRHS LOBROW369 0.000000
    BOUNDRHS UPBROW370 31.499939
    BOUNDRHS LOBROW371 0.000000
    BOUNDRHS UPBROW372 38.849945
    BOUNDRHS LOBROW373 0.000000
    BOUNDRHS UPBROW374 77.699905
    BOUNDRHS LOBROW375 0.000000
    BOUNDRHS UPBROW376 48.299957
    BOUNDRHS LOBROW377 0.000000
    BOUNDRHS UPBROW378 48.299957
    BOUNDRHS LOBROW379 0.000000
    BOUNDRHS UPBROW380 48.299957
    BOUNDRHS LOBROW381 0.000000
    BOUNDRHS UPBROW382 48.299957
    BOUNDRHS LOBROW383 0.000000
    BOUNDRHS UPBROW384 67.199921
    BOUNDRHS LOBROW385 0.000000
    BOUNDRHS UPBROW386 52.499939
    BOUNDRHS LOBROW387 0.000000
    BOUNDRHS UPBROW388 48.299927
    BOUNDRHS LOBROW389 0.000000
    BOUNDRHS UPBROW390 48.299942
    BOUNDRHS LOBROW391 0.000000
    BOUNDRHS UPBROW392 43.049957
    BOUNDRHS LOBROW393 0.000000
    BOUNDRHS UPBROW394 19.949982
    BOUNDRHS LOBROW395 0.000000
    BOUNDRHS UPBROW396 19.949982
    BOUNDRHS LOBROW397 0.000000
    BOUNDRHS UPBROW398 19.949982
    BOUNDRHS LOBROW399 0.000000
    BOUNDRHS UPBROW400 23.099960
    BOUNDRHS LOBROW401 0.000000
    BOUNDRHS UPBROW402 23.099960
    BOUNDRHS LOBROW403 0.000000
    BOUNDRHS UPBROW404 43.049942
    BOUNDRHS LOBROW405 0.000000
    BOUNDRHS UPBROW406 19.949966
    BOUNDRHS LOBROW407 0.000000
    BOUNDRHS UPBROW408 20.999985
    BOUNDRHS LOBROW409 0.000000
    BOUNDRHS UPBROW410 28.349976
    BOUNDRHS LOBROW411 0.000000
    BOUNDRHS UPBROW412 28.349976
    BOUNDRHS LOBROW413 0.000000
    BOUNDRHS UPBROW414 28.349976
    BOUNDRHS LOBROW415 0.000000
    BOUNDRHS UPBROW416 19.949966
    BOUNDRHS LOBROW417 0.000000
    BOUNDRHS UPBROW418 23.099960
    BOUNDRHS LOBROW419 0.000000
    BOUNDRHS UPBROW420 20.999969
    BOUNDRHS LOBROW421 0.000000
    BOUNDRHS UPBROW422 28.349960
    BOUNDRHS LOBROW423 0.000000
    BOUNDRHS UPBROW424 44.099960
    BOUNDRHS LOBROW425 0.000000
    BOUNDRHS UPBROW426 64.049942
    BOUNDRHS LOBROW427 0.000000
    BOUNDRHS UPBROW428 64.049942
    BOUNDRHS LOBROW429 0.000000
    BOUNDRHS UPBROW430 64.049942
    BOUNDRHS LOBROW431 0.000000
    BOUNDRHS UPBROW432 45.149948
    BOUNDRHS LOBROW433 0.000000
    BOUNDRHS UPBROW434 58.799927
    BOUNDRHS LOBROW435 0.000000
    BOUNDRHS UPBROW436 44.099945
    BOUNDRHS LOBROW437 0.000000
    BOUNDRHS UPBROW438 64.049911
    BOUNDRHS LOBROW439 0.000000
    BOUNDRHS UPBROW440 7.349995
    BOUNDRHS LOBROW441 0.000000
    BOUNDRHS UPBROW442 9.449993
    BOUNDRHS LOBROW443 0.000000
    BOUNDRHS UPBROW444 9.449993
    BOUNDRHS LOBROW445 0.000000
    BOUNDRHS UPBROW446 9.449993
    BOUNDRHS LOBROW447 0.000000
    BOUNDRHS UPBROW448 8.399992
    BOUNDRHS LOBROW449 0.000000
    BOUNDRHS UPBROW450 11.549991
    BOUNDRHS LOBROW451 0.000000
    BOUNDRHS UPBROW452 7.349993
    BOUNDRHS LOBROW453 0.000000
    BOUNDRHS UPBROW454 9.449992
    BOUNDRHS LOBROW455 0.000000
    BOUNDRHS UPBROW456 57.749954
    BOUNDRHS LOBROW457 0.000000
    BOUNDRHS UPBROW458 55.649948
    BOUNDRHS LOBROW459 0.000000
    BOUNDRHS UPBROW460 55.649948
    BOUNDRHS LOBROW461 0.000000
    BOUNDRHS UPBROW462 55.649948
    BOUNDRHS LOBROW463 0.000000
    BOUNDRHS UPBROW464 71.399918
    BOUNDRHS LOBROW465 0.000000
    BOUNDRHS UPBROW466 60.899918
    BOUNDRHS LOBROW467 0.000000
    BOUNDRHS UPBROW468 57.749924
    BOUNDRHS LOBROW469 0.000000
    BOUNDRHS UPBROW470 55.649918
    BOUNDRHS LOBROW471 0.000000
    BOUNDRHS UPBROW472 31.499969
    BOUNDRHS LOBROW473 0.000000
    BOUNDRHS UPBROW474 31.499969
    BOUNDRHS LOBROW475 0.000000
    BOUNDRHS UPBROW476 31.499969
    BOUNDRHS LOBROW477 0.000000
    BOUNDRHS UPBROW478 31.499969
    BOUNDRHS LOBROW479 0.000000
    BOUNDRHS UPBROW480 31.499939
    BOUNDRHS LOBROW481 0.000000
    BOUNDRHS UPBROW482 31.499939
    BOUNDRHS LOBROW483 0.000000
    BOUNDRHS UPBROW484 31.499954
    BOUNDRHS LOBROW485 0.000000
    BOUNDRHS UPBROW486 31.499954
    BOUNDRHS LOBROW487 0.000000
    BOUNDRHS UPBROW488 2.099998
    BOUNDRHS LOBROW489 0.000000
    BOUNDRHS UPBROW490 3.149998
    BOUNDRHS LOBROW491 0.000000
    BOUNDRHS UPBROW492 3.149998
    BOUNDRHS LOBROW493 0.000000
    BOUNDRHS UPBROW494 3.149998
    BOUNDRHS LOBROW495 0.000000
    BOUNDRHS UPBROW496 3.149997
    BOUNDRHS LOBROW497 0.000000
    BOUNDRHS UPBROW498 3.149996
    BOUNDRHS LOBROW499 0.000000
    BOUNDRHS UPBROW500 2.099998
    BOUNDRHS LOBROW501 0.000000
    BOUNDRHS UPBROW502 3.149997
    BOUNDRHS LOBROW503 0.000000
    BOUNDRHS UPBROW504 2.099997
    BOUNDRHS LOBROW505 0.000000
    BOUNDRHS UPBROW506 1.049998
    BOUNDRHS LOBROW507 0.000000
    BOUNDRHS UPBROW508 1.049998
    BOUNDRHS LOBROW509 0.000000
    BOUNDRHS UPBROW510 13.649990
    BOUNDRHS LOBROW511 0.000000
    BOUNDRHS UPBROW512 13.649990
    BOUNDRHS LOBROW513 0.000000
    BOUNDRHS UPBROW514 13.649990
    BOUNDRHS LOBROW515 0.000000
    BOUNDRHS UPBROW516 13.649990
    BOUNDRHS LOBROW517 0.000000
    BOUNDRHS UPBROW518 26.249954
    BOUNDRHS LOBROW519 0.000000
    BOUNDRHS UPBROW520 35.699951
    BOUNDRHS LOBROW521 0.000000
    BOUNDRHS UPBROW522 13.649988
    BOUNDRHS LOBROW523 0.000000
    BOUNDRHS UPBROW524 13.649987
    BOUNDRHS LOBROW525 0.000000
    BOUNDRHS UPBROW526 2.099998
    BOUNDRHS LOBROW527 0.000000
    BOUNDRHS UPBROW528 2.099998
    BOUNDRHS LOBROW529 0.000000
    BOUNDRHS UPBROW530 867.299316
    BOUNDRHS LOBROW531 0.000000
    BOUNDRHS UPBROW532 1052.099100
    BOUNDRHS LOBROW533 0.000000
    BOUNDRHS UPBROW534 1052.099100
    BOUNDRHS LOBROW535 0.000000
    BOUNDRHS UPBROW536 1052.099100
    BOUNDRHS LOBROW537 0.000000
    BOUNDRHS UPBROW538 934.498779
    BOUNDRHS LOBROW539 0.000000
    BOUNDRHS UPBROW540 965.998535
    BOUNDRHS LOBROW541 0.000000
    BOUNDRHS UPBROW542 867.298584
    BOUNDRHS LOBROW543 0.000000
    BOUNDRHS UPBROW544 1052.098600
    BOUNDRHS LOBROW545 0.000000
    BOUNDRHS UPBROW546 10.499992
    BOUNDRHS LOBROW547 0.000000
    BOUNDRHS UPBROW548 10.499992
    BOUNDRHS LOBROW549 0.000000
    BOUNDRHS UPBROW550 10.499992
    BOUNDRHS LOBROW551 0.000000
    BOUNDRHS UPBROW552 10.499992
    BOUNDRHS LOBROW553 0.000000
    BOUNDRHS UPBROW554 10.499990
    BOUNDRHS LOBROW555 0.000000
    BOUNDRHS UPBROW556 10.499990
    BOUNDRHS LOBROW557 0.000000
    BOUNDRHS UPBROW558 10.499990
    BOUNDRHS LOBROW559 0.000000
    BOUNDRHS UPBROW560 10.499990
    BOUNDRHS LOBROW561 0.000000
    BOUNDRHS UPBROW562 70.349945
    BOUNDRHS LOBROW563 0.000000
    BOUNDRHS UPBROW564 57.749954
    BOUNDRHS LOBROW565 0.000000
    BOUNDRHS UPBROW566 57.749954
    BOUNDRHS LOBROW567 0.000000
    BOUNDRHS UPBROW568 57.749954
    BOUNDRHS LOBROW569 0.000000
    BOUNDRHS UPBROW570 49.349945
    BOUNDRHS LOBROW571 0.000000
    BOUNDRHS UPBROW572 89.249893
    BOUNDRHS LOBROW573 0.000000
    BOUNDRHS UPBROW574 70.349915
    BOUNDRHS LOBROW575 0.000000
    BOUNDRHS UPBROW576 57.749924
    BOUNDRHS LOBROW577 0.000000
    BOUNDRHS UPBROW578 3.149998
    BOUNDRHS LOBROW579 0.000000
    BOUNDRHS UPBROW580 9.449993
    BOUNDRHS LOBROW581 0.000000
    BOUNDRHS UPBROW582 9.449993
    BOUNDRHS LOBROW583 0.000000
    BOUNDRHS UPBROW584 9.449993
    BOUNDRHS LOBROW585 0.000000
    BOUNDRHS UPBROW586 9.449992
    BOUNDRHS LOBROW587 0.000000
    BOUNDRHS UPBROW588 7.349992
    BOUNDRHS LOBROW589 0.000000
    BOUNDRHS UPBROW590 3.149995
    BOUNDRHS LOBROW591 0.000000
    BOUNDRHS UPBROW592 9.449992
    BOUNDRHS LOBROW593 0.000000
    BOUNDRHS UPBROW594 8.399994
    BOUNDRHS LOBROW595 0.000000
    BOUNDRHS UPBROW596 36.749969
    BOUNDRHS LOBROW597 0.000000
    BOUNDRHS UPBROW598 36.749969
    BOUNDRHS LOBROW599 0.000000
    BOUNDRHS UPBROW600 36.749969
    BOUNDRHS LOBROW601 0.000000
    BOUNDRHS UPBROW602 23.099960
    BOUNDRHS LOBROW603 0.000000
    BOUNDRHS UPBROW604 9.449991
    BOUNDRHS LOBROW605 0.000000
    BOUNDRHS UPBROW606 8.399992
    BOUNDRHS LOBROW607 0.000000
    BOUNDRHS UPBROW608 36.749954
    BOUNDRHS LOBROW609 0.000000
    BOUNDRHS UPBROW610 44.099960
    BOUNDRHS LOBROW611 0.000000
    BOUNDRHS UPBROW612 122.849899
    BOUNDRHS LOBROW613 0.000000
    BOUNDRHS UPBROW614 122.849899
    BOUNDRHS LOBROW615 0.000000
    BOUNDRHS UPBROW616 122.849899
    BOUNDRHS LOBROW617 0.000000
    BOUNDRHS UPBROW618 55.649918
    BOUNDRHS LOBROW619 0.000000
    BOUNDRHS UPBROW620 113.399902
    BOUNDRHS LOBROW621 0.000000
    BOUNDRHS UPBROW622 44.099945
    BOUNDRHS LOBROW623 0.000000
    BOUNDRHS UPBROW624 122.849869
    BOUNDRHS LOBROW625 0.000000
    BOUNDRHS UPBROW626 94.499924
    BOUNDRHS LOBROW627 0.000000
    BOUNDRHS UPBROW628 65.099945
    BOUNDRHS LOBROW629 0.000000
    BOUNDRHS UPBROW630 65.099945
    BOUNDRHS LOBROW631 0.000000
    BOUNDRHS UPBROW632 65.099945
    BOUNDRHS LOBROW633 0.000000
    BOUNDRHS UPBROW634 121.799866
    BOUNDRHS LOBROW635 0.000000
    BOUNDRHS UPBROW636 113.399902
    BOUNDRHS LOBROW637 0.000000
    BOUNDRHS UPBROW638 94.499893
    BOUNDRHS LOBROW639 0.000000
    BOUNDRHS UPBROW640 65.099915
    BOUNDRHS LOBROW641 0.000000
    BOUNDRHS UPBROW642 34.649963
    BOUNDRHS LOBROW643 0.000000
    BOUNDRHS UPBROW644 14.699989
    BOUNDRHS LOBROW645 0.000000
    BOUNDRHS UPBROW646 14.699989
    BOUNDRHS LOBROW647 0.000000
    BOUNDRHS UPBROW648 14.699989
    BOUNDRHS LOBROW649 0.000000
    BOUNDRHS UPBROW650 35.699951
    BOUNDRHS LOBROW651 0.000000
    BOUNDRHS UPBROW652 25.199951
    BOUNDRHS LOBROW653 0.000000
    BOUNDRHS UPBROW654 34.649933
    BOUNDRHS LOBROW655 0.000000
    BOUNDRHS UPBROW656 14.699987
    BOUNDRHS LOBROW657 0.000000
    BOUNDRHS UPBROW658 14.699989
    BOUNDRHS LOBROW659 0.000000
    BOUNDRHS UPBROW660 15.749989
    BOUNDRHS LOBROW661 0.000000
    BOUNDRHS UPBROW662 15.749989
    BOUNDRHS LOBROW663 0.000000
    BOUNDRHS UPBROW664 15.749989
    BOUNDRHS LOBROW665 0.000000
    BOUNDRHS UPBROW666 48.299942
    BOUNDRHS LOBROW667 0.000000
    BOUNDRHS UPBROW668 41.999954
    BOUNDRHS LOBROW669 0.000000
    BOUNDRHS UPBROW670 14.699986
    BOUNDRHS LOBROW671 0.000000
    BOUNDRHS UPBROW672 15.749986
    BOUNDRHS LOBROW673 0.000000
    BOUNDRHS UPBROW674 3.149998
    BOUNDRHS LOBROW675 0.000000
    BOUNDRHS UPBROW676 1.049998
    BOUNDRHS LOBROW677 0.000000
    BOUNDRHS UPBROW678 3.149995
    BOUNDRHS LOBROW679 0.000000
    BOUNDRHS LOBROW680 0.000000
    BOUNDRHS UPBROW681 2329.816200
    BOUNDRHS LOBROW682 0.000000
    BOUNDRHS UPBROW683 2409.561800
    BOUNDRHS LOBROW684 0.000000
    BOUNDRHS UPBROW685 2438.315700
    BOUNDRHS LOBROW686 0.000000
    BOUNDRHS UPBROW687 2199.024400
    BOUNDRHS LOBROW688 0.000000
    BOUNDRHS UPBROW689 2240.650400
    BOUNDRHS LOBROW690 0.000000
    BOUNDRHS UPBROW691 2186.647500
    BOUNDRHS LOBROW692 0.000000
    BOUNDRHS UPBROW693 2313.181400
    BOUNDRHS LOBROW694 0.000000
    BOUNDRHS UPBROW695 2382.836400
    BOUNDRHS LOBROW696 0.000000
    BOUNDRHS UPBROW697 943.898926
    BOUNDRHS LOBROW698 0.000000
    BOUNDRHS UPBROW699 821.000244
    BOUNDRHS LOBROW700 0.000000
    BOUNDRHS UPBROW701 807.084229
    BOUNDRHS LOBROW702 0.000000
    BOUNDRHS UPBROW703 951.501221
    BOUNDRHS LOBROW704 0.000000
    BOUNDRHS UPBROW705 1765.649200
    BOUNDRHS LOBROW706 0.000000
    BOUNDRHS UPBROW707 1954.322800
    BOUNDRHS LOBROW708 0.000000
    BOUNDRHS UPBROW709 1045.082300
    BOUNDRHS LOBROW710 0.000000
    BOUNDRHS UPBROW711 792.543213
    BOUNDRHS LOBROW712 0.000000
    BOUNDRHS UPBROW713 1469.968300
    BOUNDRHS LOBROW714 0.000000
    BOUNDRHS UPBROW715 1462.662600
    BOUNDRHS LOBROW716 0.000000
    BOUNDRHS UPBROW717 1491.202900
    BOUNDRHS LOBROW718 0.000000
    BOUNDRHS UPBROW719 1522.591600
    BOUNDRHS LOBROW720 0.000000
    BOUNDRHS UPBROW721 1785.261000
    BOUNDRHS LOBROW722 0.000000
    BOUNDRHS UPBROW723 2016.825700
    BOUNDRHS LOBROW724 0.000000
    BOUNDRHS UPBROW725 1651.086900
    BOUNDRHS LOBROW726 0.000000
    BOUNDRHS UPBROW727 1701.755100
    BOUNDRHS LOBROW728 0.000000
    BOUNDRHS UPBROW729 344.392334
    BOUNDRHS LOBROW730 0.000000
    BOUNDRHS UPBROW731 359.661865
    BOUNDRHS LOBROW732 0.000000
    BOUNDRHS UPBROW733 340.031006
    BOUNDRHS LOBROW734 0.000000
    BOUNDRHS UPBROW735 325.185547
    BOUNDRHS LOBROW736 0.000000
    BOUNDRHS UPBROW737 370.646484
    BOUNDRHS LOBROW738 0.000000
    BOUNDRHS UPBROW739 329.319092
    BOUNDRHS LOBROW740 0.000000
    BOUNDRHS UPBROW741 333.424561
    BOUNDRHS LOBROW742 0.000000
    BOUNDRHS UPBROW743 332.793701
    BOUNDRHS LOBROW744 0.000000
    BOUNDRHS UPBROW745 71.408554
    BOUNDRHS LOBROW746 0.000000
    BOUNDRHS UPBROW747 66.774643
    BOUNDRHS LOBROW748 0.000000
    BOUNDRHS UPBROW749 72.182785
    BOUNDRHS LOBROW750 0.000000
    BOUNDRHS UPBROW751 76.916443
    BOUNDRHS LOBROW752 0.000000
    BOUNDRHS UPBROW753 73.391464
    BOUNDRHS LOBROW754 0.000000
    BOUNDRHS UPBROW755 52.512360
    BOUNDRHS LOBROW756 0.000000
    BOUNDRHS UPBROW757 63.110077
    BOUNDRHS LOBROW758 0.000000
    BOUNDRHS UPBROW759 67.242172
    BOUNDRHS LOBROW760 0.000000
    BOUNDRHS UPBROW761 25.859818
    BOUNDRHS LOBROW762 0.000000
    BOUNDRHS UPBROW763 24.955856
    BOUNDRHS LOBROW764 0.000000
    BOUNDRHS UPBROW765 25.882187
    BOUNDRHS LOBROW766 0.000000
    BOUNDRHS UPBROW767 27.432922
    BOUNDRHS LOBROW768 0.000000
    BOUNDRHS UPBROW769 24.285355
    BOUNDRHS LOBROW770 0.000000
    BOUNDRHS UPBROW771 22.110168
    BOUNDRHS LOBROW772 0.000000
    BOUNDRHS UPBROW773 20.099365
    BOUNDRHS LOBROW774 0.000000
    BOUNDRHS UPBROW775 21.424911
    BOUNDRHS LOBROW776 0.000000
    BOUNDRHS UPBROW777 51.108932
    BOUNDRHS LOBROW778 0.000000
    BOUNDRHS UPBROW779 39.671005
    BOUNDRHS LOBROW780 0.000000
    BOUNDRHS UPBROW781 61.847305
    BOUNDRHS LOBROW782 0.000000
    BOUNDRHS UPBROW783 52.352951
    BOUNDRHS LOBROW784 0.000000
    BOUNDRHS UPBROW785 92.616241
    BOUNDRHS LOBROW786 0.000000
    BOUNDRHS UPBROW787 115.967285
    BOUNDRHS LOBROW788 0.000000
    BOUNDRHS UPBROW789 55.943115
    BOUNDRHS LOBROW790 0.000000
    BOUNDRHS UPBROW791 47.113327
    BOUNDRHS LOBROW792 0.000000
    BOUNDRHS UPBROW793 497.890381
    BOUNDRHS LOBROW794 0.000000
    BOUNDRHS UPBROW795 504.032227
    BOUNDRHS LOBROW796 0.000000
    BOUNDRHS UPBROW797 575.973877
    BOUNDRHS LOBROW798 0.000000
    BOUNDRHS UPBROW799 567.272461
    BOUNDRHS LOBROW800 0.000000
    BOUNDRHS UPBROW801 574.926514
    BOUNDRHS LOBROW802 0.000000
    BOUNDRHS UPBROW803 503.333252
    BOUNDRHS LOBROW804 0.000000
    BOUNDRHS UPBROW805 461.212891
    BOUNDRHS LOBROW806 0.000000
    BOUNDRHS UPBROW807 515.841553
    BOUNDRHS LOBROW808 0.000000
    BOUNDRHS UPBROW809 2425.636500
    BOUNDRHS LOBROW810 0.000000
    BOUNDRHS UPBROW811 2453.150900
    BOUNDRHS LOBROW812 0.000000
    BOUNDRHS UPBROW813 2385.480500
    BOUNDRHS LOBROW814 0.000000
    BOUNDRHS UPBROW815 2360.142300
    BOUNDRHS LOBROW816 0.000000
    BOUNDRHS UPBROW817 2332.784700
    BOUNDRHS LOBROW818 0.000000
    BOUNDRHS UPBROW819 2207.664600
    BOUNDRHS LOBROW820 0.000000
    BOUNDRHS UPBROW821 2311.772500
    BOUNDRHS LOBROW822 0.000000
    BOUNDRHS UPBROW823 2434.478800
    BOUNDRHS LOBROW824 0.000000
    BOUNDRHS UPBROW825 738.750244
    BOUNDRHS LOBROW826 0.000000
    BOUNDRHS UPBROW827 693.627197
    BOUNDRHS LOBROW828 0.000000
    BOUNDRHS UPBROW829 688.807617
    BOUNDRHS LOBROW830 0.000000
    BOUNDRHS UPBROW831 777.331299
    BOUNDRHS LOBROW832 0.000000
    BOUNDRHS UPBROW833 1039.342300
    BOUNDRHS LOBROW834 0.000000
    BOUNDRHS UPBROW835 1024.626000
    BOUNDRHS LOBROW836 0.000000
    BOUNDRHS UPBROW837 742.390625
    BOUNDRHS LOBROW838 0.000000
    BOUNDRHS UPBROW839 664.186523
    BOUNDRHS LOBROW840 0.000000
    BOUNDRHS UPBROW841 135.360504
    BOUNDRHS LOBROW842 0.000000
    BOUNDRHS UPBROW843 137.975739
    BOUNDRHS LOBROW844 0.000000
    BOUNDRHS UPBROW845 138.166229
    BOUNDRHS LOBROW846 0.000000
    BOUNDRHS UPBROW847 149.921982
    BOUNDRHS LOBROW848 0.000000
    BOUNDRHS UPBROW849 219.558243
    BOUNDRHS LOBROW850 0.000000
    BOUNDRHS UPBROW851 277.031738
    BOUNDRHS LOBROW852 0.000000
    BOUNDRHS UPBROW853 166.149963
    BOUNDRHS LOBROW854 0.000000
    BOUNDRHS UPBROW855 161.908005
    BOUNDRHS LOBROW856 0.000000
    BOUNDRHS UPBROW857 170.276367
    BOUNDRHS LOBROW858 0.000000
    BOUNDRHS UPBROW859 166.597092
    BOUNDRHS LOBROW860 0.000000
    BOUNDRHS UPBROW861 184.574829
    BOUNDRHS LOBROW862 0.000000
    BOUNDRHS UPBROW863 173.583984
    BOUNDRHS LOBROW864 0.000000
    BOUNDRHS UPBROW865 183.297913
    BOUNDRHS LOBROW866 0.000000
    BOUNDRHS UPBROW867 160.483566
    BOUNDRHS LOBROW868 0.000000
    BOUNDRHS UPBROW869 168.445313
    BOUNDRHS LOBROW870 0.000000
    BOUNDRHS UPBROW871 170.250275
    BOUNDRHS LOBROW872 0.000000
    BOUNDRHS UPBROW873 46.824112
    BOUNDRHS LOBROW874 0.000000
    BOUNDRHS UPBROW875 39.944595
    BOUNDRHS LOBROW876 0.000000
    BOUNDRHS UPBROW877 50.985016
    BOUNDRHS LOBROW878 0.000000
    BOUNDRHS UPBROW879 49.780502
    BOUNDRHS LOBROW880 0.000000
    BOUNDRHS UPBROW881 46.916931
    BOUNDRHS LOBROW882 0.000000
    BOUNDRHS UPBROW883 34.671082
    BOUNDRHS LOBROW884 0.000000
    BOUNDRHS UPBROW885 44.780411
    BOUNDRHS LOBROW886 0.000000
    BOUNDRHS UPBROW887 43.653915
    BOUNDRHS LOBROW888 0.000000
    BOUNDRHS UPBROW889 42.755066
    BOUNDRHS LOBROW890 0.000000
    BOUNDRHS UPBROW891 42.395020
    BOUNDRHS LOBROW892 0.000000
    BOUNDRHS UPBROW893 38.702026
    BOUNDRHS LOBROW894 0.000000
    BOUNDRHS UPBROW895 40.262268
    BOUNDRHS LOBROW896 0.000000
    BOUNDRHS UPBROW897 41.472641
    BOUNDRHS LOBROW898 0.000000
    BOUNDRHS UPBROW899 30.938339
    BOUNDRHS LOBROW900 0.000000
    BOUNDRHS UPBROW901 32.589432
    BOUNDRHS LOBROW902 0.000000
    BOUNDRHS UPBROW903 33.234406
    BOUNDRHS LOBROW904 0.000000
    BOUNDRHS UPBROW905 105.744690
    BOUNDRHS LOBROW906 0.000000
    BOUNDRHS UPBROW907 105.008316
    BOUNDRHS LOBROW908 0.000000
    BOUNDRHS UPBROW909 146.013306
    BOUNDRHS LOBROW910 0.000000
    BOUNDRHS UPBROW911 198.559006
    BOUNDRHS LOBROW912 0.000000
    BOUNDRHS UPBROW913 330.311523
    BOUNDRHS LOBROW914 0.000000
    BOUNDRHS UPBROW915 330.656494
    BOUNDRHS LOBROW916 0.000000
    BOUNDRHS UPBROW917 132.247696
    BOUNDRHS LOBROW918 0.000000
    BOUNDRHS UPBROW919 136.270401
    BOUNDRHS LOBROW920 0.000000
    BOUNDRHS UPBROW921 718.255859
    BOUNDRHS LOBROW922 0.000000
    BOUNDRHS UPBROW923 716.281982
    BOUNDRHS LOBROW924 0.000000
    BOUNDRHS UPBROW925 744.021484
    BOUNDRHS LOBROW926 0.000000
    BOUNDRHS UPBROW927 757.934814
    BOUNDRHS LOBROW928 0.000000
    BOUNDRHS UPBROW929 600.689941
    BOUNDRHS LOBROW930 0.000000
    BOUNDRHS UPBROW931 528.244141
    BOUNDRHS LOBROW932 0.000000
    BOUNDRHS UPBROW933 579.603760
    BOUNDRHS LOBROW934 0.000000
    BOUNDRHS UPBROW935 694.925049
    BOUNDRHS LOBROW936 0.000000
    BOUNDRHS UPBROW937 1016.173800
    BOUNDRHS LOBROW938 0.000000
    BOUNDRHS UPBROW939 907.823975
    BOUNDRHS LOBROW940 0.000000
    BOUNDRHS UPBROW941 884.968994
    BOUNDRHS LOBROW942 0.000000
    BOUNDRHS UPBROW943 931.526123
    BOUNDRHS LOBROW944 0.000000
    BOUNDRHS UPBROW945 904.190674
    BOUNDRHS LOBROW946 0.000000
    BOUNDRHS UPBROW947 848.376465
    BOUNDRHS LOBROW948 0.000000
    BOUNDRHS UPBROW949 986.215820
    BOUNDRHS LOBROW950 0.000000
    BOUNDRHS UPBROW951 921.450928
    BOUNDRHS LOBROW952 0.000000
    BOUNDRHS UPBROW953 273.906250
    BOUNDRHS LOBROW954 0.000000
    BOUNDRHS UPBROW955 310.208740
    BOUNDRHS LOBROW956 0.000000
    BOUNDRHS UPBROW957 357.296631
    BOUNDRHS LOBROW958 0.000000
    BOUNDRHS UPBROW959 271.512451
    BOUNDRHS LOBROW960 0.000000
    BOUNDRHS UPBROW961 246.157944
    BOUNDRHS LOBROW962 0.000000
    BOUNDRHS UPBROW963 287.843994
    BOUNDRHS LOBROW964 0.000000
    BOUNDRHS UPBROW965 264.251221
    BOUNDRHS LOBROW966 0.000000
    BOUNDRHS UPBROW967 290.950439
    BOUNDRHS LOBROW968 0.000000
    BOUNDRHS UPBROW969 121.743973
    BOUNDRHS LOBROW970 0.000000
    BOUNDRHS UPBROW971 94.584244
    BOUNDRHS LOBROW972 0.000000
    BOUNDRHS UPBROW973 97.319870
    BOUNDRHS LOBROW974 0.000000
    BOUNDRHS UPBROW975 64.744064
    BOUNDRHS LOBROW976 0.000000
    BOUNDRHS UPBROW977 84.984665
    BOUNDRHS LOBROW978 0.000000
    BOUNDRHS UPBROW979 121.751724
    BOUNDRHS LOBROW980 0.000000
    BOUNDRHS UPBROW981 116.901535
    BOUNDRHS LOBROW982 0.000000
    BOUNDRHS UPBROW983 97.903290
    BOUNDRHS LOBROW984 0.000000
    BOUNDRHS UPBROW985 79.756104
    BOUNDRHS LOBROW986 0.000000
    BOUNDRHS UPBROW987 35.344360
    BOUNDRHS LOBROW988 0.000000
    BOUNDRHS UPBROW989 64.410385
    BOUNDRHS LOBROW990 0.000000
    BOUNDRHS UPBROW991 66.927536
    BOUNDRHS LOBROW992 0.000000
    BOUNDRHS UPBROW993 34.905869
    BOUNDRHS LOBROW994 0.000000
    BOUNDRHS UPBROW995 42.806305
    BOUNDRHS LOBROW996 0.000000
    BOUNDRHS UPBROW997 65.891815
    BOUNDRHS LOBROW998 0.000000
    BOUNDRHS UPBROW999 53.898285
    BOUNDRHS LOBROW1000 0.000000
    BOUNDRHS UPBROW1001 36.886993
    BOUNDRHS LOBROW1002 0.000000
    BOUNDRHS UPBROW1003 32.754608
    BOUNDRHS LOBROW1004 0.000000
    BOUNDRHS UPBROW1005 51.255585
    BOUNDRHS LOBROW1006 0.000000
    BOUNDRHS UPBROW1007 39.356964
    BOUNDRHS LOBROW1008 0.000000
    BOUNDRHS UPBROW1009 51.237732
    BOUNDRHS LOBROW1010 0.000000
    BOUNDRHS UPBROW1011 34.538086
    BOUNDRHS LOBROW1012 0.000000
    BOUNDRHS UPBROW1013 43.162613
    BOUNDRHS LOBROW1014 0.000000
    BOUNDRHS UPBROW1015 38.279434
    BOUNDRHS LOBROW1016 0.000000
    BOUNDRHS UPBROW1017 260.558594
    BOUNDRHS LOBROW1018 0.000000
    BOUNDRHS UPBROW1019 257.088135
    BOUNDRHS LOBROW1020 0.000000
    BOUNDRHS UPBROW1021 254.167679
    BOUNDRHS LOBROW1022 0.000000
    BOUNDRHS UPBROW1023 245.710724
    BOUNDRHS LOBROW1024 0.000000
    BOUNDRHS UPBROW1025 266.727539
    BOUNDRHS LOBROW1026 0.000000
    BOUNDRHS UPBROW1027 213.200943
    BOUNDRHS LOBROW1028 0.000000
    BOUNDRHS UPBROW1029 209.654633
    BOUNDRHS LOBROW1030 0.000000
    BOUNDRHS UPBROW1031 207.371155
    BOUNDRHS LOBROW1032 0.000000
    BOUNDRHS UPBROW1033 679.788574
    BOUNDRHS LOBROW1034 0.000000
    BOUNDRHS UPBROW1035 671.301025
    BOUNDRHS LOBROW1036 0.000000
    BOUNDRHS UPBROW1037 708.720215
    BOUNDRHS LOBROW1038 0.000000
    BOUNDRHS UPBROW1039 706.325195
    BOUNDRHS LOBROW1040 0.000000
    BOUNDRHS UPBROW1041 889.798340
    BOUNDRHS LOBROW1042 0.000000
    BOUNDRHS UPBROW1043 844.227783
    BOUNDRHS LOBROW1044 0.000000
    BOUNDRHS UPBROW1045 678.141602
    BOUNDRHS LOBROW1046 0.000000
    BOUNDRHS UPBROW1047 643.164795
    BOUNDRHS LOBROW1048 0.000000
    BOUNDRHS UPBROW1049 682.721436
    BOUNDRHS LOBROW1050 0.000000
    BOUNDRHS UPBROW1051 692.159668
    BOUNDRHS LOBROW1052 0.000000
    BOUNDRHS UPBROW1053 643.010742
    BOUNDRHS LOBROW1054 0.000000
    BOUNDRHS UPBROW1055 671.126465
    BOUNDRHS LOBROW1056 0.000000
    BOUNDRHS UPBROW1057 638.509766
    BOUNDRHS LOBROW1058 0.000000
    BOUNDRHS UPBROW1059 614.355469
    BOUNDRHS LOBROW1060 0.000000
    BOUNDRHS UPBROW1061 614.669189
    BOUNDRHS LOBROW1062 0.000000
    BOUNDRHS UPBROW1063 628.909668
    BOUNDRHS LOBROW1064 0.000000
    BOUNDRHS UPBROW1065 235.699005
    BOUNDRHS LOBROW1066 0.000000
    BOUNDRHS UPBROW1067 238.725479
    BOUNDRHS LOBROW1068 0.000000
    BOUNDRHS UPBROW1069 242.268051
    BOUNDRHS LOBROW1070 0.000000
    BOUNDRHS UPBROW1071 216.751740
    BOUNDRHS LOBROW1072 0.000000
    BOUNDRHS UPBROW1073 192.061203
    BOUNDRHS LOBROW1074 0.000000
    BOUNDRHS UPBROW1075 174.294144
    BOUNDRHS LOBROW1076 0.000000
    BOUNDRHS UPBROW1077 214.863129
    BOUNDRHS LOBROW1078 0.000000
    BOUNDRHS UPBROW1079 235.932617
    BOUNDRHS LOBROW1080 0.000000
    BOUNDRHS UPBROW1081 92.701965
    BOUNDRHS LOBROW1082 0.000000
    BOUNDRHS UPBROW1083 87.899811
    BOUNDRHS LOBROW1084 0.000000
    BOUNDRHS UPBROW1085 86.472961
    BOUNDRHS LOBROW1086 0.000000
    BOUNDRHS UPBROW1087 102.558868
    BOUNDRHS LOBROW1088 0.000000
    BOUNDRHS UPBROW1089 104.885483
    BOUNDRHS LOBROW1090 0.000000
    BOUNDRHS UPBROW1091 79.025803
    BOUNDRHS LOBROW1092 0.000000
    BOUNDRHS UPBROW1093 86.376877
    BOUNDRHS LOBROW1094 0.000000
    BOUNDRHS UPBROW1095 85.070374
    BOUNDRHS LOBROW1096 0.000000
    BOUNDRHS UPBROW1097 18.902130
    BOUNDRHS LOBROW1098 0.000000
    BOUNDRHS UPBROW1099 17.555679
    BOUNDRHS LOBROW1100 0.000000
    BOUNDRHS UPBROW1101 17.681641
    BOUNDRHS LOBROW1102 0.000000
    BOUNDRHS UPBROW1103 21.381485
    BOUNDRHS LOBROW1104 0.000000
    BOUNDRHS UPBROW1105 28.804001
    BOUNDRHS LOBROW1106 0.000000
    BOUNDRHS UPBROW1107 28.504410
    BOUNDRHS LOBROW1108 0.000000
    BOUNDRHS UPBROW1109 21.653717
    BOUNDRHS LOBROW1110 0.000000
    BOUNDRHS UPBROW1111 21.492981
    BOUNDRHS LOBROW1112 0.000000
    BOUNDRHS UPBROW1113 24.883972
    BOUNDRHS LOBROW1114 0.000000
    BOUNDRHS UPBROW1115 24.631882
    BOUNDRHS LOBROW1116 0.000000
    BOUNDRHS UPBROW1117 26.123871
    BOUNDRHS LOBROW1118 0.000000
    BOUNDRHS UPBROW1119 24.135834
    BOUNDRHS LOBROW1120 0.000000
    BOUNDRHS UPBROW1121 23.679626
    BOUNDRHS LOBROW1122 0.000000
    BOUNDRHS UPBROW1123 19.909576
    BOUNDRHS LOBROW1124 0.000000
    BOUNDRHS UPBROW1125 21.920731
    BOUNDRHS LOBROW1126 0.000000
    BOUNDRHS UPBROW1127 24.306778
    BOUNDRHS LOBROW1128 0.000000
    BOUNDRHS UPBROW1129 9.204123
    BOUNDRHS LOBROW1130 0.000000
    BOUNDRHS UPBROW1131 6.309752
    BOUNDRHS LOBROW1132 0.000000
    BOUNDRHS UPBROW1133 7.999480
    BOUNDRHS LOBROW1134 0.000000
    BOUNDRHS UPBROW1135 7.867579
    BOUNDRHS LOBROW1136 0.000000
    BOUNDRHS UPBROW1137 6.778787
    BOUNDRHS LOBROW1138 0.000000
    BOUNDRHS UPBROW1139 6.129068
    BOUNDRHS LOBROW1140 0.000000
    BOUNDRHS UPBROW1141 7.030066
    BOUNDRHS LOBROW1142 0.000000
    BOUNDRHS UPBROW1143 6.880245
    BOUNDRHS LOBROW1144 0.000000
    BOUNDRHS UPBROW1145 0.754977
    BOUNDRHS LOBROW1146 0.000000
    BOUNDRHS UPBROW1147 0.776239
    BOUNDRHS LOBROW1148 0.000000
    BOUNDRHS UPBROW1149 0.555903
    BOUNDRHS LOBROW1150 0.000000
    BOUNDRHS UPBROW1151 1.069831
    BOUNDRHS LOBROW1152 0.000000
    BOUNDRHS UPBROW1153 1.003999
    BOUNDRHS LOBROW1154 0.000000
    BOUNDRHS UPBROW1155 0.611504
    BOUNDRHS LOBROW1156 0.000000
    BOUNDRHS UPBROW1157 0.571093
    BOUNDRHS LOBROW1158 0.000000
    BOUNDRHS UPBROW1159 0.655061
    BOUNDRHS LOBROW1160 0.000000
    BOUNDRHS UPBROW1161 39.594391
    BOUNDRHS LOBROW1162 0.000000
    BOUNDRHS UPBROW1163 36.470520
    BOUNDRHS LOBROW1164 0.000000
    BOUNDRHS UPBROW1165 35.190247
    BOUNDRHS LOBROW1166 0.000000
    BOUNDRHS UPBROW1167 37.320923
    BOUNDRHS LOBROW1168 0.000000
    BOUNDRHS UPBROW1169 44.067932
    BOUNDRHS LOBROW1170 0.000000
    BOUNDRHS UPBROW1171 49.050919
    BOUNDRHS LOBROW1172 0.000000
    BOUNDRHS UPBROW1173 41.526245
    BOUNDRHS LOBROW1174 0.000000
    BOUNDRHS UPBROW1175 33.631470
    BOUNDRHS LOBROW1176 0.000000
    BOUNDRHS UPBROW1177 104.883423
    BOUNDRHS LOBROW1178 0.000000
    BOUNDRHS UPBROW1179 108.816818
    BOUNDRHS LOBROW1180 0.000000
    BOUNDRHS UPBROW1181 115.964767
    BOUNDRHS LOBROW1182 0.000000
    BOUNDRHS UPBROW1183 100.822281
    BOUNDRHS LOBROW1184 0.000000
    BOUNDRHS UPBROW1185 63.011841
    BOUNDRHS LOBROW1186 0.000000
    BOUNDRHS UPBROW1187 48.899475
    BOUNDRHS LOBROW1188 0.000000
    BOUNDRHS UPBROW1189 75.042664
    BOUNDRHS LOBROW1190 0.000000
    BOUNDRHS UPBROW1191 102.087631
    BOUNDRHS LOBROW1192 0.000000
    BOUNDRHS UPBROW1193 1032.668200
    BOUNDRHS LOBROW1194 0.000000
    BOUNDRHS UPBROW1195 1025.730500
    BOUNDRHS LOBROW1196 0.000000
    BOUNDRHS UPBROW1197 1031.960900
    BOUNDRHS LOBROW1198 0.000000
    BOUNDRHS UPBROW1199 1003.548800
    BOUNDRHS LOBROW1200 0.000000
    BOUNDRHS UPBROW1201 970.305420
    BOUNDRHS LOBROW1202 0.000000
    BOUNDRHS UPBROW1203 911.011963
    BOUNDRHS LOBROW1204 0.000000
    BOUNDRHS UPBROW1205 1022.965800
    BOUNDRHS LOBROW1206 0.000000
    BOUNDRHS UPBROW1207 1035.292500
    BOUNDRHS LOBROW1208 0.000000
    BOUNDRHS UPBROW1209 274.742920
    BOUNDRHS LOBROW1210 0.000000
    BOUNDRHS UPBROW1211 303.261475
    BOUNDRHS LOBROW1212 0.000000
    BOUNDRHS UPBROW1213 266.336426
    BOUNDRHS LOBROW1214 0.000000
    BOUNDRHS UPBROW1215 277.098389
    BOUNDRHS LOBROW1216 0.000000
    BOUNDRHS UPBROW1217 324.961426
    BOUNDRHS LOBROW1218 0.000000
    BOUNDRHS UPBROW1219 288.179443
    BOUNDRHS LOBROW1220 0.000000
    BOUNDRHS UPBROW1221 260.897461
    BOUNDRHS LOBROW1222 0.000000
    BOUNDRHS UPBROW1223 261.247559
    BOUNDRHS LOBROW1224 0.000000
    BOUNDRHS UPBROW1225 283.024902
    BOUNDRHS LOBROW1226 0.000000
    BOUNDRHS UPBROW1227 258.222412
    BOUNDRHS LOBROW1228 0.000000
    BOUNDRHS UPBROW1229 279.627441
    BOUNDRHS LOBROW1230 0.000000
    BOUNDRHS UPBROW1231 253.358826
    BOUNDRHS LOBROW1232 0.000000
    BOUNDRHS UPBROW1233 352.390869
    BOUNDRHS LOBROW1234 0.000000
    BOUNDRHS UPBROW1235 390.882813
    BOUNDRHS LOBROW1236 0.000000
    BOUNDRHS UPBROW1237 315.456543
    BOUNDRHS LOBROW1238 0.000000
    BOUNDRHS UPBROW1239 300.938721
    BOUNDRHS LOBROW1240 0.000000
    BOUNDRHS UPBROW1241 257.690186
    BOUNDRHS LOBROW1242 0.000000
    BOUNDRHS UPBROW1243 249.764893
    BOUNDRHS LOBROW1244 0.000000
    BOUNDRHS UPBROW1245 234.859161
    BOUNDRHS LOBROW1246 0.000000
    BOUNDRHS UPBROW1247 251.166061
    BOUNDRHS LOBROW1248 0.000000
    BOUNDRHS UPBROW1249 251.469116
    BOUNDRHS LOBROW1250 0.000000
    BOUNDRHS UPBROW1251 227.480179
    BOUNDRHS LOBROW1252 0.000000
    BOUNDRHS UPBROW1253 230.316727
    BOUNDRHS LOBROW1254 0.000000
    BOUNDRHS UPBROW1255 238.750259
    BOUNDRHS LOBROW1256 0.000000
    BOUNDRHS UPBROW1257 74.675720
    BOUNDRHS LOBROW1258 0.000000
    BOUNDRHS UPBROW1259 66.216202
    BOUNDRHS LOBROW1260 0.000000
    BOUNDRHS UPBROW1261 65.576813
    BOUNDRHS LOBROW1262 0.000000
    BOUNDRHS UPBROW1263 91.078323
    BOUNDRHS LOBROW1264 0.000000
    BOUNDRHS UPBROW1265 95.674774
    BOUNDRHS LOBROW1266 0.000000
    BOUNDRHS UPBROW1267 72.149170
    BOUNDRHS LOBROW1268 0.000000
    BOUNDRHS UPBROW1269 73.916260
    BOUNDRHS LOBROW1270 0.000000
    BOUNDRHS UPBROW1271 68.943909
    BOUNDRHS LOBROW1272 0.000000
    BOUNDRHS UPBROW1273 29.070724
    BOUNDRHS LOBROW1274 0.000000
    BOUNDRHS UPBROW1275 21.784622
    BOUNDRHS LOBROW1276 0.000000
    BOUNDRHS UPBROW1277 24.691956
    BOUNDRHS LOBROW1278 0.000000
    BOUNDRHS UPBROW1279 31.524033
    BOUNDRHS LOBROW1280 0.000000
    BOUNDRHS UPBROW1281 23.510040
    BOUNDRHS LOBROW1282 0.000000
    BOUNDRHS UPBROW1283 17.138657
    BOUNDRHS LOBROW1284 0.000000
    BOUNDRHS UPBROW1285 22.085098
    BOUNDRHS LOBROW1286 0.000000
    BOUNDRHS UPBROW1287 21.314255
    BOUNDRHS LOBROW1288 0.000000
    BOUNDRHS UPBROW1289 58.761902
    BOUNDRHS LOBROW1290 0.000000
    BOUNDRHS UPBROW1291 63.548340
    BOUNDRHS LOBROW1292 0.000000
    BOUNDRHS UPBROW1293 60.229141
    BOUNDRHS LOBROW1294 0.000000
    BOUNDRHS UPBROW1295 63.440781
    BOUNDRHS LOBROW1296 0.000000
    BOUNDRHS UPBROW1297 83.203278
    BOUNDRHS LOBROW1298 0.000000
    BOUNDRHS UPBROW1299 74.095795
    BOUNDRHS LOBROW1300 0.000000
    BOUNDRHS UPBROW1301 68.140228
    BOUNDRHS LOBROW1302 0.000000
    BOUNDRHS UPBROW1303 57.819061
    BOUNDRHS LOBROW1304 0.000000
    BOUNDRHS UPBROW1305 367.243896
    BOUNDRHS LOBROW1306 0.000000
    BOUNDRHS UPBROW1307 372.707031
    BOUNDRHS LOBROW1308 0.000000
    BOUNDRHS UPBROW1309 367.026611
    BOUNDRHS LOBROW1310 0.000000
    BOUNDRHS UPBROW1311 312.843994
    BOUNDRHS LOBROW1312 0.000000
    BOUNDRHS UPBROW1313 333.859619
    BOUNDRHS LOBROW1314 0.000000
    BOUNDRHS UPBROW1315 283.165039
    BOUNDRHS LOBROW1316 0.000000
    BOUNDRHS UPBROW1317 326.468018
    BOUNDRHS LOBROW1318 0.000000
    BOUNDRHS UPBROW1319 330.233398
    FXIMPLICITRHS QCRP11   -729.594447
    FXIMPLICITRHS QCRP21   -3634.876963
    FXIMPLICITRHS QCRP31   -9938.108663
    FXIMPLICITRHS QCRP41   -1311.222595
    FXIMPLICITRHS QCRP51   -2499.165768
    FXIMPLICITRHS QGLP11   -157.461697
    FXIMPLICITRHS QGLP21   -1503.673435
    FXIMPLICITRHS QGLP31   -3316.461280
    FXIMPLICITRHS QGLP41   -52.725968
    FXIMPLICITRHS QGLP51   -46.923373
    FXIMPLICITRHS QUNP11   7.348932
    FXIMPLICITRHS QUNP21   -60.780824
    FXIMPLICITRHS QUNP31   -112.119049
    FXIMPLICITRHS QUNP41   3.175399
    FXIMPLICITRHS QUNP51   -72.656255
    FXIMPLICITRHS QCRP12   -102.150513
    FXIMPLICITRHS QCRP13   -102.987793
    FXIMPLICITRHS QCRP14   -102.150513
    FXIMPLICITRHS QCRP15   -102.092331
    FXIMPLICITRHS QCRP16   -99.882629
    FXIMPLICITRHS QCRP17   -100.986252
    FXIMPLICITRHS QCRP18   -101.539551
    FXIMPLICITRHS QGLP12   -21.705582
    FXIMPLICITRHS QGLP13   -21.868774
    FXIMPLICITRHS QGLP14   -21.705582
    FXIMPLICITRHS QGLP15   -21.251816
    FXIMPLICITRHS QGLP16   -21.647964
    FXIMPLICITRHS QGLP17   -21.811966
    FXIMPLICITRHS QGLP18   -21.867233
    FXIMPLICITRHS QCRP22   -852.371094
    FXIMPLICITRHS QCRP23   -851.532959
    FXIMPLICITRHS QCRP24   -849.858643
    FXIMPLICITRHS QCRP25   -842.005859
    FXIMPLICITRHS QCRP26   -853.785889
    FXIMPLICITRHS QCRP27   -848.532471
    FXIMPLICITRHS QCRP28   -843.847168
    FXIMPLICITRHS QGLP22   -230.111954
    FXIMPLICITRHS QGLP23   -222.114990
    FXIMPLICITRHS QGLP24   -232.723099
    FXIMPLICITRHS QGLP25   -231.741394
    FXIMPLICITRHS QGLP26   -238.064758
    FXIMPLICITRHS QGLP27   -231.239838
    FXIMPLICITRHS QGLP28   -229.387711
    FXIMPLICITRHS QCRP32   -5704.519500
    FXIMPLICITRHS QCRP33   -5702.007800
    FXIMPLICITRHS QCRP34   -5701.171900
    FXIMPLICITRHS QCRP35   -5662.128900
    FXIMPLICITRHS QCRP36   -5666.402300
    FXIMPLICITRHS QCRP37   -5659.761700
    FXIMPLICITRHS QCRP38   -5652.863300
    FXIMPLICITRHS QGLP32   -1308.374000
    FXIMPLICITRHS QGLP33   -1316.860400
    FXIMPLICITRHS QGLP34   -1306.904800
    FXIMPLICITRHS QGLP35   -1319.031700
    FXIMPLICITRHS QGLP36   -1307.410900
    FXIMPLICITRHS QGLP37   -1314.570600
    FXIMPLICITRHS QGLP38   -1317.179200
    FXIMPLICITRHS QCRP42   -669.839844
    FXIMPLICITRHS QCRP43   -671.514160
    FXIMPLICITRHS QCRP44   -674.025879
    FXIMPLICITRHS QCRP45   -672.778076
    FXIMPLICITRHS QCRP46   -654.039307
    FXIMPLICITRHS QCRP47   -660.132080
    FXIMPLICITRHS QCRP48   -665.911865
    FXIMPLICITRHS QGLP42   -42.431976
    FXIMPLICITRHS QGLP43   -42.758362
    FXIMPLICITRHS QGLP44   -42.431976
    FXIMPLICITRHS QGLP45   -42.826889
    FXIMPLICITRHS QGLP46   -42.420074
    FXIMPLICITRHS QGLP47   -42.639969
    FXIMPLICITRHS QGLP48   -42.750473
    FXIMPLICITRHS QCRP52   -1043.275100
    FXIMPLICITRHS QCRP53   -1044.949500
    FXIMPLICITRHS QCRP54   -1046.625000
    FXIMPLICITRHS QCRP55   -1043.422600
    FXIMPLICITRHS QCRP56   -1025.878400
    FXIMPLICITRHS QCRP57   -1031.132600
    FXIMPLICITRHS QCRP58   -1035.821300
    FXIMPLICITRHS QGLP52   -29.212784
    FXIMPLICITRHS QGLP53   -28.559982
    FXIMPLICITRHS QGLP54   -28.233566
    FXIMPLICITRHS QGLP55   -28.200607
    FXIMPLICITRHS QGLP56   -30.511154
    FXIMPLICITRHS QGLP57   -29.680344
    FXIMPLICITRHS QGLP58   -28.814041
    BOUNDRHS LOBROW1320 0.000000
    BOUNDRHS UPBROW1321 532.499756
    BOUNDRHS LOBROW1322 0.000000
    BOUNDRHS UPBROW1323 532.499756
    BOUNDRHS LOBROW1324 0.000000
    BOUNDRHS UPBROW1325 532.499756
    BOUNDRHS LOBROW1326 0.000000
    BOUNDRHS UPBROW1327 532.499756
    BOUNDRHS LOBROW1328 0.000000
    BOUNDRHS UPBROW1329 532.499756
    BOUNDRHS LOBROW1330 0.000000
    BOUNDRHS UPBROW1331 532.499756
    BOUNDRHS LOBROW1332 0.000000
    BOUNDRHS UPBROW1333 532.499756
    BOUNDRHS LOBROW1334 0.000000
    BOUNDRHS UPBROW1335 532.499756
    BOUNDRHS LOBROW1336 0.000000
    BOUNDRHS UPBROW1337 1230.599600
    BOUNDRHS LOBROW1338 0.000000
    BOUNDRHS UPBROW1339 1230.599600
    BOUNDRHS LOBROW1340 0.000000
    BOUNDRHS UPBROW1341 1230.599600
    BOUNDRHS LOBROW1342 0.000000
    BOUNDRHS UPBROW1343 1230.599600
    BOUNDRHS LOBROW1344 0.000000
    BOUNDRHS UPBROW1345 1230.599600
    BOUNDRHS LOBROW1346 0.000000
    BOUNDRHS UPBROW1347 1230.599600
    BOUNDRHS LOBROW1348 0.000000
    BOUNDRHS UPBROW1349 1230.599600
    BOUNDRHS LOBROW1350 0.000000
    BOUNDRHS UPBROW1351 1230.599600
    BOUNDRHS LOBROW1352 0.000000
    BOUNDRHS UPBROW1353 1866.599600
    BOUNDRHS LOBROW1354 0.000000
    BOUNDRHS UPBROW1355 1866.599600
    BOUNDRHS LOBROW1356 0.000000
    BOUNDRHS UPBROW1357 1866.599600
    BOUNDRHS LOBROW1358 0.000000
    BOUNDRHS UPBROW1359 1866.599600
    BOUNDRHS LOBROW1360 0.000000
    BOUNDRHS UPBROW1361 1866.599600
    BOUNDRHS LOBROW1362 0.000000
    BOUNDRHS UPBROW1363 1866.599600
    BOUNDRHS LOBROW1364 0.000000
    BOUNDRHS UPBROW1365 1866.599600
    BOUNDRHS LOBROW1366 0.000000
    BOUNDRHS UPBROW1367 1866.599600
    BOUNDRHS LOBROW1368 0.000000
    BOUNDRHS UPBROW1369 165.599960
    BOUNDRHS LOBROW1370 0.000000
    BOUNDRHS UPBROW1371 165.599960
    BOUNDRHS LOBROW1372 0.000000
    BOUNDRHS UPBROW1373 165.599960
    BOUNDRHS LOBROW1374 0.000000
    BOUNDRHS UPBROW1375 165.599960
    BOUNDRHS LOBROW1376 0.000000
    BOUNDRHS UPBROW1377 165.599960
    BOUNDRHS LOBROW1378 0.000000
    BOUNDRHS UPBROW1379 165.599960
    BOUNDRHS LOBROW1380 0.000000
    BOUNDRHS UPBROW1381 165.599960
    BOUNDRHS LOBROW1382 0.000000
    BOUNDRHS UPBROW1383 165.599960
    BOUNDRHS LOBROW1384 0.000000
    BOUNDRHS UPBROW1385 712.799805
    BOUNDRHS LOBROW1386 0.000000
    BOUNDRHS UPBROW1387 712.799805
    BOUNDRHS LOBROW1388 0.000000
    BOUNDRHS UPBROW1389 712.799805
    BOUNDRHS LOBROW1390 0.000000
    BOUNDRHS UPBROW1391 712.799805
    BOUNDRHS LOBROW1392 0.000000
    BOUNDRHS UPBROW1393 712.799805
    BOUNDRHS LOBROW1394 0.000000
    BOUNDRHS UPBROW1395 712.799805
    BOUNDRHS LOBROW1396 0.000000
    BOUNDRHS UPBROW1397 712.799805
    BOUNDRHS LOBROW1398 0.000000
    BOUNDRHS UPBROW1399 712.799805
    BOUNDRHS LOBROW1400 15.333887
    BOUNDRHS LOBROW1401 14.883583
    BOUNDRHS LOBROW1402 15.523490
    BOUNDRHS LOBROW1403 15.096890
    BOUNDRHS LOBROW1404 15.736797
    BOUNDRHS LOBROW1405 13.817093
    BOUNDRHS LOBROW1406 15.333887
    BOUNDRHS LOBROW1407 15.096890
    BOUNDRHS LOBROW1408 67.189468
    BOUNDRHS LOBROW1409 66.881363
    BOUNDRHS LOBROW1410 66.194031
    BOUNDRHS LOBROW1411 67.592346
    BOUNDRHS LOBROW1412 65.411942
    BOUNDRHS LOBROW1413 66.976120
    BOUNDRHS LOBROW1414 67.189468
    BOUNDRHS LOBROW1415 67.592346
    BOUNDRHS LOBROW1416 102.881622
    BOUNDRHS LOBROW1417 104.659103
    BOUNDRHS LOBROW1418 104.564362
    BOUNDRHS LOBROW1419 104.256241
    BOUNDRHS LOBROW1420 105.275330
    BOUNDRHS LOBROW1421 104.398453
    BOUNDRHS LOBROW1422 102.881622
    BOUNDRHS LOBROW1423 104.256241
    BOUNDRHS LOBROW1424 14.788795
    BOUNDRHS LOBROW1425 13.745997
    BOUNDRHS LOBROW1426 12.584696
    BOUNDRHS LOBROW1427 12.916498
    BOUNDRHS LOBROW1428 13.129797
    BOUNDRHS LOBROW1429 13.888195
    BOUNDRHS LOBROW1430 14.788795
    BOUNDRHS LOBROW1431 12.916498
    BOUNDRHS LOBROW1432 36.829788
    BOUNDRHS LOBROW1433 36.829788
    BOUNDRHS LOBROW1434 38.133270
    BOUNDRHS LOBROW1435 37.137863
    BOUNDRHS LOBROW1436 37.445984
    BOUNDRHS LOBROW1437 37.919968
    BOUNDRHS LOBROW1438 36.829788
    BOUNDRHS LOBROW1439 37.137863
    BOUNDRHS LOBROW1440 4.067098
    BOUNDRHS UPBROW1441 4.970895
    BOUNDRHS LOBROW1442 4.067098
    BOUNDRHS UPBROW1443 4.970895
    BOUNDRHS LOBROW1444 4.067098
    BOUNDRHS UPBROW1445 4.970895
    BOUNDRHS LOBROW1446 4.067098
    BOUNDRHS UPBROW1447 4.970895
    BOUNDRHS LOBROW1448 4.067098
    BOUNDRHS UPBROW1449 4.970895
    BOUNDRHS LOBROW1450 4.067098
    BOUNDRHS UPBROW1451 4.970895
    BOUNDRHS LOBROW1452 4.067098
    BOUNDRHS UPBROW1453 4.970895
    BOUNDRHS LOBROW1454 4.067098
    BOUNDRHS UPBROW1455 4.970895
    BOUNDRHS LOBROW1456 38.073563
    BOUNDRHS UPBROW1457 46.534332
    BOUNDRHS LOBROW1458 38.073563
    BOUNDRHS UPBROW1459 46.534332
    BOUNDRHS LOBROW1460 38.073563
    BOUNDRHS UPBROW1461 46.534332
    BOUNDRHS LOBROW1462 38.073563
    BOUNDRHS UPBROW1463 46.534332
    BOUNDRHS LOBROW1464 38.073563
    BOUNDRHS UPBROW1465 46.534332
    BOUNDRHS LOBROW1466 38.073563
    BOUNDRHS UPBROW1467 46.534332
    BOUNDRHS LOBROW1468 38.073563
    BOUNDRHS UPBROW1469 46.534332
    BOUNDRHS LOBROW1470 38.073563
    BOUNDRHS UPBROW1471 46.534332
    BOUNDRHS LOBROW1472 59.975052
    BOUNDRHS UPBROW1473 73.302811
    BOUNDRHS LOBROW1474 59.975052
    BOUNDRHS UPBROW1475 73.302811
    BOUNDRHS LOBROW1476 59.975052
    BOUNDRHS UPBROW1477 73.302811
    BOUNDRHS LOBROW1478 59.975052
    BOUNDRHS UPBROW1479 73.302811
    BOUNDRHS LOBROW1480 59.975052
    BOUNDRHS UPBROW1481 73.302811
    BOUNDRHS LOBROW1482 59.975052
    BOUNDRHS UPBROW1483 73.302811
    BOUNDRHS LOBROW1484 59.975052
    BOUNDRHS UPBROW1485 73.302811
    BOUNDRHS LOBROW1486 59.975052
    BOUNDRHS UPBROW1487 73.302811
    BOUNDRHS LOBROW1488 0.297900
    BOUNDRHS UPBROW1489 0.364100
    BOUNDRHS LOBROW1490 0.297900
    BOUNDRHS UPBROW1491 0.364100
    BOUNDRHS LOBROW1492 0.297900
    BOUNDRHS UPBROW1493 0.364100
    BOUNDRHS LOBROW1494 0.297900
    BOUNDRHS UPBROW1495 0.364100
    BOUNDRHS LOBROW1496 0.297900
    BOUNDRHS UPBROW1497 0.364100
    BOUNDRHS LOBROW1498 0.297900
    BOUNDRHS UPBROW1499 0.364100
    BOUNDRHS LOBROW1500 0.297900
    BOUNDRHS UPBROW1501 0.364100
    BOUNDRHS LOBROW1502 0.297900
    BOUNDRHS UPBROW1503 0.364100
    BOUNDRHS LOBROW1504 0.523800
    BOUNDRHS UPBROW1505 0.640200
    BOUNDRHS LOBROW1506 0.523800
    BOUNDRHS UPBROW1507 0.640200
    BOUNDRHS LOBROW1508 0.523800
    BOUNDRHS UPBROW1509 0.640200
    BOUNDRHS LOBROW1510 0.523800
    BOUNDRHS UPBROW1511 0.640200
    BOUNDRHS LOBROW1512 0.523800
    BOUNDRHS UPBROW1513 0.640200
    BOUNDRHS LOBROW1514 0.523800
    BOUNDRHS UPBROW1515 0.640200
    BOUNDRHS LOBROW1516 0.523800
    BOUNDRHS UPBROW1517 0.640200
    BOUNDRHS LOBROW1518 0.523800
    BOUNDRHS UPBROW1519 0.640200
    FXIMPLICITRHS QUNP12   -33.929250
    FXIMPLICITRHS QUNP13   -10.740288
    FXIMPLICITRHS QUNP14   45.039259
    FXIMPLICITRHS QUNP15   -3.403369
    FXIMPLICITRHS QUNP16   -11.571275
    FXIMPLICITRHS QUNP17   14.181330
    FXIMPLICITRHS QUNP18   -7.856445
    FXIMPLICITRHS QUNP22   -31.828831
    FXIMPLICITRHS QUNP23   -13.170803
    FXIMPLICITRHS QUNP24   1.418066
    FXIMPLICITRHS QUNP25   -1.056348
    FXIMPLICITRHS QUNP26   -19.975934
    FXIMPLICITRHS QUNP27   34.744604
    FXIMPLICITRHS QUNP28   -12.368076
    FXIMPLICITRHS QUNP32   -45.073441
    FXIMPLICITRHS QUNP33   -58.116309
    FXIMPLICITRHS QUNP34   4.254166
    FXIMPLICITRHS QUNP35   -4.268315
    FXIMPLICITRHS QUNP36   -2.381714
    FXIMPLICITRHS QUNP37   32.065088
    FXIMPLICITRHS QUNP38   -19.429076
    FXIMPLICITRHS QUNP42   -5.357225
    FXIMPLICITRHS QUNP43   -2.574354
    FXIMPLICITRHS QUNP44   -13.339565
    FXIMPLICITRHS QUNP45   2.894533
    FXIMPLICITRHS QUNP46   2.332044
    FXIMPLICITRHS QUNP47   0.355824
    FXIMPLICITRHS QUNP48   -2.329478
    FXIMPLICITRHS QUNP52   23.184995
    FXIMPLICITRHS QUNP53   -45.818215
    FXIMPLICITRHS QUNP54   31.481428
    FXIMPLICITRHS QUNP55   -25.721999
    FXIMPLICITRHS QUNP56   -19.538802
    FXIMPLICITRHS QUNP57   39.523791
    FXIMPLICITRHS QUNP58   4.238130
    BOUNDRHS LOBROW1520 53.618607
    BOUNDRHS UPBROW1521 64.949997
    BOUNDRHS LOBROW1522 54.225632
    BOUNDRHS UPBROW1523 63.125000
    BOUNDRHS LOBROW1524 51.899689
    BOUNDRHS UPBROW1525 63.125000
    BOUNDRHS LOBROW1526 52.812546
    BOUNDRHS UPBROW1527 63.125000
    BOUNDRHS LOBROW1528 56.010437
    BOUNDRHS UPBROW1529 60.529968
    BOUNDRHS LOBROW1530 53.172424
    BOUNDRHS UPBROW1531 66.896973
    BOUNDRHS LOBROW1532 53.618607
    BOUNDRHS UPBROW1533 64.949997
    BOUNDRHS LOBROW1534 52.812546
    BOUNDRHS UPBROW1535 63.125000
    BOUNDRHS LOBROW1536 58.806885
    BOUNDRHS UPBROW1537 73.655945
    BOUNDRHS LOBROW1538 59.618668
    BOUNDRHS UPBROW1539 64.574997
    BOUNDRHS LOBROW1540 60.376785
    BOUNDRHS UPBROW1541 64.574997
    BOUNDRHS LOBROW1542 59.507126
    BOUNDRHS UPBROW1543 64.574997
    BOUNDRHS LOBROW1544 63.846970
    BOUNDRHS UPBROW1545 65.397949
    BOUNDRHS LOBROW1546 70.875336
    BOUNDRHS UPBROW1547 80.248962
    BOUNDRHS LOBROW1548 58.806885
    BOUNDRHS UPBROW1549 73.655945
    BOUNDRHS LOBROW1550 59.507126
    BOUNDRHS UPBROW1551 64.574997
    BOUNDRHS LOBROW1552 54.320770
    BOUNDRHS UPBROW1553 61.838959
    BOUNDRHS LOBROW1554 55.386902
    BOUNDRHS UPBROW1555 61.746964
    BOUNDRHS LOBROW1556 59.279739
    BOUNDRHS UPBROW1557 61.746964
    BOUNDRHS LOBROW1558 55.905365
    BOUNDRHS UPBROW1559 61.746964
    BOUNDRHS LOBROW1560 55.824875
    BOUNDRHS UPBROW1561 63.132950
    BOUNDRHS LOBROW1562 55.931870
    BOUNDRHS UPBROW1563 69.634979
    BOUNDRHS LOBROW1564 54.320770
    BOUNDRHS UPBROW1565 61.838959
    BOUNDRHS LOBROW1566 55.905365
    BOUNDRHS UPBROW1567 61.746964
    BOUNDRHS LOBROW1568 6.651126
    BOUNDRHS UPBROW1569 9.839999
    BOUNDRHS LOBROW1570 5.786694
    BOUNDRHS UPBROW1571 6.431999
    BOUNDRHS LOBROW1572 5.166036
    BOUNDRHS UPBROW1573 6.431999
    BOUNDRHS LOBROW1574 4.991551
    BOUNDRHS UPBROW1575 6.431999
    BOUNDRHS LOBROW1576 6.537308
    BOUNDRHS UPBROW1577 7.879998
    BOUNDRHS LOBROW1578 8.957596
    BOUNDRHS UPBROW1579 10.039999
    BOUNDRHS LOBROW1580 6.651126
    BOUNDRHS UPBROW1581 9.839999
    BOUNDRHS LOBROW1582 4.991551
    BOUNDRHS UPBROW1583 6.431999
    BOUNDRHS LOBROW1584 21.650284
    BOUNDRHS UPBROW1585 25.599991
    BOUNDRHS LOBROW1586 21.808350
    BOUNDRHS UPBROW1587 24.566986
    BOUNDRHS LOBROW1588 22.718582
    BOUNDRHS UPBROW1589 24.566986
    BOUNDRHS LOBROW1590 22.530487
    BOUNDRHS UPBROW1591 24.566986
    BOUNDRHS LOBROW1592 24.004486
    BOUNDRHS UPBROW1593 25.892990
    BOUNDRHS LOBROW1594 23.327927
    BOUNDRHS UPBROW1595 28.675964
    BOUNDRHS LOBROW1596 21.650284
    BOUNDRHS UPBROW1597 25.599991
    BOUNDRHS LOBROW1598 22.530487
    BOUNDRHS UPBROW1599 24.566986
    BOUNDRHS LOBROW1600 48.998108
    BOUNDRHS UPBROW1601 64.534973
    BOUNDRHS LOBROW1602 60.248779
    BOUNDRHS UPBROW1603 95.309982
    BOUNDRHS LOBROW1604 66.930695
    BOUNDRHS UPBROW1605 95.309982
    BOUNDRHS LOBROW1606 76.635513
    BOUNDRHS UPBROW1607 95.309982
    BOUNDRHS LOBROW1608 66.785919
    BOUNDRHS UPBROW1609 100.828979
    BOUNDRHS LOBROW1610 37.651276
    BOUNDRHS UPBROW1611 72.824997
    BOUNDRHS LOBROW1612 48.998108
    BOUNDRHS UPBROW1613 64.534973
    BOUNDRHS LOBROW1614 76.635513
    BOUNDRHS UPBROW1615 95.309982
    BOUNDRHS LOBROW1616 36.542023
    BOUNDRHS UPBROW1617 48.225967
    BOUNDRHS LOBROW1618 42.846832
    BOUNDRHS UPBROW1619 72.589981
    BOUNDRHS LOBROW1620 49.941849
    BOUNDRHS UPBROW1621 72.589981
    BOUNDRHS LOBROW1622 52.430099
    BOUNDRHS UPBROW1623 72.589981
    BOUNDRHS LOBROW1624 47.498291
    BOUNDRHS UPBROW1625 64.055954
    BOUNDRHS LOBROW1626 32.589752
    BOUNDRHS UPBROW1627 56.876968
    BOUNDRHS LOBROW1628 36.542023
    BOUNDRHS UPBROW1629 48.225967
    BOUNDRHS LOBROW1630 52.430099
    BOUNDRHS UPBROW1631 72.589981
    BOUNDRHS LOBROW1632 27.766418
    BOUNDRHS UPBROW1633 34.213989
    BOUNDRHS LOBROW1634 31.743317
    BOUNDRHS UPBROW1635 41.409973
    BOUNDRHS LOBROW1636 33.961105
    BOUNDRHS UPBROW1637 41.409973
    BOUNDRHS LOBROW1638 34.298401
    BOUNDRHS UPBROW1639 41.409973
    BOUNDRHS LOBROW1640 32.032623
    BOUNDRHS UPBROW1641 43.165955
    BOUNDRHS LOBROW1642 18.705597
    BOUNDRHS UPBROW1643 34.916992
    BOUNDRHS LOBROW1644 27.766418
    BOUNDRHS UPBROW1645 34.213989
    BOUNDRHS LOBROW1646 34.298401
    BOUNDRHS UPBROW1647 41.409973
    BOUNDRHS LOBROW1648 2.666477
    BOUNDRHS UPBROW1649 3.538998
    BOUNDRHS LOBROW1650 3.075272
    BOUNDRHS UPBROW1651 4.629998
    BOUNDRHS LOBROW1652 3.321743
    BOUNDRHS UPBROW1653 4.629998
    BOUNDRHS LOBROW1654 3.215474
    BOUNDRHS UPBROW1655 4.629998
    BOUNDRHS LOBROW1656 3.060751
    BOUNDRHS UPBROW1657 4.150000
    BOUNDRHS LOBROW1658 2.850855
    BOUNDRHS UPBROW1659 4.189999
    BOUNDRHS LOBROW1660 2.666477
    BOUNDRHS UPBROW1661 3.538998
    BOUNDRHS LOBROW1662 3.215474
    BOUNDRHS UPBROW1663 4.629998
    BOUNDRHS LOBROW1664 9.213745
    BOUNDRHS UPBROW1665 12.500998
    BOUNDRHS LOBROW1666 9.935498
    BOUNDRHS UPBROW1667 16.559998
    BOUNDRHS LOBROW1668 11.122062
    BOUNDRHS UPBROW1669 16.559998
    BOUNDRHS LOBROW1670 12.058038
    BOUNDRHS UPBROW1671 16.559998
    BOUNDRHS LOBROW1672 12.583089
    BOUNDRHS UPBROW1673 14.290997
    BOUNDRHS LOBROW1674 8.242473
    BOUNDRHS UPBROW1675 13.807997
    BOUNDRHS LOBROW1676 9.213745
    BOUNDRHS UPBROW1677 12.500998
    BOUNDRHS LOBROW1678 12.058038
    BOUNDRHS UPBROW1679 16.559998
    BOUNDRHS LOBROW1680 21.123932
    BOUNDRHS UPBROW1681 32.299988
    BOUNDRHS LOBROW1682 22.314774
    BOUNDRHS UPBROW1683 32.299988
    BOUNDRHS LOBROW1684 22.139130
    BOUNDRHS UPBROW1685 32.299988
    BOUNDRHS LOBROW1686 22.470627
    BOUNDRHS UPBROW1687 32.299988
    BOUNDRHS LOBROW1688 21.850082
    BOUNDRHS UPBROW1689 32.299988
    BOUNDRHS LOBROW1690 17.677094
    BOUNDRHS UPBROW1691 32.299988
    BOUNDRHS LOBROW1692 21.123932
    BOUNDRHS UPBROW1693 32.299988
    BOUNDRHS LOBROW1694 22.470627
    BOUNDRHS UPBROW1695 32.299988
    BOUNDRHS LOBROW1696 5.439043
    BOUNDRHS UPBROW1697 10.200000
    BOUNDRHS LOBROW1698 6.135618
    BOUNDRHS UPBROW1699 10.200000
    BOUNDRHS LOBROW1700 6.277690
    BOUNDRHS UPBROW1701 10.200000
    BOUNDRHS LOBROW1702 6.993389
    BOUNDRHS UPBROW1703 10.200000
    BOUNDRHS LOBROW1704 7.189477
    BOUNDRHS UPBROW1705 10.200000
    BOUNDRHS LOBROW1706 5.172318
    BOUNDRHS UPBROW1707 10.200000
    BOUNDRHS LOBROW1708 5.439043
    BOUNDRHS UPBROW1709 10.200000
    BOUNDRHS LOBROW1710 6.993389
    BOUNDRHS UPBROW1711 10.200000
    BOUNDRHS LOBROW1712 6.927717
    BOUNDRHS UPBROW1713 8.500000
    BOUNDRHS LOBROW1714 6.720867
    BOUNDRHS UPBROW1715 8.500000
    BOUNDRHS LOBROW1716 6.999100
    BOUNDRHS UPBROW1717 8.500000
    BOUNDRHS LOBROW1718 5.991511
    BOUNDRHS UPBROW1719 8.500000
    BOUNDRHS LOBROW1720 5.776402
    BOUNDRHS UPBROW1721 8.500000
    BOUNDRHS LOBROW1722 5.972367
    BOUNDRHS UPBROW1723 8.500000
    BOUNDRHS LOBROW1724 6.927717
    BOUNDRHS UPBROW1725 8.500000
    BOUNDRHS LOBROW1726 5.991511
    BOUNDRHS UPBROW1727 8.500000
    BOUNDRHS LOBROW1728 0.623271
    BOUNDRHS UPBROW1729 1.099999
    BOUNDRHS LOBROW1730 0.689077
    BOUNDRHS UPBROW1731 1.099999
    BOUNDRHS LOBROW1732 0.769184
    BOUNDRHS UPBROW1733 1.099999
    BOUNDRHS LOBROW1734 0.676143
    BOUNDRHS UPBROW1735 1.099999
    BOUNDRHS LOBROW1736 0.558545
    BOUNDRHS UPBROW1737 1.099999
    BOUNDRHS LOBROW1738 0.436027
    BOUNDRHS UPBROW1739 1.099999
    BOUNDRHS LOBROW1740 0.623271
    BOUNDRHS UPBROW1741 1.099999
    BOUNDRHS LOBROW1742 0.676143
    BOUNDRHS UPBROW1743 1.099999
    BOUNDRHS LOBROW1744 10.730116
    BOUNDRHS UPBROW1745 29.299988
    BOUNDRHS LOBROW1746 11.341463
    BOUNDRHS UPBROW1747 29.299988
    BOUNDRHS LOBROW1748 11.590321
    BOUNDRHS UPBROW1749 29.299988
    BOUNDRHS LOBROW1750 13.226729
    BOUNDRHS UPBROW1751 29.299988
    BOUNDRHS LOBROW1752 12.364371
    BOUNDRHS UPBROW1753 29.299988
    BOUNDRHS LOBROW1754 10.740665
    BOUNDRHS UPBROW1755 29.299988
    BOUNDRHS LOBROW1756 10.730116
    BOUNDRHS UPBROW1757 29.299988
    BOUNDRHS LOBROW1758 13.226729
    BOUNDRHS UPBROW1759 29.299988
    BOUNDRHS LOBROW1760 4.876926
    BOUNDRHS LOBROW1761 4.703438
    BOUNDRHS LOBROW1762 4.911963
    BOUNDRHS LOBROW1763 5.015967
    BOUNDRHS LOBROW1764 4.311890
    BOUNDRHS LOBROW1765 5.077291
    BOUNDRHS LOBROW1766 4.876926
    BOUNDRHS LOBROW1767 5.015967
    BOUNDRHS LOBROW1768 5.279727
    BOUNDRHS LOBROW1769 5.422893
    BOUNDRHS LOBROW1770 5.663961
    BOUNDRHS LOBROW1771 6.027254
    BOUNDRHS LOBROW1772 5.318192
    BOUNDRHS LOBROW1773 5.073084
    BOUNDRHS LOBROW1774 5.279727
    BOUNDRHS LOBROW1775 6.027254
    BOUNDRHS LOBROW1776 6.050680
    BOUNDRHS LOBROW1777 6.645964
    BOUNDRHS LOBROW1778 6.447951
    BOUNDRHS LOBROW1779 5.557569
    BOUNDRHS LOBROW1780 5.318192
    BOUNDRHS LOBROW1781 6.139001
    BOUNDRHS LOBROW1782 6.050680
    BOUNDRHS LOBROW1783 5.557569
    BOUNDRHS LOBROW1784 0.352992
    BOUNDRHS LOBROW1785 0.397949
    BOUNDRHS LOBROW1786 0.351998
    BOUNDRHS LOBROW1787 0.433728
    BOUNDRHS LOBROW1788 0.342786
    BOUNDRHS LOBROW1789 0.338486
    BOUNDRHS LOBROW1790 0.352992
    BOUNDRHS LOBROW1791 0.433728
    BOUNDRHS LOBROW1792 5.097817
    BOUNDRHS LOBROW1793 5.312726
    BOUNDRHS LOBROW1794 5.481104
    BOUNDRHS LOBROW1795 5.438460
    BOUNDRHS LOBROW1796 4.752900
    BOUNDRHS LOBROW1797 4.396111
    BOUNDRHS LOBROW1798 5.097817
    BOUNDRHS LOBROW1799 5.438460
    BOUNDRHS LOBROW1800 0.233971
    BOUNDRHS LOBROW1801 0.224246
    BOUNDRHS LOBROW1802 0.198965
    BOUNDRHS LOBROW1803 0.240884
    BOUNDRHS LOBROW1804 0.402680
    BOUNDRHS LOBROW1805 0.418788
    BOUNDRHS LOBROW1806 0.233971
    BOUNDRHS LOBROW1807 0.240884
    BOUNDRHS LOBROW1808 1.308351
    BOUNDRHS LOBROW1809 1.382936
    BOUNDRHS LOBROW1810 1.335057
    BOUNDRHS LOBROW1811 1.233587
    BOUNDRHS LOBROW1812 1.584441
    BOUNDRHS LOBROW1813 1.585733
    BOUNDRHS LOBROW1814 1.308351
    BOUNDRHS LOBROW1815 1.233587
    BOUNDRHS LOBROW1816 1.975641
    BOUNDRHS LOBROW1817 1.877494
    BOUNDRHS LOBROW1818 1.915236
    BOUNDRHS LOBROW1819 1.991347
    BOUNDRHS LOBROW1820 2.508699
    BOUNDRHS LOBROW1821 2.606649
    BOUNDRHS LOBROW1822 1.975641
    BOUNDRHS LOBROW1823 1.991347
    BOUNDRHS LOBROW1824 0.201971
    BOUNDRHS LOBROW1825 0.201974
    BOUNDRHS LOBROW1826 0.233473
    BOUNDRHS LOBROW1827 0.221981
    BOUNDRHS LOBROW1828 0.286408
    BOUNDRHS LOBROW1829 0.308141
    BOUNDRHS LOBROW1830 0.201971
    BOUNDRHS LOBROW1831 0.221981
    BOUNDRHS LOBROW1832 1.526585
    BOUNDRHS LOBROW1833 1.375850
    BOUNDRHS LOBROW1834 1.709263
    BOUNDRHS LOBROW1835 1.713195
    BOUNDRHS LOBROW1836 1.786767
    BOUNDRHS LOBROW1837 1.513684
    BOUNDRHS LOBROW1838 1.526585
    BOUNDRHS LOBROW1839 1.713195
    BOUNDRHS LOBROW1840 0.101566
    BOUNDRHS LOBROW1841 0.053392
    BOUNDRHS LOBROW1842 0.072057
    BOUNDRHS LOBROW1843 0.008010
    BOUNDRHS LOBROW1844 0.016297
    BOUNDRHS LOBROW1845 0.137077
    BOUNDRHS LOBROW1846 0.101566
    BOUNDRHS LOBROW1847 0.008010
    BOUNDRHS LOBROW1848 0.409680
    BOUNDRHS LOBROW1849 0.363814
    BOUNDRHS LOBROW1850 0.313113
    BOUNDRHS LOBROW1851 0.366189
    BOUNDRHS LOBROW1852 0.578058
    BOUNDRHS LOBROW1853 0.376669
    BOUNDRHS LOBROW1854 0.409680
    BOUNDRHS LOBROW1855 0.366189
    BOUNDRHS LOBROW1856 1.805720
    BOUNDRHS LOBROW1857 1.650044
    BOUNDRHS LOBROW1858 1.701905
    BOUNDRHS LOBROW1859 1.734076
    BOUNDRHS LOBROW1860 2.252366
    BOUNDRHS LOBROW1861 1.915857
    BOUNDRHS LOBROW1862 1.805720
    BOUNDRHS LOBROW1863 1.734076
    BOUNDRHS LOBROW1864 0.003983
    BOUNDRHS LOBROW1865 0.001610
    BOUNDRHS LOBROW1866 0.000000
    BOUNDRHS LOBROW1867 0.011263
    BOUNDRHS LOBROW1868 0.000665
    BOUNDRHS LOBROW1869 0.000586
    BOUNDRHS LOBROW1870 0.003983
    BOUNDRHS LOBROW1871 0.011263
    BOUNDRHS LOBROW1872 0.524048
    BOUNDRHS LOBROW1873 0.614406
    BOUNDRHS LOBROW1874 0.504921
    BOUNDRHS LOBROW1875 0.383209
    BOUNDRHS LOBROW1876 0.478944
    BOUNDRHS LOBROW1877 0.499101
    BOUNDRHS LOBROW1878 0.524048
    BOUNDRHS LOBROW1879 0.383209
    BOUNDRHS LOBROW1880 0.000000
    BOUNDRHS LOBROW1881 0.000000
    BOUNDRHS LOBROW1882 0.000000
    BOUNDRHS LOBROW1883 0.000000
    BOUNDRHS LOBROW1884 0.000000
    BOUNDRHS LOBROW1885 0.000000
    BOUNDRHS LOBROW1886 0.000000
    BOUNDRHS LOBROW1887 0.000000
    BOUNDRHS LOBROW1888 1.008899
    BOUNDRHS LOBROW1889 1.008899
    BOUNDRHS LOBROW1890 1.008899
    BOUNDRHS LOBROW1891 1.008899
    BOUNDRHS LOBROW1892 1.008899
    BOUNDRHS LOBROW1893 1.008899
    BOUNDRHS LOBROW1894 1.008899
    BOUNDRHS LOBROW1895 1.008899
    BOUNDRHS LOBROW1896 2.810697
    BOUNDRHS LOBROW1897 2.810697
    BOUNDRHS LOBROW1898 2.810697
    BOUNDRHS LOBROW1899 2.810697
    BOUNDRHS LOBROW1900 2.810697
    BOUNDRHS LOBROW1901 2.810697
    BOUNDRHS LOBROW1902 2.810697
    BOUNDRHS LOBROW1903 2.810697
    BOUNDRHS LOBROW1904 0.122400
    BOUNDRHS LOBROW1905 0.122400
    BOUNDRHS LOBROW1906 0.122400
    BOUNDRHS LOBROW1907 0.122400
    BOUNDRHS LOBROW1908 0.122400
    BOUNDRHS LOBROW1909 0.122400
    BOUNDRHS LOBROW1910 0.122400
    BOUNDRHS LOBROW1911 0.122400
    BOUNDRHS LOBROW1912 0.044100
    BOUNDRHS LOBROW1913 0.044100
    BOUNDRHS LOBROW1914 0.044100
    BOUNDRHS LOBROW1915 0.044100
    BOUNDRHS LOBROW1916 0.044100
    BOUNDRHS LOBROW1917 0.044100
    BOUNDRHS LOBROW1918 0.044100
    BOUNDRHS LOBROW1919 0.044100
    BOUNDRHS LOBROW1920 24.036987
    BOUNDRHS UPBROW1921 26.399994
    BOUNDRHS LOBROW1922 24.418701
    BOUNDRHS UPBROW1923 26.399994
    BOUNDRHS LOBROW1924 20.572418
    BOUNDRHS UPBROW1925 26.399994
    BOUNDRHS LOBROW1926 23.204880
    BOUNDRHS UPBROW1927 26.399994
    BOUNDRHS LOBROW1928 23.342697
    BOUNDRHS UPBROW1929 26.399994
    BOUNDRHS LOBROW1930 22.694275
    BOUNDRHS UPBROW1931 26.399994
    BOUNDRHS LOBROW1932 24.036987
    BOUNDRHS UPBROW1933 26.399994
    BOUNDRHS LOBROW1934 23.204880
    BOUNDRHS UPBROW1935 26.399994
    BOUNDRHS LOBROW1936 25.911758
    BOUNDRHS UPBROW1937 27.500000
    BOUNDRHS LOBROW1938 25.144089
    BOUNDRHS UPBROW1939 27.500000
    BOUNDRHS LOBROW1940 18.804413
    BOUNDRHS UPBROW1941 27.500000
    BOUNDRHS LOBROW1942 21.118423
    BOUNDRHS UPBROW1943 27.500000
    BOUNDRHS LOBROW1944 21.447189
    BOUNDRHS UPBROW1945 27.500000
    BOUNDRHS LOBROW1946 23.075333
    BOUNDRHS UPBROW1947 27.500000
    BOUNDRHS LOBROW1948 25.911758
    BOUNDRHS UPBROW1949 27.500000
    BOUNDRHS LOBROW1950 21.118423
    BOUNDRHS UPBROW1951 27.500000
    BOUNDRHS LOBROW1952 21.104385
    BOUNDRHS UPBROW1953 23.899994
    BOUNDRHS LOBROW1954 22.434784
    BOUNDRHS UPBROW1955 23.899994
    BOUNDRHS LOBROW1956 19.249954
    BOUNDRHS UPBROW1957 23.899994
    BOUNDRHS LOBROW1958 21.261215
    BOUNDRHS UPBROW1959 23.899994
    BOUNDRHS LOBROW1960 21.148758
    BOUNDRHS UPBROW1961 23.899994
    BOUNDRHS LOBROW1962 19.751053
    BOUNDRHS UPBROW1963 23.899994
    BOUNDRHS LOBROW1964 21.104385
    BOUNDRHS UPBROW1965 23.899994
    BOUNDRHS LOBROW1966 21.261215
    BOUNDRHS UPBROW1967 23.899994
    BOUNDRHS LOBROW1968 5.718995
    BOUNDRHS UPBROW1969 7.000000
    BOUNDRHS LOBROW1970 5.497266
    BOUNDRHS UPBROW1971 7.000000
    BOUNDRHS LOBROW1972 4.080542
    BOUNDRHS UPBROW1973 7.000000
    BOUNDRHS LOBROW1974 4.061848
    BOUNDRHS UPBROW1975 7.000000
    BOUNDRHS LOBROW1976 4.589495
    BOUNDRHS UPBROW1977 7.000000
    BOUNDRHS LOBROW1978 5.926944
    BOUNDRHS UPBROW1979 7.000000
    BOUNDRHS LOBROW1980 5.718995
    BOUNDRHS UPBROW1981 7.000000
    BOUNDRHS LOBROW1982 4.061848
    BOUNDRHS UPBROW1983 7.000000
    BOUNDRHS LOBROW1984 9.227788
    BOUNDRHS UPBROW1985 11.099999
    BOUNDRHS LOBROW1986 9.902070
    BOUNDRHS UPBROW1987 11.099999
    BOUNDRHS LOBROW1988 8.026710
    BOUNDRHS UPBROW1989 11.099999
    BOUNDRHS LOBROW1990 9.694483
    BOUNDRHS UPBROW1991 11.099999
    BOUNDRHS LOBROW1992 10.122696
    BOUNDRHS UPBROW1993 11.099999
    BOUNDRHS LOBROW1994 9.632296
    BOUNDRHS UPBROW1995 11.099999
    BOUNDRHS LOBROW1996 9.227788
    BOUNDRHS UPBROW1997 11.099999
    BOUNDRHS LOBROW1998 9.694483
    BOUNDRHS UPBROW1999 11.099999
    BOUNDRHS LOBROW2000 0.000000
    BOUNDRHS LOBROW2001 0.000000
    BOUNDRHS LOBROW2002 0.000000
    BOUNDRHS LOBROW2003 0.000000
    BOUNDRHS LOBROW2004 0.000000
    BOUNDRHS LOBROW2005 0.000000
    BOUNDRHS LOBROW2006 0.000000
    BOUNDRHS LOBROW2007 0.000000
    BOUNDRHS LOBROW2008 0.000000
    BOUNDRHS LOBROW2009 0.000000
    BOUNDRHS LOBROW2010 0.000000
    BOUNDRHS LOBROW2011 0.000000
    BOUNDRHS LOBROW2012 0.000000
    BOUNDRHS LOBROW2013 0.000000
    BOUNDRHS LOBROW2014 0.000000
    BOUNDRHS LOBROW2015 0.000000
    BOUNDRHS LOBROW2016 0.000000
    BOUNDRHS LOBROW2017 0.000000
    BOUNDRHS LOBROW2018 0.000000
    BOUNDRHS LOBROW2019 0.000000
    BOUNDRHS LOBROW2020 0.000000
    BOUNDRHS LOBROW2021 0.000000
    BOUNDRHS LOBROW2022 0.000000
    BOUNDRHS LOBROW2023 0.000000
    BOUNDRHS LOBROW2024 0.000000
    BOUNDRHS LOBROW2025 0.000000
    BOUNDRHS LOBROW2026 0.000000
    BOUNDRHS LOBROW2027 0.000000
    BOUNDRHS LOBROW2028 0.000000
    BOUNDRHS LOBROW2029 0.000000
    BOUNDRHS LOBROW2030 0.000000
    BOUNDRHS LOBROW2031 0.000000
    BOUNDRHS LOBROW2032 0.000000
    BOUNDRHS LOBROW2033 0.000000
    BOUNDRHS LOBROW2034 0.000000
    BOUNDRHS LOBROW2035 0.000000
    BOUNDRHS LOBROW2036 0.000000
    BOUNDRHS LOBROW2037 0.000000
    BOUNDRHS LOBROW2038 0.000000
    BOUNDRHS LOBROW2039 0.000000
    BOUNDRHS LOBROW2040 0.000000
    BOUNDRHS LOBROW2041 0.000000
    BOUNDRHS LOBROW2042 0.000000
    BOUNDRHS LOBROW2043 0.000000
    BOUNDRHS LOBROW2044 0.000000
    BOUNDRHS LOBROW2045 0.000000
    BOUNDRHS LOBROW2046 0.000000
    BOUNDRHS LOBROW2047 0.000000
    BOUNDRHS LOBROW2048 0.000000
    BOUNDRHS LOBROW2049 0.000000
    BOUNDRHS LOBROW2050 0.000000
    BOUNDRHS LOBROW2051 0.000000
    BOUNDRHS LOBROW2052 0.000000
    BOUNDRHS LOBROW2053 0.000000
    BOUNDRHS LOBROW2054 0.000000
    BOUNDRHS LOBROW2055 0.000000
    BOUNDRHS LOBROW2056 0.000000
    BOUNDRHS LOBROW2057 0.000000
    BOUNDRHS LOBROW2058 0.000000
    BOUNDRHS LOBROW2059 0.000000
    BOUNDRHS LOBROW2060 0.000000
    BOUNDRHS LOBROW2061 0.000000
    BOUNDRHS LOBROW2062 0.000000
    BOUNDRHS LOBROW2063 0.000000
    BOUNDRHS LOBROW2064 0.000000
    BOUNDRHS LOBROW2065 0.000000
    BOUNDRHS LOBROW2066 0.000000
    BOUNDRHS LOBROW2067 0.000000
    BOUNDRHS LOBROW2068 0.000000
    BOUNDRHS LOBROW2069 0.000000
    BOUNDRHS LOBROW2070 0.000000
    BOUNDRHS LOBROW2071 0.000000
    BOUNDRHS LOBROW2072 0.000000
    BOUNDRHS LOBROW2073 0.000000
    BOUNDRHS LOBROW2074 0.000000
    BOUNDRHS LOBROW2075 0.000000
    BOUNDRHS LOBROW2076 0.000000
    BOUNDRHS LOBROW2077 0.000000
    BOUNDRHS LOBROW2078 0.000000
    BOUNDRHS LOBROW2079 0.000000
    BOUNDRHS LOBROW2080 0.000000
    BOUNDRHS LOBROW2081 0.000000
    BOUNDRHS LOBROW2082 0.000000
    BOUNDRHS LOBROW2083 0.000000
    BOUNDRHS LOBROW2084 0.000000
    BOUNDRHS LOBROW2085 0.000000
    BOUNDRHS LOBROW2086 0.000000
    BOUNDRHS LOBROW2087 0.000000
    BOUNDRHS LOBROW2088 0.000000
    BOUNDRHS LOBROW2089 0.000000
    BOUNDRHS LOBROW2090 0.000000
    BOUNDRHS LOBROW2091 0.000000
    BOUNDRHS LOBROW2092 0.000000
    BOUNDRHS LOBROW2093 0.000000
    BOUNDRHS LOBROW2094 0.000000
    BOUNDRHS LOBROW2095 0.000000
    BOUNDRHS LOBROW2096 0.000000
    BOUNDRHS LOBROW2097 0.000000
    BOUNDRHS LOBROW2098 0.000000
    BOUNDRHS LOBROW2099 0.000000
    BOUNDRHS LOBROW2100 0.000000
    BOUNDRHS LOBROW2101 0.000000
    BOUNDRHS LOBROW2102 0.000000
    BOUNDRHS LOBROW2103 0.000000
    BOUNDRHS LOBROW2104 0.000000
    BOUNDRHS LOBROW2105 0.000000
    BOUNDRHS LOBROW2106 0.000000
    BOUNDRHS LOBROW2107 0.000000
    BOUNDRHS LOBROW2108 0.000000
    BOUNDRHS LOBROW2109 0.000000
    BOUNDRHS LOBROW2110 0.000000
    BOUNDRHS LOBROW2111 0.000000
    BOUNDRHS LOBROW2112 0.000000
    BOUNDRHS LOBROW2113 0.000000
    BOUNDRHS LOBROW2114 0.000000
    BOUNDRHS LOBROW2115 0.000000
    BOUNDRHS LOBROW2116 0.000000
    BOUNDRHS LOBROW2117 0.000000
    BOUNDRHS LOBROW2118 0.000000
    BOUNDRHS LOBROW2119 0.000000
    BOUNDRHS LOBROW2120 0.000000
    BOUNDRHS LOBROW2121 0.000000
    BOUNDRHS LOBROW2122 0.000000
    BOUNDRHS LOBROW2123 0.000000
    BOUNDRHS LOBROW2124 0.000000
    BOUNDRHS LOBROW2125 0.000000
    BOUNDRHS LOBROW2126 0.000000
    BOUNDRHS LOBROW2127 0.000000
    BOUNDRHS LOBROW2128 0.000000
    BOUNDRHS LOBROW2129 0.000000
    BOUNDRHS LOBROW2130 0.000000
    BOUNDRHS LOBROW2131 0.000000
    BOUNDRHS LOBROW2132 0.000000
    BOUNDRHS LOBROW2133 0.000000
    BOUNDRHS LOBROW2134 0.000000
    BOUNDRHS LOBROW2135 0.000000
    BOUNDRHS LOBROW2136 0.000000
    BOUNDRHS LOBROW2137 0.000000
    BOUNDRHS LOBROW2138 0.000000
    BOUNDRHS LOBROW2139 0.000000
    BOUNDRHS LOBROW2140 0.000000
    BOUNDRHS LOBROW2141 0.000000
    BOUNDRHS LOBROW2142 0.000000
    BOUNDRHS LOBROW2143 0.000000
    BOUNDRHS LOBROW2144 0.000000
    BOUNDRHS LOBROW2145 0.000000
    BOUNDRHS LOBROW2146 0.000000
    BOUNDRHS LOBROW2147 0.000000
    BOUNDRHS LOBROW2148 0.000000
    BOUNDRHS LOBROW2149 0.000000
    BOUNDRHS LOBROW2150 0.000000
    BOUNDRHS LOBROW2151 0.000000
    BOUNDRHS LOBROW2152 0.000000
    BOUNDRHS LOBROW2153 0.000000
    BOUNDRHS LOBROW2154 0.000000
    BOUNDRHS LOBROW2155 0.000000
    BOUNDRHS LOBROW2156 0.000000
    BOUNDRHS LOBROW2157 0.000000
    BOUNDRHS LOBROW2158 0.000000
    BOUNDRHS LOBROW2159 0.000000
    BOUNDRHS LOBROW2160 0.000000
    BOUNDRHS LOBROW2161 0.000000
    BOUNDRHS LOBROW2162 0.000000
    BOUNDRHS LOBROW2163 0.000000
    BOUNDRHS LOBROW2164 0.000000
    BOUNDRHS LOBROW2165 0.000000
    BOUNDRHS LOBROW2166 0.000000
    BOUNDRHS LOBROW2167 0.000000
    BOUNDRHS LOBROW2168 0.000000
    BOUNDRHS LOBROW2169 0.000000
    BOUNDRHS LOBROW2170 0.000000
    BOUNDRHS LOBROW2171 0.000000
    BOUNDRHS LOBROW2172 0.000000
    BOUNDRHS LOBROW2173 0.000000
    BOUNDRHS LOBROW2174 0.000000
    BOUNDRHS LOBROW2175 0.000000
    BOUNDRHS LOBROW2176 0.000000
    BOUNDRHS LOBROW2177 0.000000
    BOUNDRHS LOBROW2178 0.000000
    BOUNDRHS LOBROW2179 0.000000
    BOUNDRHS LOBROW2180 0.000000
    BOUNDRHS LOBROW2181 0.000000
    BOUNDRHS LOBROW2182 0.000000
    BOUNDRHS LOBROW2183 0.000000
    BOUNDRHS LOBROW2184 0.000000
    BOUNDRHS LOBROW2185 0.000000
    BOUNDRHS LOBROW2186 0.000000
    BOUNDRHS LOBROW2187 0.000000
    BOUNDRHS LOBROW2188 0.000000
    BOUNDRHS LOBROW2189 0.000000
    BOUNDRHS LOBROW2190 0.000000
    BOUNDRHS LOBROW2191 0.000000
    BOUNDRHS LOBROW2192 0.000000
    BOUNDRHS LOBROW2193 0.000000
    BOUNDRHS LOBROW2194 0.000000
    BOUNDRHS LOBROW2195 0.000000
    BOUNDRHS LOBROW2196 0.000000
    BOUNDRHS LOBROW2197 0.000000
    BOUNDRHS LOBROW2198 0.000000
    BOUNDRHS LOBROW2199 0.000000
    BOUNDRHS LOBROW2200 0.000000
    BOUNDRHS LOBROW2201 0.000000
    BOUNDRHS LOBROW2202 0.000000
    BOUNDRHS LOBROW2203 0.000000
    BOUNDRHS LOBROW2204 0.000000
    BOUNDRHS LOBROW2205 0.000000
    BOUNDRHS LOBROW2206 0.000000
    BOUNDRHS LOBROW2207 0.000000
    BOUNDRHS LOBROW2208 0.000000
    BOUNDRHS LOBROW2209 0.000000
    BOUNDRHS LOBROW2210 0.000000
    BOUNDRHS LOBROW2211 0.000000
    BOUNDRHS LOBROW2212 0.000000
    BOUNDRHS LOBROW2213 0.000000
    BOUNDRHS LOBROW2214 0.000000
    BOUNDRHS LOBROW2215 0.000000
    BOUNDRHS LOBROW2216 0.000000
    BOUNDRHS LOBROW2217 0.000000
    BOUNDRHS LOBROW2218 0.000000
    BOUNDRHS LOBROW2219 0.000000
    BOUNDRHS LOBROW2220 0.000000
    BOUNDRHS LOBROW2221 0.000000
    BOUNDRHS LOBROW2222 0.000000
    BOUNDRHS LOBROW2223 0.000000
    BOUNDRHS LOBROW2224 0.000000
    BOUNDRHS LOBROW2225 0.000000
    BOUNDRHS LOBROW2226 0.000000
    BOUNDRHS LOBROW2227 0.000000
    BOUNDRHS LOBROW2228 0.000000
    BOUNDRHS LOBROW2229 0.000000
    BOUNDRHS LOBROW2230 0.000000
    BOUNDRHS LOBROW2231 0.000000
    BOUNDRHS LOBROW2232 0.000000
    BOUNDRHS LOBROW2233 0.000000
    BOUNDRHS LOBROW2234 0.000000
    BOUNDRHS LOBROW2235 0.000000
    BOUNDRHS LOBROW2236 0.000000
    BOUNDRHS LOBROW2237 0.000000
    BOUNDRHS LOBROW2238 0.000000
    BOUNDRHS LOBROW2239 0.000000
    BOUNDRHS LOBROW2240 0.000000
    BOUNDRHS LOBROW2241 0.000000
    BOUNDRHS LOBROW2242 0.000000
    BOUNDRHS LOBROW2243 0.000000
    BOUNDRHS LOBROW2244 0.000000
    BOUNDRHS LOBROW2245 0.000000
    BOUNDRHS LOBROW2246 0.000000
    BOUNDRHS LOBROW2247 0.000000
    BOUNDRHS LOBROW2248 0.000000
    BOUNDRHS LOBROW2249 0.000000
    BOUNDRHS LOBROW2250 0.000000
    BOUNDRHS LOBROW2251 0.000000
    BOUNDRHS LOBROW2252 0.000000
    BOUNDRHS LOBROW2253 0.000000
    BOUNDRHS LOBROW2254 0.000000
    BOUNDRHS LOBROW2255 0.000000
    BOUNDRHS LOBROW2256 0.000000
    BOUNDRHS LOBROW2257 0.000000
    BOUNDRHS LOBROW2258 0.000000
    BOUNDRHS LOBROW2259 0.000000
    BOUNDRHS LOBROW2260 0.000000
    BOUNDRHS LOBROW2261 0.000000
    BOUNDRHS LOBROW2262 0.000000
    BOUNDRHS LOBROW2263 0.000000
    BOUNDRHS LOBROW2264 0.000000
    BOUNDRHS LOBROW2265 0.000000
    BOUNDRHS LOBROW2266 0.000000
    BOUNDRHS LOBROW2267 0.000000
    BOUNDRHS LOBROW2268 0.000000
    BOUNDRHS LOBROW2269 0.000000
    BOUNDRHS LOBROW2270 0.000000
    BOUNDRHS LOBROW2271 0.000000
    BOUNDRHS LOBROW2272 0.000000
    BOUNDRHS LOBROW2273 0.000000
    BOUNDRHS LOBROW2274 0.000000
    BOUNDRHS LOBROW2275 0.000000
    BOUNDRHS LOBROW2276 0.000000
    BOUNDRHS LOBROW2277 0.000000
    BOUNDRHS LOBROW2278 0.000000
    BOUNDRHS LOBROW2279 0.000000
    BOUNDRHS LOBROW2280 0.000000
    BOUNDRHS LOBROW2281 0.000000
    BOUNDRHS LOBROW2282 0.000000
    BOUNDRHS LOBROW2283 0.000000
    BOUNDRHS LOBROW2284 0.000000
    BOUNDRHS LOBROW2285 0.000000
    BOUNDRHS LOBROW2286 0.000000
    BOUNDRHS LOBROW2287 0.000000
    BOUNDRHS LOBROW2288 0.000000
    BOUNDRHS LOBROW2289 0.000000
    BOUNDRHS LOBROW2290 0.000000
    BOUNDRHS LOBROW2291 0.000000
    BOUNDRHS LOBROW2292 0.000000
    BOUNDRHS LOBROW2293 0.000000
    BOUNDRHS LOBROW2294 0.000000
    BOUNDRHS LOBROW2295 0.000000
    BOUNDRHS LOBROW2296 0.000000
    BOUNDRHS LOBROW2297 0.000000
    BOUNDRHS LOBROW2298 0.000000
    BOUNDRHS LOBROW2299 0.000000
    BOUNDRHS LOBROW2300 0.000000
    BOUNDRHS LOBROW2301 0.000000
    BOUNDRHS LOBROW2302 0.000000
    BOUNDRHS LOBROW2303 0.000000
    BOUNDRHS LOBROW2304 0.000000
    BOUNDRHS LOBROW2305 0.000000
    BOUNDRHS LOBROW2306 0.000000
    BOUNDRHS LOBROW2307 0.000000
    BOUNDRHS LOBROW2308 0.000000
    BOUNDRHS LOBROW2309 0.000000
    BOUNDRHS LOBROW2310 0.000000
    BOUNDRHS LOBROW2311 0.000000
    BOUNDRHS LOBROW2312 0.000000
    BOUNDRHS LOBROW2313 0.000000
    BOUNDRHS LOBROW2314 0.000000
    BOUNDRHS LOBROW2315 0.000000
    BOUNDRHS LOBROW2316 0.000000
    BOUNDRHS LOBROW2317 0.000000
    BOUNDRHS LOBROW2318 0.000000
    BOUNDRHS LOBROW2319 0.000000
    BOUNDRHS LOBROW2320 0.000000
    BOUNDRHS LOBROW2321 0.000000
    BOUNDRHS LOBROW2322 0.000000
    BOUNDRHS LOBROW2323 0.000000
    BOUNDRHS LOBROW2324 0.000000
    BOUNDRHS LOBROW2325 0.000000
    BOUNDRHS LOBROW2326 0.000000
    BOUNDRHS LOBROW2327 0.000000
    BOUNDRHS LOBROW2328 0.000000
    BOUNDRHS LOBROW2329 0.000000
    BOUNDRHS LOBROW2330 0.000000
    BOUNDRHS LOBROW2331 0.000000
    BOUNDRHS LOBROW2332 0.000000
    BOUNDRHS LOBROW2333 0.000000
    BOUNDRHS LOBROW2334 0.000000
    BOUNDRHS LOBROW2335 0.000000
    BOUNDRHS LOBROW2336 0.000000
    BOUNDRHS LOBROW2337 0.000000
    BOUNDRHS LOBROW2338 0.000000
    BOUNDRHS LOBROW2339 0.000000
    BOUNDRHS LOBROW2340 0.000000
    BOUNDRHS LOBROW2341 0.000000
    BOUNDRHS LOBROW2342 0.000000
    BOUNDRHS LOBROW2343 0.000000
    BOUNDRHS LOBROW2344 0.000000
    BOUNDRHS LOBROW2345 0.000000
    BOUNDRHS LOBROW2346 0.000000
    BOUNDRHS LOBROW2347 0.000000
    BOUNDRHS LOBROW2348 0.000000
    BOUNDRHS LOBROW2349 0.000000
    BOUNDRHS LOBROW2350 0.000000
    BOUNDRHS LOBROW2351 0.000000
    BOUNDRHS LOBROW2352 0.000000
    BOUNDRHS LOBROW2353 0.000000
    BOUNDRHS LOBROW2354 0.000000
    BOUNDRHS LOBROW2355 0.000000
    BOUNDRHS LOBROW2356 0.000000
    BOUNDRHS LOBROW2357 0.000000
    BOUNDRHS LOBROW2358 0.000000
    BOUNDRHS LOBROW2359 0.000000
    BOUNDRHS LOBROW2360 0.000000
    BOUNDRHS LOBROW2361 0.000000
    BOUNDRHS LOBROW2362 0.000000
    BOUNDRHS LOBROW2363 0.000000
    BOUNDRHS LOBROW2364 0.000000
    BOUNDRHS LOBROW2365 0.000000
    BOUNDRHS LOBROW2366 0.000000
    BOUNDRHS LOBROW2367 0.000000
    BOUNDRHS LOBROW2368 0.000000
    BOUNDRHS LOBROW2369 0.000000
    BOUNDRHS LOBROW2370 0.000000
    BOUNDRHS LOBROW2371 0.000000
    BOUNDRHS LOBROW2372 0.000000
    BOUNDRHS LOBROW2373 0.000000
    BOUNDRHS LOBROW2374 0.000000
    BOUNDRHS LOBROW2375 0.000000
    BOUNDRHS LOBROW2376 0.000000
    BOUNDRHS LOBROW2377 0.000000
    BOUNDRHS LOBROW2378 0.000000
    BOUNDRHS LOBROW2379 0.000000
    BOUNDRHS LOBROW2380 0.000000
    BOUNDRHS LOBROW2381 0.000000
    BOUNDRHS LOBROW2382 0.000000
    BOUNDRHS LOBROW2383 0.000000
    BOUNDRHS LOBROW2384 0.000000
    BOUNDRHS LOBROW2385 0.000000
    BOUNDRHS LOBROW2386 0.000000
    BOUNDRHS LOBROW2387 0.000000
    BOUNDRHS LOBROW2388 0.000000
    BOUNDRHS LOBROW2389 0.000000
    BOUNDRHS LOBROW2390 0.000000
    BOUNDRHS LOBROW2391 0.000000
    BOUNDRHS LOBROW2392 0.000000
    BOUNDRHS LOBROW2393 0.000000
    BOUNDRHS LOBROW2394 0.000000
    BOUNDRHS LOBROW2395 0.000000
    BOUNDRHS LOBROW2396 0.000000
    BOUNDRHS LOBROW2397 0.000000
    BOUNDRHS LOBROW2398 0.000000
    BOUNDRHS LOBROW2399 0.000000
    BOUNDRHS LOBROW2400 0.000000
    BOUNDRHS LOBROW2401 0.000000
    BOUNDRHS LOBROW2402 0.000000
    BOUNDRHS LOBROW2403 0.000000
    BOUNDRHS LOBROW2404 0.000000
    BOUNDRHS LOBROW2405 0.000000
    BOUNDRHS LOBROW2406 0.000000
    BOUNDRHS LOBROW2407 0.000000
    BOUNDRHS LOBROW2408 0.000000
    BOUNDRHS LOBROW2409 0.000000
    BOUNDRHS LOBROW2410 0.000000
    BOUNDRHS LOBROW2411 0.000000
    BOUNDRHS LOBROW2412 0.000000
    BOUNDRHS LOBROW2413 0.000000
    BOUNDRHS LOBROW2414 0.000000
    BOUNDRHS LOBROW2415 0.000000
    BOUNDRHS LOBROW2416 0.000000
    BOUNDRHS LOBROW2417 0.000000
    BOUNDRHS LOBROW2418 0.000000
    BOUNDRHS LOBROW2419 0.000000
    BOUNDRHS LOBROW2420 0.000000
    BOUNDRHS LOBROW2421 0.000000
    BOUNDRHS LOBROW2422 0.000000
    BOUNDRHS LOBROW2423 0.000000
    BOUNDRHS LOBROW2424 0.000000
    BOUNDRHS LOBROW2425 0.000000
    BOUNDRHS LOBROW2426 0.000000
    BOUNDRHS LOBROW2427 0.000000
    BOUNDRHS LOBROW2428 0.000000
    BOUNDRHS LOBROW2429 0.000000
    BOUNDRHS LOBROW2430 0.000000
    BOUNDRHS LOBROW2431 0.000000
    BOUNDRHS LOBROW2432 0.000000
    BOUNDRHS LOBROW2433 0.000000
    BOUNDRHS LOBROW2434 0.000000
    BOUNDRHS LOBROW2435 0.000000
    BOUNDRHS LOBROW2436 0.000000
    BOUNDRHS LOBROW2437 0.000000
    BOUNDRHS LOBROW2438 0.000000
    BOUNDRHS LOBROW2439 0.000000
    BOUNDRHS LOBROW2440 0.000000
    BOUNDRHS LOBROW2441 0.000000
    BOUNDRHS LOBROW2442 0.000000
    BOUNDRHS LOBROW2443 0.000000
    BOUNDRHS LOBROW2444 0.000000
    BOUNDRHS LOBROW2445 0.000000
    BOUNDRHS LOBROW2446 0.000000
    BOUNDRHS LOBROW2447 0.000000
    BOUNDRHS LOBROW2448 0.000000
    BOUNDRHS LOBROW2449 0.000000
    BOUNDRHS LOBROW2450 0.000000
    BOUNDRHS LOBROW2451 0.000000
    BOUNDRHS LOBROW2452 0.000000
    BOUNDRHS LOBROW2453 0.000000
    BOUNDRHS LOBROW2454 0.000000
    BOUNDRHS LOBROW2455 0.000000
    BOUNDRHS LOBROW2456 0.000000
    BOUNDRHS LOBROW2457 0.000000
    BOUNDRHS LOBROW2458 0.000000
    BOUNDRHS LOBROW2459 0.000000
    BOUNDRHS LOBROW2460 0.000000
    BOUNDRHS LOBROW2461 0.000000
    BOUNDRHS LOBROW2462 0.000000
    BOUNDRHS LOBROW2463 0.000000
    BOUNDRHS LOBROW2464 0.000000
    BOUNDRHS LOBROW2465 0.000000
    BOUNDRHS LOBROW2466 0.000000
    BOUNDRHS LOBROW2467 0.000000
    BOUNDRHS LOBROW2468 0.000000
    BOUNDRHS LOBROW2469 0.000000
    BOUNDRHS LOBROW2470 0.000000
    BOUNDRHS LOBROW2471 0.000000
    BOUNDRHS LOBROW2472 0.000000
    BOUNDRHS LOBROW2473 0.000000
    BOUNDRHS LOBROW2474 0.000000
    BOUNDRHS LOBROW2475 0.000000
    BOUNDRHS LOBROW2476 0.000000
    BOUNDRHS LOBROW2477 0.000000
    BOUNDRHS LOBROW2478 0.000000
    BOUNDRHS LOBROW2479 0.000000
    BOUNDRHS LOBROW2480 0.000000
    BOUNDRHS LOBROW2481 0.000000
    BOUNDRHS LOBROW2482 0.000000
    BOUNDRHS LOBROW2483 0.000000
    BOUNDRHS LOBROW2484 0.000000
    BOUNDRHS LOBROW2485 0.000000
    BOUNDRHS LOBROW2486 0.000000
    BOUNDRHS LOBROW2487 0.000000
    BOUNDRHS LOBROW2488 0.000000
    BOUNDRHS LOBROW2489 0.000000
    BOUNDRHS LOBROW2490 0.000000
    BOUNDRHS LOBROW2491 0.000000
    BOUNDRHS LOBROW2492 0.000000
    BOUNDRHS LOBROW2493 0.000000
    BOUNDRHS LOBROW2494 0.000000
    BOUNDRHS LOBROW2495 0.000000
    BOUNDRHS LOBROW2496 0.000000
    BOUNDRHS LOBROW2497 0.000000
    BOUNDRHS LOBROW2498 0.000000
    BOUNDRHS LOBROW2499 0.000000
    BOUNDRHS LOBROW2500 0.000000
    BOUNDRHS LOBROW2501 0.000000
    BOUNDRHS LOBROW2502 0.000000
    BOUNDRHS LOBROW2503 0.000000
    BOUNDRHS LOBROW2504 0.000000
    BOUNDRHS LOBROW2505 0.000000
    BOUNDRHS LOBROW2506 0.000000
    BOUNDRHS LOBROW2507 0.000000
    BOUNDRHS LOBROW2508 0.000000
    BOUNDRHS LOBROW2509 0.000000
    BOUNDRHS LOBROW2510 0.000000
    BOUNDRHS LOBROW2511 0.000000
    BOUNDRHS LOBROW2512 0.000000
    BOUNDRHS LOBROW2513 0.000000
    BOUNDRHS LOBROW2514 0.000000
    BOUNDRHS LOBROW2515 0.000000
    BOUNDRHS LOBROW2516 0.000000
    BOUNDRHS LOBROW2517 0.000000
    BOUNDRHS LOBROW2518 0.000000
    BOUNDRHS LOBROW2519 0.000000
    BOUNDRHS LOBROW2520 0.000000
    BOUNDRHS LOBROW2521 0.000000
    BOUNDRHS LOBROW2522 0.000000
    BOUNDRHS LOBROW2523 0.000000
    BOUNDRHS LOBROW2524 0.000000
    BOUNDRHS LOBROW2525 0.000000
    BOUNDRHS LOBROW2526 0.000000
    BOUNDRHS LOBROW2527 0.000000
    BOUNDRHS LOBROW2528 0.000000
    BOUNDRHS LOBROW2529 0.000000
    BOUNDRHS LOBROW2530 0.000000
    BOUNDRHS LOBROW2531 0.000000
    BOUNDRHS LOBROW2532 0.000000
    BOUNDRHS LOBROW2533 0.000000
    BOUNDRHS LOBROW2534 0.000000
    BOUNDRHS LOBROW2535 0.000000
    BOUNDRHS LOBROW2536 0.000000
    BOUNDRHS LOBROW2537 0.000000
    BOUNDRHS LOBROW2538 0.000000
    BOUNDRHS LOBROW2539 0.000000
    BOUNDRHS LOBROW2540 0.000000
    BOUNDRHS LOBROW2541 0.000000
    BOUNDRHS LOBROW2542 0.000000
    BOUNDRHS LOBROW2543 0.000000
    BOUNDRHS LOBROW2544 0.000000
    BOUNDRHS LOBROW2545 0.000000
    BOUNDRHS LOBROW2546 0.000000
    BOUNDRHS LOBROW2547 0.000000
    BOUNDRHS LOBROW2548 0.000000
    BOUNDRHS LOBROW2549 0.000000
    BOUNDRHS LOBROW2550 0.000000
    BOUNDRHS LOBROW2551 0.000000
    BOUNDRHS LOBROW2552 0.000000
    BOUNDRHS LOBROW2553 0.000000
    BOUNDRHS LOBROW2554 0.000000
    BOUNDRHS LOBROW2555 0.000000
    BOUNDRHS LOBROW2556 0.000000
    BOUNDRHS LOBROW2557 0.000000
    BOUNDRHS LOBROW2558 0.000000
    BOUNDRHS LOBROW2559 0.000000
    BOUNDRHS LOBROW2560 0.000000
    BOUNDRHS LOBROW2561 0.000000
    BOUNDRHS LOBROW2562 0.000000
    BOUNDRHS LOBROW2563 0.000000
    BOUNDRHS LOBROW2564 0.000000
    BOUNDRHS LOBROW2565 0.000000
    BOUNDRHS LOBROW2566 0.000000
    BOUNDRHS LOBROW2567 0.000000
    BOUNDRHS LOBROW2568 0.000000
    BOUNDRHS LOBROW2569 0.000000
    BOUNDRHS LOBROW2570 0.000000
    BOUNDRHS LOBROW2571 0.000000
    BOUNDRHS LOBROW2572 0.000000
    BOUNDRHS LOBROW2573 0.000000
    BOUNDRHS LOBROW2574 0.000000
    BOUNDRHS LOBROW2575 0.000000
    BOUNDRHS LOBROW2576 0.000000
    BOUNDRHS LOBROW2577 0.000000
    BOUNDRHS LOBROW2578 0.000000
    BOUNDRHS LOBROW2579 0.000000
    BOUNDRHS LOBROW2580 0.000000
    BOUNDRHS LOBROW2581 0.000000
    BOUNDRHS LOBROW2582 0.000000
    BOUNDRHS LOBROW2583 0.000000
    BOUNDRHS LOBROW2584 0.000000
    BOUNDRHS LOBROW2585 0.000000
    BOUNDRHS LOBROW2586 0.000000
    BOUNDRHS LOBROW2587 0.000000
    BOUNDRHS LOBROW2588 0.000000
    BOUNDRHS LOBROW2589 0.000000
    BOUNDRHS LOBROW2590 0.000000
    BOUNDRHS LOBROW2591 0.000000
    BOUNDRHS LOBROW2592 0.000000
    BOUNDRHS LOBROW2593 0.000000
    BOUNDRHS LOBROW2594 0.000000
    BOUNDRHS LOBROW2595 0.000000
    BOUNDRHS LOBROW2596 0.000000
    BOUNDRHS LOBROW2597 0.000000
    BOUNDRHS LOBROW2598 0.000000
    BOUNDRHS LOBROW2599 0.000000
    BOUNDRHS LOBROW2600 0.000000
    BOUNDRHS LOBROW2601 0.000000
    BOUNDRHS LOBROW2602 0.000000
    BOUNDRHS LOBROW2603 0.000000
    BOUNDRHS LOBROW2604 0.000000
    BOUNDRHS LOBROW2605 0.000000
    BOUNDRHS LOBROW2606 0.000000
    BOUNDRHS LOBROW2607 0.000000
    BOUNDRHS LOBROW2608 0.000000
    BOUNDRHS LOBROW2609 0.000000
    BOUNDRHS LOBROW2610 0.000000
    BOUNDRHS LOBROW2611 0.000000
    BOUNDRHS LOBROW2612 0.000000
    BOUNDRHS LOBROW2613 0.000000
    BOUNDRHS LOBROW2614 0.000000
    BOUNDRHS LOBROW2615 0.000000
    BOUNDRHS LOBROW2616 0.000000
    BOUNDRHS LOBROW2617 0.000000
    BOUNDRHS LOBROW2618 0.000000
    BOUNDRHS LOBROW2619 0.000000
    BOUNDRHS LOBROW2620 0.000000
    BOUNDRHS LOBROW2621 0.000000
    BOUNDRHS LOBROW2622 0.000000
    BOUNDRHS LOBROW2623 0.000000
    BOUNDRHS LOBROW2624 0.000000
    BOUNDRHS LOBROW2625 0.000000
    BOUNDRHS LOBROW2626 0.000000
    BOUNDRHS LOBROW2627 0.000000
    BOUNDRHS LOBROW2628 0.000000
    BOUNDRHS LOBROW2629 0.000000
    BOUNDRHS LOBROW2630 0.000000
    BOUNDRHS LOBROW2631 0.000000
    BOUNDRHS LOBROW2632 0.000000
    BOUNDRHS LOBROW2633 0.000000
    BOUNDRHS LOBROW2634 0.000000
    BOUNDRHS LOBROW2635 0.000000
    BOUNDRHS LOBROW2636 0.000000
    BOUNDRHS LOBROW2637 0.000000
    BOUNDRHS LOBROW2638 0.000000
    BOUNDRHS LOBROW2639 0.000000
    BOUNDRHS LOBROW2640 0.000000
    BOUNDRHS LOBROW2641 0.000000
    BOUNDRHS LOBROW2642 0.000000
    BOUNDRHS LOBROW2643 0.000000
    BOUNDRHS LOBROW2644 0.000000
    BOUNDRHS LOBROW2645 0.000000
    BOUNDRHS LOBROW2646 0.000000
    BOUNDRHS LOBROW2647 0.000000
    BOUNDRHS LOBROW2648 0.000000
    BOUNDRHS LOBROW2649 0.000000
    BOUNDRHS LOBROW2650 0.000000
    BOUNDRHS LOBROW2651 0.000000
    BOUNDRHS LOBROW2652 0.000000
    BOUNDRHS LOBROW2653 0.000000
    BOUNDRHS LOBROW2654 0.000000
    BOUNDRHS LOBROW2655 0.000000
    BOUNDRHS LOBROW2656 0.000000
    BOUNDRHS LOBROW2657 0.000000
    BOUNDRHS LOBROW2658 0.000000
    BOUNDRHS LOBROW2659 0.000000
    BOUNDRHS LOBROW2660 0.000000
    BOUNDRHS LOBROW2661 0.000000
    BOUNDRHS LOBROW2662 0.000000
    BOUNDRHS LOBROW2663 0.000000
    BOUNDRHS LOBROW2664 0.000000
    BOUNDRHS LOBROW2665 0.000000
    BOUNDRHS LOBROW2666 0.000000
    BOUNDRHS LOBROW2667 0.000000
    BOUNDRHS LOBROW2668 0.000000
    BOUNDRHS LOBROW2669 0.000000
    BOUNDRHS LOBROW2670 0.000000
    BOUNDRHS LOBROW2671 0.000000
    BOUNDRHS LOBROW2672 0.000000
    BOUNDRHS LOBROW2673 0.000000
    BOUNDRHS LOBROW2674 0.000000
    BOUNDRHS LOBROW2675 0.000000
    BOUNDRHS LOBROW2676 0.000000
    BOUNDRHS LOBROW2677 0.000000
    BOUNDRHS LOBROW2678 0.000000
    BOUNDRHS LOBROW2679 0.000000
    BOUNDRHS LOBROW2680 0.000000
    BOUNDRHS LOBROW2681 0.000000
    BOUNDRHS LOBROW2682 0.000000
    BOUNDRHS LOBROW2683 0.000000
    BOUNDRHS LOBROW2684 0.000000
    BOUNDRHS LOBROW2685 0.000000
    BOUNDRHS LOBROW2686 0.000000
    BOUNDRHS LOBROW2687 0.000000
    BOUNDRHS LOBROW2688 0.000000
    BOUNDRHS LOBROW2689 0.000000
    BOUNDRHS LOBROW2690 0.000000
    BOUNDRHS LOBROW2691 0.000000
    BOUNDRHS LOBROW2692 0.000000
    BOUNDRHS LOBROW2693 0.000000
    BOUNDRHS LOBROW2694 0.000000
    BOUNDRHS LOBROW2695 0.000000
    BOUNDRHS LOBROW2696 0.000000
    BOUNDRHS LOBROW2697 0.000000
    BOUNDRHS LOBROW2698 0.000000
    BOUNDRHS LOBROW2699 0.000000
    BOUNDRHS LOBROW2700 0.000000
    BOUNDRHS LOBROW2701 0.000000
    BOUNDRHS LOBROW2702 0.000000
    BOUNDRHS LOBROW2703 0.000000
    BOUNDRHS LOBROW2704 0.000000
    BOUNDRHS LOBROW2705 0.000000
    BOUNDRHS LOBROW2706 0.000000
    BOUNDRHS LOBROW2707 0.000000
    BOUNDRHS LOBROW2708 0.000000
    BOUNDRHS LOBROW2709 0.000000
    BOUNDRHS LOBROW2710 0.000000
    BOUNDRHS LOBROW2711 0.000000
    BOUNDRHS LOBROW2712 0.000000
    BOUNDRHS LOBROW2713 0.000000
    BOUNDRHS LOBROW2714 0.000000
    BOUNDRHS LOBROW2715 0.000000
    BOUNDRHS LOBROW2716 0.000000
    BOUNDRHS LOBROW2717 0.000000
    BOUNDRHS LOBROW2718 0.000000
    BOUNDRHS LOBROW2719 0.000000
    BOUNDRHS LOBROW2720 0.000000
    BOUNDRHS LOBROW2721 0.000000
    BOUNDRHS LOBROW2722 0.000000
    BOUNDRHS LOBROW2723 0.000000
    BOUNDRHS LOBROW2724 0.000000
    BOUNDRHS LOBROW2725 0.000000
    BOUNDRHS LOBROW2726 0.000000
    BOUNDRHS LOBROW2727 0.000000
    BOUNDRHS LOBROW2728 0.000000
    BOUNDRHS LOBROW2729 0.000000
    BOUNDRHS LOBROW2730 0.000000
    BOUNDRHS LOBROW2731 0.000000
    BOUNDRHS LOBROW2732 0.000000
    BOUNDRHS LOBROW2733 0.000000
    BOUNDRHS LOBROW2734 0.000000
    BOUNDRHS LOBROW2735 0.000000
    BOUNDRHS LOBROW2736 0.000000
    BOUNDRHS LOBROW2737 0.000000
    BOUNDRHS LOBROW2738 0.000000
    BOUNDRHS LOBROW2739 0.000000
    BOUNDRHS LOBROW2740 0.000000
    BOUNDRHS LOBROW2741 0.000000
    BOUNDRHS LOBROW2742 0.000000
    BOUNDRHS LOBROW2743 0.000000
    BOUNDRHS LOBROW2744 0.000000
    BOUNDRHS LOBROW2745 0.000000
    BOUNDRHS LOBROW2746 0.000000
    BOUNDRHS LOBROW2747 0.000000
    BOUNDRHS LOBROW2748 0.000000
    BOUNDRHS LOBROW2749 0.000000
    BOUNDRHS LOBROW2750 0.000000
    BOUNDRHS LOBROW2751 0.000000
    BOUNDRHS LOBROW2752 0.000000
    BOUNDRHS LOBROW2753 0.000000
    BOUNDRHS LOBROW2754 0.000000
    BOUNDRHS LOBROW2755 0.000000
    BOUNDRHS LOBROW2756 0.000000
    BOUNDRHS LOBROW2757 0.000000
    BOUNDRHS LOBROW2758 0.000000
    BOUNDRHS LOBROW2759 0.000000
    BOUNDRHS LOBROW2760 0.000000
    BOUNDRHS LOBROW2761 0.000000
    BOUNDRHS LOBROW2762 0.000000
    BOUNDRHS LOBROW2763 0.000000
    BOUNDRHS LOBROW2764 0.000000
    BOUNDRHS LOBROW2765 0.000000
    BOUNDRHS LOBROW2766 0.000000
    BOUNDRHS LOBROW2767 0.000000
    BOUNDRHS LOBROW2768 0.000000
    BOUNDRHS LOBROW2769 0.000000
    BOUNDRHS LOBROW2770 0.000000
    BOUNDRHS LOBROW2771 0.000000
    BOUNDRHS LOBROW2772 0.000000
    BOUNDRHS LOBROW2773 0.000000
    BOUNDRHS LOBROW2774 0.000000
    BOUNDRHS LOBROW2775 0.000000
    BOUNDRHS LOBROW2776 0.000000
    BOUNDRHS LOBROW2777 0.000000
    BOUNDRHS LOBROW2778 0.000000
    BOUNDRHS LOBROW2779 0.000000
    BOUNDRHS LOBROW2780 0.000000
    BOUNDRHS LOBROW2781 0.000000
    BOUNDRHS LOBROW2782 0.000000
    BOUNDRHS LOBROW2783 0.000000
    BOUNDRHS LOBROW2784 0.000000
    BOUNDRHS LOBROW2785 0.000000
    BOUNDRHS LOBROW2786 0.000000
    BOUNDRHS LOBROW2787 0.000000
    BOUNDRHS LOBROW2788 0.000000
    BOUNDRHS LOBROW2789 0.000000
    BOUNDRHS LOBROW2790 0.000000
    BOUNDRHS LOBROW2791 0.000000
    BOUNDRHS LOBROW2792 0.000000
    BOUNDRHS LOBROW2793 0.000000
    BOUNDRHS LOBROW2794 0.000000
    BOUNDRHS LOBROW2795 0.000000
    BOUNDRHS LOBROW2796 0.000000
    BOUNDRHS LOBROW2797 0.000000
    BOUNDRHS LOBROW2798 0.000000
    BOUNDRHS LOBROW2799 0.000000
    BOUNDRHS LOBROW2800 0.000000
    BOUNDRHS LOBROW2801 0.000000
    BOUNDRHS LOBROW2802 0.000000
    BOUNDRHS LOBROW2803 0.000000
    BOUNDRHS LOBROW2804 0.000000
    BOUNDRHS LOBROW2805 0.000000
    BOUNDRHS LOBROW2806 0.000000
    BOUNDRHS LOBROW2807 0.000000
    BOUNDRHS LOBROW2808 0.000000
    BOUNDRHS LOBROW2809 0.000000
    BOUNDRHS LOBROW2810 0.000000
    BOUNDRHS LOBROW2811 0.000000
    BOUNDRHS LOBROW2812 0.000000
    BOUNDRHS LOBROW2813 0.000000
    BOUNDRHS LOBROW2814 0.000000
    BOUNDRHS LOBROW2815 0.000000
    BOUNDRHS LOBROW2816 0.000000
    BOUNDRHS LOBROW2817 0.000000
    BOUNDRHS LOBROW2818 0.000000
    BOUNDRHS LOBROW2819 0.000000
    BOUNDRHS LOBROW2820 0.000000
    BOUNDRHS LOBROW2821 0.000000
    BOUNDRHS LOBROW2822 0.000000
    BOUNDRHS LOBROW2823 0.000000
    BOUNDRHS LOBROW2824 0.000000
    BOUNDRHS LOBROW2825 0.000000
    BOUNDRHS LOBROW2826 0.000000
    BOUNDRHS LOBROW2827 0.000000
    BOUNDRHS LOBROW2828 0.000000
    BOUNDRHS LOBROW2829 0.000000
    BOUNDRHS LOBROW2830 0.000000
    BOUNDRHS LOBROW2831 0.000000
    BOUNDRHS LOBROW2832 0.000000
    BOUNDRHS LOBROW2833 0.000000
    BOUNDRHS LOBROW2834 0.000000
    BOUNDRHS LOBROW2835 0.000000
    BOUNDRHS LOBROW2836 0.000000
    BOUNDRHS LOBROW2837 0.000000
    BOUNDRHS LOBROW2838 0.000000
    BOUNDRHS LOBROW2839 0.000000
    BOUNDRHS LOBROW2840 0.000000
    BOUNDRHS LOBROW2841 0.000000
    BOUNDRHS LOBROW2842 0.000000
    BOUNDRHS LOBROW2843 0.000000
    BOUNDRHS LOBROW2844 0.000000
    BOUNDRHS LOBROW2845 0.000000
    BOUNDRHS LOBROW2846 0.000000
    BOUNDRHS LOBROW2847 0.000000
    BOUNDRHS LOBROW2848 0.000000
    BOUNDRHS LOBROW2849 0.000000
    BOUNDRHS LOBROW2850 0.000000
    BOUNDRHS LOBROW2851 0.000000
    BOUNDRHS LOBROW2852 0.000000
    BOUNDRHS LOBROW2853 0.000000
    BOUNDRHS LOBROW2854 0.000000
    BOUNDRHS LOBROW2855 0.000000
    BOUNDRHS LOBROW2856 0.000000
    BOUNDRHS LOBROW2857 0.000000
    BOUNDRHS LOBROW2858 0.000000
    BOUNDRHS LOBROW2859 0.000000
    BOUNDRHS LOBROW2860 0.000000
    BOUNDRHS LOBROW2861 0.000000
    BOUNDRHS LOBROW2862 0.000000
    BOUNDRHS LOBROW2863 0.000000
    BOUNDRHS LOBROW2864 0.000000
    BOUNDRHS LOBROW2865 0.000000
    BOUNDRHS LOBROW2866 0.000000
    BOUNDRHS LOBROW2867 0.000000
    BOUNDRHS LOBROW2868 0.000000
    BOUNDRHS LOBROW2869 0.000000
    BOUNDRHS LOBROW2870 0.000000
    BOUNDRHS LOBROW2871 0.000000
    BOUNDRHS LOBROW2872 0.000000
    BOUNDRHS LOBROW2873 0.000000
    BOUNDRHS LOBROW2874 0.000000
    BOUNDRHS LOBROW2875 0.000000
    BOUNDRHS LOBROW2876 0.000000
    BOUNDRHS LOBROW2877 0.000000
    BOUNDRHS LOBROW2878 0.000000
    BOUNDRHS LOBROW2879 0.000000
    BOUNDRHS LOBROW2880 0.000000
    BOUNDRHS LOBROW2881 0.000000
    BOUNDRHS LOBROW2882 0.000000
    BOUNDRHS LOBROW2883 0.000000
    BOUNDRHS LOBROW2884 0.000000
    BOUNDRHS LOBROW2885 0.000000
    BOUNDRHS LOBROW2886 0.000000
    BOUNDRHS LOBROW2887 0.000000
    BOUNDRHS LOBROW2888 0.000000
    BOUNDRHS LOBROW2889 0.000000
    BOUNDRHS LOBROW2890 0.000000
    BOUNDRHS LOBROW2891 0.000000
    BOUNDRHS LOBROW2892 0.000000
    BOUNDRHS LOBROW2893 0.000000
    BOUNDRHS LOBROW2894 0.000000
    BOUNDRHS LOBROW2895 0.000000
    BOUNDRHS LOBROW2896 0.000000
    BOUNDRHS LOBROW2897 0.000000
    BOUNDRHS LOBROW2898 0.000000
    BOUNDRHS LOBROW2899 0.000000
    BOUNDRHS LOBROW2900 0.000000
    BOUNDRHS LOBROW2901 0.000000
    BOUNDRHS LOBROW2902 0.000000
    BOUNDRHS LOBROW2903 0.000000
    BOUNDRHS LOBROW2904 0.000000
    BOUNDRHS LOBROW2905 0.000000
    BOUNDRHS LOBROW2906 0.000000
    BOUNDRHS LOBROW2907 0.000000
    BOUNDRHS LOBROW2908 0.000000
    BOUNDRHS LOBROW2909 0.000000
    BOUNDRHS LOBROW2910 0.000000
    BOUNDRHS LOBROW2911 0.000000
    BOUNDRHS LOBROW2912 0.000000
    BOUNDRHS LOBROW2913 0.000000
    BOUNDRHS LOBROW2914 0.000000
    BOUNDRHS LOBROW2915 0.000000
    BOUNDRHS LOBROW2916 0.000000
    BOUNDRHS LOBROW2917 0.000000
    BOUNDRHS LOBROW2918 0.000000
    BOUNDRHS LOBROW2919 0.000000
    BOUNDRHS LOBROW2920 0.000000
    BOUNDRHS LOBROW2921 0.000000
    BOUNDRHS LOBROW2922 0.000000
    BOUNDRHS LOBROW2923 0.000000
    BOUNDRHS LOBROW2924 0.000000
    BOUNDRHS LOBROW2925 0.000000
    BOUNDRHS LOBROW2926 0.000000
    BOUNDRHS LOBROW2927 0.000000
    BOUNDRHS LOBROW2928 0.000000
    BOUNDRHS LOBROW2929 0.000000
    BOUNDRHS LOBROW2930 0.000000
    BOUNDRHS LOBROW2931 0.000000
    BOUNDRHS LOBROW2932 0.000000
    BOUNDRHS LOBROW2933 0.000000
    BOUNDRHS LOBROW2934 0.000000
    BOUNDRHS LOBROW2935 0.000000
    BOUNDRHS LOBROW2936 0.000000
    BOUNDRHS LOBROW2937 0.000000
    BOUNDRHS LOBROW2938 0.000000
    BOUNDRHS LOBROW2939 0.000000
    BOUNDRHS LOBROW2940 0.000000
    BOUNDRHS LOBROW2941 0.000000
    BOUNDRHS LOBROW2942 0.000000
    BOUNDRHS LOBROW2943 0.000000
    BOUNDRHS LOBROW2944 0.000000
    BOUNDRHS LOBROW2945 0.000000
    BOUNDRHS LOBROW2946 0.000000
    BOUNDRHS LOBROW2947 0.000000
    BOUNDRHS LOBROW2948 0.000000
    BOUNDRHS LOBROW2949 0.000000
    BOUNDRHS LOBROW2950 0.000000
    BOUNDRHS LOBROW2951 0.000000
    BOUNDRHS LOBROW2952 0.000000
    BOUNDRHS LOBROW2953 0.000000
    BOUNDRHS LOBROW2954 0.000000
    BOUNDRHS LOBROW2955 0.000000
    BOUNDRHS LOBROW2956 0.000000
    BOUNDRHS LOBROW2957 0.000000
    BOUNDRHS LOBROW2958 0.000000
    BOUNDRHS LOBROW2959 0.000000
    BOUNDRHS UPBROW2960 10000.000000
    BOUNDRHS UPBROW2961 10000.000000
    BOUNDRHS UPBROW2962 10000.000000
    BOUNDRHS UPBROW2963 10000.000000
    BOUNDRHS UPBROW2964 10000.000000
    BOUNDRHS UPBROW2965 10000.000000
    BOUNDRHS UPBROW2966 10000.000000
    BOUNDRHS UPBROW2967 10000.000000
    BOUNDRHS UPBROW2968 10000.000000
    BOUNDRHS UPBROW2969 10000.000000
    BOUNDRHS UPBROW2970 10000.000000
    BOUNDRHS UPBROW2971 10000.000000
    BOUNDRHS UPBROW2972 10000.000000
    BOUNDRHS UPBROW2973 10000.000000
    BOUNDRHS UPBROW2974 10000.000000
    BOUNDRHS UPBROW2975 10000.000000
    BOUNDRHS UPBROW2976 10000.000000
    BOUNDRHS UPBROW2977 10000.000000
    BOUNDRHS UPBROW2978 10000.000000
    BOUNDRHS UPBROW2979 10000.000000
    BOUNDRHS UPBROW2980 10000.000000
    BOUNDRHS UPBROW2981 10000.000000
    BOUNDRHS UPBROW2982 10000.000000
    BOUNDRHS UPBROW2983 10000.000000
    BOUNDRHS UPBROW2984 10000.000000
    BOUNDRHS UPBROW2985 10000.000000
    BOUNDRHS UPBROW2986 10000.000000
    BOUNDRHS UPBROW2987 10000.000000
    BOUNDRHS UPBROW2988 10000.000000
    BOUNDRHS UPBROW2989 10000.000000
    BOUNDRHS UPBROW2990 10000.000000
    BOUNDRHS UPBROW2991 10000.000000
    BOUNDRHS UPBROW2992 10000.000000
    BOUNDRHS UPBROW2993 10000.000000
    BOUNDRHS UPBROW2994 10000.000000
    BOUNDRHS UPBROW2995 10000.000000
    BOUNDRHS UPBROW2996 10000.000000
    BOUNDRHS UPBROW2997 10000.000000
    BOUNDRHS UPBROW2998 10000.000000
    BOUNDRHS UPBROW2999 10000.000000
    BOUNDRHS LOBROW3000 24.799988
    BOUNDRHS UPBROW3001 42.000000
    BOUNDRHS LOBROW3002 24.799988
    BOUNDRHS UPBROW3003 42.000000
    BOUNDRHS LOBROW3004 24.799988
    BOUNDRHS UPBROW3005 42.000000
    BOUNDRHS LOBROW3006 24.799988
    BOUNDRHS UPBROW3007 42.000000
    BOUNDRHS LOBROW3008 24.799988
    BOUNDRHS UPBROW3009 42.000000
    BOUNDRHS LOBROW3010 24.799988
    BOUNDRHS UPBROW3011 42.000000
    BOUNDRHS LOBROW3012 24.799988
    BOUNDRHS UPBROW3013 42.000000
    BOUNDRHS LOBROW3014 24.799988
    BOUNDRHS UPBROW3015 42.000000
    BOUNDRHS LOBROW3016 96.199997
    BOUNDRHS UPBROW3017 319.000000
    BOUNDRHS LOBROW3018 96.199997
    BOUNDRHS UPBROW3019 319.000000
    BOUNDRHS LOBROW3020 96.199997
    BOUNDRHS UPBROW3021 319.000000
    BOUNDRHS LOBROW3022 96.199997
    BOUNDRHS UPBROW3023 319.000000
    BOUNDRHS LOBROW3024 96.199997
    BOUNDRHS UPBROW3025 319.000000
    BOUNDRHS LOBROW3026 96.199997
    BOUNDRHS UPBROW3027 319.000000
    BOUNDRHS LOBROW3028 96.199997
    BOUNDRHS UPBROW3029 319.000000
    BOUNDRHS LOBROW3030 96.199997
    BOUNDRHS UPBROW3031 319.000000
    BOUNDRHS LOBROW3032 0.000000
    BOUNDRHS UPBROW3033 5.400000
    BOUNDRHS LOBROW3034 0.000000
    BOUNDRHS UPBROW3035 5.400000
    BOUNDRHS LOBROW3036 0.000000
    BOUNDRHS UPBROW3037 5.400000
    BOUNDRHS LOBROW3038 0.000000
    BOUNDRHS UPBROW3039 5.400000
    BOUNDRHS LOBROW3040 0.000000
    BOUNDRHS UPBROW3041 5.400000
    BOUNDRHS LOBROW3042 0.000000
    BOUNDRHS UPBROW3043 5.400000
    BOUNDRHS LOBROW3044 0.000000
    BOUNDRHS UPBROW3045 5.400000
    BOUNDRHS LOBROW3046 0.000000
    BOUNDRHS UPBROW3047 5.400000
    BOUNDRHS LOBROW3048 0.033000
    BOUNDRHS UPBROW3049 0.167000
    BOUNDRHS LOBROW3050 0.033000
    BOUNDRHS UPBROW3051 0.167000
    BOUNDRHS LOBROW3052 0.033000
    BOUNDRHS UPBROW3053 0.167000
    BOUNDRHS LOBROW3054 0.033000
    BOUNDRHS UPBROW3055 0.167000
    BOUNDRHS LOBROW3056 0.033000
    BOUNDRHS UPBROW3057 0.167000
    BOUNDRHS LOBROW3058 0.033000
    BOUNDRHS UPBROW3059 0.167000
    BOUNDRHS LOBROW3060 0.033000
    BOUNDRHS UPBROW3061 0.167000
    BOUNDRHS LOBROW3062 0.033000
    BOUNDRHS UPBROW3063 0.167000
    BOUNDRHS LOBROW3064 1309.399900
    BOUNDRHS UPBROW3065 1773.000000
    BOUNDRHS LOBROW3066 1309.399900
    BOUNDRHS UPBROW3067 1773.000000
    BOUNDRHS LOBROW3068 1309.399900
    BOUNDRHS UPBROW3069 1773.000000
    BOUNDRHS LOBROW3070 1309.399900
    BOUNDRHS UPBROW3071 1773.000000
    BOUNDRHS LOBROW3072 1309.399900
    BOUNDRHS UPBROW3073 1773.000000
    BOUNDRHS LOBROW3074 1309.399900
    BOUNDRHS UPBROW3075 1773.000000
    BOUNDRHS LOBROW3076 1309.399900
    BOUNDRHS UPBROW3077 1773.000000
    BOUNDRHS LOBROW3078 1309.399900
    BOUNDRHS UPBROW3079 1773.000000
    BOUNDRHS LOBROW3080 239.500000
    BOUNDRHS UPBROW3081 320.799805
    BOUNDRHS LOBROW3082 239.500000
    BOUNDRHS UPBROW3083 320.799805
    BOUNDRHS LOBROW3084 239.500000
    BOUNDRHS UPBROW3085 320.799805
    BOUNDRHS LOBROW3086 239.500000
    BOUNDRHS UPBROW3087 320.799805
    BOUNDRHS LOBROW3088 239.500000
    BOUNDRHS UPBROW3089 320.799805
    BOUNDRHS LOBROW3090 239.500000
    BOUNDRHS UPBROW3091 320.799805
    BOUNDRHS LOBROW3092 239.500000
    BOUNDRHS UPBROW3093 320.799805
    BOUNDRHS LOBROW3094 239.500000
    BOUNDRHS UPBROW3095 320.799805
    BOUNDRHS LOBROW3096 9.799999
    BOUNDRHS UPBROW3097 105.500000
    BOUNDRHS LOBROW3098 9.799999
    BOUNDRHS UPBROW3099 105.500000
    BOUNDRHS LOBROW3100 9.799999
    BOUNDRHS UPBROW3101 105.500000
    BOUNDRHS LOBROW3102 9.799999
    BOUNDRHS UPBROW3103 105.500000
    BOUNDRHS LOBROW3104 9.799999
    BOUNDRHS UPBROW3105 105.500000
    BOUNDRHS LOBROW3106 9.799999
    BOUNDRHS UPBROW3107 105.500000
    BOUNDRHS LOBROW3108 9.799999
    BOUNDRHS UPBROW3109 105.500000
    BOUNDRHS LOBROW3110 9.799999
    BOUNDRHS UPBROW3111 105.500000
    BOUNDRHS LOBROW3112 0.600000
    BOUNDRHS UPBROW3113 47.199997
    BOUNDRHS LOBROW3114 0.600000
    BOUNDRHS UPBROW3115 47.199997
    BOUNDRHS LOBROW3116 0.600000
    BOUNDRHS UPBROW3117 47.199997
    BOUNDRHS LOBROW3118 0.600000
    BOUNDRHS UPBROW3119 47.199997
    BOUNDRHS LOBROW3120 0.600000
    BOUNDRHS UPBROW3121 47.199997
    BOUNDRHS LOBROW3122 0.600000
    BOUNDRHS UPBROW3123 47.199997
    BOUNDRHS LOBROW3124 0.600000
    BOUNDRHS UPBROW3125 47.199997
    BOUNDRHS LOBROW3126 0.600000
    BOUNDRHS UPBROW3127 47.199997
    BOUNDRHS LOBROW3128 4.299999
    BOUNDRHS UPBROW3129 31.099991
    BOUNDRHS LOBROW3130 4.299999
    BOUNDRHS UPBROW3131 31.099991
    BOUNDRHS LOBROW3132 4.299999
    BOUNDRHS UPBROW3133 31.099991
    BOUNDRHS LOBROW3134 4.299999
    BOUNDRHS UPBROW3135 31.099991
    BOUNDRHS LOBROW3136 4.299999
    BOUNDRHS UPBROW3137 31.099991
    BOUNDRHS LOBROW3138 4.299999
    BOUNDRHS UPBROW3139 31.099991
    BOUNDRHS LOBROW3140 4.299999
    BOUNDRHS UPBROW3141 31.099991
    BOUNDRHS LOBROW3142 4.299999
    BOUNDRHS UPBROW3143 31.099991
    BOUNDRHS LOBROW3144 0.000000
    BOUNDRHS UPBROW3145 0.770000
    BOUNDRHS LOBROW3146 0.000000
    BOUNDRHS UPBROW3147 0.770000
    BOUNDRHS LOBROW3148 0.000000
    BOUNDRHS UPBROW3149 0.770000
    BOUNDRHS LOBROW3150 0.000000
    BOUNDRHS UPBROW3151 0.770000
    BOUNDRHS LOBROW3152 0.000000
    BOUNDRHS UPBROW3153 0.770000
    BOUNDRHS LOBROW3154 0.000000
    BOUNDRHS UPBROW3155 0.770000
    BOUNDRHS LOBROW3156 0.000000
    BOUNDRHS UPBROW3157 0.770000
    BOUNDRHS LOBROW3158 0.000000
    BOUNDRHS UPBROW3159 0.770000
    BOUNDRHS LOBROW3160 0.000000
    BOUNDRHS UPBROW3161 0.070000
    BOUNDRHS LOBROW3162 0.000000
    BOUNDRHS UPBROW3163 0.070000
    BOUNDRHS LOBROW3164 0.000000
    BOUNDRHS UPBROW3165 0.070000
    BOUNDRHS LOBROW3166 0.000000
    BOUNDRHS UPBROW3167 0.070000
    BOUNDRHS LOBROW3168 0.000000
    BOUNDRHS UPBROW3169 0.070000
    BOUNDRHS LOBROW3170 0.000000
    BOUNDRHS UPBROW3171 0.070000
    BOUNDRHS LOBROW3172 0.000000
    BOUNDRHS UPBROW3173 0.070000
    BOUNDRHS LOBROW3174 0.000000
    BOUNDRHS UPBROW3175 0.070000
    BOUNDRHS LOBROW3176 0.000000
    BOUNDRHS UPBROW3177 0.200000
    BOUNDRHS LOBROW3178 0.000000
    BOUNDRHS UPBROW3179 0.200000
    BOUNDRHS LOBROW3180 0.000000
    BOUNDRHS UPBROW3181 0.200000
    BOUNDRHS LOBROW3182 0.000000
    BOUNDRHS UPBROW3183 0.200000
    BOUNDRHS LOBROW3184 0.000000
    BOUNDRHS UPBROW3185 0.200000
    BOUNDRHS LOBROW3186 0.000000
    BOUNDRHS UPBROW3187 0.200000
    BOUNDRHS LOBROW3188 0.000000
    BOUNDRHS UPBROW3189 0.200000
    BOUNDRHS LOBROW3190 0.000000
    BOUNDRHS UPBROW3191 0.200000
    BOUNDRHS LOBROW3192 0.000000
    BOUNDRHS UPBROW3193 21.500000
    BOUNDRHS LOBROW3194 0.000000
    BOUNDRHS UPBROW3195 21.500000
    BOUNDRHS LOBROW3196 0.000000
    BOUNDRHS UPBROW3197 21.500000
    BOUNDRHS LOBROW3198 0.000000
    BOUNDRHS UPBROW3199 21.500000
    BOUNDRHS LOBROW3200 0.000000
    BOUNDRHS UPBROW3201 21.500000
    BOUNDRHS LOBROW3202 0.000000
    BOUNDRHS UPBROW3203 21.500000
    BOUNDRHS LOBROW3204 0.000000
    BOUNDRHS UPBROW3205 21.500000
    BOUNDRHS LOBROW3206 0.000000
    BOUNDRHS UPBROW3207 21.500000
    BOUNDRHS LOBROW3208 16.899994
    BOUNDRHS UPBROW3209 47.699997
    BOUNDRHS LOBROW3210 16.899994
    BOUNDRHS UPBROW3211 47.699997
    BOUNDRHS LOBROW3212 16.899994
    BOUNDRHS UPBROW3213 47.699997
    BOUNDRHS LOBROW3214 16.899994
    BOUNDRHS UPBROW3215 47.699997
    BOUNDRHS LOBROW3216 16.899994
    BOUNDRHS UPBROW3217 47.699997
    BOUNDRHS LOBROW3218 16.899994
    BOUNDRHS UPBROW3219 47.699997
    BOUNDRHS LOBROW3220 16.899994
    BOUNDRHS UPBROW3221 47.699997
    BOUNDRHS LOBROW3222 16.899994
    BOUNDRHS UPBROW3223 47.699997
    BOUNDRHS LOBROW3224 15.200000
    BOUNDRHS UPBROW3225 42.799988
    BOUNDRHS LOBROW3226 15.200000
    BOUNDRHS UPBROW3227 42.799988
    BOUNDRHS LOBROW3228 15.200000
    BOUNDRHS UPBROW3229 42.799988
    BOUNDRHS LOBROW3230 15.200000
    BOUNDRHS UPBROW3231 42.799988
    BOUNDRHS LOBROW3232 15.200000
    BOUNDRHS UPBROW3233 42.799988
    BOUNDRHS LOBROW3234 15.200000
    BOUNDRHS UPBROW3235 42.799988
    BOUNDRHS LOBROW3236 15.200000
    BOUNDRHS UPBROW3237 42.799988
    BOUNDRHS LOBROW3238 15.200000
    BOUNDRHS UPBROW3239 42.799988
    BOUNDRHS LOBROW3240 16.799988
    BOUNDRHS UPBROW3241 91.099991
    BOUNDRHS LOBROW3242 16.799988
    BOUNDRHS UPBROW3243 91.099991
    BOUNDRHS LOBROW3244 16.799988
    BOUNDRHS UPBROW3245 91.099991
    BOUNDRHS LOBROW3246 16.799988
    BOUNDRHS UPBROW3247 91.099991
    BOUNDRHS LOBROW3248 16.799988
    BOUNDRHS UPBROW3249 91.099991
    BOUNDRHS LOBROW3250 16.799988
    BOUNDRHS UPBROW3251 91.099991
    BOUNDRHS LOBROW3252 16.799988
    BOUNDRHS UPBROW3253 91.099991
    BOUNDRHS LOBROW3254 16.799988
    BOUNDRHS UPBROW3255 91.099991
    BOUNDRHS LOBROW3256 143.000000
    BOUNDRHS UPBROW3257 299.000000
    BOUNDRHS LOBROW3258 143.000000
    BOUNDRHS UPBROW3259 299.000000
    BOUNDRHS LOBROW3260 143.000000
    BOUNDRHS UPBROW3261 299.000000
    BOUNDRHS LOBROW3262 143.000000
    BOUNDRHS UPBROW3263 299.000000
    BOUNDRHS LOBROW3264 143.000000
    BOUNDRHS UPBROW3265 299.000000
    BOUNDRHS LOBROW3266 143.000000
    BOUNDRHS UPBROW3267 299.000000
    BOUNDRHS LOBROW3268 143.000000
    BOUNDRHS UPBROW3269 299.000000
    BOUNDRHS LOBROW3270 143.000000
    BOUNDRHS UPBROW3271 299.000000
    BOUNDRHS LOBROW3272 0.000000
    BOUNDRHS UPBROW3273 0.200000
    BOUNDRHS LOBROW3274 0.000000
    BOUNDRHS UPBROW3275 0.200000
    BOUNDRHS LOBROW3276 0.000000
    BOUNDRHS UPBROW3277 0.200000
    BOUNDRHS LOBROW3278 0.000000
    BOUNDRHS UPBROW3279 0.200000
    BOUNDRHS LOBROW3280 0.000000
    BOUNDRHS UPBROW3281 0.200000
    BOUNDRHS LOBROW3282 0.000000
    BOUNDRHS UPBROW3283 0.200000
    BOUNDRHS LOBROW3284 0.000000
    BOUNDRHS UPBROW3285 0.200000
    BOUNDRHS LOBROW3286 0.000000
    BOUNDRHS UPBROW3287 0.200000
    BOUNDRHS LOBROW3288 5.799999
    BOUNDRHS UPBROW3289 12.299999
    BOUNDRHS LOBROW3290 5.799999
    BOUNDRHS UPBROW3291 12.299999
    BOUNDRHS LOBROW3292 5.799999
    BOUNDRHS UPBROW3293 12.299999
    BOUNDRHS LOBROW3294 5.799999
    BOUNDRHS UPBROW3295 12.299999
    BOUNDRHS LOBROW3296 5.799999
    BOUNDRHS UPBROW3297 12.299999
    BOUNDRHS LOBROW3298 5.799999
    BOUNDRHS UPBROW3299 12.299999
    BOUNDRHS LOBROW3300 5.799999
    BOUNDRHS UPBROW3301 12.299999
    BOUNDRHS LOBROW3302 5.799999
    BOUNDRHS UPBROW3303 12.299999
    BOUNDRHS LOBROW3304 8.099999
    BOUNDRHS UPBROW3305 12.400000
    BOUNDRHS LOBROW3306 8.099999
    BOUNDRHS UPBROW3307 12.400000
    BOUNDRHS LOBROW3308 8.099999
    BOUNDRHS UPBROW3309 12.400000
    BOUNDRHS LOBROW3310 8.099999
    BOUNDRHS UPBROW3311 12.400000
    BOUNDRHS LOBROW3312 8.099999
    BOUNDRHS UPBROW3313 12.400000
    BOUNDRHS LOBROW3314 8.099999
    BOUNDRHS UPBROW3315 12.400000
    BOUNDRHS LOBROW3316 8.099999
    BOUNDRHS UPBROW3317 12.400000
    BOUNDRHS LOBROW3318 8.099999
    BOUNDRHS UPBROW3319 12.400000
    BOUNDRHS LOBROW3320 0.800000
    BOUNDRHS UPBROW3321 6.799999
    BOUNDRHS LOBROW3322 0.800000
    BOUNDRHS UPBROW3323 6.799999
    BOUNDRHS LOBROW3324 0.800000
    BOUNDRHS UPBROW3325 6.799999
    BOUNDRHS LOBROW3326 0.800000
    BOUNDRHS UPBROW3327 6.799999
    BOUNDRHS LOBROW3328 0.800000
    BOUNDRHS UPBROW3329 6.799999
    BOUNDRHS LOBROW3330 0.800000
    BOUNDRHS UPBROW3331 6.799999
    BOUNDRHS LOBROW3332 0.800000
    BOUNDRHS UPBROW3333 6.799999
    BOUNDRHS LOBROW3334 0.800000
    BOUNDRHS UPBROW3335 6.799999
    BOUNDRHS LOBROW3336 25.199997
    BOUNDRHS UPBROW3337 145.000000
    BOUNDRHS LOBROW3338 25.199997
    BOUNDRHS UPBROW3339 145.000000
    BOUNDRHS LOBROW3340 25.199997
    BOUNDRHS UPBROW3341 145.000000
    BOUNDRHS LOBROW3342 25.199997
    BOUNDRHS UPBROW3343 145.000000
    BOUNDRHS LOBROW3344 25.199997
    BOUNDRHS UPBROW3345 145.000000
    BOUNDRHS LOBROW3346 25.199997
    BOUNDRHS UPBROW3347 145.000000
    BOUNDRHS LOBROW3348 25.199997
    BOUNDRHS UPBROW3349 145.000000
    BOUNDRHS LOBROW3350 25.199997
    BOUNDRHS UPBROW3351 145.000000
    BOUNDRHS LOBROW3352 0.000000
    BOUNDRHS UPBROW3353 3.400000
    BOUNDRHS LOBROW3354 0.000000
    BOUNDRHS UPBROW3355 3.400000
    BOUNDRHS LOBROW3356 0.000000
    BOUNDRHS UPBROW3357 3.400000
    BOUNDRHS LOBROW3358 0.000000
    BOUNDRHS UPBROW3359 3.400000
    BOUNDRHS LOBROW3360 0.000000
    BOUNDRHS UPBROW3361 3.400000
    BOUNDRHS LOBROW3362 0.000000
    BOUNDRHS UPBROW3363 3.400000
    BOUNDRHS LOBROW3364 0.000000
    BOUNDRHS UPBROW3365 3.400000
    BOUNDRHS LOBROW3366 0.000000
    BOUNDRHS UPBROW3367 3.400000
    BOUNDRHS LOBROW3368 0.700000
    BOUNDRHS UPBROW3369 12.700000
    BOUNDRHS LOBROW3370 0.700000
    BOUNDRHS UPBROW3371 12.700000
    BOUNDRHS LOBROW3372 0.700000
    BOUNDRHS UPBROW3373 12.700000
    BOUNDRHS LOBROW3374 0.700000
    BOUNDRHS UPBROW3375 12.700000
    BOUNDRHS LOBROW3376 0.700000
    BOUNDRHS UPBROW3377 12.700000
    BOUNDRHS LOBROW3378 0.700000
    BOUNDRHS UPBROW3379 12.700000
    BOUNDRHS LOBROW3380 0.700000
    BOUNDRHS UPBROW3381 12.700000
    BOUNDRHS LOBROW3382 0.700000
    BOUNDRHS UPBROW3383 12.700000
    BOUNDRHS LOBROW3384 22.500000
    BOUNDRHS UPBROW3385 55.199997
    BOUNDRHS LOBROW3386 22.500000
    BOUNDRHS UPBROW3387 55.199997
    BOUNDRHS LOBROW3388 22.500000
    BOUNDRHS UPBROW3389 55.199997
    BOUNDRHS LOBROW3390 22.500000
    BOUNDRHS UPBROW3391 55.199997
    BOUNDRHS LOBROW3392 22.500000
    BOUNDRHS UPBROW3393 55.199997
    BOUNDRHS LOBROW3394 22.500000
    BOUNDRHS UPBROW3395 55.199997
    BOUNDRHS LOBROW3396 22.500000
    BOUNDRHS UPBROW3397 55.199997
    BOUNDRHS LOBROW3398 22.500000
    BOUNDRHS UPBROW3399 55.199997
    BOUNDRHS LOBROW3400 1147.000000
    BOUNDRHS UPBROW3401 1676.000000
    BOUNDRHS LOBROW3402 1147.000000
    BOUNDRHS UPBROW3403 1676.000000
    BOUNDRHS LOBROW3404 1147.000000
    BOUNDRHS UPBROW3405 1676.000000
    BOUNDRHS LOBROW3406 1147.000000
    BOUNDRHS UPBROW3407 1676.000000
    BOUNDRHS LOBROW3408 1147.000000
    BOUNDRHS UPBROW3409 1676.000000
    BOUNDRHS LOBROW3410 1147.000000
    BOUNDRHS UPBROW3411 1676.000000
    BOUNDRHS LOBROW3412 1147.000000
    BOUNDRHS UPBROW3413 1676.000000
    BOUNDRHS LOBROW3414 1147.000000
    BOUNDRHS UPBROW3415 1676.000000
    BOUNDRHS LOBROW3416 90.299988
    BOUNDRHS UPBROW3417 144.199997
    BOUNDRHS LOBROW3418 90.299988
    BOUNDRHS UPBROW3419 144.199997
    BOUNDRHS LOBROW3420 90.299988
    BOUNDRHS UPBROW3421 144.199997
    BOUNDRHS LOBROW3422 90.299988
    BOUNDRHS UPBROW3423 144.199997
    BOUNDRHS LOBROW3424 90.299988
    BOUNDRHS UPBROW3425 144.199997
    BOUNDRHS LOBROW3426 90.299988
    BOUNDRHS UPBROW3427 144.199997
    BOUNDRHS LOBROW3428 90.299988
    BOUNDRHS UPBROW3429 144.199997
    BOUNDRHS LOBROW3430 90.299988
    BOUNDRHS UPBROW3431 144.199997
    BOUNDRHS LOBROW3432 210.699997
    BOUNDRHS UPBROW3433 310.199951
    BOUNDRHS LOBROW3434 210.699997
    BOUNDRHS UPBROW3435 310.199951
    BOUNDRHS LOBROW3436 210.699997
    BOUNDRHS UPBROW3437 310.199951
    BOUNDRHS LOBROW3438 210.699997
    BOUNDRHS UPBROW3439 310.199951
    BOUNDRHS LOBROW3440 210.699997
    BOUNDRHS UPBROW3441 310.199951
    BOUNDRHS LOBROW3442 210.699997
    BOUNDRHS UPBROW3443 310.199951
    BOUNDRHS LOBROW3444 210.699997
    BOUNDRHS UPBROW3445 310.199951
    BOUNDRHS LOBROW3446 210.699997
    BOUNDRHS UPBROW3447 310.199951
    BOUNDRHS LOBROW3448 9.500000
    BOUNDRHS UPBROW3449 19.699997
    BOUNDRHS LOBROW3450 9.500000
    BOUNDRHS UPBROW3451 19.699997
    BOUNDRHS LOBROW3452 9.500000
    BOUNDRHS UPBROW3453 19.699997
    BOUNDRHS LOBROW3454 9.500000
    BOUNDRHS UPBROW3455 19.699997
    BOUNDRHS LOBROW3456 9.500000
    BOUNDRHS UPBROW3457 19.699997
    BOUNDRHS LOBROW3458 9.500000
    BOUNDRHS UPBROW3459 19.699997
    BOUNDRHS LOBROW3460 9.500000
    BOUNDRHS UPBROW3461 19.699997
    BOUNDRHS LOBROW3462 9.500000
    BOUNDRHS UPBROW3463 19.699997
    BOUNDRHS LOBROW3464 43.500000
    BOUNDRHS UPBROW3465 89.099991
    BOUNDRHS LOBROW3466 43.500000
    BOUNDRHS UPBROW3467 89.099991
    BOUNDRHS LOBROW3468 43.500000
    BOUNDRHS UPBROW3469 89.099991
    BOUNDRHS LOBROW3470 43.500000
    BOUNDRHS UPBROW3471 89.099991
    BOUNDRHS LOBROW3472 43.500000
    BOUNDRHS UPBROW3473 89.099991
    BOUNDRHS LOBROW3474 43.500000
    BOUNDRHS UPBROW3475 89.099991
    BOUNDRHS LOBROW3476 43.500000
    BOUNDRHS UPBROW3477 89.099991
    BOUNDRHS LOBROW3478 43.500000
    BOUNDRHS UPBROW3479 89.099991
    BOUNDRHS LOBROW3480 3.700000
    BOUNDRHS UPBROW3481 11.599999
    BOUNDRHS LOBROW3482 3.700000
    BOUNDRHS UPBROW3483 11.599999
    BOUNDRHS LOBROW3484 3.700000
    BOUNDRHS UPBROW3485 11.599999
    BOUNDRHS LOBROW3486 3.700000
    BOUNDRHS UPBROW3487 11.599999
    BOUNDRHS LOBROW3488 3.700000
    BOUNDRHS UPBROW3489 11.599999
    BOUNDRHS LOBROW3490 3.700000
    BOUNDRHS UPBROW3491 11.599999
    BOUNDRHS LOBROW3492 3.700000
    BOUNDRHS UPBROW3493 11.599999
    BOUNDRHS LOBROW3494 3.700000
    BOUNDRHS UPBROW3495 11.599999
    BOUNDRHS LOBROW3496 7.599999
    BOUNDRHS UPBROW3497 22.500000
    BOUNDRHS LOBROW3498 7.599999
    BOUNDRHS UPBROW3499 22.500000
    BOUNDRHS LOBROW3500 7.599999
    BOUNDRHS UPBROW3501 22.500000
    BOUNDRHS LOBROW3502 7.599999
    BOUNDRHS UPBROW3503 22.500000
    BOUNDRHS LOBROW3504 7.599999
    BOUNDRHS UPBROW3505 22.500000
    BOUNDRHS LOBROW3506 7.599999
    BOUNDRHS UPBROW3507 22.500000
    BOUNDRHS LOBROW3508 7.599999
    BOUNDRHS UPBROW3509 22.500000
    BOUNDRHS LOBROW3510 7.599999
    BOUNDRHS UPBROW3511 22.500000
    BOUNDRHS LOBROW3512 25.500000
    BOUNDRHS UPBROW3513 52.299988
    BOUNDRHS LOBROW3514 25.500000
    BOUNDRHS UPBROW3515 52.299988
    BOUNDRHS LOBROW3516 25.500000
    BOUNDRHS UPBROW3517 52.299988
    BOUNDRHS LOBROW3518 25.500000
    BOUNDRHS UPBROW3519 52.299988
    BOUNDRHS LOBROW3520 25.500000
    BOUNDRHS UPBROW3521 52.299988
    BOUNDRHS LOBROW3522 25.500000
    BOUNDRHS UPBROW3523 52.299988
    BOUNDRHS LOBROW3524 25.500000
    BOUNDRHS UPBROW3525 52.299988
    BOUNDRHS LOBROW3526 25.500000
    BOUNDRHS UPBROW3527 52.299988
    BOUNDRHS LOBROW3528 16.899994
    BOUNDRHS UPBROW3529 36.000000
    BOUNDRHS LOBROW3530 16.899994
    BOUNDRHS UPBROW3531 36.000000
    BOUNDRHS LOBROW3532 16.899994
    BOUNDRHS UPBROW3533 36.000000
    BOUNDRHS LOBROW3534 16.899994
    BOUNDRHS UPBROW3535 36.000000
    BOUNDRHS LOBROW3536 16.899994
    BOUNDRHS UPBROW3537 36.000000
    BOUNDRHS LOBROW3538 16.899994
    BOUNDRHS UPBROW3539 36.000000
    BOUNDRHS LOBROW3540 16.899994
    BOUNDRHS UPBROW3541 36.000000
    BOUNDRHS LOBROW3542 16.899994
    BOUNDRHS UPBROW3543 36.000000
    BOUNDRHS LOBROW3544 1.200000
    BOUNDRHS UPBROW3545 4.799999
    BOUNDRHS LOBROW3546 1.200000
    BOUNDRHS UPBROW3547 4.799999
    BOUNDRHS LOBROW3548 1.200000
    BOUNDRHS UPBROW3549 4.799999
    BOUNDRHS LOBROW3550 1.200000
    BOUNDRHS UPBROW3551 4.799999
    BOUNDRHS LOBROW3552 1.200000
    BOUNDRHS UPBROW3553 4.799999
    BOUNDRHS LOBROW3554 1.200000
    BOUNDRHS UPBROW3555 4.799999
    BOUNDRHS LOBROW3556 1.200000
    BOUNDRHS UPBROW3557 4.799999
    BOUNDRHS LOBROW3558 1.200000
    BOUNDRHS UPBROW3559 4.799999
    BOUNDRHS LOBROW3560 609.199951
    BOUNDRHS UPBROW3561 1083.000000
    BOUNDRHS LOBROW3562 609.199951
    BOUNDRHS UPBROW3563 1083.000000
    BOUNDRHS LOBROW3564 609.199951
    BOUNDRHS UPBROW3565 1083.000000
    BOUNDRHS LOBROW3566 609.199951
    BOUNDRHS UPBROW3567 1083.000000
    BOUNDRHS LOBROW3568 609.199951
    BOUNDRHS UPBROW3569 1083.000000
    BOUNDRHS LOBROW3570 609.199951
    BOUNDRHS UPBROW3571 1083.000000
    BOUNDRHS LOBROW3572 609.199951
    BOUNDRHS UPBROW3573 1083.000000
    BOUNDRHS LOBROW3574 609.199951
    BOUNDRHS UPBROW3575 1083.000000
    BOUNDRHS LOBROW3576 25.599991
    BOUNDRHS UPBROW3577 42.199997
    BOUNDRHS LOBROW3578 25.599991
    BOUNDRHS UPBROW3579 42.199997
    BOUNDRHS LOBROW3580 25.599991
    BOUNDRHS UPBROW3581 42.199997
    BOUNDRHS LOBROW3582 25.599991
    BOUNDRHS UPBROW3583 42.199997
    BOUNDRHS LOBROW3584 25.599991
    BOUNDRHS UPBROW3585 42.199997
    BOUNDRHS LOBROW3586 25.599991
    BOUNDRHS UPBROW3587 42.199997
    BOUNDRHS LOBROW3588 25.599991
    BOUNDRHS UPBROW3589 42.199997
    BOUNDRHS LOBROW3590 25.599991
    BOUNDRHS UPBROW3591 42.199997
    BOUNDRHS LOBROW3592 44.000000
    BOUNDRHS UPBROW3593 169.699997
    BOUNDRHS LOBROW3594 44.000000
    BOUNDRHS UPBROW3595 169.699997
    BOUNDRHS LOBROW3596 44.000000
    BOUNDRHS UPBROW3597 169.699997
    BOUNDRHS LOBROW3598 44.000000
    BOUNDRHS UPBROW3599 169.699997
    BOUNDRHS LOBROW3600 44.000000
    BOUNDRHS UPBROW3601 169.699997
    BOUNDRHS LOBROW3602 44.000000
    BOUNDRHS UPBROW3603 169.699997
    BOUNDRHS LOBROW3604 44.000000
    BOUNDRHS UPBROW3605 169.699997
    BOUNDRHS LOBROW3606 44.000000
    BOUNDRHS UPBROW3607 169.699997
    BOUNDRHS LOBROW3608 7.099999
    BOUNDRHS UPBROW3609 12.500000
    BOUNDRHS LOBROW3610 7.099999
    BOUNDRHS UPBROW3611 12.500000
    BOUNDRHS LOBROW3612 7.099999
    BOUNDRHS UPBROW3613 12.500000
    BOUNDRHS LOBROW3614 7.099999
    BOUNDRHS UPBROW3615 12.500000
    BOUNDRHS LOBROW3616 7.099999
    BOUNDRHS UPBROW3617 12.500000
    BOUNDRHS LOBROW3618 7.099999
    BOUNDRHS UPBROW3619 12.500000
    BOUNDRHS LOBROW3620 7.099999
    BOUNDRHS UPBROW3621 12.500000
    BOUNDRHS LOBROW3622 7.099999
    BOUNDRHS UPBROW3623 12.500000
    BOUNDRHS LOBROW3624 9.500000
    BOUNDRHS UPBROW3625 27.199997
    BOUNDRHS LOBROW3626 9.500000
    BOUNDRHS UPBROW3627 27.199997
    BOUNDRHS LOBROW3628 9.500000
    BOUNDRHS UPBROW3629 27.199997
    BOUNDRHS LOBROW3630 9.500000
    BOUNDRHS UPBROW3631 27.199997
    BOUNDRHS LOBROW3632 9.500000
    BOUNDRHS UPBROW3633 27.199997
    BOUNDRHS LOBROW3634 9.500000
    BOUNDRHS UPBROW3635 27.199997
    BOUNDRHS LOBROW3636 9.500000
    BOUNDRHS UPBROW3637 27.199997
    BOUNDRHS LOBROW3638 9.500000
    BOUNDRHS UPBROW3639 27.199997
    BOUNDRHS LOBROW3640 0.800000
    BOUNDRHS UPBROW3641 3.200000
    BOUNDRHS LOBROW3642 0.800000
    BOUNDRHS UPBROW3643 3.200000
    BOUNDRHS LOBROW3644 0.800000
    BOUNDRHS UPBROW3645 3.200000
    BOUNDRHS LOBROW3646 0.800000
    BOUNDRHS UPBROW3647 3.200000
    BOUNDRHS LOBROW3648 0.800000
    BOUNDRHS UPBROW3649 3.200000
    BOUNDRHS LOBROW3650 0.800000
    BOUNDRHS UPBROW3651 3.200000
    BOUNDRHS LOBROW3652 0.800000
    BOUNDRHS UPBROW3653 3.200000
    BOUNDRHS LOBROW3654 0.800000
    BOUNDRHS UPBROW3655 3.200000
    BOUNDRHS LOBROW3656 1.299999
    BOUNDRHS UPBROW3657 2.799999
    BOUNDRHS LOBROW3658 1.299999
    BOUNDRHS UPBROW3659 2.799999
    BOUNDRHS LOBROW3660 1.299999
    BOUNDRHS UPBROW3661 2.799999
    BOUNDRHS LOBROW3662 1.299999
    BOUNDRHS UPBROW3663 2.799999
    BOUNDRHS LOBROW3664 1.299999
    BOUNDRHS UPBROW3665 2.799999
    BOUNDRHS LOBROW3666 1.299999
    BOUNDRHS UPBROW3667 2.799999
    BOUNDRHS LOBROW3668 1.299999
    BOUNDRHS UPBROW3669 2.799999
    BOUNDRHS LOBROW3670 1.299999
    BOUNDRHS UPBROW3671 2.799999
    BOUNDRHS LOBROW3672 8.900000
    BOUNDRHS UPBROW3673 34.699997
    BOUNDRHS LOBROW3674 8.900000
    BOUNDRHS UPBROW3675 34.699997
    BOUNDRHS LOBROW3676 8.900000
    BOUNDRHS UPBROW3677 34.699997
    BOUNDRHS LOBROW3678 8.900000
    BOUNDRHS UPBROW3679 34.699997
    BOUNDRHS LOBROW3680 8.900000
    BOUNDRHS UPBROW3681 34.699997
    BOUNDRHS LOBROW3682 8.900000
    BOUNDRHS UPBROW3683 34.699997
    BOUNDRHS LOBROW3684 8.900000
    BOUNDRHS UPBROW3685 34.699997
    BOUNDRHS LOBROW3686 8.900000
    BOUNDRHS UPBROW3687 34.699997
    BOUNDRHS LOBROW3688 4.700000
    BOUNDRHS UPBROW3689 15.900000
    BOUNDRHS LOBROW3690 4.700000
    BOUNDRHS UPBROW3691 15.900000
    BOUNDRHS LOBROW3692 4.700000
    BOUNDRHS UPBROW3693 15.900000
    BOUNDRHS LOBROW3694 4.700000
    BOUNDRHS UPBROW3695 15.900000
    BOUNDRHS LOBROW3696 4.700000
    BOUNDRHS UPBROW3697 15.900000
    BOUNDRHS LOBROW3698 4.700000
    BOUNDRHS UPBROW3699 15.900000
    BOUNDRHS LOBROW3700 4.700000
    BOUNDRHS UPBROW3701 15.900000
    BOUNDRHS LOBROW3702 4.700000
    BOUNDRHS UPBROW3703 15.900000
    BOUNDRHS LOBROW3704 23.899994
    BOUNDRHS UPBROW3705 119.000000
    BOUNDRHS LOBROW3706 23.899994
    BOUNDRHS UPBROW3707 119.000000
    BOUNDRHS LOBROW3708 23.899994
    BOUNDRHS UPBROW3709 119.000000
    BOUNDRHS LOBROW3710 23.899994
    BOUNDRHS UPBROW3711 119.000000
    BOUNDRHS LOBROW3712 23.899994
    BOUNDRHS UPBROW3713 119.000000
    BOUNDRHS LOBROW3714 23.899994
    BOUNDRHS UPBROW3715 119.000000
    BOUNDRHS LOBROW3716 23.899994
    BOUNDRHS UPBROW3717 119.000000
    BOUNDRHS LOBROW3718 23.899994
    BOUNDRHS UPBROW3719 119.000000
    BOUNDRHS LOBROW3720 21.299988
    BOUNDRHS UPBROW3721 43.699997
    BOUNDRHS LOBROW3722 21.299988
    BOUNDRHS UPBROW3723 43.699997
    BOUNDRHS LOBROW3724 21.299988
    BOUNDRHS UPBROW3725 43.699997
    BOUNDRHS LOBROW3726 21.299988
    BOUNDRHS UPBROW3727 43.699997
    BOUNDRHS LOBROW3728 21.299988
    BOUNDRHS UPBROW3729 43.699997
    BOUNDRHS LOBROW3730 21.299988
    BOUNDRHS UPBROW3731 43.699997
    BOUNDRHS LOBROW3732 21.299988
    BOUNDRHS UPBROW3733 43.699997
    BOUNDRHS LOBROW3734 21.299988
    BOUNDRHS UPBROW3735 43.699997
    BOUNDRHS LOBROW3736 0.000000
    BOUNDRHS UPBROW3737 11.400000
    BOUNDRHS LOBROW3738 0.000000
    BOUNDRHS UPBROW3739 11.400000
    BOUNDRHS LOBROW3740 0.000000
    BOUNDRHS UPBROW3741 11.400000
    BOUNDRHS LOBROW3742 0.000000
    BOUNDRHS UPBROW3743 11.400000
    BOUNDRHS LOBROW3744 0.000000
    BOUNDRHS UPBROW3745 11.400000
    BOUNDRHS LOBROW3746 0.000000
    BOUNDRHS UPBROW3747 11.400000
    BOUNDRHS LOBROW3748 0.000000
    BOUNDRHS UPBROW3749 11.400000
    BOUNDRHS LOBROW3750 0.000000
    BOUNDRHS UPBROW3751 11.400000
    BOUNDRHS LOBROW3752 146.899994
    BOUNDRHS UPBROW3753 299.199951
    BOUNDRHS LOBROW3754 146.899994
    BOUNDRHS UPBROW3755 299.199951
    BOUNDRHS LOBROW3756 146.899994
    BOUNDRHS UPBROW3757 299.199951
    BOUNDRHS LOBROW3758 146.899994
    BOUNDRHS UPBROW3759 299.199951
    BOUNDRHS LOBROW3760 146.899994
    BOUNDRHS UPBROW3761 299.199951
    BOUNDRHS LOBROW3762 146.899994
    BOUNDRHS UPBROW3763 299.199951
    BOUNDRHS LOBROW3764 146.899994
    BOUNDRHS UPBROW3765 299.199951
    BOUNDRHS LOBROW3766 146.899994
    BOUNDRHS UPBROW3767 299.199951
    BOUNDRHS LOBROW3768 1.599999
    BOUNDRHS UPBROW3769 9.900000
    BOUNDRHS LOBROW3770 1.599999
    BOUNDRHS UPBROW3771 9.900000
    BOUNDRHS LOBROW3772 1.599999
    BOUNDRHS UPBROW3773 9.900000
    BOUNDRHS LOBROW3774 1.599999
    BOUNDRHS UPBROW3775 9.900000
    BOUNDRHS LOBROW3776 1.599999
    BOUNDRHS UPBROW3777 9.900000
    BOUNDRHS LOBROW3778 1.599999
    BOUNDRHS UPBROW3779 9.900000
    BOUNDRHS LOBROW3780 1.599999
    BOUNDRHS UPBROW3781 9.900000
    BOUNDRHS LOBROW3782 1.599999
    BOUNDRHS UPBROW3783 9.900000
    BOUNDRHS LOBROW3784 9.700000
    BOUNDRHS UPBROW3785 34.899994
    BOUNDRHS LOBROW3786 9.700000
    BOUNDRHS UPBROW3787 34.899994
    BOUNDRHS LOBROW3788 9.700000
    BOUNDRHS UPBROW3789 34.899994
    BOUNDRHS LOBROW3790 9.700000
    BOUNDRHS UPBROW3791 34.899994
    BOUNDRHS LOBROW3792 9.700000
    BOUNDRHS UPBROW3793 34.899994
    BOUNDRHS LOBROW3794 9.700000
    BOUNDRHS UPBROW3795 34.899994
    BOUNDRHS LOBROW3796 9.700000
    BOUNDRHS UPBROW3797 34.899994
    BOUNDRHS LOBROW3798 9.700000
    BOUNDRHS UPBROW3799 34.899994
    BOUNDRHS LOBROW3800 0.000000
    BOUNDRHS UPBROW3801 0.260000
    BOUNDRHS LOBROW3802 0.000000
    BOUNDRHS UPBROW3803 0.260000
    BOUNDRHS LOBROW3804 0.000000
    BOUNDRHS UPBROW3805 0.260000
    BOUNDRHS LOBROW3806 0.000000
    BOUNDRHS UPBROW3807 0.260000
    BOUNDRHS LOBROW3808 0.000000
    BOUNDRHS UPBROW3809 0.260000
    BOUNDRHS LOBROW3810 0.000000
    BOUNDRHS UPBROW3811 0.260000
    BOUNDRHS LOBROW3812 0.000000
    BOUNDRHS UPBROW3813 0.260000
    BOUNDRHS LOBROW3814 0.000000
    BOUNDRHS UPBROW3815 0.260000
    BOUNDRHS LOBROW3816 0.000000
    BOUNDRHS UPBROW3817 0.036000
    BOUNDRHS LOBROW3818 0.000000
    BOUNDRHS UPBROW3819 0.036000
    BOUNDRHS LOBROW3820 0.000000
    BOUNDRHS UPBROW3821 0.036000
    BOUNDRHS LOBROW3822 0.000000
    BOUNDRHS UPBROW3823 0.036000
    BOUNDRHS LOBROW3824 0.000000
    BOUNDRHS UPBROW3825 0.036000
    BOUNDRHS LOBROW3826 0.000000
    BOUNDRHS UPBROW3827 0.036000
    BOUNDRHS LOBROW3828 0.000000
    BOUNDRHS UPBROW3829 0.036000
    BOUNDRHS LOBROW3830 0.000000
    BOUNDRHS UPBROW3831 0.036000
    BOUNDRHS LOBROW3832 9.200000
    BOUNDRHS UPBROW3833 13.000000
    BOUNDRHS LOBROW3834 9.200000
    BOUNDRHS UPBROW3835 13.000000
    BOUNDRHS LOBROW3836 9.200000
    BOUNDRHS UPBROW3837 13.000000
    BOUNDRHS LOBROW3838 9.200000
    BOUNDRHS UPBROW3839 13.000000
    BOUNDRHS LOBROW3840 9.200000
    BOUNDRHS UPBROW3841 13.000000
    BOUNDRHS LOBROW3842 9.200000
    BOUNDRHS UPBROW3843 13.000000
    BOUNDRHS LOBROW3844 9.200000
    BOUNDRHS UPBROW3845 13.000000
    BOUNDRHS LOBROW3846 9.200000
    BOUNDRHS UPBROW3847 13.000000
    BOUNDRHS LOBROW3848 1.799999
    BOUNDRHS UPBROW3849 25.000000
    BOUNDRHS LOBROW3850 1.799999
    BOUNDRHS UPBROW3851 25.000000
    BOUNDRHS LOBROW3852 1.799999
    BOUNDRHS UPBROW3853 25.000000
    BOUNDRHS LOBROW3854 1.799999
    BOUNDRHS UPBROW3855 25.000000
    BOUNDRHS LOBROW3856 1.799999
    BOUNDRHS UPBROW3857 25.000000
    BOUNDRHS LOBROW3858 1.799999
    BOUNDRHS UPBROW3859 25.000000
    BOUNDRHS LOBROW3860 1.799999
    BOUNDRHS UPBROW3861 25.000000
    BOUNDRHS LOBROW3862 1.799999
    BOUNDRHS UPBROW3863 25.000000
    BOUNDRHS LOBROW3864 0.200000
    BOUNDRHS UPBROW3865 3.200000
    BOUNDRHS LOBROW3866 0.200000
    BOUNDRHS UPBROW3867 3.200000
    BOUNDRHS LOBROW3868 0.200000
    BOUNDRHS UPBROW3869 3.200000
    BOUNDRHS LOBROW3870 0.200000
    BOUNDRHS UPBROW3871 3.200000
    BOUNDRHS LOBROW3872 0.200000
    BOUNDRHS UPBROW3873 3.200000
    BOUNDRHS LOBROW3874 0.200000
    BOUNDRHS UPBROW3875 3.200000
    BOUNDRHS LOBROW3876 0.200000
    BOUNDRHS UPBROW3877 3.200000
    BOUNDRHS LOBROW3878 0.200000
    BOUNDRHS UPBROW3879 3.200000
    BOUNDRHS LOBROW3880 0.000000
    BOUNDRHS UPBROW3881 1.900000
    BOUNDRHS LOBROW3882 0.000000
    BOUNDRHS UPBROW3883 1.900000
    BOUNDRHS LOBROW3884 0.000000
    BOUNDRHS UPBROW3885 1.900000
    BOUNDRHS LOBROW3886 0.000000
    BOUNDRHS UPBROW3887 1.900000
    BOUNDRHS LOBROW3888 0.000000
    BOUNDRHS UPBROW3889 1.900000
    BOUNDRHS LOBROW3890 0.000000
    BOUNDRHS UPBROW3891 1.900000
    BOUNDRHS LOBROW3892 0.000000
    BOUNDRHS UPBROW3893 1.900000
    BOUNDRHS LOBROW3894 0.000000
    BOUNDRHS UPBROW3895 1.900000
    BOUNDRHS LOBROW3896 10.099999
    BOUNDRHS UPBROW3897 52.000000
    BOUNDRHS LOBROW3898 10.099999
    BOUNDRHS UPBROW3899 52.000000
    BOUNDRHS LOBROW3900 10.099999
    BOUNDRHS UPBROW3901 52.000000
    BOUNDRHS LOBROW3902 10.099999
    BOUNDRHS UPBROW3903 52.000000
    BOUNDRHS LOBROW3904 10.099999
    BOUNDRHS UPBROW3905 52.000000
    BOUNDRHS LOBROW3906 10.099999
    BOUNDRHS UPBROW3907 52.000000
    BOUNDRHS LOBROW3908 10.099999
    BOUNDRHS UPBROW3909 52.000000
    BOUNDRHS LOBROW3910 10.099999
    BOUNDRHS UPBROW3911 52.000000
    BOUNDRHS LOBROW3912 0.000000
    BOUNDRHS UPBROW3913 4.000000
    BOUNDRHS LOBROW3914 0.000000
    BOUNDRHS UPBROW3915 4.000000
    BOUNDRHS LOBROW3916 0.000000
    BOUNDRHS UPBROW3917 4.000000
    BOUNDRHS LOBROW3918 0.000000
    BOUNDRHS UPBROW3919 4.000000
    BOUNDRHS LOBROW3920 0.000000
    BOUNDRHS UPBROW3921 4.000000
    BOUNDRHS LOBROW3922 0.000000
    BOUNDRHS UPBROW3923 4.000000
    BOUNDRHS LOBROW3924 0.000000
    BOUNDRHS UPBROW3925 4.000000
    BOUNDRHS LOBROW3926 0.000000
    BOUNDRHS UPBROW3927 4.000000
    BOUNDRHS LOBROW3928 0.000000
    BOUNDRHS UPBROW3929 3.099999
    BOUNDRHS LOBROW3930 0.000000
    BOUNDRHS UPBROW3931 3.099999
    BOUNDRHS LOBROW3932 0.000000
    BOUNDRHS UPBROW3933 3.099999
    BOUNDRHS LOBROW3934 0.000000
    BOUNDRHS UPBROW3935 3.099999
    BOUNDRHS LOBROW3936 0.000000
    BOUNDRHS UPBROW3937 3.099999
    BOUNDRHS LOBROW3938 0.000000
    BOUNDRHS UPBROW3939 3.099999
    BOUNDRHS LOBROW3940 0.000000
    BOUNDRHS UPBROW3941 3.099999
    BOUNDRHS LOBROW3942 0.000000
    BOUNDRHS UPBROW3943 3.099999
    BOUNDRHS LOBROW3944 0.000000
    BOUNDRHS UPBROW3945 2.400000
    BOUNDRHS LOBROW3946 0.000000
    BOUNDRHS UPBROW3947 2.400000
    BOUNDRHS LOBROW3948 0.000000
    BOUNDRHS UPBROW3949 2.400000
    BOUNDRHS LOBROW3950 0.000000
    BOUNDRHS UPBROW3951 2.400000
    BOUNDRHS LOBROW3952 0.000000
    BOUNDRHS UPBROW3953 2.400000
    BOUNDRHS LOBROW3954 0.000000
    BOUNDRHS UPBROW3955 2.400000
    BOUNDRHS LOBROW3956 0.000000
    BOUNDRHS UPBROW3957 2.400000
    BOUNDRHS LOBROW3958 0.000000
    BOUNDRHS UPBROW3959 2.400000
    BOUNDRHS LOBROW3960 0.000000
    BOUNDRHS UPBROW3961 2.599999
    BOUNDRHS LOBROW3962 0.000000
    BOUNDRHS UPBROW3963 2.599999
    BOUNDRHS LOBROW3964 0.000000
    BOUNDRHS UPBROW3965 2.599999
    BOUNDRHS LOBROW3966 0.000000
    BOUNDRHS UPBROW3967 2.599999
    BOUNDRHS LOBROW3968 0.000000
    BOUNDRHS UPBROW3969 2.599999
    BOUNDRHS LOBROW3970 0.000000
    BOUNDRHS UPBROW3971 2.599999
    BOUNDRHS LOBROW3972 0.000000
    BOUNDRHS UPBROW3973 2.599999
    BOUNDRHS LOBROW3974 0.000000
    BOUNDRHS UPBROW3975 2.599999
    BOUNDRHS LOBROW3976 0.700000
    BOUNDRHS UPBROW3977 15.400000
    BOUNDRHS LOBROW3978 0.700000
    BOUNDRHS UPBROW3979 15.400000
    BOUNDRHS LOBROW3980 0.700000
    BOUNDRHS UPBROW3981 15.400000
    BOUNDRHS LOBROW3982 0.700000
    BOUNDRHS UPBROW3983 15.400000
    BOUNDRHS LOBROW3984 0.700000
    BOUNDRHS UPBROW3985 15.400000
    BOUNDRHS LOBROW3986 0.700000
    BOUNDRHS UPBROW3987 15.400000
    BOUNDRHS LOBROW3988 0.700000
    BOUNDRHS UPBROW3989 15.400000
    BOUNDRHS LOBROW3990 0.700000
    BOUNDRHS UPBROW3991 15.400000
    BOUNDRHS LOBROW3992 0.200000
    BOUNDRHS UPBROW3993 3.400000
    BOUNDRHS LOBROW3994 0.200000
    BOUNDRHS UPBROW3995 3.400000
    BOUNDRHS LOBROW3996 0.200000
    BOUNDRHS UPBROW3997 3.400000
    BOUNDRHS LOBROW3998 0.200000
    BOUNDRHS UPBROW3999 3.400000
    BOUNDRHS LOBROW4000 0.200000
    BOUNDRHS UPBROW4001 3.400000
    BOUNDRHS LOBROW4002 0.200000
    BOUNDRHS UPBROW4003 3.400000
    BOUNDRHS LOBROW4004 0.200000
    BOUNDRHS UPBROW4005 3.400000
    BOUNDRHS LOBROW4006 0.200000
    BOUNDRHS UPBROW4007 3.400000
    BOUNDRHS LOBROW4008 2.700000
    BOUNDRHS UPBROW4009 16.899994
    BOUNDRHS LOBROW4010 2.700000
    BOUNDRHS UPBROW4011 16.899994
    BOUNDRHS LOBROW4012 2.700000
    BOUNDRHS UPBROW4013 16.899994
    BOUNDRHS LOBROW4014 2.700000
    BOUNDRHS UPBROW4015 16.899994
    BOUNDRHS LOBROW4016 2.700000
    BOUNDRHS UPBROW4017 16.899994
    BOUNDRHS LOBROW4018 2.700000
    BOUNDRHS UPBROW4019 16.899994
    BOUNDRHS LOBROW4020 2.700000
    BOUNDRHS UPBROW4021 16.899994
    BOUNDRHS LOBROW4022 2.700000
    BOUNDRHS UPBROW4023 16.899994
    BOUNDRHS LOBROW4024 1.000000
    BOUNDRHS UPBROW4025 11.099999
    BOUNDRHS LOBROW4026 1.000000
    BOUNDRHS UPBROW4027 11.099999
    BOUNDRHS LOBROW4028 1.000000
    BOUNDRHS UPBROW4029 11.099999
    BOUNDRHS LOBROW4030 1.000000
    BOUNDRHS UPBROW4031 11.099999
    BOUNDRHS LOBROW4032 1.000000
    BOUNDRHS UPBROW4033 11.099999
    BOUNDRHS LOBROW4034 1.000000
    BOUNDRHS UPBROW4035 11.099999
    BOUNDRHS LOBROW4036 1.000000
    BOUNDRHS UPBROW4037 11.099999
    BOUNDRHS LOBROW4038 1.000000
    BOUNDRHS UPBROW4039 11.099999
    BOUNDRHS LOBROW4040 0.000000
    BOUNDRHS UPBROW4041 0.800000
    BOUNDRHS LOBROW4042 0.000000
    BOUNDRHS UPBROW4043 0.800000
    BOUNDRHS LOBROW4044 0.000000
    BOUNDRHS UPBROW4045 0.800000
    BOUNDRHS LOBROW4046 0.000000
    BOUNDRHS UPBROW4047 0.800000
    BOUNDRHS LOBROW4048 0.000000
    BOUNDRHS UPBROW4049 0.800000
    BOUNDRHS LOBROW4050 0.000000
    BOUNDRHS UPBROW4051 0.800000
    BOUNDRHS LOBROW4052 0.000000
    BOUNDRHS UPBROW4053 0.800000
    BOUNDRHS LOBROW4054 0.000000
    BOUNDRHS UPBROW4055 0.800000
    BOUNDRHS LOBROW4056 0.000000
    BOUNDRHS UPBROW4057 7.700000
    BOUNDRHS LOBROW4058 0.000000
    BOUNDRHS UPBROW4059 7.700000
    BOUNDRHS LOBROW4060 0.000000
    BOUNDRHS UPBROW4061 7.700000
    BOUNDRHS LOBROW4062 0.000000
    BOUNDRHS UPBROW4063 7.700000
    BOUNDRHS LOBROW4064 0.000000
    BOUNDRHS UPBROW4065 7.700000
    BOUNDRHS LOBROW4066 0.000000
    BOUNDRHS UPBROW4067 7.700000
    BOUNDRHS LOBROW4068 0.000000
    BOUNDRHS UPBROW4069 7.700000
    BOUNDRHS LOBROW4070 0.000000
    BOUNDRHS UPBROW4071 7.700000
    BOUNDRHS LOBROW4072 0.000000
    BOUNDRHS UPBROW4073 6.500000
    BOUNDRHS LOBROW4074 0.000000
    BOUNDRHS UPBROW4075 6.500000
    BOUNDRHS LOBROW4076 0.000000
    BOUNDRHS UPBROW4077 6.500000
    BOUNDRHS LOBROW4078 0.000000
    BOUNDRHS UPBROW4079 6.500000
    BOUNDRHS LOBROW4080 0.000000
    BOUNDRHS UPBROW4081 6.500000
    BOUNDRHS LOBROW4082 0.000000
    BOUNDRHS UPBROW4083 6.500000
    BOUNDRHS LOBROW4084 0.000000
    BOUNDRHS UPBROW4085 6.500000
    BOUNDRHS LOBROW4086 0.000000
    BOUNDRHS UPBROW4087 6.500000
    BOUNDRHS LOBROW4088 0.000000
    BOUNDRHS UPBROW4089 0.700000
    BOUNDRHS LOBROW4090 0.000000
    BOUNDRHS UPBROW4091 0.700000
    BOUNDRHS LOBROW4092 0.000000
    BOUNDRHS UPBROW4093 0.700000
    BOUNDRHS LOBROW4094 0.000000
    BOUNDRHS UPBROW4095 0.700000
    BOUNDRHS LOBROW4096 0.000000
    BOUNDRHS UPBROW4097 0.700000
    BOUNDRHS LOBROW4098 0.000000
    BOUNDRHS UPBROW4099 0.700000
    BOUNDRHS LOBROW4100 0.000000
    BOUNDRHS UPBROW4101 0.700000
    BOUNDRHS LOBROW4102 0.000000
    BOUNDRHS UPBROW4103 0.700000
    BOUNDRHS LOBROW4104 119.500000
    BOUNDRHS UPBROW4105 210.599991
    BOUNDRHS LOBROW4106 119.500000
    BOUNDRHS UPBROW4107 210.599991
    BOUNDRHS LOBROW4108 119.500000
    BOUNDRHS UPBROW4109 210.599991
    BOUNDRHS LOBROW4110 119.500000
    BOUNDRHS UPBROW4111 210.599991
    BOUNDRHS LOBROW4112 119.500000
    BOUNDRHS UPBROW4113 210.599991
    BOUNDRHS LOBROW4114 119.500000
    BOUNDRHS UPBROW4115 210.599991
    BOUNDRHS LOBROW4116 119.500000
    BOUNDRHS UPBROW4117 210.599991
    BOUNDRHS LOBROW4118 119.500000
    BOUNDRHS UPBROW4119 210.599991
    BOUNDRHS LOBROW4120 0.700000
    BOUNDRHS UPBROW4121 4.599999
    BOUNDRHS LOBROW4122 0.700000
    BOUNDRHS UPBROW4123 4.599999
    BOUNDRHS LOBROW4124 0.700000
    BOUNDRHS UPBROW4125 4.599999
    BOUNDRHS LOBROW4126 0.700000
    BOUNDRHS UPBROW4127 4.599999
    BOUNDRHS LOBROW4128 0.700000
    BOUNDRHS UPBROW4129 4.599999
    BOUNDRHS LOBROW4130 0.700000
    BOUNDRHS UPBROW4131 4.599999
    BOUNDRHS LOBROW4132 0.700000
    BOUNDRHS UPBROW4133 4.599999
    BOUNDRHS LOBROW4134 0.700000
    BOUNDRHS UPBROW4135 4.599999
    BOUNDRHS LOBROW4136 0.300000
    BOUNDRHS UPBROW4137 2.599999
    BOUNDRHS LOBROW4138 0.300000
    BOUNDRHS UPBROW4139 2.599999
    BOUNDRHS LOBROW4140 0.300000
    BOUNDRHS UPBROW4141 2.599999
    BOUNDRHS LOBROW4142 0.300000
    BOUNDRHS UPBROW4143 2.599999
    BOUNDRHS LOBROW4144 0.300000
    BOUNDRHS UPBROW4145 2.599999
    BOUNDRHS LOBROW4146 0.300000
    BOUNDRHS UPBROW4147 2.599999
    BOUNDRHS LOBROW4148 0.300000
    BOUNDRHS UPBROW4149 2.599999
    BOUNDRHS LOBROW4150 0.300000
    BOUNDRHS UPBROW4151 2.599999
    BOUNDRHS LOBROW4152 31.000000
    BOUNDRHS UPBROW4153 70.799988
    BOUNDRHS LOBROW4154 31.000000
    BOUNDRHS UPBROW4155 70.799988
    BOUNDRHS LOBROW4156 31.000000
    BOUNDRHS UPBROW4157 70.799988
    BOUNDRHS LOBROW4158 31.000000
    BOUNDRHS UPBROW4159 70.799988
    BOUNDRHS LOBROW4160 31.000000
    BOUNDRHS UPBROW4161 70.799988
    BOUNDRHS LOBROW4162 31.000000
    BOUNDRHS UPBROW4163 70.799988
    BOUNDRHS LOBROW4164 31.000000
    BOUNDRHS UPBROW4165 70.799988
    BOUNDRHS LOBROW4166 31.000000
    BOUNDRHS UPBROW4167 70.799988
    BOUNDRHS LOBROW4168 0.000000
    BOUNDRHS UPBROW4169 0.320000
    BOUNDRHS LOBROW4170 0.000000
    BOUNDRHS UPBROW4171 0.320000
    BOUNDRHS LOBROW4172 0.000000
    BOUNDRHS UPBROW4173 0.320000
    BOUNDRHS LOBROW4174 0.000000
    BOUNDRHS UPBROW4175 0.320000
    BOUNDRHS LOBROW4176 0.000000
    BOUNDRHS UPBROW4177 0.320000
    BOUNDRHS LOBROW4178 0.000000
    BOUNDRHS UPBROW4179 0.320000
    BOUNDRHS LOBROW4180 0.000000
    BOUNDRHS UPBROW4181 0.320000
    BOUNDRHS LOBROW4182 0.000000
    BOUNDRHS UPBROW4183 0.320000
    BOUNDRHS LOBROW4184 0.300000
    BOUNDRHS UPBROW4185 1.000000
    BOUNDRHS LOBROW4186 0.300000
    BOUNDRHS UPBROW4187 1.000000
    BOUNDRHS LOBROW4188 0.300000
    BOUNDRHS UPBROW4189 1.000000
    BOUNDRHS LOBROW4190 0.300000
    BOUNDRHS UPBROW4191 1.000000
    BOUNDRHS LOBROW4192 0.300000
    BOUNDRHS UPBROW4193 1.000000
    BOUNDRHS LOBROW4194 0.300000
    BOUNDRHS UPBROW4195 1.000000
    BOUNDRHS LOBROW4196 0.300000
    BOUNDRHS UPBROW4197 1.000000
    BOUNDRHS LOBROW4198 0.300000
    BOUNDRHS UPBROW4199 1.000000
    BOUNDRHS LOBROW4200 0.000000
    BOUNDRHS UPBROW4201 1.299999
    BOUNDRHS LOBROW4202 0.000000
    BOUNDRHS UPBROW4203 1.299999
    BOUNDRHS LOBROW4204 0.000000
    BOUNDRHS UPBROW4205 1.299999
    BOUNDRHS LOBROW4206 0.000000
    BOUNDRHS UPBROW4207 1.299999
    BOUNDRHS LOBROW4208 0.000000
    BOUNDRHS UPBROW4209 1.299999
    BOUNDRHS LOBROW4210 0.000000
    BOUNDRHS UPBROW4211 1.299999
    BOUNDRHS LOBROW4212 0.000000
    BOUNDRHS UPBROW4213 1.299999
    BOUNDRHS LOBROW4214 0.000000
    BOUNDRHS UPBROW4215 1.299999
BOUNDS
ENDATA
