NAME          RECIPE
ROWS
 E  BAL...BE
 E  BCC...BE
 E  BCH...BE
 E  BCL...BE
 E  BHH...BE
 E  BHL...BE
 E  BHX...BE
 E  BLV...BE
 E  BN4...BE
 E  BP8...BE
 E  B3E...BE
 E  B3P...BE
 E  B3R...BE
 E  B3T...BE
 E  B3E.VOBE
 E  B3P.VOBE
 E  B3R.VOBE
 E  NOM.3EBE
 E  NRO.3EBE
 E  N13.3EBE
 E  N14.3EBE
 E  N24.3EBE
 E  N36.3EBE
 E  NOM.3PBE
 E  NRO.3PBE
 E  N13.3PBE
 E  N14.3PBE
 E  N24.3PBE
 E  N36.3PBE
 E  NOM.3RBE
 E  NRO.3RBE
 E  N13.3RBE
 E  N14.3RBE
 E  N24.3RBE
 E  N36.3RBE
 E  WMO.3EBE
 E  WRO.3EBE
 E  WMO.3PBE
 E  WRO.3PBE
 E  WMO.3RBE
 E  WRO.3RBE
 E  XRV.3EBE
 E  X15.3EBE
 E  XRV.3PBE
 E  X15.3PBE
 E  XRV.3RBE
 E  X15.3RBE
 N  FAT...J.
 E  B&,1..BE
 E  BAL1..BE
 E  BCC1..BE
 E  BCH1..BE
 E  BCL1..BE
 E  BHH1..BE
 E  BHL1..BE
 E  BHX1..BE
 E  BLV1..BE
 E  BN41..BE
 E  BP81..BE
 E  B&,2..BE
 E  BAL2..BE
 E  BCC2..BE
 E  BCH2..BE
 E  BCL2..BE
 E  BHH2..BE
 E  BHL2..BE
 E  BHX2..BE
 E  BLV2..BE
 E  BN42..BE
 E  BP82..BE
 E  B&,3..BE
 E  BAL3..BE
 E  BCC3..BE
 E  BCH3..BE
 E  BCL3..BE
 E  BHH3..BE
 E  BHL3..BE
 E  BHX3..BE
 E  BLV3..BE
 E  BN43..BE
 E  BP83..BE
 E  B&,4..BE
 E  BAL4..BE
 E  BCC4..BE
 E  BCH4..BE
 E  BCL4..BE
 E  BHH4..BE
 E  BHL4..BE
 E  BHX4..BE
 E  BLV4..BE
 E  BN44..BE
 E  BP84..BE
 E  UPBROW31642
 E  UPBROW31643
 E  UPBROW31644
 E  UPBROW31645
 E  UPBROW31646
 E  UPBROW31647
 E  UPBROW31648
 E  UPBROW31649
 E  UPBROW31650
 E  UPBROW31651
 E  LOBROW31652
 E  UPBROW31653
 E  UPBROW31654
 E  UPBROW31655
 E  UPBROW31656
 E  UPBROW31657
 E  UPBROW31658
 E  UPBROW31659
 E  UPBROW31660
 E  UPBROW31661
 E  UPBROW31662
 E  LOBROW31663
 E  UPBROW31664
 E  LOBROW31665
 E  UPBROW31666
 E  LOBROW31667
 E  UPBROW31668
 E  LOBROW31669
 E  UPBROW31670
 E  LOBROW31671
 E  UPBROW31672
 E  LOBROW31673
 E  UPBROW31674
 E  UPBROW31675
 E  LOBROW31676
 E  UPBROW31677
 E  LOBROW31678
 E  UPBROW31679
 E  UPBROW31680
 E  UPBROW31681
 E  UPBROW31682
 E  UPBROW31683
 E  UPBROW31684
 E  UPBROW31685
 E  UPBROW31686
 E  UPBROW31687
 E  UPBROW31688
 E  LOBROW31689
 E  UPBROW31690
 E  LOBROW31691
 E  UPBROW31692
 E  LOBROW31693
 E  UPBROW31694
 E  LOBROW31695
 E  UPBROW31696
 E  LOBROW31697
 E  UPBROW31698
 E  LOBROW31699
 E  UPBROW31700
 E  UPBROW31701
 E  LOBROW31702
 E  UPBROW31703
 E  LOBROW31704
 E  UPBROW31705
 E  UPBROW31706
 E  UPBROW31707
 E  UPBROW31708
 E  UPBROW31709
 E  UPBROW31710
 E  UPBROW31711
 E  UPBROW31712
 E  UPBROW31713
 E  UPBROW31714
 E  LOBROW31715
 E  UPBROW31716
 E  LOBROW31717
 E  UPBROW31718
 E  LOBROW31719
 E  UPBROW31720
 E  LOBROW31721
 E  UPBROW31722
 E  LOBROW31723
 E  UPBROW31724
 E  LOBROW31725
 E  UPBROW31726
 E  UPBROW31727
 E  LOBROW31728
 E  UPBROW31729
 E  LOBROW31730
 E  UPBROW31731
 E  UPBROW31732
 E  UPBROW31733
 E  UPBROW31734
 E  UPBROW31735
 E  UPBROW31736
 E  UPBROW31737
COLUMNS
    BAL.3EBE BAL...BE -1.000000   B3E.VOBE 1.000000
    BAL.3EBE XRV.3EBE 8.200000   N13.3EBE 9.000000
    BAL.3EBE N14.3EBE 12.000000   N24.3EBE 80.000000
    BAL.3EBE N36.3EBE 99.000000   X15.3EBE 16.000000
    BAL.3EBE WRO.3EBE 93.617050   WMO.3EBE 88.678200
    BCC.3EBE BCC...BE -1.000000   B3E.VOBE 1.000000
    BCC.3EBE XRV.3EBE 21.100000   N13.3EBE 116.800000
    BCC.3EBE N14.3EBE 114.000000   N24.3EBE 100.000000
    BCC.3EBE N36.3EBE 100.000000   X15.3EBE 100.000000
    BCC.3EBE WRO.3EBE 99.224010   WMO.3EBE 80.062830
    BCH.3EBE BCH...BE -1.000000   B3E.VOBE 1.000000
    BCH.3EBE XRV.3EBE 2.000000   N13.3EBE -14.800000
    BCH.3EBE N14.3EBE -12.000000   N24.3EBE 2.400000
    BCH.3EBE N36.3EBE 90.000000   X15.3EBE -8.200000
    BCH.3EBE WRO.3EBE 83.801220   WMO.3EBE 74.697360
    BCL.3EBE BCL...BE -1.000000   B3E.VOBE 1.000000
    BCL.3EBE XRV.3EBE 8.000000   N13.3EBE 2.000000
    BCL.3EBE N14.3EBE 9.000000   N24.3EBE 95.000000
    BCL.3EBE N36.3EBE 100.000000   X15.3EBE 43.000000
    BCL.3EBE WRO.3EBE 90.175110   WMO.3EBE 79.194210
    BHH.3EBE BHH...BE -1.000000   B3E.VOBE 1.000000
    BHH.3EBE XRV.3EBE 1.000000   N13.3EBE -21.900000
    BHH.3EBE N14.3EBE -18.000000   N24.3EBE 4.000000
    BHH.3EBE N36.3EBE 96.500000   X15.3EBE -12.500000
    BHH.3EBE WRO.3EBE 85.996200   WMO.3EBE 78.568220
    BHL.3EBE BHL...BE -1.000000   B3E.VOBE 1.000000
    BHL.3EBE XRV.3EBE 12.500000   N13.3EBE 37.000000
    BHL.3EBE N14.3EBE 49.000000   N24.3EBE 98.000000
    BHL.3EBE N36.3EBE 100.000000   X15.3EBE 65.000000
    BHL.3EBE WRO.3EBE 86.963380   WMO.3EBE 82.922240
    BHX.3EBE BHX...BE -1.000000   B3E.VOBE 1.000000
    BHX.3EBE XRV.3EBE 1.000000   N13.3EBE -21.900000
    BHX.3EBE N14.3EBE -18.000000   N24.3EBE 4.000000
    BHX.3EBE N36.3EBE 96.500000   X15.3EBE -12.000000
    BHX.3EBE WRO.3EBE 93.147600   WMO.3EBE 82.592740
    BLV.3EBE BLV...BE -1.000000   B3E.VOBE 1.000000
    BLV.3EBE XRV.3EBE 12.000000   N13.3EBE 61.000000
    BLV.3EBE N14.3EBE 68.000000   N24.3EBE 95.000000
    BLV.3EBE N36.3EBE 100.000000   X15.3EBE 79.000000
    BLV.3EBE WRO.3EBE 78.210250   WMO.3EBE 76.506460
    BN4.3EBE BN4...BE -1.000000   B3E.VOBE 1.000000
    BN4.3EBE XRV.3EBE 61.300000   N13.3EBE 145.000000
    BN4.3EBE N14.3EBE 145.000000   N24.3EBE 100.000000
    BN4.3EBE N36.3EBE 100.000000   X15.3EBE 125.000000
    BN4.3EBE WRO.3EBE 94.257840   WMO.3EBE 88.357460
    BP8.3EBE BP8...BE -1.000000   B3E.VOBE 1.000000
    BP8.3EBE XRV.3EBE 6.000000   N13.3EBE 3.600000
    BP8.3EBE N14.3EBE 4.000000   N24.3EBE 28.500000
    BP8.3EBE N36.3EBE 97.000000   X15.3EBE 6.200000
    BP8.3EBE WRO.3EBE 105.828630   WMO.3EBE 90.590470
    BAL.3PBE BAL...BE -1.000000   B3P.VOBE 1.000000
    BAL.3PBE XRV.3PBE 8.200000   N13.3PBE 9.000000
    BAL.3PBE N14.3PBE 12.000000   N24.3PBE 80.000000
    BAL.3PBE N36.3PBE 99.000000   X15.3PBE 16.000000
    BAL.3PBE WRO.3PBE 93.617050   WMO.3PBE 88.678200
    BCC.3PBE BCC...BE -1.000000   B3P.VOBE 1.000000
    BCC.3PBE XRV.3PBE 21.100000   N13.3PBE 116.800000
    BCC.3PBE N14.3PBE 114.000000   N24.3PBE 100.000000
    BCC.3PBE N36.3PBE 100.000000   X15.3PBE 100.000000
    BCC.3PBE WRO.3PBE 99.224010   WMO.3PBE 80.062830
    BCH.3PBE BCH...BE -1.000000   B3P.VOBE 1.000000
    BCH.3PBE XRV.3PBE 2.000000   N13.3PBE -14.800000
    BCH.3PBE N14.3PBE -12.000000   N24.3PBE 2.400000
    BCH.3PBE N36.3PBE 90.000000   X15.3PBE -8.200000
    BCH.3PBE WRO.3PBE 83.801220   WMO.3PBE 74.697360
    BCL.3PBE BCL...BE -1.000000   B3P.VOBE 1.000000
    BCL.3PBE XRV.3PBE 8.000000   N13.3PBE 2.000000
    BCL.3PBE N14.3PBE 9.000000   N24.3PBE 95.000000
    BCL.3PBE N36.3PBE 100.000000   X15.3PBE 43.000000
    BCL.3PBE WRO.3PBE 90.175110   WMO.3PBE 79.194210
    BHH.3PBE BHH...BE -1.000000   B3P.VOBE 1.000000
    BHH.3PBE XRV.3PBE 1.000000   N13.3PBE -21.900000
    BHH.3PBE N14.3PBE -18.000000   N24.3PBE 4.000000
    BHH.3PBE N36.3PBE 96.500000   X15.3PBE -12.500000
    BHH.3PBE WRO.3PBE 85.996200   WMO.3PBE 78.568220
    BHL.3PBE BHL...BE -1.000000   B3P.VOBE 1.000000
    BHL.3PBE XRV.3PBE 12.500000   N13.3PBE 37.000000
    BHL.3PBE N14.3PBE 49.000000   N24.3PBE 98.000000
    BHL.3PBE N36.3PBE 100.000000   X15.3PBE 65.000000
    BHL.3PBE WRO.3PBE 86.963380   WMO.3PBE 82.922240
    BHX.3PBE BHX...BE -1.000000   B3P.VOBE 1.000000
    BHX.3PBE XRV.3PBE 1.000000   N13.3PBE -21.900000
    BHX.3PBE N14.3PBE -18.000000   N24.3PBE 4.000000
    BHX.3PBE N36.3PBE 96.500000   X15.3PBE -12.000000
    BHX.3PBE WRO.3PBE 93.147600   WMO.3PBE 82.592740
    BLV.3PBE BLV...BE -1.000000   B3P.VOBE 1.000000
    BLV.3PBE XRV.3PBE 12.000000   N13.3PBE 61.000000
    BLV.3PBE N14.3PBE 68.000000   N24.3PBE 95.000000
    BLV.3PBE N36.3PBE 100.000000   X15.3PBE 79.000000
    BLV.3PBE WRO.3PBE 78.210250   WMO.3PBE 76.506460
    BN4.3PBE BN4...BE -1.000000   B3P.VOBE 1.000000
    BN4.3PBE XRV.3PBE 61.300000   N13.3PBE 145.000000
    BN4.3PBE N14.3PBE 145.000000   N24.3PBE 100.000000
    BN4.3PBE N36.3PBE 100.000000   X15.3PBE 125.000000
    BN4.3PBE WRO.3PBE 94.257840   WMO.3PBE 88.357460
    BP8.3PBE BP8...BE -1.000000   B3P.VOBE 1.000000
    BP8.3PBE XRV.3PBE 6.000000   N13.3PBE 3.600000
    BP8.3PBE N14.3PBE 4.000000   N24.3PBE 28.500000
    BP8.3PBE N36.3PBE 97.000000   X15.3PBE 6.200000
    BP8.3PBE WRO.3PBE 105.828630   WMO.3PBE 90.590470
    BAL.3RBE BAL...BE -1.000000   B3R.VOBE 1.000000
    BAL.3RBE XRV.3RBE 8.200000   N13.3RBE 9.000000
    BAL.3RBE N14.3RBE 12.000000   N24.3RBE 80.000000
    BAL.3RBE N36.3RBE 99.000000   X15.3RBE 16.000000
    BAL.3RBE WRO.3RBE 93.617050   WMO.3RBE 88.678200
    BCC.3RBE BCC...BE -1.000000   B3R.VOBE 1.000000
    BCC.3RBE XRV.3RBE 21.100000   N13.3RBE 116.800000
    BCC.3RBE N14.3RBE 114.000000   N24.3RBE 100.000000
    BCC.3RBE N36.3RBE 100.000000   X15.3RBE 100.000000
    BCC.3RBE WRO.3RBE 99.224010   WMO.3RBE 80.062830
    BCH.3RBE BCH...BE -1.000000   B3R.VOBE 1.000000
    BCH.3RBE XRV.3RBE 2.000000   N13.3RBE -14.800000
    BCH.3RBE N14.3RBE -12.000000   N24.3RBE 2.400000
    BCH.3RBE N36.3RBE 90.000000   X15.3RBE -8.200000
    BCH.3RBE WRO.3RBE 83.801220   WMO.3RBE 74.697360
    BCL.3RBE BCL...BE -1.000000   B3R.VOBE 1.000000
    BCL.3RBE XRV.3RBE 8.000000   N13.3RBE 2.000000
    BCL.3RBE N14.3RBE 9.000000   N24.3RBE 95.000000
    BCL.3RBE N36.3RBE 100.000000   X15.3RBE 43.000000
    BCL.3RBE WRO.3RBE 90.175110   WMO.3RBE 79.194210
    BHH.3RBE BHH...BE -1.000000   B3R.VOBE 1.000000
    BHH.3RBE XRV.3RBE 1.000000   N13.3RBE -21.900000
    BHH.3RBE N14.3RBE -18.000000   N24.3RBE 4.000000
    BHH.3RBE N36.3RBE 96.500000   X15.3RBE -12.500000
    BHH.3RBE WRO.3RBE 85.996200   WMO.3RBE 78.568220
    BHL.3RBE BHL...BE -1.000000   B3R.VOBE 1.000000
    BHL.3RBE XRV.3RBE 12.500000   N13.3RBE 37.000000
    BHL.3RBE N14.3RBE 49.000000   N24.3RBE 98.000000
    BHL.3RBE N36.3RBE 100.000000   X15.3RBE 65.000000
    BHL.3RBE WRO.3RBE 86.963380   WMO.3RBE 82.922240
    BHX.3RBE BHX...BE -1.000000   B3R.VOBE 1.000000
    BHX.3RBE XRV.3RBE 1.000000   N13.3RBE -21.900000
    BHX.3RBE N14.3RBE -18.000000   N24.3RBE 4.000000
    BHX.3RBE N36.3RBE 96.500000   X15.3RBE -12.000000
    BHX.3RBE WRO.3RBE 93.147600   WMO.3RBE 82.592740
    BLV.3RBE BLV...BE -1.000000   B3R.VOBE 1.000000
    BLV.3RBE XRV.3RBE 12.000000   N13.3RBE 61.000000
    BLV.3RBE N14.3RBE 68.000000   N24.3RBE 95.000000
    BLV.3RBE N36.3RBE 100.000000   X15.3RBE 79.000000
    BLV.3RBE WRO.3RBE 78.210250   WMO.3RBE 76.506460
    BN4.3RBE BN4...BE -1.000000   B3R.VOBE 1.000000
    BN4.3RBE XRV.3RBE 61.300000   N13.3RBE 145.000000
    BN4.3RBE N14.3RBE 145.000000   N24.3RBE 100.000000
    BN4.3RBE N36.3RBE 100.000000   X15.3RBE 125.000000
    BN4.3RBE WRO.3RBE 94.257840   WMO.3RBE 88.357460
    BP8.3RBE BP8...BE -1.000000   B3R.VOBE 1.000000
    BP8.3RBE XRV.3RBE 6.000000   N13.3RBE 3.600000
    BP8.3RBE N14.3RBE 4.000000   N24.3RBE 28.500000
    BP8.3RBE N36.3RBE 97.000000   X15.3RBE 6.200000
    BP8.3RBE WRO.3RBE 105.828630   WMO.3RBE 90.590470
    D3E...BE B3E...BE -1.000000
    D3P...BE B3P...BE -1.000000
    D3R...BE B3R...BE -1.000000
    D3T...BE B3T...BE -1.000000
    EAL...BE BAL...BE 1.000000
    ECC...BE BCC...BE 1.000000
    ECH...BE BCH...BE 1.000000
    ECL...BE BCL...BE 1.000000
    EHH...BE BHH...BE 1.000000
    EHL...BE BHL...BE 1.000000
    EHX...BE BHX...BE 1.000000
    ELV...BE BLV...BE 1.000000
    EN4...BE BN4...BE 1.000000
    EP8...BE BP8...BE 1.000000
    M3..3TBE B3T...BE 1.000000   B3E...BE -0.120000
    M3..3TBE B3P...BE -0.380000   B3R...BE -0.500000
    WRO43RBE WRO.3RBE -1.000000   NOM.3RBE 0.500000
    WRO43RBE NRO.3RBE 1.000000
    JAL1IOBE BAL1..BE 1.000000   FAT...J. -2.000000
    JAL1IOBE UPBROW31642 1.000000
    JCC1IOBE BCC1..BE 1.000000   FAT...J. -2.000000
    JCC1IOBE UPBROW31643 1.000000
    JCH1IOBE BCH1..BE 1.000000   FAT...J. -2.000000
    JCH1IOBE UPBROW31644 1.000000
    JCL1IOBE BCL1..BE 1.000000   FAT...J. -2.000000
    JCL1IOBE UPBROW31645 1.000000
    JHH1IOBE BHH1..BE 1.000000   FAT...J. -2.000000
    JHH1IOBE UPBROW31646 1.000000
    JHL1IOBE BHL1..BE 1.000000   FAT...J. -2.000000
    JHL1IOBE UPBROW31647 1.000000
    JHX1IOBE BHX1..BE 1.000000   FAT...J. -2.000000
    JHX1IOBE UPBROW31648 1.000000
    JLV1IOBE BLV1..BE 1.000000   FAT...J. -2.000000
    JLV1IOBE UPBROW31649 1.000000
    JN41IOBE BN41..BE 1.000000   UPBROW31650 1.000000
    JP81IOBE BP81..BE 1.000000   FAT...J. -2.000000
    JP81IOBE UPBROW31651 1.000000
    J&,1MXBE B&,1..BE -1.000000   B&,2..BE 1.000000
    J&,1MXBE LOBROW31652 1.000000
    JAL1MXBE FAT...J. 0.002000   BAL1..BE -1.000000
    JAL1MXBE BAL2..BE 1.000000   UPBROW31653 1.000000
    JCC1MXBE FAT...J. 0.002000   BCC1..BE -1.000000
    JCC1MXBE BCC2..BE 1.000000   UPBROW31654 1.000000
    JCH1MXBE FAT...J. 0.002000   BCH1..BE -1.000000
    JCH1MXBE BCH2..BE 1.000000   UPBROW31655 1.000000
    JCL1MXBE FAT...J. 0.002000   BCL1..BE -1.000000
    JCL1MXBE BCL2..BE 1.000000   UPBROW31656 1.000000
    JHH1MXBE FAT...J. 0.002000   BHH1..BE -1.000000
    JHH1MXBE BHH2..BE 1.000000   UPBROW31657 1.000000
    JHL1MXBE FAT...J. 0.002000   BHL1..BE -1.000000
    JHL1MXBE BHL2..BE 1.000000   UPBROW31658 1.000000
    WMO43RBE WMO.3RBE -1.000000   NOM.3RBE 0.500000
    JLV1MXBE FAT...J. 0.002000   BLV1..BE -1.000000
    JLV1MXBE BLV2..BE 1.000000   UPBROW31659 1.000000
    JN41MXBE FAT...J. 0.002000   BN41..BE -1.000000
    JN41MXBE BN42..BE 1.000000   UPBROW31660 1.000000
    JP81MXBE FAT...J. 0.002000   BP81..BE -1.000000
    JP81MXBE BP82..BE 1.000000   UPBROW31661 1.000000
    J&,1TGBE B&,1..BE -1.000000   B&,2..BE 1.000000
    J&,1TGBE UPBROW31662 1.000000
    JAL1TGBE FAT...J. -0.002000   BAL1..BE -1.000000
    JAL1TGBE BAL2..BE 1.000000   LOBROW31663 1.000000
    JAL1TGBE UPBROW31664 1.000000
    JCC1TGBE FAT...J. -0.002000   BCC1..BE -1.000000
    JCC1TGBE BCC2..BE 1.000000   LOBROW31665 1.000000
    JCC1TGBE UPBROW31666 1.000000
    JCH1TGBE FAT...J. -0.002000   BCH1..BE -1.000000
    JCH1TGBE BCH2..BE 1.000000   LOBROW31667 1.000000
    JCH1TGBE UPBROW31668 1.000000
    JCL1TGBE FAT...J. -0.002000   BCL1..BE -1.000000
    JCL1TGBE BCL2..BE 1.000000   LOBROW31669 1.000000
    JCL1TGBE UPBROW31670 1.000000
    WRO43PBE WRO.3PBE -1.000000   NOM.3PBE 0.500000
    WRO43PBE NRO.3PBE 1.000000
    JHL1TGBE FAT...J. -0.002000   BHL1..BE -1.000000
    JHL1TGBE BHL2..BE 1.000000   LOBROW31671 1.000000
    JHL1TGBE UPBROW31672 1.000000
    WMO43PBE WMO.3PBE -1.000000   NOM.3PBE 0.500000
    JLV1TGBE FAT...J. -0.002000   BLV1..BE -1.000000
    JLV1TGBE BLV2..BE 1.000000   LOBROW31673 1.000000
    JLV1TGBE UPBROW31674 1.000000
    JN41TGBE FAT...J. -0.002000   BN41..BE -1.000000
    JN41TGBE BN42..BE 1.000000   UPBROW31675 1.000000
    JP81TGBE FAT...J. -0.002000   BP81..BE -1.000000
    JP81TGBE BP82..BE 1.000000   LOBROW31676 1.000000
    JP81TGBE UPBROW31677 1.000000
    QVO13EBE B3E...BE 1.000000   B3E.VOBE -1.000000
    QVO13EBE XRV.3EBE -8.700000   N13.3EBE -10.000000
    QVO13EBE N14.3EBE -10.000000   N24.3EBE -50.000000
    QVO13EBE N36.3EBE -90.000000   X15.3EBE -47.000000
    QVO13EBE NOM.3EBE -89.000000   NRO.3EBE -93.000000
    QVO13PBE B3P...BE 1.000000   B3P.VOBE -1.000000
    QVO13PBE XRV.3PBE -8.700000   N13.3PBE -10.000000
    QVO13PBE N14.3PBE -10.000000   N24.3PBE -50.000000
    QVO13PBE N36.3PBE -90.000000   X15.3PBE -47.000000
    QVO13PBE NOM.3PBE -85.000000   NRO.3PBE -89.000000
    QVO13RBE B3R...BE 1.000000   B3R.VOBE -1.000000
    QVO13RBE XRV.3RBE -8.700000   N13.3RBE -10.000000
    QVO13RBE N14.3RBE -10.000000   N24.3RBE -50.000000
    QVO13RBE N36.3RBE -90.000000   X15.3RBE -47.000000
    QVO13RBE NOM.3RBE -88.000000   NRO.3RBE -91.000000
    WMO13EBE WMO.3EBE -1.000000   NOM.3EBE 0.500000
    WRO13EBE WRO.3EBE -1.000000   NOM.3EBE 0.500000
    WRO13EBE NRO.3EBE 1.000000
    WMO13PBE WMO.3PBE -1.000000   NOM.3PBE 0.500000
    WRO13PBE WRO.3PBE -1.000000   NOM.3PBE 0.500000
    WRO13PBE NRO.3PBE 1.000000
    WMO13RBE WMO.3RBE -1.000000   NOM.3RBE 0.500000
    WRO13RBE WRO.3RBE -1.000000   NOM.3RBE 0.500000
    WRO13RBE NRO.3RBE 1.000000
    J&,2MXBE B&,2..BE -1.000000   B&,3..BE 1.000000
    J&,2MXBE LOBROW31678 1.000000
    JAL2MXBE FAT...J. 0.002000   BAL2..BE -1.000000
    JAL2MXBE BAL3..BE 1.000000   UPBROW31679 1.000000
    JCC2MXBE FAT...J. 0.002000   BCC2..BE -1.000000
    JCC2MXBE BCC3..BE 1.000000   UPBROW31680 1.000000
    JCH2MXBE FAT...J. 0.002000   BCH2..BE -1.000000
    JCH2MXBE BCH3..BE 1.000000   UPBROW31681 1.000000
    JCL2MXBE FAT...J. 0.002000   BCL2..BE -1.000000
    JCL2MXBE BCL3..BE 1.000000   UPBROW31682 1.000000
    JHH2MXBE FAT...J. 0.002000   BHH2..BE -1.000000
    JHH2MXBE BHH3..BE 1.000000   UPBROW31683 1.000000
    JHL2MXBE FAT...J. 0.002000   BHL2..BE -1.000000
    JHL2MXBE BHL3..BE 1.000000   UPBROW31684 1.000000
    WRO43EBE WRO.3EBE -1.000000   NOM.3EBE 0.500000
    WRO43EBE NRO.3EBE 1.000000
    JLV2MXBE FAT...J. 0.002000   BLV2..BE -1.000000
    JLV2MXBE BLV3..BE 1.000000   UPBROW31685 1.000000
    JN42MXBE FAT...J. 0.002000   BN42..BE -1.000000
    JN42MXBE BN43..BE 1.000000   UPBROW31686 1.000000
    JP82MXBE FAT...J. 0.002000   BP82..BE -1.000000
    JP82MXBE BP83..BE 1.000000   UPBROW31687 1.000000
    J&,2TGBE B&,2..BE -1.000000   B&,3..BE 1.000000
    J&,2TGBE UPBROW31688 1.000000
    JAL2TGBE FAT...J. -0.002000   BAL2..BE -1.000000
    JAL2TGBE BAL3..BE 1.000000   LOBROW31689 1.000000
    JAL2TGBE UPBROW31690 1.000000
    JCC2TGBE FAT...J. -0.002000   BCC2..BE -1.000000
    JCC2TGBE BCC3..BE 1.000000   LOBROW31691 1.000000
    JCC2TGBE UPBROW31692 1.000000
    JCH2TGBE FAT...J. -0.002000   BCH2..BE -1.000000
    JCH2TGBE BCH3..BE 1.000000   LOBROW31693 1.000000
    JCH2TGBE UPBROW31694 1.000000
    JCL2TGBE FAT...J. -0.002000   BCL2..BE -1.000000
    JCL2TGBE BCL3..BE 1.000000   LOBROW31695 1.000000
    JCL2TGBE UPBROW31696 1.000000
    WMO43EBE WMO.3EBE -1.000000   NOM.3EBE 0.500000
    JHL2TGBE FAT...J. -0.002000   BHL2..BE -1.000000
    JHL2TGBE BHL3..BE 1.000000   LOBROW31697 1.000000
    JHL2TGBE UPBROW31698 1.000000
    QVO43RBE B3R...BE 1.000000   B3R.VOBE -1.000000
    QVO43RBE XRV.3RBE -8.700000   N13.3RBE -10.000000
    QVO43RBE N14.3RBE -10.000000   N24.3RBE -50.000000
    QVO43RBE N36.3RBE -90.000000   X15.3RBE -47.000000
    QVO43RBE NOM.3RBE -88.000000   NRO.3RBE -91.000000
    JLV2TGBE FAT...J. -0.002000   BLV2..BE -1.000000
    JLV2TGBE BLV3..BE 1.000000   LOBROW31699 1.000000
    JLV2TGBE UPBROW31700 1.000000
    JN42TGBE FAT...J. -0.002000   BN42..BE -1.000000
    JN42TGBE BN43..BE 1.000000   UPBROW31701 1.000000
    JP82TGBE FAT...J. -0.002000   BP82..BE -1.000000
    JP82TGBE BP83..BE 1.000000   LOBROW31702 1.000000
    JP82TGBE UPBROW31703 1.000000
    QVO23EBE B3E...BE 1.000000   B3E.VOBE -1.000000
    QVO23EBE XRV.3EBE -8.700000   N13.3EBE -10.000000
    QVO23EBE N14.3EBE -10.000000   N24.3EBE -50.000000
    QVO23EBE N36.3EBE -90.000000   X15.3EBE -47.000000
    QVO23EBE NOM.3EBE -89.000000   NRO.3EBE -93.000000
    QVO23PBE B3P...BE 1.000000   B3P.VOBE -1.000000
    QVO23PBE XRV.3PBE -8.700000   N13.3PBE -10.000000
    QVO23PBE N14.3PBE -10.000000   N24.3PBE -50.000000
    QVO23PBE N36.3PBE -90.000000   X15.3PBE -47.000000
    QVO23PBE NOM.3PBE -85.000000   NRO.3PBE -89.000000
    QVO23RBE B3R...BE 1.000000   B3R.VOBE -1.000000
    QVO23RBE XRV.3RBE -8.700000   N13.3RBE -10.000000
    QVO23RBE N14.3RBE -10.000000   N24.3RBE -50.000000
    QVO23RBE N36.3RBE -90.000000   X15.3RBE -47.000000
    QVO23RBE NOM.3RBE -88.000000   NRO.3RBE -91.000000
    WMO23EBE WMO.3EBE -1.000000   NOM.3EBE 0.500000
    WRO23EBE WRO.3EBE -1.000000   NOM.3EBE 0.500000
    WRO23EBE NRO.3EBE 1.000000
    WMO23PBE WMO.3PBE -1.000000   NOM.3PBE 0.500000
    WRO23PBE WRO.3PBE -1.000000   NOM.3PBE 0.500000
    WRO23PBE NRO.3PBE 1.000000
    WMO23RBE WMO.3RBE -1.000000   NOM.3RBE 0.500000
    WRO23RBE WRO.3RBE -1.000000   NOM.3RBE 0.500000
    WRO23RBE NRO.3RBE 1.000000
    J&,3MXBE B&,3..BE -1.000000   B&,4..BE 1.000000
    J&,3MXBE LOBROW31704 1.000000
    JAL3MXBE FAT...J. 0.002000   BAL3..BE -1.000000
    JAL3MXBE BAL4..BE 1.000000   UPBROW31705 1.000000
    JCC3MXBE FAT...J. 0.002000   BCC3..BE -1.000000
    JCC3MXBE BCC4..BE 1.000000   UPBROW31706 1.000000
    JCH3MXBE FAT...J. 0.002000   BCH3..BE -1.000000
    JCH3MXBE BCH4..BE 1.000000   UPBROW31707 1.000000
    JCL3MXBE FAT...J. 0.002000   BCL3..BE -1.000000
    JCL3MXBE BCL4..BE 1.000000   UPBROW31708 1.000000
    JHH3MXBE FAT...J. 0.002000   BHH3..BE -1.000000
    JHH3MXBE BHH4..BE 1.000000   UPBROW31709 1.000000
    JHL3MXBE FAT...J. 0.002000   BHL3..BE -1.000000
    JHL3MXBE BHL4..BE 1.000000   UPBROW31710 1.000000
    QVO43PBE B3P...BE 1.000000   B3P.VOBE -1.000000
    QVO43PBE XRV.3PBE -8.700000   N13.3PBE -10.000000
    QVO43PBE N14.3PBE -10.000000   N24.3PBE -50.000000
    QVO43PBE N36.3PBE -90.000000   X15.3PBE -47.000000
    QVO43PBE NOM.3PBE -85.000000   NRO.3PBE -89.000000
    JLV3MXBE FAT...J. 0.002000   BLV3..BE -1.000000
    JLV3MXBE BLV4..BE 1.000000   UPBROW31711 1.000000
    JN43MXBE FAT...J. 0.002000   BN43..BE -1.000000
    JN43MXBE BN44..BE 1.000000   UPBROW31712 1.000000
    JP83MXBE FAT...J. 0.002000   BP83..BE -1.000000
    JP83MXBE BP84..BE 1.000000   UPBROW31713 1.000000
    J&,3TGBE B&,3..BE -1.000000   B&,4..BE 1.000000
    J&,3TGBE UPBROW31714 1.000000
    JAL3TGBE FAT...J. -0.002000   BAL3..BE -1.000000
    JAL3TGBE BAL4..BE 1.000000   LOBROW31715 1.000000
    JAL3TGBE UPBROW31716 1.000000
    JCC3TGBE FAT...J. -0.002000   BCC3..BE -1.000000
    JCC3TGBE BCC4..BE 1.000000   LOBROW31717 1.000000
    JCC3TGBE UPBROW31718 1.000000
    JCH3TGBE FAT...J. -0.002000   BCH3..BE -1.000000
    JCH3TGBE BCH4..BE 1.000000   LOBROW31719 1.000000
    JCH3TGBE UPBROW31720 1.000000
    JCL3TGBE FAT...J. -0.002000   BCL3..BE -1.000000
    JCL3TGBE BCL4..BE 1.000000   LOBROW31721 1.000000
    JCL3TGBE UPBROW31722 1.000000
    QVO43EBE B3E...BE 1.000000   B3E.VOBE -1.000000
    QVO43EBE XRV.3EBE -8.700000   N13.3EBE -10.000000
    QVO43EBE N14.3EBE -10.000000   N24.3EBE -50.000000
    QVO43EBE N36.3EBE -90.000000   X15.3EBE -47.000000
    QVO43EBE NOM.3EBE -89.000000   NRO.3EBE -93.000000
    JHL3TGBE FAT...J. -0.002000   BHL3..BE -1.000000
    JHL3TGBE BHL4..BE 1.000000   LOBROW31723 1.000000
    JHL3TGBE UPBROW31724 1.000000
    JP84MXBE FAT...J. 0.100000   BP84..BE -1.000000
    JP84MXBE UPBROW31737 1.000000
    JLV3TGBE FAT...J. -0.002000   BLV3..BE -1.000000
    JLV3TGBE BLV4..BE 1.000000   LOBROW31725 1.000000
    JLV3TGBE UPBROW31726 1.000000
    JN43TGBE FAT...J. -0.002000   BN43..BE -1.000000
    JN43TGBE BN44..BE 1.000000   UPBROW31727 1.000000
    JP83TGBE FAT...J. -0.002000   BP83..BE -1.000000
    JP83TGBE BP84..BE 1.000000   LOBROW31728 1.000000
    JP83TGBE UPBROW31729 1.000000
    QVO33EBE B3E...BE 1.000000   B3E.VOBE -1.000000
    QVO33EBE XRV.3EBE -8.700000   N13.3EBE -10.000000
    QVO33EBE N14.3EBE -10.000000   N24.3EBE -50.000000
    QVO33EBE N36.3EBE -90.000000   X15.3EBE -47.000000
    QVO33EBE NOM.3EBE -89.000000   NRO.3EBE -93.000000
    QVO33PBE B3P...BE 1.000000   B3P.VOBE -1.000000
    QVO33PBE XRV.3PBE -8.700000   N13.3PBE -10.000000
    QVO33PBE N14.3PBE -10.000000   N24.3PBE -50.000000
    QVO33PBE N36.3PBE -90.000000   X15.3PBE -47.000000
    QVO33PBE NOM.3PBE -85.000000   NRO.3PBE -89.000000
    QVO33RBE B3R...BE 1.000000   B3R.VOBE -1.000000
    QVO33RBE XRV.3RBE -8.700000   N13.3RBE -10.000000
    QVO33RBE N14.3RBE -10.000000   N24.3RBE -50.000000
    QVO33RBE N36.3RBE -90.000000   X15.3RBE -47.000000
    QVO33RBE NOM.3RBE -88.000000   NRO.3RBE -91.000000
    WMO33EBE WMO.3EBE -1.000000   NOM.3EBE 0.500000
    WRO33EBE WRO.3EBE -1.000000   NOM.3EBE 0.500000
    WRO33EBE NRO.3EBE 1.000000
    WMO33PBE WMO.3PBE -1.000000   NOM.3PBE 0.500000
    WRO33PBE WRO.3PBE -1.000000   NOM.3PBE 0.500000
    WRO33PBE NRO.3PBE 1.000000
    WMO33RBE WMO.3RBE -1.000000   NOM.3RBE 0.500000
    WRO33RBE WRO.3RBE -1.000000   NOM.3RBE 0.500000
    WRO33RBE NRO.3RBE 1.000000
    J&,4MXBE B&,4..BE -1.000000   LOBROW31730 1.000000
    JAL4MXBE FAT...J. 0.100000   BAL4..BE -1.000000
    JAL4MXBE UPBROW31731 1.000000
    JCC4MXBE FAT...J. 0.100000   BCC4..BE -1.000000
    JCC4MXBE UPBROW31732 1.000000
    JCH4MXBE FAT...J. 0.100000   BCH4..BE -1.000000
    JCH4MXBE UPBROW31733 1.000000
    JCL4MXBE FAT...J. 0.100000   BCL4..BE -1.000000
    JCL4MXBE UPBROW31734 1.000000
    JLV4MXBE FAT...J. 0.100000   BLV4..BE -1.000000
    JLV4MXBE UPBROW31736 1.000000
    JHL4MXBE FAT...J. 0.100000   BHL4..BE -1.000000
    JHL4MXBE UPBROW31735 1.000000
    SLACK45094 NOM.3EBE -1.000000
    SLACK45095 NRO.3EBE -1.000000
    SLACK45096 N13.3EBE -1.000000
    SLACK45097 N14.3EBE -1.000000
    SLACK45098 N24.3EBE -1.000000
    SLACK45099 N36.3EBE -1.000000
    SLACK45100 NOM.3PBE -1.000000
    SLACK45101 NRO.3PBE -1.000000
    SLACK45102 N13.3PBE -1.000000
    SLACK45103 N14.3PBE -1.000000
    SLACK45104 N24.3PBE -1.000000
    SLACK45105 N36.3PBE -1.000000
    SLACK45106 NOM.3RBE -1.000000
    SLACK45107 NRO.3RBE -1.000000
    SLACK45108 N13.3RBE -1.000000
    SLACK45109 N14.3RBE -1.000000
    SLACK45110 N24.3RBE -1.000000
    SLACK45111 N36.3RBE -1.000000
    SLACK45112 XRV.3EBE 1.000000
    SLACK45113 X15.3EBE 1.000000
    SLACK45114 XRV.3PBE 1.000000
    SLACK45115 X15.3PBE 1.000000
    SLACK45116 XRV.3RBE 1.000000
    SLACK45117 X15.3RBE 1.000000
    SLACK45118 UPBROW31642 1.000000
    SLACK45119 UPBROW31643 1.000000
    SLACK45120 UPBROW31644 1.000000
    SLACK45121 UPBROW31645 1.000000
    SLACK45122 UPBROW31646 1.000000
    SLACK45123 UPBROW31647 1.000000
    SLACK45124 UPBROW31648 1.000000
    SLACK45125 UPBROW31649 1.000000
    SLACK45126 UPBROW31650 1.000000
    SLACK45127 UPBROW31651 1.000000
    SLACK45128 LOBROW31652 -1.000000
    SLACK45129 UPBROW31653 1.000000
    SLACK45130 UPBROW31654 1.000000
    SLACK45131 UPBROW31655 1.000000
    SLACK45132 UPBROW31656 1.000000
    SLACK45133 UPBROW31657 1.000000
    SLACK45134 UPBROW31658 1.000000
    SLACK45135 UPBROW31659 1.000000
    SLACK45136 UPBROW31660 1.000000
    SLACK45137 UPBROW31661 1.000000
    SLACK45138 UPBROW31662 1.000000
    SLACK45139 LOBROW31663 -1.000000
    SLACK45140 UPBROW31664 1.000000
    SLACK45141 LOBROW31665 -1.000000
    SLACK45142 UPBROW31666 1.000000
    SLACK45143 LOBROW31667 -1.000000
    SLACK45144 UPBROW31668 1.000000
    SLACK45145 LOBROW31669 -1.000000
    SLACK45146 UPBROW31670 1.000000
    SLACK45147 LOBROW31671 -1.000000
    SLACK45148 UPBROW31672 1.000000
    SLACK45149 LOBROW31673 -1.000000
    SLACK45150 UPBROW31674 1.000000
    SLACK45151 UPBROW31675 1.000000
    SLACK45152 LOBROW31676 -1.000000
    SLACK45153 UPBROW31677 1.000000
    SLACK45154 LOBROW31678 -1.000000
    SLACK45155 UPBROW31679 1.000000
    SLACK45156 UPBROW31680 1.000000
    SLACK45157 UPBROW31681 1.000000
    SLACK45158 UPBROW31682 1.000000
    SLACK45159 UPBROW31683 1.000000
    SLACK45160 UPBROW31684 1.000000
    SLACK45161 UPBROW31685 1.000000
    SLACK45162 UPBROW31686 1.000000
    SLACK45163 UPBROW31687 1.000000
    SLACK45164 UPBROW31688 1.000000
    SLACK45165 LOBROW31689 -1.000000
    SLACK45166 UPBROW31690 1.000000
    SLACK45167 LOBROW31691 -1.000000
    SLACK45168 UPBROW31692 1.000000
    SLACK45169 LOBROW31693 -1.000000
    SLACK45170 UPBROW31694 1.000000
    SLACK45171 LOBROW31695 -1.000000
    SLACK45172 UPBROW31696 1.000000
    SLACK45173 LOBROW31697 -1.000000
    SLACK45174 UPBROW31698 1.000000
    SLACK45175 LOBROW31699 -1.000000
    SLACK45176 UPBROW31700 1.000000
    SLACK45177 UPBROW31701 1.000000
    SLACK45178 LOBROW31702 -1.000000
    SLACK45179 UPBROW31703 1.000000
    SLACK45180 LOBROW31704 -1.000000
    SLACK45181 UPBROW31705 1.000000
    SLACK45182 UPBROW31706 1.000000
    SLACK45183 UPBROW31707 1.000000
    SLACK45184 UPBROW31708 1.000000
    SLACK45185 UPBROW31709 1.000000
    SLACK45186 UPBROW31710 1.000000
    SLACK45187 UPBROW31711 1.000000
    SLACK45188 UPBROW31712 1.000000
    SLACK45189 UPBROW31713 1.000000
    SLACK45190 UPBROW31714 1.000000
    SLACK45191 LOBROW31715 -1.000000
    SLACK45192 UPBROW31716 1.000000
    SLACK45193 LOBROW31717 -1.000000
    SLACK45194 UPBROW31718 1.000000
    SLACK45195 LOBROW31719 -1.000000
    SLACK45196 UPBROW31720 1.000000
    SLACK45197 LOBROW31721 -1.000000
    SLACK45198 UPBROW31722 1.000000
    SLACK45199 LOBROW31723 -1.000000
    SLACK45200 UPBROW31724 1.000000
    SLACK45201 LOBROW31725 -1.000000
    SLACK45202 UPBROW31726 1.000000
    SLACK45203 UPBROW31727 1.000000
    SLACK45204 LOBROW31728 -1.000000
    SLACK45205 UPBROW31729 1.000000
    SLACK45206 LOBROW31730 -1.000000
    SLACK45207 UPBROW31731 1.000000
    SLACK45208 UPBROW31732 1.000000
    SLACK45209 UPBROW31733 1.000000
    SLACK45210 UPBROW31734 1.000000
    SLACK45211 UPBROW31735 1.000000
    SLACK45212 UPBROW31736 1.000000
    SLACK45213 UPBROW31737 1.000000
RHS
    FXIMPLICITRHS B&,1..BE -0.000000
    BOUNDRHS UPBROW31642 92.000000
    BOUNDRHS UPBROW31643 39.000000
    BOUNDRHS UPBROW31644 87.000000
    BOUNDRHS UPBROW31645 29.000000
    BOUNDRHS UPBROW31646 0.000000
    BOUNDRHS UPBROW31647 20.000000
    BOUNDRHS UPBROW31648 0.000000
    BOUNDRHS UPBROW31649 28.000000
    BOUNDRHS UPBROW31650 20.000000
    BOUNDRHS UPBROW31651 71.000000
    BOUNDRHS LOBROW31652 0.000000
    BOUNDRHS UPBROW31653 130.000000
    BOUNDRHS UPBROW31654 45.000000
    BOUNDRHS UPBROW31655 53.000000
    BOUNDRHS UPBROW31656 55.000000
    BOUNDRHS UPBROW31657 75.000000
    BOUNDRHS UPBROW31658 112.000000
    FXIMPLICITRHS FAT...J. 0.000000
    FXIMPLICITRHS BHX1..BE 0.000000
    FXIMPLICITRHS BHX2..BE 0.000000
    BOUNDRHS UPBROW31659 73.000000
    BOUNDRHS UPBROW31660 480.000000
    BOUNDRHS UPBROW31661 154.000000
    BOUNDRHS UPBROW31662 121.000000
    BOUNDRHS LOBROW31663 10.000000
    BOUNDRHS UPBROW31664 50.000000
    BOUNDRHS LOBROW31665 5.000000
    BOUNDRHS UPBROW31666 30.000000
    BOUNDRHS LOBROW31667 10.000000
    BOUNDRHS UPBROW31668 77.000000
    BOUNDRHS LOBROW31669 5.000000
    BOUNDRHS UPBROW31670 20.000000
    FXIMPLICITRHS BHH1..BE 0.000000
    FXIMPLICITRHS BHH2..BE 0.000000
    BOUNDRHS LOBROW31671 10.000000
    BOUNDRHS UPBROW31672 18.000000
    BOUNDRHS LOBROW31673 2.000000
    BOUNDRHS UPBROW31674 5.000000
    BOUNDRHS UPBROW31675 20.000000
    BOUNDRHS LOBROW31676 10.000000
    BOUNDRHS UPBROW31677 71.000000
    BOUNDRHS LOBROW31678 0.000000
    BOUNDRHS UPBROW31679 130.000000
    BOUNDRHS UPBROW31680 55.000000
    BOUNDRHS UPBROW31681 93.000000
    BOUNDRHS UPBROW31682 60.000000
    BOUNDRHS UPBROW31683 75.000000
    BOUNDRHS UPBROW31684 115.000000
    FXIMPLICITRHS BHX3..BE 0.000000
    BOUNDRHS UPBROW31685 67.000000
    BOUNDRHS UPBROW31686 480.000000
    BOUNDRHS UPBROW31687 154.000000
    BOUNDRHS UPBROW31688 121.000000
    BOUNDRHS LOBROW31689 10.000000
    BOUNDRHS UPBROW31690 50.000000
    BOUNDRHS LOBROW31691 5.000000
    BOUNDRHS UPBROW31692 20.000000
    BOUNDRHS LOBROW31693 10.000000
    BOUNDRHS UPBROW31694 37.000000
    BOUNDRHS LOBROW31695 5.000000
    BOUNDRHS UPBROW31696 15.000000
    FXIMPLICITRHS BHH3..BE 0.000000
    BOUNDRHS LOBROW31697 10.000000
    BOUNDRHS UPBROW31698 15.000000
    BOUNDRHS LOBROW31699 5.000000
    BOUNDRHS UPBROW31700 8.000000
    BOUNDRHS UPBROW31701 20.000000
    BOUNDRHS LOBROW31702 10.000000
    BOUNDRHS UPBROW31703 71.000000
    BOUNDRHS LOBROW31704 0.000000
    BOUNDRHS UPBROW31705 130.000000
    BOUNDRHS UPBROW31706 55.000000
    BOUNDRHS UPBROW31707 93.000000
    BOUNDRHS UPBROW31708 60.000000
    BOUNDRHS UPBROW31709 75.000000
    BOUNDRHS UPBROW31710 105.000000
    FXIMPLICITRHS BHX4..BE 0.000000
    BOUNDRHS UPBROW31711 67.000000
    BOUNDRHS UPBROW31712 4980.000000
    BOUNDRHS UPBROW31713 154.000000
    BOUNDRHS UPBROW31714 110.000000
    BOUNDRHS LOBROW31715 10.000000
    BOUNDRHS UPBROW31716 50.000000
    BOUNDRHS LOBROW31717 5.000000
    BOUNDRHS UPBROW31718 20.000000
    BOUNDRHS LOBROW31719 10.000000
    BOUNDRHS UPBROW31720 37.000000
    BOUNDRHS LOBROW31721 5.000000
    BOUNDRHS UPBROW31722 15.000000
    FXIMPLICITRHS BHH4..BE 0.000000
    BOUNDRHS LOBROW31723 10.000000
    BOUNDRHS UPBROW31724 25.000000
    BOUNDRHS LOBROW31725 5.000000
    BOUNDRHS UPBROW31726 8.000000
    BOUNDRHS UPBROW31727 20.000000
    BOUNDRHS LOBROW31728 10.000000
    BOUNDRHS UPBROW31729 71.000000
    BOUNDRHS LOBROW31730 0.000000
    BOUNDRHS UPBROW31731 20.000000
    BOUNDRHS UPBROW31732 20.000000
    BOUNDRHS UPBROW31733 20.000000
    BOUNDRHS UPBROW31734 20.000000
    BOUNDRHS UPBROW31735 20.000000
    BOUNDRHS UPBROW31736 20.000000
    FXIMPLICITRHS BN44..BE 0.000000
    BOUNDRHS UPBROW31737 20.000000
    FXIMPLICITRHS B&,4..BE 0.000000
    FXIMPLICITRHS BAL4..BE 0.000000
    FXIMPLICITRHS BCC4..BE 0.000000
    FXIMPLICITRHS BCH4..BE 0.000000
    FXIMPLICITRHS BCL4..BE 0.000000
    FXIMPLICITRHS BHL4..BE 0.000000
    FXIMPLICITRHS BLV4..BE 0.000000
    FXIMPLICITRHS BP84..BE 0.000000
BOUNDS
ENDATA
