NAME          SC105
ROWS
 N  MAXIM   
 E  ROW00001
 E  ROW00002
 E  ROW00003
 E  ROW00004
 E  ROW00005
 E  ROW00006
 E  ROW00007
 E  ROW00008
 E  ROW00009
 E  ROW00010
 E  ROW00011
 E  ROW00012
 E  ROW00013
 E  ROW00014
 E  ROW00015
 E  ROW00016
 E  ROW00017
 E  ROW00018
 E  ROW00019
 E  ROW00020
 E  ROW00021
 E  ROW00022
 E  ROW00023
 E  ROW00024
 E  ROW00025
 E  ROW00026
 E  ROW00027
 E  ROW00028
 E  ROW00029
 E  ROW00030
 E  ROW00031
 E  ROW00032
 E  ROW00033
 E  ROW00034
 E  ROW00035
 E  ROW00036
 E  ROW00037
 E  ROW00038
 E  ROW00039
 E  ROW00040
 E  ROW00041
 E  ROW00042
 E  ROW00043
 E  ROW00044
 E  ROW00045
 E  ROW00046
 E  ROW00047
 E  ROW00048
 E  ROW00049
 E  ROW00050
 E  ROW00051
 E  ROW00052
 E  ROW00053
 E  ROW00054
 E  ROW00055
 E  ROW00056
 E  ROW00057
 E  ROW00058
 E  ROW00059
 E  ROW00060
 E  ROW00061
 E  ROW00062
 E  ROW00063
 E  ROW00064
 E  ROW00065
 E  ROW00066
 E  ROW00067
 E  ROW00068
 E  ROW00069
 E  ROW00070
 E  ROW00071
 E  ROW00072
 E  ROW00073
 E  ROW00074
 E  ROW00075
 E  ROW00076
 E  ROW00077
 E  ROW00078
 E  ROW00079
 E  ROW00080
 E  ROW00081
 E  ROW00082
 E  ROW00083
 E  ROW00084
 E  ROW00085
 E  ROW00086
 E  ROW00087
 E  ROW00088
 E  ROW00089
 E  ROW00090
 E  ROW00091
 E  ROW00092
 E  ROW00093
 E  ROW00094
 E  ROW00095
 E  ROW00096
 E  ROW00097
 E  ROW00098
 E  ROW00099
 E  ROW00100
 E  ROW00101
 E  ROW00102
 E  ROW00103
 E  ROW00104
 E  ROW00105
COLUMNS
    COL00001 ROW00001 2.000000   ROW00002 1.000000
    COL00001 ROW00005 -1.000000
    COL00002 ROW00001 1.000000   ROW00002 2.000000
    COL00002 ROW00006 -1.000000
    COL00003 ROW00001 1.500000   ROW00002 1.500000
    COL00003 ROW00007 -1.000000
    COL00004 MAXIM    -1.000000   ROW00004 1.000000
    COL00004 ROW00014 1.100000
    COL00005 ROW00004 -1.000000   ROW00013 1.000000
    COL00005 ROW00015 1.000000
    COL00006 ROW00005 1.000000   ROW00008 -1.000000
    COL00006 ROW00016 -1.000000
    COL00007 ROW00006 1.000000   ROW00009 -1.000000
    COL00007 ROW00017 -1.000000
    COL00008 ROW00007 1.000000   ROW00010 -1.000000
    COL00008 ROW00018 -1.000000
    COL00009 ROW00008 1.000000   ROW00011 -1.000000
    COL00010 ROW00009 1.000000   ROW00012 -1.000000
    COL00011 ROW00010 1.000000   ROW00013 -1.000000
    COL00012 ROW00011 2.000000   ROW00012 1.000000
    COL00012 ROW00016 -1.000000
    COL00013 ROW00011 1.000000   ROW00012 2.000000
    COL00013 ROW00017 -1.000000
    COL00014 ROW00011 1.500000   ROW00012 1.500000
    COL00014 ROW00018 -1.000000
    COL00015 ROW00014 -1.000000   ROW00015 1.000000
    COL00015 ROW00025 1.100000
    COL00016 ROW00015 -1.000000   ROW00024 1.000000
    COL00016 ROW00026 1.000000
    COL00017 ROW00016 1.000000   ROW00019 -1.000000
    COL00017 ROW00027 -1.000000
    COL00018 ROW00017 1.000000   ROW00020 -1.000000
    COL00018 ROW00028 -1.000000
    COL00019 ROW00018 1.000000   ROW00021 -1.000000
    COL00019 ROW00029 -1.000000
    COL00020 ROW00019 1.000000   ROW00022 -1.000000
    COL00021 ROW00020 1.000000   ROW00023 -1.000000
    COL00022 ROW00021 1.000000   ROW00024 -1.000000
    COL00023 ROW00022 2.000000   ROW00023 1.000000
    COL00023 ROW00027 -1.000000
    COL00024 ROW00022 1.000000   ROW00023 2.000000
    COL00024 ROW00028 -1.000000
    COL00025 ROW00022 1.500000   ROW00023 1.500000
    COL00025 ROW00029 -1.000000
    COL00026 ROW00025 -1.000000   ROW00026 1.000000
    COL00026 ROW00036 1.100000
    COL00027 ROW00026 -1.000000   ROW00035 1.000000
    COL00027 ROW00037 1.000000
    COL00028 ROW00027 1.000000   ROW00030 -1.000000
    COL00028 ROW00038 -1.000000
    COL00029 ROW00028 1.000000   ROW00031 -1.000000
    COL00029 ROW00039 -1.000000
    COL00030 ROW00029 1.000000   ROW00032 -1.000000
    COL00030 ROW00040 -1.000000
    COL00031 ROW00030 1.000000   ROW00033 -1.000000
    COL00032 ROW00031 1.000000   ROW00034 -1.000000
    COL00033 ROW00032 1.000000   ROW00035 -1.000000
    COL00034 ROW00033 2.000000   ROW00034 1.000000
    COL00034 ROW00038 -1.000000
    COL00035 ROW00033 1.000000   ROW00034 2.000000
    COL00035 ROW00039 -1.000000
    COL00036 ROW00033 1.500000   ROW00034 1.500000
    COL00036 ROW00040 -1.000000
    COL00037 ROW00036 -1.000000   ROW00037 1.000000
    COL00037 ROW00047 1.100000
    COL00038 ROW00037 -1.000000   ROW00046 1.000000
    COL00038 ROW00048 1.000000
    COL00039 ROW00038 1.000000   ROW00041 -1.000000
    COL00039 ROW00049 -1.000000
    COL00040 ROW00039 1.000000   ROW00042 -1.000000
    COL00040 ROW00050 -1.000000
    COL00041 ROW00040 1.000000   ROW00043 -1.000000
    COL00041 ROW00051 -1.000000
    COL00042 ROW00041 1.000000   ROW00044 -1.000000
    COL00043 ROW00042 1.000000   ROW00045 -1.000000
    COL00044 ROW00043 1.000000   ROW00046 -1.000000
    COL00045 ROW00044 2.000000   ROW00045 1.000000
    COL00045 ROW00049 -1.000000
    COL00046 ROW00044 1.000000   ROW00045 2.000000
    COL00046 ROW00050 -1.000000
    COL00047 ROW00044 1.500000   ROW00045 1.500000
    COL00047 ROW00051 -1.000000
    COL00048 ROW00047 -1.000000   ROW00048 1.000000
    COL00048 ROW00058 1.100000
    COL00049 ROW00048 -1.000000   ROW00057 1.000000
    COL00049 ROW00059 1.000000
    COL00050 ROW00049 1.000000   ROW00052 -1.000000
    COL00050 ROW00060 -1.000000
    COL00051 ROW00050 1.000000   ROW00053 -1.000000
    COL00051 ROW00061 -1.000000
    COL00052 ROW00051 1.000000   ROW00054 -1.000000
    COL00052 ROW00062 -1.000000
    COL00053 ROW00052 1.000000   ROW00055 -1.000000
    COL00054 ROW00053 1.000000   ROW00056 -1.000000
    COL00055 ROW00054 1.000000   ROW00057 -1.000000
    COL00056 ROW00055 2.000000   ROW00056 1.000000
    COL00056 ROW00060 -1.000000
    COL00057 ROW00055 1.000000   ROW00056 2.000000
    COL00057 ROW00061 -1.000000
    COL00058 ROW00055 1.500000   ROW00056 1.500000
    COL00058 ROW00062 -1.000000
    COL00059 ROW00058 -1.000000   ROW00059 1.000000
    COL00059 ROW00069 1.100000
    COL00060 ROW00059 -1.000000   ROW00068 1.000000
    COL00060 ROW00070 1.000000
    COL00061 ROW00060 1.000000   ROW00063 -1.000000
    COL00061 ROW00071 -1.000000
    COL00062 ROW00061 1.000000   ROW00064 -1.000000
    COL00062 ROW00072 -1.000000
    COL00063 ROW00062 1.000000   ROW00065 -1.000000
    COL00063 ROW00073 -1.000000
    COL00064 ROW00063 1.000000   ROW00066 -1.000000
    COL00065 ROW00064 1.000000   ROW00067 -1.000000
    COL00066 ROW00065 1.000000   ROW00068 -1.000000
    COL00067 ROW00066 2.000000   ROW00067 1.000000
    COL00067 ROW00071 -1.000000
    COL00068 ROW00066 1.000000   ROW00067 2.000000
    COL00068 ROW00072 -1.000000
    COL00069 ROW00066 1.500000   ROW00067 1.500000
    COL00069 ROW00073 -1.000000
    COL00070 ROW00069 -1.000000   ROW00070 1.000000
    COL00070 ROW00080 1.100000
    COL00071 ROW00070 -1.000000   ROW00079 1.000000
    COL00071 ROW00081 1.000000
    COL00072 ROW00071 1.000000   ROW00074 -1.000000
    COL00072 ROW00082 -1.000000
    COL00073 ROW00072 1.000000   ROW00075 -1.000000
    COL00073 ROW00083 -1.000000
    COL00074 ROW00073 1.000000   ROW00076 -1.000000
    COL00074 ROW00084 -1.000000
    COL00075 ROW00074 1.000000   ROW00077 -1.000000
    COL00076 ROW00075 1.000000   ROW00078 -1.000000
    COL00077 ROW00076 1.000000   ROW00079 -1.000000
    COL00078 ROW00077 2.000000   ROW00078 1.000000
    COL00078 ROW00082 -1.000000
    COL00079 ROW00077 1.000000   ROW00078 2.000000
    COL00079 ROW00083 -1.000000
    COL00080 ROW00077 1.500000   ROW00078 1.500000
    COL00080 ROW00084 -1.000000
    COL00081 ROW00080 -1.000000   ROW00081 1.000000
    COL00081 ROW00091 1.100000
    COL00082 ROW00081 -1.000000   ROW00090 1.000000
    COL00082 ROW00092 1.000000
    COL00083 ROW00082 1.000000   ROW00085 -1.000000
    COL00083 ROW00093 -1.000000
    COL00084 ROW00083 1.000000   ROW00086 -1.000000
    COL00084 ROW00094 -1.000000
    COL00085 ROW00084 1.000000   ROW00087 -1.000000
    COL00085 ROW00095 -1.000000
    COL00086 ROW00085 1.000000   ROW00088 -1.000000
    COL00087 ROW00086 1.000000   ROW00089 -1.000000
    COL00088 ROW00087 1.000000   ROW00090 -1.000000
    COL00089 ROW00088 2.000000   ROW00089 1.000000
    COL00089 ROW00093 -1.000000
    COL00090 ROW00088 1.000000   ROW00089 2.000000
    COL00090 ROW00094 -1.000000
    COL00091 ROW00088 1.500000   ROW00089 1.500000
    COL00091 ROW00095 -1.000000
    COL00092 ROW00091 -1.000000   ROW00092 1.000000
    COL00092 ROW00102 1.100000
    COL00093 ROW00092 -1.000000   ROW00101 1.000000
    COL00094 ROW00093 1.000000   ROW00096 -1.000000
    COL00095 ROW00094 1.000000   ROW00097 -1.000000
    COL00096 ROW00095 1.000000   ROW00098 -1.000000
    COL00097 ROW00096 1.000000   ROW00099 -1.000000
    COL00098 ROW00097 1.000000   ROW00100 -1.000000
    COL00099 ROW00098 1.000000   ROW00101 -1.000000
    COL00100 ROW00099 2.000000   ROW00100 1.000000
    COL00100 ROW00103 -0.800000   ROW00104 0.100000
    COL00101 ROW00099 1.000000   ROW00100 2.000000
    COL00101 ROW00103 0.100000   ROW00104 -0.800000
    COL00102 ROW00099 1.500000   ROW00100 1.500000
    COL00102 ROW00103 0.150000   ROW00104 0.150000
    COL00102 ROW00105 -1.000000
    COL00103 ROW00102 -1.000000   ROW00105 1.000000
    SLACK48444 ROW00001 1.000000
    SLACK48445 ROW00002 1.000000
    SLACK48446 ROW00003 1.000000
    SLACK48447 ROW00008 1.000000
    SLACK48448 ROW00009 1.000000
    SLACK48449 ROW00010 1.000000
    SLACK48450 ROW00011 1.000000
    SLACK48451 ROW00012 1.000000
    SLACK48452 ROW00013 1.000000
    SLACK48453 ROW00019 1.000000
    SLACK48454 ROW00020 1.000000
    SLACK48455 ROW00021 1.000000
    SLACK48456 ROW00022 1.000000
    SLACK48457 ROW00023 1.000000
    SLACK48458 ROW00024 1.000000
    SLACK48459 ROW00030 1.000000
    SLACK48460 ROW00031 1.000000
    SLACK48461 ROW00032 1.000000
    SLACK48462 ROW00033 1.000000
    SLACK48463 ROW00034 1.000000
    SLACK48464 ROW00035 1.000000
    SLACK48465 ROW00041 1.000000
    SLACK48466 ROW00042 1.000000
    SLACK48467 ROW00043 1.000000
    SLACK48468 ROW00044 1.000000
    SLACK48469 ROW00045 1.000000
    SLACK48470 ROW00046 1.000000
    SLACK48471 ROW00052 1.000000
    SLACK48472 ROW00053 1.000000
    SLACK48473 ROW00054 1.000000
    SLACK48474 ROW00055 1.000000
    SLACK48475 ROW00056 1.000000
    SLACK48476 ROW00057 1.000000
    SLACK48477 ROW00063 1.000000
    SLACK48478 ROW00064 1.000000
    SLACK48479 ROW00065 1.000000
    SLACK48480 ROW00066 1.000000
    SLACK48481 ROW00067 1.000000
    SLACK48482 ROW00068 1.000000
    SLACK48483 ROW00074 1.000000
    SLACK48484 ROW00075 1.000000
    SLACK48485 ROW00076 1.000000
    SLACK48486 ROW00077 1.000000
    SLACK48487 ROW00078 1.000000
    SLACK48488 ROW00079 1.000000
    SLACK48489 ROW00085 1.000000
    SLACK48490 ROW00086 1.000000
    SLACK48491 ROW00087 1.000000
    SLACK48492 ROW00088 1.000000
    SLACK48493 ROW00089 1.000000
    SLACK48494 ROW00090 1.000000
    SLACK48495 ROW00096 1.000000
    SLACK48496 ROW00097 1.000000
    SLACK48497 ROW00098 1.000000
    SLACK48498 ROW00099 1.000000
    SLACK48499 ROW00100 1.000000
    SLACK48500 ROW00101 1.000000
    SLACK48501 ROW00103 1.000000
    SLACK48502 ROW00104 1.000000
    SLACK48503 ROW00105 1.000000
RHS
    CONST    ROW00001 200.000000
    CONST    ROW00002 100.000000
    CONST    ROW00011 200.000000
    CONST    ROW00012 100.000000
    CONST    ROW00022 200.000000
    CONST    ROW00023 100.000000
    CONST    ROW00033 200.000000
    CONST    ROW00034 100.000000
    CONST    ROW00044 200.000000
    CONST    ROW00045 100.000000
    CONST    ROW00055 200.000000
    CONST    ROW00056 100.000000
    CONST    ROW00066 200.000000
    CONST    ROW00067 100.000000
    CONST    ROW00077 200.000000
    CONST    ROW00078 100.000000
    CONST    ROW00088 200.000000
    CONST    ROW00089 100.000000
    CONST    ROW00099 200.000000
    CONST    ROW00100 100.000000
BOUNDS
ENDATA
