NAME          SC205
ROWS
 N  MAXIM   
 E  ROW00001
 E  ROW00002
 E  ROW00003
 E  ROW00004
 E  ROW00005
 E  ROW00006
 E  ROW00007
 E  ROW00008
 E  ROW00009
 E  ROW00010
 E  ROW00011
 E  ROW00012
 E  ROW00013
 E  ROW00014
 E  ROW00015
 E  ROW00016
 E  ROW00017
 E  ROW00018
 E  ROW00019
 E  ROW00020
 E  ROW00021
 E  ROW00022
 E  ROW00023
 E  ROW00024
 E  ROW00025
 E  ROW00026
 E  ROW00027
 E  ROW00028
 E  ROW00029
 E  ROW00030
 E  ROW00031
 E  ROW00032
 E  ROW00033
 E  ROW00034
 E  ROW00035
 E  ROW00036
 E  ROW00037
 E  ROW00038
 E  ROW00039
 E  ROW00040
 E  ROW00041
 E  ROW00042
 E  ROW00043
 E  ROW00044
 E  ROW00045
 E  ROW00046
 E  ROW00047
 E  ROW00048
 E  ROW00049
 E  ROW00050
 E  ROW00051
 E  ROW00052
 E  ROW00053
 E  ROW00054
 E  ROW00055
 E  ROW00056
 E  ROW00057
 E  ROW00058
 E  ROW00059
 E  ROW00060
 E  ROW00061
 E  ROW00062
 E  ROW00063
 E  ROW00064
 E  ROW00065
 E  ROW00066
 E  ROW00067
 E  ROW00068
 E  ROW00069
 E  ROW00070
 E  ROW00071
 E  ROW00072
 E  ROW00073
 E  ROW00074
 E  ROW00075
 E  ROW00076
 E  ROW00077
 E  ROW00078
 E  ROW00079
 E  ROW00080
 E  ROW00081
 E  ROW00082
 E  ROW00083
 E  ROW00084
 E  ROW00085
 E  ROW00086
 E  ROW00087
 E  ROW00088
 E  ROW00089
 E  ROW00090
 E  ROW00091
 E  ROW00092
 E  ROW00093
 E  ROW00094
 E  ROW00095
 E  ROW00096
 E  ROW00097
 E  ROW00098
 E  ROW00099
 E  ROW00100
 E  ROW00101
 E  ROW00102
 E  ROW00103
 E  ROW00104
 E  ROW00105
 E  ROW00106
 E  ROW00107
 E  ROW00108
 E  ROW00109
 E  ROW00110
 E  ROW00111
 E  ROW00112
 E  ROW00113
 E  ROW00114
 E  ROW00115
 E  ROW00116
 E  ROW00117
 E  ROW00118
 E  ROW00119
 E  ROW00120
 E  ROW00121
 E  ROW00122
 E  ROW00123
 E  ROW00124
 E  ROW00125
 E  ROW00126
 E  ROW00127
 E  ROW00128
 E  ROW00129
 E  ROW00130
 E  ROW00131
 E  ROW00132
 E  ROW00133
 E  ROW00134
 E  ROW00135
 E  ROW00136
 E  ROW00137
 E  ROW00138
 E  ROW00139
 E  ROW00140
 E  ROW00141
 E  ROW00142
 E  ROW00143
 E  ROW00144
 E  ROW00145
 E  ROW00146
 E  ROW00147
 E  ROW00148
 E  ROW00149
 E  ROW00150
 E  ROW00151
 E  ROW00152
 E  ROW00153
 E  ROW00154
 E  ROW00155
 E  ROW00156
 E  ROW00157
 E  ROW00158
 E  ROW00159
 E  ROW00160
 E  ROW00161
 E  ROW00162
 E  ROW00163
 E  ROW00164
 E  ROW00165
 E  ROW00166
 E  ROW00167
 E  ROW00168
 E  ROW00169
 E  ROW00170
 E  ROW00171
 E  ROW00172
 E  ROW00173
 E  ROW00174
 E  ROW00175
 E  ROW00176
 E  ROW00177
 E  ROW00178
 E  ROW00179
 E  ROW00180
 E  ROW00181
 E  ROW00182
 E  ROW00183
 E  ROW00184
 E  ROW00185
 E  ROW00186
 E  ROW00187
 E  ROW00188
 E  ROW00189
 E  ROW00190
 E  ROW00191
 E  ROW00192
 E  ROW00193
 E  ROW00194
 E  ROW00195
 E  ROW00196
 E  ROW00197
 E  ROW00198
 E  ROW00199
 E  ROW00200
 E  ROW00201
 E  ROW00202
 E  ROW00203
 E  ROW00204
 E  ROW00205
COLUMNS
    COL00001 ROW00001 2.000000   ROW00002 1.000000
    COL00001 ROW00005 -1.000000
    COL00002 ROW00001 1.000000   ROW00002 2.000000
    COL00002 ROW00006 -1.000000
    COL00003 ROW00001 1.500000   ROW00002 1.500000
    COL00003 ROW00007 -1.000000
    COL00004 MAXIM    -1.000000   ROW00004 1.000000
    COL00004 ROW00014 1.100000
    COL00005 ROW00004 -1.000000   ROW00013 1.000000
    COL00005 ROW00015 1.000000
    COL00006 ROW00005 1.000000   ROW00008 -1.000000
    COL00006 ROW00016 -1.000000
    COL00007 ROW00006 1.000000   ROW00009 -1.000000
    COL00007 ROW00017 -1.000000
    COL00008 ROW00007 1.000000   ROW00010 -1.000000
    COL00008 ROW00018 -1.000000
    COL00009 ROW00008 1.000000   ROW00011 -1.000000
    COL00010 ROW00009 1.000000   ROW00012 -1.000000
    COL00011 ROW00010 1.000000   ROW00013 -1.000000
    COL00012 ROW00011 2.000000   ROW00012 1.000000
    COL00012 ROW00016 -1.000000
    COL00013 ROW00011 1.000000   ROW00012 2.000000
    COL00013 ROW00017 -1.000000
    COL00014 ROW00011 1.500000   ROW00012 1.500000
    COL00014 ROW00018 -1.000000
    COL00015 ROW00014 -1.000000   ROW00015 1.000000
    COL00015 ROW00025 1.100000
    COL00016 ROW00015 -1.000000   ROW00024 1.000000
    COL00016 ROW00026 1.000000
    COL00017 ROW00016 1.000000   ROW00019 -1.000000
    COL00017 ROW00027 -1.000000
    COL00018 ROW00017 1.000000   ROW00020 -1.000000
    COL00018 ROW00028 -1.000000
    COL00019 ROW00018 1.000000   ROW00021 -1.000000
    COL00019 ROW00029 -1.000000
    COL00020 ROW00019 1.000000   ROW00022 -1.000000
    COL00021 ROW00020 1.000000   ROW00023 -1.000000
    COL00022 ROW00021 1.000000   ROW00024 -1.000000
    COL00023 ROW00022 2.000000   ROW00023 1.000000
    COL00023 ROW00027 -1.000000
    COL00024 ROW00022 1.000000   ROW00023 2.000000
    COL00024 ROW00028 -1.000000
    COL00025 ROW00022 1.500000   ROW00023 1.500000
    COL00025 ROW00029 -1.000000
    COL00026 ROW00025 -1.000000   ROW00026 1.000000
    COL00026 ROW00036 1.100000
    COL00027 ROW00026 -1.000000   ROW00035 1.000000
    COL00027 ROW00037 1.000000
    COL00028 ROW00027 1.000000   ROW00030 -1.000000
    COL00028 ROW00038 -1.000000
    COL00029 ROW00028 1.000000   ROW00031 -1.000000
    COL00029 ROW00039 -1.000000
    COL00030 ROW00029 1.000000   ROW00032 -1.000000
    COL00030 ROW00040 -1.000000
    COL00031 ROW00030 1.000000   ROW00033 -1.000000
    COL00032 ROW00031 1.000000   ROW00034 -1.000000
    COL00033 ROW00032 1.000000   ROW00035 -1.000000
    COL00034 ROW00033 2.000000   ROW00034 1.000000
    COL00034 ROW00038 -1.000000
    COL00035 ROW00033 1.000000   ROW00034 2.000000
    COL00035 ROW00039 -1.000000
    COL00036 ROW00033 1.500000   ROW00034 1.500000
    COL00036 ROW00040 -1.000000
    COL00037 ROW00036 -1.000000   ROW00037 1.000000
    COL00037 ROW00047 1.100000
    COL00038 ROW00037 -1.000000   ROW00046 1.000000
    COL00038 ROW00048 1.000000
    COL00039 ROW00038 1.000000   ROW00041 -1.000000
    COL00039 ROW00049 -1.000000
    COL00040 ROW00039 1.000000   ROW00042 -1.000000
    COL00040 ROW00050 -1.000000
    COL00041 ROW00040 1.000000   ROW00043 -1.000000
    COL00041 ROW00051 -1.000000
    COL00042 ROW00041 1.000000   ROW00044 -1.000000
    COL00043 ROW00042 1.000000   ROW00045 -1.000000
    COL00044 ROW00043 1.000000   ROW00046 -1.000000
    COL00045 ROW00044 2.000000   ROW00045 1.000000
    COL00045 ROW00049 -1.000000
    COL00046 ROW00044 1.000000   ROW00045 2.000000
    COL00046 ROW00050 -1.000000
    COL00047 ROW00044 1.500000   ROW00045 1.500000
    COL00047 ROW00051 -1.000000
    COL00048 ROW00047 -1.000000   ROW00048 1.000000
    COL00048 ROW00058 1.100000
    COL00049 ROW00048 -1.000000   ROW00057 1.000000
    COL00049 ROW00059 1.000000
    COL00050 ROW00049 1.000000   ROW00052 -1.000000
    COL00050 ROW00060 -1.000000
    COL00051 ROW00050 1.000000   ROW00053 -1.000000
    COL00051 ROW00061 -1.000000
    COL00052 ROW00051 1.000000   ROW00054 -1.000000
    COL00052 ROW00062 -1.000000
    COL00053 ROW00052 1.000000   ROW00055 -1.000000
    COL00054 ROW00053 1.000000   ROW00056 -1.000000
    COL00055 ROW00054 1.000000   ROW00057 -1.000000
    COL00056 ROW00055 2.000000   ROW00056 1.000000
    COL00056 ROW00060 -1.000000
    COL00057 ROW00055 1.000000   ROW00056 2.000000
    COL00057 ROW00061 -1.000000
    COL00058 ROW00055 1.500000   ROW00056 1.500000
    COL00058 ROW00062 -1.000000
    COL00059 ROW00058 -1.000000   ROW00059 1.000000
    COL00059 ROW00069 1.100000
    COL00060 ROW00059 -1.000000   ROW00068 1.000000
    COL00060 ROW00070 1.000000
    COL00061 ROW00060 1.000000   ROW00063 -1.000000
    COL00061 ROW00071 -1.000000
    COL00062 ROW00061 1.000000   ROW00064 -1.000000
    COL00062 ROW00072 -1.000000
    COL00063 ROW00062 1.000000   ROW00065 -1.000000
    COL00063 ROW00073 -1.000000
    COL00064 ROW00063 1.000000   ROW00066 -1.000000
    COL00065 ROW00064 1.000000   ROW00067 -1.000000
    COL00066 ROW00065 1.000000   ROW00068 -1.000000
    COL00067 ROW00066 2.000000   ROW00067 1.000000
    COL00067 ROW00071 -1.000000
    COL00068 ROW00066 1.000000   ROW00067 2.000000
    COL00068 ROW00072 -1.000000
    COL00069 ROW00066 1.500000   ROW00067 1.500000
    COL00069 ROW00073 -1.000000
    COL00070 ROW00069 -1.000000   ROW00070 1.000000
    COL00070 ROW00080 1.100000
    COL00071 ROW00070 -1.000000   ROW00079 1.000000
    COL00071 ROW00081 1.000000
    COL00072 ROW00071 1.000000   ROW00074 -1.000000
    COL00072 ROW00082 -1.000000
    COL00073 ROW00072 1.000000   ROW00075 -1.000000
    COL00073 ROW00083 -1.000000
    COL00074 ROW00073 1.000000   ROW00076 -1.000000
    COL00074 ROW00084 -1.000000
    COL00075 ROW00074 1.000000   ROW00077 -1.000000
    COL00076 ROW00075 1.000000   ROW00078 -1.000000
    COL00077 ROW00076 1.000000   ROW00079 -1.000000
    COL00078 ROW00077 2.000000   ROW00078 1.000000
    COL00078 ROW00082 -1.000000
    COL00079 ROW00077 1.000000   ROW00078 2.000000
    COL00079 ROW00083 -1.000000
    COL00080 ROW00077 1.500000   ROW00078 1.500000
    COL00080 ROW00084 -1.000000
    COL00081 ROW00080 -1.000000   ROW00081 1.000000
    COL00081 ROW00091 1.100000
    COL00082 ROW00081 -1.000000   ROW00090 1.000000
    COL00082 ROW00092 1.000000
    COL00083 ROW00082 1.000000   ROW00085 -1.000000
    COL00083 ROW00093 -1.000000
    COL00084 ROW00083 1.000000   ROW00086 -1.000000
    COL00084 ROW00094 -1.000000
    COL00085 ROW00084 1.000000   ROW00087 -1.000000
    COL00085 ROW00095 -1.000000
    COL00086 ROW00085 1.000000   ROW00088 -1.000000
    COL00087 ROW00086 1.000000   ROW00089 -1.000000
    COL00088 ROW00087 1.000000   ROW00090 -1.000000
    COL00089 ROW00088 2.000000   ROW00089 1.000000
    COL00089 ROW00093 -1.000000
    COL00090 ROW00088 1.000000   ROW00089 2.000000
    COL00090 ROW00094 -1.000000
    COL00091 ROW00088 1.500000   ROW00089 1.500000
    COL00091 ROW00095 -1.000000
    COL00092 ROW00091 -1.000000   ROW00092 1.000000
    COL00092 ROW00103 1.100000
    COL00093 ROW00092 -1.000000   ROW00101 1.000000
    COL00093 ROW00104 1.000000
    COL00094 ROW00093 1.000000   ROW00096 -1.000000
    COL00094 ROW00105 -1.000000
    COL00095 ROW00094 1.000000   ROW00097 -1.000000
    COL00095 ROW00106 -1.000000
    COL00096 ROW00095 1.000000   ROW00098 -1.000000
    COL00096 ROW00107 -1.000000
    COL00097 ROW00096 1.000000   ROW00099 -1.000000
    COL00098 ROW00097 1.000000   ROW00100 -1.000000
    COL00099 ROW00098 1.000000   ROW00101 -1.000000
    COL00100 ROW00099 2.000000   ROW00100 1.000000
    COL00100 ROW00105 -1.000000
    COL00101 ROW00099 1.000000   ROW00100 2.000000
    COL00101 ROW00106 -1.000000
    COL00102 ROW00099 1.500000   ROW00100 1.500000
    COL00102 ROW00107 -1.000000
    COL00103 ROW00102 1.000000
    COL00104 ROW00103 -1.000000   ROW00104 1.000000
    COL00104 ROW00114 1.100000
    COL00105 ROW00104 -1.000000   ROW00113 1.000000
    COL00105 ROW00115 1.000000
    COL00106 ROW00105 1.000000   ROW00108 -1.000000
    COL00106 ROW00116 -1.000000
    COL00107 ROW00106 1.000000   ROW00109 -1.000000
    COL00107 ROW00117 -1.000000
    COL00108 ROW00107 1.000000   ROW00110 -1.000000
    COL00108 ROW00118 -1.000000
    COL00109 ROW00108 1.000000   ROW00111 -1.000000
    COL00110 ROW00109 1.000000   ROW00112 -1.000000
    COL00111 ROW00110 1.000000   ROW00113 -1.000000
    COL00112 ROW00111 2.000000   ROW00112 1.000000
    COL00112 ROW00116 -1.000000
    COL00113 ROW00111 1.000000   ROW00112 2.000000
    COL00113 ROW00117 -1.000000
    COL00114 ROW00111 1.500000   ROW00112 1.500000
    COL00114 ROW00118 -1.000000
    COL00115 ROW00114 -1.000000   ROW00115 1.000000
    COL00115 ROW00125 1.100000
    COL00116 ROW00115 -1.000000   ROW00124 1.000000
    COL00116 ROW00126 1.000000
    COL00117 ROW00116 1.000000   ROW00119 -1.000000
    COL00117 ROW00127 -1.000000
    COL00118 ROW00117 1.000000   ROW00120 -1.000000
    COL00118 ROW00128 -1.000000
    COL00119 ROW00118 1.000000   ROW00121 -1.000000
    COL00119 ROW00129 -1.000000
    COL00120 ROW00119 1.000000   ROW00122 -1.000000
    COL00121 ROW00120 1.000000   ROW00123 -1.000000
    COL00122 ROW00121 1.000000   ROW00124 -1.000000
    COL00123 ROW00122 2.000000   ROW00123 1.000000
    COL00123 ROW00127 -1.000000
    COL00124 ROW00122 1.000000   ROW00123 2.000000
    COL00124 ROW00128 -1.000000
    COL00125 ROW00122 1.500000   ROW00123 1.500000
    COL00125 ROW00129 -1.000000
    COL00126 ROW00125 -1.000000   ROW00126 1.000000
    COL00126 ROW00136 1.100000
    COL00127 ROW00126 -1.000000   ROW00135 1.000000
    COL00127 ROW00137 1.000000
    COL00128 ROW00127 1.000000   ROW00130 -1.000000
    COL00128 ROW00138 -1.000000
    COL00129 ROW00128 1.000000   ROW00131 -1.000000
    COL00129 ROW00139 -1.000000
    COL00130 ROW00129 1.000000   ROW00132 -1.000000
    COL00130 ROW00140 -1.000000
    COL00131 ROW00130 1.000000   ROW00133 -1.000000
    COL00132 ROW00131 1.000000   ROW00134 -1.000000
    COL00133 ROW00132 1.000000   ROW00135 -1.000000
    COL00134 ROW00133 2.000000   ROW00134 1.000000
    COL00134 ROW00138 -1.000000
    COL00135 ROW00133 1.000000   ROW00134 2.000000
    COL00135 ROW00139 -1.000000
    COL00136 ROW00133 1.500000   ROW00134 1.500000
    COL00136 ROW00140 -1.000000
    COL00137 ROW00136 -1.000000   ROW00137 1.000000
    COL00137 ROW00147 1.100000
    COL00138 ROW00137 -1.000000   ROW00146 1.000000
    COL00138 ROW00148 1.000000
    COL00139 ROW00138 1.000000   ROW00141 -1.000000
    COL00139 ROW00149 -1.000000
    COL00140 ROW00139 1.000000   ROW00142 -1.000000
    COL00140 ROW00150 -1.000000
    COL00141 ROW00140 1.000000   ROW00143 -1.000000
    COL00141 ROW00151 -1.000000
    COL00142 ROW00141 1.000000   ROW00144 -1.000000
    COL00143 ROW00142 1.000000   ROW00145 -1.000000
    COL00144 ROW00143 1.000000   ROW00146 -1.000000
    COL00145 ROW00144 2.000000   ROW00145 1.000000
    COL00145 ROW00149 -1.000000
    COL00146 ROW00144 1.000000   ROW00145 2.000000
    COL00146 ROW00150 -1.000000
    COL00147 ROW00144 1.500000   ROW00145 1.500000
    COL00147 ROW00151 -1.000000
    COL00148 ROW00147 -1.000000   ROW00148 1.000000
    COL00148 ROW00158 1.100000
    COL00149 ROW00148 -1.000000   ROW00157 1.000000
    COL00149 ROW00159 1.000000
    COL00150 ROW00149 1.000000   ROW00152 -1.000000
    COL00150 ROW00160 -1.000000
    COL00151 ROW00150 1.000000   ROW00153 -1.000000
    COL00151 ROW00161 -1.000000
    COL00152 ROW00151 1.000000   ROW00154 -1.000000
    COL00152 ROW00162 -1.000000
    COL00153 ROW00152 1.000000   ROW00155 -1.000000
    COL00154 ROW00153 1.000000   ROW00156 -1.000000
    COL00155 ROW00154 1.000000   ROW00157 -1.000000
    COL00156 ROW00155 2.000000   ROW00156 1.000000
    COL00156 ROW00160 -1.000000
    COL00157 ROW00155 1.000000   ROW00156 2.000000
    COL00157 ROW00161 -1.000000
    COL00158 ROW00155 1.500000   ROW00156 1.500000
    COL00158 ROW00162 -1.000000
    COL00159 ROW00158 -1.000000   ROW00159 1.000000
    COL00159 ROW00169 1.100000
    COL00160 ROW00159 -1.000000   ROW00168 1.000000
    COL00160 ROW00170 1.000000
    COL00161 ROW00160 1.000000   ROW00163 -1.000000
    COL00161 ROW00171 -1.000000
    COL00162 ROW00161 1.000000   ROW00164 -1.000000
    COL00162 ROW00172 -1.000000
    COL00163 ROW00162 1.000000   ROW00165 -1.000000
    COL00163 ROW00173 -1.000000
    COL00164 ROW00163 1.000000   ROW00166 -1.000000
    COL00165 ROW00164 1.000000   ROW00167 -1.000000
    COL00166 ROW00165 1.000000   ROW00168 -1.000000
    COL00167 ROW00166 2.000000   ROW00167 1.000000
    COL00167 ROW00171 -1.000000
    COL00168 ROW00166 1.000000   ROW00167 2.000000
    COL00168 ROW00172 -1.000000
    COL00169 ROW00166 1.500000   ROW00167 1.500000
    COL00169 ROW00173 -1.000000
    COL00170 ROW00169 -1.000000   ROW00170 1.000000
    COL00170 ROW00180 1.100000
    COL00171 ROW00170 -1.000000   ROW00179 1.000000
    COL00171 ROW00181 1.000000
    COL00172 ROW00171 1.000000   ROW00174 -1.000000
    COL00172 ROW00182 -1.000000
    COL00173 ROW00172 1.000000   ROW00175 -1.000000
    COL00173 ROW00183 -1.000000
    COL00174 ROW00173 1.000000   ROW00176 -1.000000
    COL00174 ROW00184 -1.000000
    COL00175 ROW00174 1.000000   ROW00177 -1.000000
    COL00176 ROW00175 1.000000   ROW00178 -1.000000
    COL00177 ROW00176 1.000000   ROW00179 -1.000000
    COL00178 ROW00177 2.000000   ROW00178 1.000000
    COL00178 ROW00182 -1.000000
    COL00179 ROW00177 1.000000   ROW00178 2.000000
    COL00179 ROW00183 -1.000000
    COL00180 ROW00177 1.500000   ROW00178 1.500000
    COL00180 ROW00184 -1.000000
    COL00181 ROW00180 -1.000000   ROW00181 1.000000
    COL00181 ROW00191 1.100000
    COL00182 ROW00181 -1.000000   ROW00190 1.000000
    COL00182 ROW00192 1.000000
    COL00183 ROW00182 1.000000   ROW00185 -1.000000
    COL00183 ROW00193 -1.000000
    COL00184 ROW00183 1.000000   ROW00186 -1.000000
    COL00184 ROW00194 -1.000000
    COL00185 ROW00184 1.000000   ROW00187 -1.000000
    COL00185 ROW00195 -1.000000
    COL00186 ROW00185 1.000000   ROW00188 -1.000000
    COL00187 ROW00186 1.000000   ROW00189 -1.000000
    COL00188 ROW00187 1.000000   ROW00190 -1.000000
    COL00189 ROW00188 2.000000   ROW00189 1.000000
    COL00189 ROW00193 -1.000000
    COL00190 ROW00188 1.000000   ROW00189 2.000000
    COL00190 ROW00194 -1.000000
    COL00191 ROW00188 1.500000   ROW00189 1.500000
    COL00191 ROW00195 -1.000000
    COL00192 ROW00191 -1.000000   ROW00192 1.000000
    COL00192 ROW00202 1.100000
    COL00193 ROW00192 -1.000000   ROW00201 1.000000
    COL00194 ROW00193 1.000000   ROW00196 -1.000000
    COL00195 ROW00194 1.000000   ROW00197 -1.000000
    COL00196 ROW00195 1.000000   ROW00198 -1.000000
    COL00197 ROW00196 1.000000   ROW00199 -1.000000
    COL00198 ROW00197 1.000000   ROW00200 -1.000000
    COL00199 ROW00198 1.000000   ROW00201 -1.000000
    COL00200 ROW00199 2.000000   ROW00200 1.000000
    COL00200 ROW00203 -0.800000   ROW00204 0.100000
    COL00201 ROW00199 1.000000   ROW00200 2.000000
    COL00201 ROW00203 0.100000   ROW00204 -0.800000
    COL00202 ROW00199 1.500000   ROW00200 1.500000
    COL00202 ROW00203 0.150000   ROW00204 0.150000
    COL00202 ROW00205 -1.000000
    COL00203 ROW00202 -1.000000   ROW00205 1.000000
    SLACK60979 ROW00001 1.000000
    SLACK60980 ROW00002 1.000000
    SLACK60981 ROW00003 1.000000
    SLACK60982 ROW00008 1.000000
    SLACK60983 ROW00009 1.000000
    SLACK60984 ROW00010 1.000000
    SLACK60985 ROW00011 1.000000
    SLACK60986 ROW00012 1.000000
    SLACK60987 ROW00013 1.000000
    SLACK60988 ROW00019 1.000000
    SLACK60989 ROW00020 1.000000
    SLACK60990 ROW00021 1.000000
    SLACK60991 ROW00022 1.000000
    SLACK60992 ROW00023 1.000000
    SLACK60993 ROW00024 1.000000
    SLACK60994 ROW00030 1.000000
    SLACK60995 ROW00031 1.000000
    SLACK60996 ROW00032 1.000000
    SLACK60997 ROW00033 1.000000
    SLACK60998 ROW00034 1.000000
    SLACK60999 ROW00035 1.000000
    SLACK61000 ROW00041 1.000000
    SLACK61001 ROW00042 1.000000
    SLACK61002 ROW00043 1.000000
    SLACK61003 ROW00044 1.000000
    SLACK61004 ROW00045 1.000000
    SLACK61005 ROW00046 1.000000
    SLACK61006 ROW00052 1.000000
    SLACK61007 ROW00053 1.000000
    SLACK61008 ROW00054 1.000000
    SLACK61009 ROW00055 1.000000
    SLACK61010 ROW00056 1.000000
    SLACK61011 ROW00057 1.000000
    SLACK61012 ROW00063 1.000000
    SLACK61013 ROW00064 1.000000
    SLACK61014 ROW00065 1.000000
    SLACK61015 ROW00066 1.000000
    SLACK61016 ROW00067 1.000000
    SLACK61017 ROW00068 1.000000
    SLACK61018 ROW00074 1.000000
    SLACK61019 ROW00075 1.000000
    SLACK61020 ROW00076 1.000000
    SLACK61021 ROW00077 1.000000
    SLACK61022 ROW00078 1.000000
    SLACK61023 ROW00079 1.000000
    SLACK61024 ROW00085 1.000000
    SLACK61025 ROW00086 1.000000
    SLACK61026 ROW00087 1.000000
    SLACK61027 ROW00088 1.000000
    SLACK61028 ROW00089 1.000000
    SLACK61029 ROW00090 1.000000
    SLACK61030 ROW00096 1.000000
    SLACK61031 ROW00097 1.000000
    SLACK61032 ROW00098 1.000000
    SLACK61033 ROW00099 1.000000
    SLACK61034 ROW00100 1.000000
    SLACK61035 ROW00101 1.000000
    SLACK61036 ROW00108 1.000000
    SLACK61037 ROW00109 1.000000
    SLACK61038 ROW00110 1.000000
    SLACK61039 ROW00111 1.000000
    SLACK61040 ROW00112 1.000000
    SLACK61041 ROW00113 1.000000
    SLACK61042 ROW00119 1.000000
    SLACK61043 ROW00120 1.000000
    SLACK61044 ROW00121 1.000000
    SLACK61045 ROW00122 1.000000
    SLACK61046 ROW00123 1.000000
    SLACK61047 ROW00124 1.000000
    SLACK61048 ROW00130 1.000000
    SLACK61049 ROW00131 1.000000
    SLACK61050 ROW00132 1.000000
    SLACK61051 ROW00133 1.000000
    SLACK61052 ROW00134 1.000000
    SLACK61053 ROW00135 1.000000
    SLACK61054 ROW00141 1.000000
    SLACK61055 ROW00142 1.000000
    SLACK61056 ROW00143 1.000000
    SLACK61057 ROW00144 1.000000
    SLACK61058 ROW00145 1.000000
    SLACK61059 ROW00146 1.000000
    SLACK61060 ROW00152 1.000000
    SLACK61061 ROW00153 1.000000
    SLACK61062 ROW00154 1.000000
    SLACK61063 ROW00155 1.000000
    SLACK61064 ROW00156 1.000000
    SLACK61065 ROW00157 1.000000
    SLACK61066 ROW00163 1.000000
    SLACK61067 ROW00164 1.000000
    SLACK61068 ROW00165 1.000000
    SLACK61069 ROW00166 1.000000
    SLACK61070 ROW00167 1.000000
    SLACK61071 ROW00168 1.000000
    SLACK61072 ROW00174 1.000000
    SLACK61073 ROW00175 1.000000
    SLACK61074 ROW00176 1.000000
    SLACK61075 ROW00177 1.000000
    SLACK61076 ROW00178 1.000000
    SLACK61077 ROW00179 1.000000
    SLACK61078 ROW00185 1.000000
    SLACK61079 ROW00186 1.000000
    SLACK61080 ROW00187 1.000000
    SLACK61081 ROW00188 1.000000
    SLACK61082 ROW00189 1.000000
    SLACK61083 ROW00190 1.000000
    SLACK61084 ROW00196 1.000000
    SLACK61085 ROW00197 1.000000
    SLACK61086 ROW00198 1.000000
    SLACK61087 ROW00199 1.000000
    SLACK61088 ROW00200 1.000000
    SLACK61089 ROW00201 1.000000
    SLACK61090 ROW00203 1.000000
    SLACK61091 ROW00204 1.000000
    SLACK61092 ROW00205 1.000000
RHS
    RHS      ROW00001 200.000000
    RHS      ROW00002 100.000000
    RHS      ROW00011 200.000000
    RHS      ROW00012 100.000000
    RHS      ROW00022 200.000000
    RHS      ROW00023 100.000000
    RHS      ROW00033 200.000000
    RHS      ROW00034 100.000000
    RHS      ROW00044 200.000000
    RHS      ROW00045 100.000000
    RHS      ROW00055 200.000000
    RHS      ROW00056 100.000000
    RHS      ROW00066 200.000000
    RHS      ROW00067 100.000000
    RHS      ROW00077 200.000000
    RHS      ROW00078 100.000000
    RHS      ROW00088 200.000000
    RHS      ROW00089 100.000000
    RHS      ROW00099 200.000000
    RHS      ROW00100 100.000000
    RHS      ROW00111 200.000000
    RHS      ROW00112 100.000000
    RHS      ROW00122 200.000000
    RHS      ROW00123 100.000000
    RHS      ROW00133 200.000000
    RHS      ROW00134 100.000000
    RHS      ROW00144 200.000000
    RHS      ROW00145 100.000000
    RHS      ROW00155 200.000000
    RHS      ROW00156 100.000000
    RHS      ROW00166 200.000000
    RHS      ROW00167 100.000000
    RHS      ROW00177 200.000000
    RHS      ROW00178 100.000000
    RHS      ROW00188 200.000000
    RHS      ROW00189 100.000000
    RHS      ROW00199 200.000000
    RHS      ROW00200 100.000000
BOUNDS
ENDATA
