NAME          SC50A
ROWS
 N  MAXIM   
 E  ROW00001
 E  ROW00002
 E  ROW00003
 E  ROW00004
 E  ROW00005
 E  ROW00006
 E  ROW00007
 E  ROW00008
 E  ROW00009
 E  ROW00010
 E  ROW00011
 E  ROW00012
 E  ROW00013
 E  ROW00014
 E  ROW00015
 E  ROW00016
 E  ROW00017
 E  ROW00018
 E  ROW00019
 E  ROW00020
 E  ROW00021
 E  ROW00022
 E  ROW00023
 E  ROW00024
 E  ROW00025
 E  ROW00026
 E  ROW00027
 E  ROW00028
 E  ROW00029
 E  ROW00030
 E  ROW00031
 E  ROW00032
 E  ROW00033
 E  ROW00034
 E  ROW00035
 E  ROW00036
 E  ROW00037
 E  ROW00038
 E  ROW00039
 E  ROW00040
 E  ROW00041
 E  ROW00042
 E  ROW00043
 E  ROW00044
 E  ROW00045
 E  ROW00046
 E  ROW00047
 E  ROW00048
 E  ROW00049
 E  ROW00050
COLUMNS
    COL00001 ROW00001 2.000000   ROW00002 1.000000
    COL00001 ROW00005 -1.000000
    COL00002 ROW00001 1.000000   ROW00002 2.000000
    COL00002 ROW00006 -1.000000
    COL00003 ROW00001 1.500000   ROW00002 1.500000
    COL00003 ROW00007 -1.000000
    COL00004 MAXIM    -1.000000   ROW00004 1.000000
    COL00004 ROW00014 1.100000
    COL00005 ROW00004 -1.000000   ROW00013 1.000000
    COL00005 ROW00015 1.000000
    COL00006 ROW00005 1.000000   ROW00008 -1.000000
    COL00006 ROW00016 -1.000000
    COL00007 ROW00006 1.000000   ROW00009 -1.000000
    COL00007 ROW00017 -1.000000
    COL00008 ROW00007 1.000000   ROW00010 -1.000000
    COL00008 ROW00018 -1.000000
    COL00009 ROW00008 1.000000   ROW00011 -1.000000
    COL00010 ROW00009 1.000000   ROW00012 -1.000000
    COL00011 ROW00010 1.000000   ROW00013 -1.000000
    COL00012 ROW00011 2.000000   ROW00012 1.000000
    COL00012 ROW00016 -1.000000
    COL00013 ROW00011 1.000000   ROW00012 2.000000
    COL00013 ROW00017 -1.000000
    COL00014 ROW00011 1.500000   ROW00012 1.500000
    COL00014 ROW00018 -1.000000
    COL00015 ROW00014 -1.000000   ROW00015 1.000000
    COL00015 ROW00025 1.100000
    COL00016 ROW00015 -1.000000   ROW00024 1.000000
    COL00016 ROW00026 1.000000
    COL00017 ROW00016 1.000000   ROW00019 -1.000000
    COL00017 ROW00027 -1.000000
    COL00018 ROW00017 1.000000   ROW00020 -1.000000
    COL00018 ROW00028 -1.000000
    COL00019 ROW00018 1.000000   ROW00021 -1.000000
    COL00019 ROW00029 -1.000000
    COL00020 ROW00019 1.000000   ROW00022 -1.000000
    COL00021 ROW00020 1.000000   ROW00023 -1.000000
    COL00022 ROW00021 1.000000   ROW00024 -1.000000
    COL00023 ROW00022 2.000000   ROW00023 1.000000
    COL00023 ROW00027 -1.000000
    COL00024 ROW00022 1.000000   ROW00023 2.000000
    COL00024 ROW00028 -1.000000
    COL00025 ROW00022 1.500000   ROW00023 1.500000
    COL00025 ROW00029 -1.000000
    COL00026 ROW00025 -1.000000   ROW00026 1.000000
    COL00026 ROW00036 1.100000
    COL00027 ROW00026 -1.000000   ROW00035 1.000000
    COL00027 ROW00037 1.000000
    COL00028 ROW00027 1.000000   ROW00030 -1.000000
    COL00028 ROW00038 -1.000000
    COL00029 ROW00028 1.000000   ROW00031 -1.000000
    COL00029 ROW00039 -1.000000
    COL00030 ROW00029 1.000000   ROW00032 -1.000000
    COL00030 ROW00040 -1.000000
    COL00031 ROW00030 1.000000   ROW00033 -1.000000
    COL00032 ROW00031 1.000000   ROW00034 -1.000000
    COL00033 ROW00032 1.000000   ROW00035 -1.000000
    COL00034 ROW00033 2.000000   ROW00034 1.000000
    COL00034 ROW00038 -1.000000
    COL00035 ROW00033 1.000000   ROW00034 2.000000
    COL00035 ROW00039 -1.000000
    COL00036 ROW00033 1.500000   ROW00034 1.500000
    COL00036 ROW00040 -1.000000
    COL00037 ROW00036 -1.000000   ROW00037 1.000000
    COL00037 ROW00047 1.100000
    COL00038 ROW00037 -1.000000   ROW00046 1.000000
    COL00039 ROW00038 1.000000   ROW00041 -1.000000
    COL00040 ROW00039 1.000000   ROW00042 -1.000000
    COL00041 ROW00040 1.000000   ROW00043 -1.000000
    COL00042 ROW00041 1.000000   ROW00044 -1.000000
    COL00043 ROW00042 1.000000   ROW00045 -1.000000
    COL00044 ROW00043 1.000000   ROW00046 -1.000000
    COL00045 ROW00044 2.000000   ROW00045 1.000000
    COL00045 ROW00048 -0.800000   ROW00049 0.100000
    COL00046 ROW00044 1.000000   ROW00045 2.000000
    COL00046 ROW00048 0.100000   ROW00049 -0.800000
    COL00047 ROW00044 1.500000   ROW00045 1.500000
    COL00047 ROW00048 0.150000   ROW00049 0.150000
    COL00047 ROW00050 -1.000000
    COL00048 ROW00047 -1.000000   ROW00050 1.000000
    SLACK42797 ROW00001 1.000000
    SLACK42798 ROW00002 1.000000
    SLACK42799 ROW00003 1.000000
    SLACK42800 ROW00008 1.000000
    SLACK42801 ROW00009 1.000000
    SLACK42802 ROW00010 1.000000
    SLACK42803 ROW00011 1.000000
    SLACK42804 ROW00012 1.000000
    SLACK42805 ROW00013 1.000000
    SLACK42806 ROW00019 1.000000
    SLACK42807 ROW00020 1.000000
    SLACK42808 ROW00021 1.000000
    SLACK42809 ROW00022 1.000000
    SLACK42810 ROW00023 1.000000
    SLACK42811 ROW00024 1.000000
    SLACK42812 ROW00030 1.000000
    SLACK42813 ROW00031 1.000000
    SLACK42814 ROW00032 1.000000
    SLACK42815 ROW00033 1.000000
    SLACK42816 ROW00034 1.000000
    SLACK42817 ROW00035 1.000000
    SLACK42818 ROW00041 1.000000
    SLACK42819 ROW00042 1.000000
    SLACK42820 ROW00043 1.000000
    SLACK42821 ROW00044 1.000000
    SLACK42822 ROW00045 1.000000
    SLACK42823 ROW00046 1.000000
    SLACK42824 ROW00048 1.000000
    SLACK42825 ROW00049 1.000000
    SLACK42826 ROW00050 1.000000
RHS
    CONST    ROW00001 170.000000
    CONST    ROW00002 130.000000
    CONST    ROW00011 170.000000
    CONST    ROW00012 130.000000
    CONST    ROW00022 170.000000
    CONST    ROW00023 130.000000
    CONST    ROW00033 170.000000
    CONST    ROW00034 130.000000
    CONST    ROW00044 170.000000
    CONST    ROW00045 130.000000
BOUNDS
ENDATA
