NAME          SCAGR25
ROWS
 N  FOB00001
 E  ROW00001
 E  ROW00002
 E  ROW00003
 E  ROW00004
 E  ROW00005
 E  ROW00006
 E  ROW00007
 E  ROW00008
 E  ROW00009
 E  ROW00010
 E  ROW00011
 E  ROW00012
 E  ROW00013
 E  ROW00014
 E  ROW00015
 E  ROW00016
 E  ROW00017
 E  ROW00018
 E  ROW00019
 E  ROW00020
 E  ROW00021
 E  ROW00022
 E  ROW00023
 E  ROW00024
 E  ROW00025
 E  ROW00026
 E  ROW00027
 E  ROW00028
 E  ROW00029
 E  ROW00030
 E  ROW00031
 E  ROW00032
 E  ROW00033
 E  ROW00034
 E  ROW00035
 E  ROW00036
 E  ROW00037
 E  ROW00038
 E  ROW00039
 E  ROW00040
 E  ROW00041
 E  ROW00042
 E  ROW00043
 E  ROW00044
 E  ROW00045
 E  ROW00046
 E  ROW00047
 E  ROW00048
 E  ROW00049
 E  ROW00050
 E  ROW00051
 E  ROW00052
 E  ROW00053
 E  ROW00054
 E  ROW00055
 E  ROW00056
 E  ROW00057
 E  ROW00058
 E  ROW00059
 E  ROW00060
 E  ROW00061
 E  ROW00062
 E  ROW00063
 E  ROW00064
 E  ROW00065
 E  ROW00066
 E  ROW00067
 E  ROW00068
 E  ROW00069
 E  ROW00070
 E  ROW00071
 E  ROW00072
 E  ROW00073
 E  ROW00074
 E  ROW00075
 E  ROW00076
 E  ROW00077
 E  ROW00078
 E  ROW00079
 E  ROW00080
 E  ROW00081
 E  ROW00082
 E  ROW00083
 E  ROW00084
 E  ROW00085
 E  ROW00086
 E  ROW00087
 E  ROW00088
 E  ROW00089
 E  ROW00090
 E  ROW00091
 E  ROW00092
 E  ROW00093
 E  ROW00094
 E  ROW00095
 E  ROW00096
 E  ROW00097
 E  ROW00098
 E  ROW00099
 E  ROW00100
 E  ROW00101
 E  ROW00102
 E  ROW00103
 E  ROW00104
 E  ROW00105
 E  ROW00106
 E  ROW00107
 E  ROW00108
 E  ROW00109
 E  ROW00110
 E  ROW00111
 E  ROW00112
 E  ROW00113
 E  ROW00114
 E  ROW00115
 E  ROW00116
 E  ROW00117
 E  ROW00118
 E  ROW00119
 E  ROW00120
 E  ROW00121
 E  ROW00122
 E  ROW00123
 E  ROW00124
 E  ROW00125
 E  ROW00126
 E  ROW00127
 E  ROW00128
 E  ROW00129
 E  ROW00130
 E  ROW00131
 E  ROW00132
 E  ROW00133
 E  ROW00134
 E  ROW00135
 E  ROW00136
 E  ROW00137
 E  ROW00138
 E  ROW00139
 E  ROW00140
 E  ROW00141
 E  ROW00142
 E  ROW00143
 E  ROW00144
 E  ROW00145
 E  ROW00146
 E  ROW00147
 E  ROW00148
 E  ROW00149
 E  ROW00150
 E  ROW00151
 E  ROW00152
 E  ROW00153
 E  ROW00154
 E  ROW00155
 E  ROW00156
 E  ROW00157
 E  ROW00158
 E  ROW00159
 E  ROW00160
 E  ROW00161
 E  ROW00162
 E  ROW00163
 E  ROW00164
 E  ROW00165
 E  ROW00166
 E  ROW00167
 E  ROW00168
 E  ROW00169
 E  ROW00170
 E  ROW00171
 E  ROW00172
 E  ROW00173
 E  ROW00174
 E  ROW00175
 E  ROW00176
 E  ROW00177
 E  ROW00178
 E  ROW00179
 E  ROW00180
 E  ROW00181
 E  ROW00182
 E  ROW00183
 E  ROW00184
 E  ROW00185
 E  ROW00186
 E  ROW00187
 E  ROW00188
 E  ROW00189
 E  ROW00190
 E  ROW00191
 E  ROW00192
 E  ROW00193
 E  ROW00194
 E  ROW00195
 E  ROW00196
 E  ROW00197
 E  ROW00198
 E  ROW00199
 E  ROW00200
 E  ROW00201
 E  ROW00202
 E  ROW00203
 E  ROW00204
 E  ROW00205
 E  ROW00206
 E  ROW00207
 E  ROW00208
 E  ROW00209
 E  ROW00210
 E  ROW00211
 E  ROW00212
 E  ROW00213
 E  ROW00214
 E  ROW00215
 E  ROW00216
 E  ROW00217
 E  ROW00218
 E  ROW00219
 E  ROW00220
 E  ROW00221
 E  ROW00222
 E  ROW00223
 E  ROW00224
 E  ROW00225
 E  ROW00226
 E  ROW00227
 E  ROW00228
 E  ROW00229
 E  ROW00230
 E  ROW00231
 E  ROW00232
 E  ROW00233
 E  ROW00234
 E  ROW00235
 E  ROW00236
 E  ROW00237
 E  ROW00238
 E  ROW00239
 E  ROW00240
 E  ROW00241
 E  ROW00242
 E  ROW00243
 E  ROW00244
 E  ROW00245
 E  ROW00246
 E  ROW00247
 E  ROW00248
 E  ROW00249
 E  ROW00250
 E  ROW00251
 E  ROW00252
 E  ROW00253
 E  ROW00254
 E  ROW00255
 E  ROW00256
 E  ROW00257
 E  ROW00258
 E  ROW00259
 E  ROW00260
 E  ROW00261
 E  ROW00262
 E  ROW00263
 E  ROW00264
 E  ROW00265
 E  ROW00266
 E  ROW00267
 E  ROW00268
 E  ROW00269
 E  ROW00270
 E  ROW00271
 E  ROW00272
 E  ROW00273
 E  ROW00274
 E  ROW00275
 E  ROW00276
 E  ROW00277
 E  ROW00278
 E  ROW00279
 E  ROW00280
 E  ROW00281
 E  ROW00282
 E  ROW00283
 E  ROW00284
 E  ROW00285
 E  ROW00286
 E  ROW00287
 E  ROW00288
 E  ROW00289
 E  ROW00290
 E  ROW00291
 E  ROW00292
 E  ROW00293
 E  ROW00294
 E  ROW00295
 E  ROW00296
 E  ROW00297
 E  ROW00298
 E  ROW00299
 E  ROW00300
 E  ROW00301
 E  ROW00302
 E  ROW00303
 E  ROW00304
 E  ROW00305
 E  ROW00306
 E  ROW00307
 E  ROW00308
 E  ROW00309
 E  ROW00310
 E  ROW00311
 E  ROW00312
 E  ROW00313
 E  ROW00314
 E  ROW00315
 E  ROW00316
 E  ROW00317
 E  ROW00318
 E  ROW00319
 E  ROW00320
 E  ROW00321
 E  ROW00322
 E  ROW00323
 E  ROW00324
 E  ROW00325
 E  ROW00326
 E  ROW00327
 E  ROW00328
 E  ROW00329
 E  ROW00330
 E  ROW00331
 E  ROW00332
 E  ROW00333
 E  ROW00334
 E  ROW00335
 E  ROW00336
 E  ROW00337
 E  ROW00338
 E  ROW00339
 E  ROW00340
 E  ROW00341
 E  ROW00342
 E  ROW00343
 E  ROW00344
 E  ROW00345
 E  ROW00346
 E  ROW00347
 E  ROW00348
 E  ROW00349
 E  ROW00350
 E  ROW00351
 E  ROW00352
 E  ROW00353
 E  ROW00354
 E  ROW00355
 E  ROW00356
 E  ROW00357
 E  ROW00358
 E  ROW00359
 E  ROW00360
 E  ROW00361
 E  ROW00362
 E  ROW00363
 E  ROW00364
 E  ROW00365
 E  ROW00366
 E  ROW00367
 E  ROW00368
 E  ROW00369
 E  ROW00370
 E  ROW00371
 E  ROW00372
 E  ROW00373
 E  ROW00374
 E  ROW00375
 E  ROW00376
 E  ROW00377
 E  ROW00378
 E  ROW00379
 E  ROW00380
 E  ROW00381
 E  ROW00382
 E  ROW00383
 E  ROW00384
 E  ROW00385
 E  ROW00386
 E  ROW00387
 E  ROW00388
 E  ROW00389
 E  ROW00390
 E  ROW00391
 E  ROW00392
 E  ROW00393
 E  ROW00394
 E  ROW00395
 E  ROW00396
 E  ROW00397
 E  ROW00398
 E  ROW00399
 E  ROW00400
 E  ROW00401
 E  ROW00402
 E  ROW00403
 E  ROW00404
 E  ROW00405
 E  ROW00406
 E  ROW00407
 E  ROW00408
 E  ROW00409
 E  ROW00410
 E  ROW00411
 E  ROW00412
 E  ROW00413
 E  ROW00414
 E  ROW00415
 E  ROW00416
 E  ROW00417
 E  ROW00418
 E  ROW00419
 E  ROW00420
 E  ROW00421
 E  ROW00422
 E  ROW00423
 E  ROW00424
 E  ROW00425
 E  ROW00426
 E  ROW00427
 E  ROW00428
 E  ROW00429
 E  ROW00430
 E  ROW00431
 E  ROW00432
 E  ROW00433
 E  ROW00434
 E  ROW00435
 E  ROW00436
 E  ROW00437
 E  ROW00438
 E  ROW00439
 E  ROW00440
 E  ROW00441
 E  ROW00442
 E  ROW00443
 E  ROW00444
 E  ROW00445
 E  ROW00446
 E  ROW00447
 E  ROW00448
 E  ROW00449
 E  ROW00450
 E  ROW00451
 E  ROW00452
 E  ROW00453
 E  ROW00454
 E  ROW00455
 E  ROW00456
 E  ROW00457
 E  ROW00458
 E  ROW00459
 E  ROW00460
 E  ROW00461
 E  ROW00462
 E  ROW00463
 E  ROW00464
 E  ROW00465
 E  ROW00466
 E  ROW00467
 E  ROW00468
 E  ROW00469
 E  ROW00470
 E  ROW00471
COLUMNS
    COL00001 FOB00001 -35.000000   ROW00001 1.000000
    COL00002 FOB00001 54.900000   ROW00001 1.000000
    COL00002 ROW00003 1.000000   ROW00005 -0.400000
    COL00002 ROW00015 -0.500000
    COL00003 FOB00001 54.900000   ROW00002 1.000000
    COL00003 ROW00004 1.000000   ROW00005 -0.400000
    COL00003 ROW00015 -0.500000
    COL00004 FOB00001 -35.000000   ROW00002 1.000000
    COL00005 FOB00001 23.500000   ROW00003 -1.000000
    COL00005 ROW00005 -1.700000   ROW00010 1.000000
    COL00005 ROW00013 -0.245000   ROW00015 -1.400000
    COL00006 FOB00001 23.500000   ROW00004 -1.000000
    COL00006 ROW00005 -1.700000   ROW00011 1.000000
    COL00006 ROW00013 -0.245000   ROW00015 -1.400000
    COL00007 FOB00001 8.720000   ROW00007 1.000000
    COL00007 ROW00013 0.200000
    COL00008 FOB00001 9.720000   ROW00005 1.500000
    COL00008 ROW00006 1.000000   ROW00007 1.000000
    COL00009 FOB00001 6.740000   ROW00007 1.000000
    COL00009 ROW00009 1.000000   ROW00014 1.200000
    COL00010 FOB00001 6.840000   ROW00007 1.000000
    COL00010 ROW00009 1.000000   ROW00015 1.000000
    COL00011 FOB00001 15.000000   ROW00005 1.000000
    COL00012 FOB00001 22.500000   ROW00015 1.000000
    COL00013 ROW00007 1.000000   ROW00008 1.000000
    COL00014 FOB00001 -500.000000   ROW00010 -1.000000
    COL00014 ROW00023 -0.480000   ROW00031 -0.490000
    COL00015 FOB00001 18.700000   ROW00010 -1.000000
    COL00015 ROW00023 -0.480000   ROW00030 1.000000
    COL00015 ROW00031 -0.490000
    COL00016 FOB00001 -258.300000   ROW00011 -1.000000
    COL00016 ROW00023 -0.480000   ROW00031 -0.490000
    COL00017 FOB00001 -662.000000   ROW00012 -1.000000
    COL00017 ROW00016 -0.500000   ROW00017 -0.500000
    COL00017 ROW00023 -9.320000   ROW00030 0.700000
    COL00017 ROW00031 -0.560000   ROW00032 -1.000000
    COL00017 ROW00034 1.000000
    COL00018 FOB00001 3.000000   ROW00013 -1.000000
    COL00018 ROW00020 1.000000   ROW00031 1.000000
    COL00019 FOB00001 0.390000   ROW00014 -1.000000
    COL00019 ROW00021 1.000000   ROW00032 1.000000
    COL00020 FOB00001 0.470000   ROW00015 -1.000000
    COL00020 ROW00022 1.000000   ROW00033 1.000000
    COL00021 FOB00001 -35.000000   ROW00016 1.000000
    COL00022 FOB00001 54.900000   ROW00016 1.000000
    COL00022 ROW00018 1.000000   ROW00023 -0.400000
    COL00022 ROW00033 -0.500000
    COL00023 FOB00001 54.900000   ROW00017 1.000000
    COL00023 ROW00019 1.000000   ROW00023 -0.400000
    COL00023 ROW00033 -0.500000
    COL00024 FOB00001 -35.000000   ROW00017 1.000000
    COL00025 FOB00001 23.500000   ROW00018 -1.000000
    COL00025 ROW00023 -1.700000   ROW00028 1.000000
    COL00025 ROW00031 -0.245000   ROW00033 -1.400000
    COL00026 FOB00001 23.500000   ROW00019 -1.000000
    COL00026 ROW00023 -1.700000   ROW00029 1.000000
    COL00026 ROW00031 -0.245000   ROW00033 -1.400000
    COL00027 FOB00001 8.720000   ROW00025 1.000000
    COL00027 ROW00031 0.200000
    COL00028 FOB00001 9.720000   ROW00023 1.500000
    COL00028 ROW00024 1.000000   ROW00025 1.000000
    COL00029 FOB00001 6.740000   ROW00025 1.000000
    COL00029 ROW00027 1.000000   ROW00032 1.200000
    COL00030 FOB00001 6.840000   ROW00025 1.000000
    COL00030 ROW00027 1.000000   ROW00033 1.000000
    COL00031 FOB00001 15.000000   ROW00023 1.000000
    COL00032 FOB00001 22.500000   ROW00033 1.000000
    COL00033 ROW00025 1.000000   ROW00026 1.000000
    COL00034 FOB00001 -500.000000   ROW00028 -1.000000
    COL00034 ROW00042 -0.480000   ROW00050 -0.490000
    COL00035 FOB00001 18.700000   ROW00028 -1.000000
    COL00035 ROW00042 -0.480000   ROW00049 1.000000
    COL00035 ROW00050 -0.490000
    COL00036 FOB00001 -258.300000   ROW00029 -1.000000
    COL00036 ROW00042 -0.480000   ROW00050 -0.490000
    COL00037 FOB00001 -662.000000   ROW00030 -1.000000
    COL00037 ROW00034 -1.000000   ROW00035 -0.500000
    COL00037 ROW00036 -0.500000   ROW00042 -9.320000
    COL00037 ROW00049 0.700000   ROW00050 -0.560000
    COL00037 ROW00051 -1.000000   ROW00053 1.000000
    COL00038 FOB00001 3.000000   ROW00031 -1.000000
    COL00038 ROW00039 1.000000   ROW00050 1.000000
    COL00039 FOB00001 0.390000   ROW00032 -1.000000
    COL00039 ROW00040 1.000000   ROW00051 1.000000
    COL00040 FOB00001 0.470000   ROW00033 -1.000000
    COL00040 ROW00041 1.000000   ROW00052 1.000000
    COL00041 FOB00001 -35.000000   ROW00035 1.000000
    COL00042 FOB00001 54.900000   ROW00035 1.000000
    COL00042 ROW00037 1.000000   ROW00042 -0.400000
    COL00042 ROW00052 -0.500000
    COL00043 FOB00001 54.900000   ROW00036 1.000000
    COL00043 ROW00038 1.000000   ROW00042 -0.400000
    COL00043 ROW00052 -0.500000
    COL00044 FOB00001 -35.000000   ROW00036 1.000000
    COL00045 FOB00001 23.500000   ROW00037 -1.000000
    COL00045 ROW00042 -1.700000   ROW00047 1.000000
    COL00045 ROW00050 -0.245000   ROW00052 -1.400000
    COL00046 FOB00001 23.500000   ROW00038 -1.000000
    COL00046 ROW00042 -1.700000   ROW00048 1.000000
    COL00046 ROW00050 -0.245000   ROW00052 -1.400000
    COL00047 FOB00001 8.720000   ROW00044 1.000000
    COL00047 ROW00050 0.200000
    COL00048 FOB00001 9.720000   ROW00042 1.500000
    COL00048 ROW00043 1.000000   ROW00044 1.000000
    COL00049 FOB00001 6.740000   ROW00044 1.000000
    COL00049 ROW00046 1.000000   ROW00051 1.200000
    COL00050 FOB00001 6.840000   ROW00044 1.000000
    COL00050 ROW00046 1.000000   ROW00052 1.000000
    COL00051 FOB00001 15.000000   ROW00042 1.000000
    COL00052 FOB00001 22.500000   ROW00052 1.000000
    COL00053 ROW00044 1.000000   ROW00045 1.000000
    COL00054 FOB00001 -500.000000   ROW00047 -1.000000
    COL00054 ROW00061 -0.480000   ROW00069 -0.490000
    COL00055 FOB00001 18.700000   ROW00047 -1.000000
    COL00055 ROW00061 -0.480000   ROW00068 1.000000
    COL00055 ROW00069 -0.490000
    COL00056 FOB00001 -258.300000   ROW00048 -1.000000
    COL00056 ROW00061 -0.480000   ROW00069 -0.490000
    COL00057 FOB00001 -662.000000   ROW00049 -1.000000
    COL00057 ROW00053 -1.000000   ROW00054 -0.500000
    COL00057 ROW00055 -0.500000   ROW00061 -9.320000
    COL00057 ROW00068 0.700000   ROW00069 -0.560000
    COL00057 ROW00070 -1.000000   ROW00072 1.000000
    COL00058 FOB00001 3.000000   ROW00050 -1.000000
    COL00058 ROW00058 1.000000   ROW00069 1.000000
    COL00059 FOB00001 0.390000   ROW00051 -1.000000
    COL00059 ROW00059 1.000000   ROW00070 1.000000
    COL00060 FOB00001 0.470000   ROW00052 -1.000000
    COL00060 ROW00060 1.000000   ROW00071 1.000000
    COL00061 FOB00001 -35.000000   ROW00054 1.000000
    COL00062 FOB00001 54.900000   ROW00054 1.000000
    COL00062 ROW00056 1.000000   ROW00061 -0.400000
    COL00062 ROW00071 -0.500000
    COL00063 FOB00001 54.900000   ROW00055 1.000000
    COL00063 ROW00057 1.000000   ROW00061 -0.400000
    COL00063 ROW00071 -0.500000
    COL00064 FOB00001 -35.000000   ROW00055 1.000000
    COL00065 FOB00001 23.500000   ROW00056 -1.000000
    COL00065 ROW00061 -1.700000   ROW00066 1.000000
    COL00065 ROW00069 -0.245000   ROW00071 -1.400000
    COL00066 FOB00001 23.500000   ROW00057 -1.000000
    COL00066 ROW00061 -1.700000   ROW00067 1.000000
    COL00066 ROW00069 -0.245000   ROW00071 -1.400000
    COL00067 FOB00001 8.720000   ROW00063 1.000000
    COL00067 ROW00069 0.200000
    COL00068 FOB00001 9.720000   ROW00061 1.500000
    COL00068 ROW00062 1.000000   ROW00063 1.000000
    COL00069 FOB00001 6.740000   ROW00063 1.000000
    COL00069 ROW00065 1.000000   ROW00070 1.200000
    COL00070 FOB00001 6.840000   ROW00063 1.000000
    COL00070 ROW00065 1.000000   ROW00071 1.000000
    COL00071 FOB00001 15.000000   ROW00061 1.000000
    COL00072 FOB00001 22.500000   ROW00071 1.000000
    COL00073 ROW00063 1.000000   ROW00064 1.000000
    COL00074 FOB00001 -500.000000   ROW00066 -1.000000
    COL00074 ROW00080 -0.480000   ROW00088 -0.490000
    COL00075 FOB00001 18.700000   ROW00066 -1.000000
    COL00075 ROW00080 -0.480000   ROW00087 1.000000
    COL00075 ROW00088 -0.490000
    COL00076 FOB00001 -258.300000   ROW00067 -1.000000
    COL00076 ROW00080 -0.480000   ROW00088 -0.490000
    COL00077 FOB00001 -662.000000   ROW00068 -1.000000
    COL00077 ROW00072 -1.000000   ROW00073 -0.500000
    COL00077 ROW00074 -0.500000   ROW00080 -9.320000
    COL00077 ROW00087 0.700000   ROW00088 -0.560000
    COL00077 ROW00089 -1.000000   ROW00091 1.000000
    COL00078 FOB00001 3.000000   ROW00069 -1.000000
    COL00078 ROW00077 1.000000   ROW00088 1.000000
    COL00079 FOB00001 0.390000   ROW00070 -1.000000
    COL00079 ROW00078 1.000000   ROW00089 1.000000
    COL00080 FOB00001 0.470000   ROW00071 -1.000000
    COL00080 ROW00079 1.000000   ROW00090 1.000000
    COL00081 FOB00001 -35.000000   ROW00073 1.000000
    COL00082 FOB00001 54.900000   ROW00073 1.000000
    COL00082 ROW00075 1.000000   ROW00080 -0.400000
    COL00082 ROW00090 -0.500000
    COL00083 FOB00001 54.900000   ROW00074 1.000000
    COL00083 ROW00076 1.000000   ROW00080 -0.400000
    COL00083 ROW00090 -0.500000
    COL00084 FOB00001 -35.000000   ROW00074 1.000000
    COL00085 FOB00001 23.500000   ROW00075 -1.000000
    COL00085 ROW00080 -1.700000   ROW00085 1.000000
    COL00085 ROW00088 -0.245000   ROW00090 -1.400000
    COL00086 FOB00001 23.500000   ROW00076 -1.000000
    COL00086 ROW00080 -1.700000   ROW00086 1.000000
    COL00086 ROW00088 -0.245000   ROW00090 -1.400000
    COL00087 FOB00001 8.720000   ROW00082 1.000000
    COL00087 ROW00088 0.200000
    COL00088 FOB00001 9.720000   ROW00080 1.500000
    COL00088 ROW00081 1.000000   ROW00082 1.000000
    COL00089 FOB00001 6.740000   ROW00082 1.000000
    COL00089 ROW00084 1.000000   ROW00089 1.200000
    COL00090 FOB00001 6.840000   ROW00082 1.000000
    COL00090 ROW00084 1.000000   ROW00090 1.000000
    COL00091 FOB00001 15.000000   ROW00080 1.000000
    COL00092 FOB00001 22.500000   ROW00090 1.000000
    COL00093 ROW00082 1.000000   ROW00083 1.000000
    COL00094 FOB00001 -500.000000   ROW00085 -1.000000
    COL00094 ROW00099 -0.480000   ROW00107 -0.490000
    COL00095 FOB00001 18.700000   ROW00085 -1.000000
    COL00095 ROW00099 -0.480000   ROW00106 1.000000
    COL00095 ROW00107 -0.490000
    COL00096 FOB00001 -258.300000   ROW00086 -1.000000
    COL00096 ROW00099 -0.480000   ROW00107 -0.490000
    COL00097 FOB00001 -662.000000   ROW00087 -1.000000
    COL00097 ROW00091 -1.000000   ROW00092 -0.500000
    COL00097 ROW00093 -0.500000   ROW00099 -9.320000
    COL00097 ROW00106 0.700000   ROW00107 -0.560000
    COL00097 ROW00108 -1.000000   ROW00110 1.000000
    COL00098 FOB00001 3.000000   ROW00088 -1.000000
    COL00098 ROW00096 1.000000   ROW00107 1.000000
    COL00099 FOB00001 0.390000   ROW00089 -1.000000
    COL00099 ROW00097 1.000000   ROW00108 1.000000
    COL00100 FOB00001 0.470000   ROW00090 -1.000000
    COL00100 ROW00098 1.000000   ROW00109 1.000000
    COL00101 FOB00001 -35.000000   ROW00092 1.000000
    COL00102 FOB00001 54.900000   ROW00092 1.000000
    COL00102 ROW00094 1.000000   ROW00099 -0.400000
    COL00102 ROW00109 -0.500000
    COL00103 FOB00001 54.900000   ROW00093 1.000000
    COL00103 ROW00095 1.000000   ROW00099 -0.400000
    COL00103 ROW00109 -0.500000
    COL00104 FOB00001 -35.000000   ROW00093 1.000000
    COL00105 FOB00001 23.500000   ROW00094 -1.000000
    COL00105 ROW00099 -1.700000   ROW00104 1.000000
    COL00105 ROW00107 -0.245000   ROW00109 -1.400000
    COL00106 FOB00001 23.500000   ROW00095 -1.000000
    COL00106 ROW00099 -1.700000   ROW00105 1.000000
    COL00106 ROW00107 -0.245000   ROW00109 -1.400000
    COL00107 FOB00001 8.720000   ROW00101 1.000000
    COL00107 ROW00107 0.200000
    COL00108 FOB00001 9.720000   ROW00099 1.500000
    COL00108 ROW00100 1.000000   ROW00101 1.000000
    COL00109 FOB00001 6.740000   ROW00101 1.000000
    COL00109 ROW00103 1.000000   ROW00108 1.200000
    COL00110 FOB00001 6.840000   ROW00101 1.000000
    COL00110 ROW00103 1.000000   ROW00109 1.000000
    COL00111 FOB00001 15.000000   ROW00099 1.000000
    COL00112 FOB00001 22.500000   ROW00109 1.000000
    COL00113 ROW00101 1.000000   ROW00102 1.000000
    COL00114 FOB00001 -500.000000   ROW00104 -1.000000
    COL00114 ROW00118 -0.480000   ROW00126 -0.490000
    COL00115 FOB00001 18.700000   ROW00104 -1.000000
    COL00115 ROW00118 -0.480000   ROW00125 1.000000
    COL00115 ROW00126 -0.490000
    COL00116 FOB00001 -258.300000   ROW00105 -1.000000
    COL00116 ROW00118 -0.480000   ROW00126 -0.490000
    COL00117 FOB00001 -662.000000   ROW00106 -1.000000
    COL00117 ROW00110 -1.000000   ROW00111 -0.500000
    COL00117 ROW00112 -0.500000   ROW00118 -9.320000
    COL00117 ROW00125 0.700000   ROW00126 -0.560000
    COL00117 ROW00127 -1.000000   ROW00129 1.000000
    COL00118 FOB00001 3.000000   ROW00107 -1.000000
    COL00118 ROW00115 1.000000   ROW00126 1.000000
    COL00119 FOB00001 0.390000   ROW00108 -1.000000
    COL00119 ROW00116 1.000000   ROW00127 1.000000
    COL00120 FOB00001 0.470000   ROW00109 -1.000000
    COL00120 ROW00117 1.000000   ROW00128 1.000000
    COL00121 FOB00001 -35.000000   ROW00111 1.000000
    COL00122 FOB00001 54.900000   ROW00111 1.000000
    COL00122 ROW00113 1.000000   ROW00118 -0.400000
    COL00122 ROW00128 -0.500000
    COL00123 FOB00001 54.900000   ROW00112 1.000000
    COL00123 ROW00114 1.000000   ROW00118 -0.400000
    COL00123 ROW00128 -0.500000
    COL00124 FOB00001 -35.000000   ROW00112 1.000000
    COL00125 FOB00001 23.500000   ROW00113 -1.000000
    COL00125 ROW00118 -1.700000   ROW00123 1.000000
    COL00125 ROW00126 -0.245000   ROW00128 -1.400000
    COL00126 FOB00001 23.500000   ROW00114 -1.000000
    COL00126 ROW00118 -1.700000   ROW00124 1.000000
    COL00126 ROW00126 -0.245000   ROW00128 -1.400000
    COL00127 FOB00001 8.720000   ROW00120 1.000000
    COL00127 ROW00126 0.200000
    COL00128 FOB00001 9.720000   ROW00118 1.500000
    COL00128 ROW00119 1.000000   ROW00120 1.000000
    COL00129 FOB00001 6.740000   ROW00120 1.000000
    COL00129 ROW00122 1.000000   ROW00127 1.200000
    COL00130 FOB00001 6.840000   ROW00120 1.000000
    COL00130 ROW00122 1.000000   ROW00128 1.000000
    COL00131 FOB00001 15.000000   ROW00118 1.000000
    COL00132 FOB00001 22.500000   ROW00128 1.000000
    COL00133 ROW00120 1.000000   ROW00121 1.000000
    COL00134 FOB00001 -500.000000   ROW00123 -1.000000
    COL00134 ROW00137 -0.480000   ROW00145 -0.490000
    COL00135 FOB00001 18.700000   ROW00123 -1.000000
    COL00135 ROW00137 -0.480000   ROW00144 1.000000
    COL00135 ROW00145 -0.490000
    COL00136 FOB00001 -258.300000   ROW00124 -1.000000
    COL00136 ROW00137 -0.480000   ROW00145 -0.490000
    COL00137 FOB00001 -662.000000   ROW00125 -1.000000
    COL00137 ROW00129 -1.000000   ROW00130 -0.500000
    COL00137 ROW00131 -0.500000   ROW00137 -9.320000
    COL00137 ROW00144 0.700000   ROW00145 -0.560000
    COL00137 ROW00146 -1.000000   ROW00148 1.000000
    COL00138 FOB00001 3.000000   ROW00126 -1.000000
    COL00138 ROW00134 1.000000   ROW00145 1.000000
    COL00139 FOB00001 0.390000   ROW00127 -1.000000
    COL00139 ROW00135 1.000000   ROW00146 1.000000
    COL00140 FOB00001 0.470000   ROW00128 -1.000000
    COL00140 ROW00136 1.000000   ROW00147 1.000000
    COL00141 FOB00001 -35.000000   ROW00130 1.000000
    COL00142 FOB00001 54.900000   ROW00130 1.000000
    COL00142 ROW00132 1.000000   ROW00137 -0.400000
    COL00142 ROW00147 -0.500000
    COL00143 FOB00001 54.900000   ROW00131 1.000000
    COL00143 ROW00133 1.000000   ROW00137 -0.400000
    COL00143 ROW00147 -0.500000
    COL00144 FOB00001 -35.000000   ROW00131 1.000000
    COL00145 FOB00001 23.500000   ROW00132 -1.000000
    COL00145 ROW00137 -1.700000   ROW00142 1.000000
    COL00145 ROW00145 -0.245000   ROW00147 -1.400000
    COL00146 FOB00001 23.500000   ROW00133 -1.000000
    COL00146 ROW00137 -1.700000   ROW00143 1.000000
    COL00146 ROW00145 -0.245000   ROW00147 -1.400000
    COL00147 FOB00001 8.720000   ROW00139 1.000000
    COL00147 ROW00145 0.200000
    COL00148 FOB00001 9.720000   ROW00137 1.500000
    COL00148 ROW00138 1.000000   ROW00139 1.000000
    COL00149 FOB00001 6.740000   ROW00139 1.000000
    COL00149 ROW00141 1.000000   ROW00146 1.200000
    COL00150 FOB00001 6.840000   ROW00139 1.000000
    COL00150 ROW00141 1.000000   ROW00147 1.000000
    COL00151 FOB00001 15.000000   ROW00137 1.000000
    COL00152 FOB00001 22.500000   ROW00147 1.000000
    COL00153 ROW00139 1.000000   ROW00140 1.000000
    COL00154 FOB00001 -500.000000   ROW00142 -1.000000
    COL00154 ROW00156 -0.480000   ROW00164 -0.490000
    COL00155 FOB00001 18.700000   ROW00142 -1.000000
    COL00155 ROW00156 -0.480000   ROW00163 1.000000
    COL00155 ROW00164 -0.490000
    COL00156 FOB00001 -258.300000   ROW00143 -1.000000
    COL00156 ROW00156 -0.480000   ROW00164 -0.490000
    COL00157 FOB00001 -662.000000   ROW00144 -1.000000
    COL00157 ROW00148 -1.000000   ROW00149 -0.500000
    COL00157 ROW00150 -0.500000   ROW00156 -9.320000
    COL00157 ROW00163 0.700000   ROW00164 -0.560000
    COL00157 ROW00165 -1.000000   ROW00167 1.000000
    COL00158 FOB00001 3.000000   ROW00145 -1.000000
    COL00158 ROW00153 1.000000   ROW00164 1.000000
    COL00159 FOB00001 0.390000   ROW00146 -1.000000
    COL00159 ROW00154 1.000000   ROW00165 1.000000
    COL00160 FOB00001 0.470000   ROW00147 -1.000000
    COL00160 ROW00155 1.000000   ROW00166 1.000000
    COL00161 FOB00001 -35.000000   ROW00149 1.000000
    COL00162 FOB00001 54.900000   ROW00149 1.000000
    COL00162 ROW00151 1.000000   ROW00156 -0.400000
    COL00162 ROW00166 -0.500000
    COL00163 FOB00001 54.900000   ROW00150 1.000000
    COL00163 ROW00152 1.000000   ROW00156 -0.400000
    COL00163 ROW00166 -0.500000
    COL00164 FOB00001 -35.000000   ROW00150 1.000000
    COL00165 FOB00001 23.500000   ROW00151 -1.000000
    COL00165 ROW00156 -1.700000   ROW00161 1.000000
    COL00165 ROW00164 -0.245000   ROW00166 -1.400000
    COL00166 FOB00001 23.500000   ROW00152 -1.000000
    COL00166 ROW00156 -1.700000   ROW00162 1.000000
    COL00166 ROW00164 -0.245000   ROW00166 -1.400000
    COL00167 FOB00001 8.720000   ROW00158 1.000000
    COL00167 ROW00164 0.200000
    COL00168 FOB00001 9.720000   ROW00156 1.500000
    COL00168 ROW00157 1.000000   ROW00158 1.000000
    COL00169 FOB00001 6.740000   ROW00158 1.000000
    COL00169 ROW00160 1.000000   ROW00165 1.200000
    COL00170 FOB00001 6.840000   ROW00158 1.000000
    COL00170 ROW00160 1.000000   ROW00166 1.000000
    COL00171 FOB00001 15.000000   ROW00156 1.000000
    COL00172 FOB00001 22.500000   ROW00166 1.000000
    COL00173 ROW00158 1.000000   ROW00159 1.000000
    COL00174 FOB00001 -500.000000   ROW00161 -1.000000
    COL00174 ROW00175 -0.480000   ROW00183 -0.490000
    COL00175 FOB00001 18.700000   ROW00161 -1.000000
    COL00175 ROW00175 -0.480000   ROW00182 1.000000
    COL00175 ROW00183 -0.490000
    COL00176 FOB00001 -258.300000   ROW00162 -1.000000
    COL00176 ROW00175 -0.480000   ROW00183 -0.490000
    COL00177 FOB00001 -662.000000   ROW00163 -1.000000
    COL00177 ROW00167 -1.000000   ROW00168 -0.500000
    COL00177 ROW00169 -0.500000   ROW00175 -9.320000
    COL00177 ROW00182 0.700000   ROW00183 -0.560000
    COL00177 ROW00184 -1.000000   ROW00186 1.000000
    COL00178 FOB00001 3.000000   ROW00164 -1.000000
    COL00178 ROW00172 1.000000   ROW00183 1.000000
    COL00179 FOB00001 0.390000   ROW00165 -1.000000
    COL00179 ROW00173 1.000000   ROW00184 1.000000
    COL00180 FOB00001 0.470000   ROW00166 -1.000000
    COL00180 ROW00174 1.000000   ROW00185 1.000000
    COL00181 FOB00001 -35.000000   ROW00168 1.000000
    COL00182 FOB00001 54.900000   ROW00168 1.000000
    COL00182 ROW00170 1.000000   ROW00175 -0.400000
    COL00182 ROW00185 -0.500000
    COL00183 FOB00001 54.900000   ROW00169 1.000000
    COL00183 ROW00171 1.000000   ROW00175 -0.400000
    COL00183 ROW00185 -0.500000
    COL00184 FOB00001 -35.000000   ROW00169 1.000000
    COL00185 FOB00001 23.500000   ROW00170 -1.000000
    COL00185 ROW00175 -1.700000   ROW00180 1.000000
    COL00185 ROW00183 -0.245000   ROW00185 -1.400000
    COL00186 FOB00001 23.500000   ROW00171 -1.000000
    COL00186 ROW00175 -1.700000   ROW00181 1.000000
    COL00186 ROW00183 -0.245000   ROW00185 -1.400000
    COL00187 FOB00001 8.720000   ROW00177 1.000000
    COL00187 ROW00183 0.200000
    COL00188 FOB00001 9.720000   ROW00175 1.500000
    COL00188 ROW00176 1.000000   ROW00177 1.000000
    COL00189 FOB00001 6.740000   ROW00177 1.000000
    COL00189 ROW00179 1.000000   ROW00184 1.200000
    COL00190 FOB00001 6.840000   ROW00177 1.000000
    COL00190 ROW00179 1.000000   ROW00185 1.000000
    COL00191 FOB00001 15.000000   ROW00175 1.000000
    COL00192 FOB00001 22.500000   ROW00185 1.000000
    COL00193 ROW00177 1.000000   ROW00178 1.000000
    COL00194 FOB00001 -500.000000   ROW00180 -1.000000
    COL00194 ROW00194 -0.480000   ROW00202 -0.490000
    COL00195 FOB00001 18.700000   ROW00180 -1.000000
    COL00195 ROW00194 -0.480000   ROW00201 1.000000
    COL00195 ROW00202 -0.490000
    COL00196 FOB00001 -258.300000   ROW00181 -1.000000
    COL00196 ROW00194 -0.480000   ROW00202 -0.490000
    COL00197 FOB00001 -662.000000   ROW00182 -1.000000
    COL00197 ROW00186 -1.000000   ROW00187 -0.500000
    COL00197 ROW00188 -0.500000   ROW00194 -9.320000
    COL00197 ROW00201 0.700000   ROW00202 -0.560000
    COL00197 ROW00203 -1.000000   ROW00205 1.000000
    COL00198 FOB00001 3.000000   ROW00183 -1.000000
    COL00198 ROW00191 1.000000   ROW00202 1.000000
    COL00199 FOB00001 0.390000   ROW00184 -1.000000
    COL00199 ROW00192 1.000000   ROW00203 1.000000
    COL00200 FOB00001 0.470000   ROW00185 -1.000000
    COL00200 ROW00193 1.000000   ROW00204 1.000000
    COL00201 FOB00001 -35.000000   ROW00187 1.000000
    COL00202 FOB00001 54.900000   ROW00187 1.000000
    COL00202 ROW00189 1.000000   ROW00194 -0.400000
    COL00202 ROW00204 -0.500000
    COL00203 FOB00001 54.900000   ROW00188 1.000000
    COL00203 ROW00190 1.000000   ROW00194 -0.400000
    COL00203 ROW00204 -0.500000
    COL00204 FOB00001 -35.000000   ROW00188 1.000000
    COL00205 FOB00001 23.500000   ROW00189 -1.000000
    COL00205 ROW00194 -1.700000   ROW00199 1.000000
    COL00205 ROW00202 -0.245000   ROW00204 -1.400000
    COL00206 FOB00001 23.500000   ROW00190 -1.000000
    COL00206 ROW00194 -1.700000   ROW00200 1.000000
    COL00206 ROW00202 -0.245000   ROW00204 -1.400000
    COL00207 FOB00001 8.720000   ROW00196 1.000000
    COL00207 ROW00202 0.200000
    COL00208 FOB00001 9.720000   ROW00194 1.500000
    COL00208 ROW00195 1.000000   ROW00196 1.000000
    COL00209 FOB00001 6.740000   ROW00196 1.000000
    COL00209 ROW00198 1.000000   ROW00203 1.200000
    COL00210 FOB00001 6.840000   ROW00196 1.000000
    COL00210 ROW00198 1.000000   ROW00204 1.000000
    COL00211 FOB00001 15.000000   ROW00194 1.000000
    COL00212 FOB00001 22.500000   ROW00204 1.000000
    COL00213 ROW00196 1.000000   ROW00197 1.000000
    COL00214 FOB00001 -500.000000   ROW00199 -1.000000
    COL00214 ROW00213 -0.480000   ROW00221 -0.490000
    COL00215 FOB00001 18.700000   ROW00199 -1.000000
    COL00215 ROW00213 -0.480000   ROW00220 1.000000
    COL00215 ROW00221 -0.490000
    COL00216 FOB00001 -258.300000   ROW00200 -1.000000
    COL00216 ROW00213 -0.480000   ROW00221 -0.490000
    COL00217 FOB00001 -662.000000   ROW00201 -1.000000
    COL00217 ROW00205 -1.000000   ROW00206 -0.500000
    COL00217 ROW00207 -0.500000   ROW00213 -9.320000
    COL00217 ROW00220 0.700000   ROW00221 -0.560000
    COL00217 ROW00222 -1.000000   ROW00224 1.000000
    COL00218 FOB00001 3.000000   ROW00202 -1.000000
    COL00218 ROW00210 1.000000   ROW00221 1.000000
    COL00219 FOB00001 0.390000   ROW00203 -1.000000
    COL00219 ROW00211 1.000000   ROW00222 1.000000
    COL00220 FOB00001 0.470000   ROW00204 -1.000000
    COL00220 ROW00212 1.000000   ROW00223 1.000000
    COL00221 FOB00001 -35.000000   ROW00206 1.000000
    COL00222 FOB00001 54.900000   ROW00206 1.000000
    COL00222 ROW00208 1.000000   ROW00213 -0.400000
    COL00222 ROW00223 -0.500000
    COL00223 FOB00001 54.900000   ROW00207 1.000000
    COL00223 ROW00209 1.000000   ROW00213 -0.400000
    COL00223 ROW00223 -0.500000
    COL00224 FOB00001 -35.000000   ROW00207 1.000000
    COL00225 FOB00001 23.500000   ROW00208 -1.000000
    COL00225 ROW00213 -1.700000   ROW00218 1.000000
    COL00225 ROW00221 -0.245000   ROW00223 -1.400000
    COL00226 FOB00001 23.500000   ROW00209 -1.000000
    COL00226 ROW00213 -1.700000   ROW00219 1.000000
    COL00226 ROW00221 -0.245000   ROW00223 -1.400000
    COL00227 FOB00001 8.720000   ROW00215 1.000000
    COL00227 ROW00221 0.200000
    COL00228 FOB00001 9.720000   ROW00213 1.500000
    COL00228 ROW00214 1.000000   ROW00215 1.000000
    COL00229 FOB00001 6.740000   ROW00215 1.000000
    COL00229 ROW00217 1.000000   ROW00222 1.200000
    COL00230 FOB00001 6.840000   ROW00215 1.000000
    COL00230 ROW00217 1.000000   ROW00223 1.000000
    COL00231 FOB00001 15.000000   ROW00213 1.000000
    COL00232 FOB00001 22.500000   ROW00223 1.000000
    COL00233 ROW00215 1.000000   ROW00216 1.000000
    COL00234 FOB00001 -500.000000   ROW00218 -1.000000
    COL00234 ROW00232 -0.480000   ROW00240 -0.490000
    COL00235 FOB00001 18.700000   ROW00218 -1.000000
    COL00235 ROW00232 -0.480000   ROW00239 1.000000
    COL00235 ROW00240 -0.490000
    COL00236 FOB00001 -258.300000   ROW00219 -1.000000
    COL00236 ROW00232 -0.480000   ROW00240 -0.490000
    COL00237 FOB00001 -662.000000   ROW00220 -1.000000
    COL00237 ROW00224 -1.000000   ROW00225 -0.500000
    COL00237 ROW00226 -0.500000   ROW00232 -9.320000
    COL00237 ROW00239 0.700000   ROW00240 -0.560000
    COL00237 ROW00241 -1.000000   ROW00243 1.000000
    COL00238 FOB00001 3.000000   ROW00221 -1.000000
    COL00238 ROW00229 1.000000   ROW00240 1.000000
    COL00239 FOB00001 0.390000   ROW00222 -1.000000
    COL00239 ROW00230 1.000000   ROW00241 1.000000
    COL00240 FOB00001 0.470000   ROW00223 -1.000000
    COL00240 ROW00231 1.000000   ROW00242 1.000000
    COL00241 FOB00001 -35.000000   ROW00225 1.000000
    COL00242 FOB00001 54.900000   ROW00225 1.000000
    COL00242 ROW00227 1.000000   ROW00232 -0.400000
    COL00242 ROW00242 -0.500000
    COL00243 FOB00001 54.900000   ROW00226 1.000000
    COL00243 ROW00228 1.000000   ROW00232 -0.400000
    COL00243 ROW00242 -0.500000
    COL00244 FOB00001 -35.000000   ROW00226 1.000000
    COL00245 FOB00001 23.500000   ROW00227 -1.000000
    COL00245 ROW00232 -1.700000   ROW00237 1.000000
    COL00245 ROW00240 -0.245000   ROW00242 -1.400000
    COL00246 FOB00001 23.500000   ROW00228 -1.000000
    COL00246 ROW00232 -1.700000   ROW00238 1.000000
    COL00246 ROW00240 -0.245000   ROW00242 -1.400000
    COL00247 FOB00001 8.720000   ROW00234 1.000000
    COL00247 ROW00240 0.200000
    COL00248 FOB00001 9.720000   ROW00232 1.500000
    COL00248 ROW00233 1.000000   ROW00234 1.000000
    COL00249 FOB00001 6.740000   ROW00234 1.000000
    COL00249 ROW00236 1.000000   ROW00241 1.200000
    COL00250 FOB00001 6.840000   ROW00234 1.000000
    COL00250 ROW00236 1.000000   ROW00242 1.000000
    COL00251 FOB00001 15.000000   ROW00232 1.000000
    COL00252 FOB00001 22.500000   ROW00242 1.000000
    COL00253 ROW00234 1.000000   ROW00235 1.000000
    COL00254 FOB00001 -500.000000   ROW00237 -1.000000
    COL00254 ROW00251 -0.480000   ROW00259 -0.490000
    COL00255 FOB00001 18.700000   ROW00237 -1.000000
    COL00255 ROW00251 -0.480000   ROW00258 1.000000
    COL00255 ROW00259 -0.490000
    COL00256 FOB00001 -258.300000   ROW00238 -1.000000
    COL00256 ROW00251 -0.480000   ROW00259 -0.490000
    COL00257 FOB00001 -662.000000   ROW00239 -1.000000
    COL00257 ROW00243 -1.000000   ROW00244 -0.500000
    COL00257 ROW00245 -0.500000   ROW00251 -9.320000
    COL00257 ROW00258 0.700000   ROW00259 -0.560000
    COL00257 ROW00260 -1.000000   ROW00262 1.000000
    COL00258 FOB00001 3.000000   ROW00240 -1.000000
    COL00258 ROW00248 1.000000   ROW00259 1.000000
    COL00259 FOB00001 0.390000   ROW00241 -1.000000
    COL00259 ROW00249 1.000000   ROW00260 1.000000
    COL00260 FOB00001 0.470000   ROW00242 -1.000000
    COL00260 ROW00250 1.000000   ROW00261 1.000000
    COL00261 FOB00001 -35.000000   ROW00244 1.000000
    COL00262 FOB00001 54.900000   ROW00244 1.000000
    COL00262 ROW00246 1.000000   ROW00251 -0.400000
    COL00262 ROW00261 -0.500000
    COL00263 FOB00001 54.900000   ROW00245 1.000000
    COL00263 ROW00247 1.000000   ROW00251 -0.400000
    COL00263 ROW00261 -0.500000
    COL00264 FOB00001 -35.000000   ROW00245 1.000000
    COL00265 FOB00001 23.500000   ROW00246 -1.000000
    COL00265 ROW00251 -1.700000   ROW00256 1.000000
    COL00265 ROW00259 -0.245000   ROW00261 -1.400000
    COL00266 FOB00001 23.500000   ROW00247 -1.000000
    COL00266 ROW00251 -1.700000   ROW00257 1.000000
    COL00266 ROW00259 -0.245000   ROW00261 -1.400000
    COL00267 FOB00001 8.720000   ROW00253 1.000000
    COL00267 ROW00259 0.200000
    COL00268 FOB00001 9.720000   ROW00251 1.500000
    COL00268 ROW00252 1.000000   ROW00253 1.000000
    COL00269 FOB00001 6.740000   ROW00253 1.000000
    COL00269 ROW00255 1.000000   ROW00260 1.200000
    COL00270 FOB00001 6.840000   ROW00253 1.000000
    COL00270 ROW00255 1.000000   ROW00261 1.000000
    COL00271 FOB00001 15.000000   ROW00251 1.000000
    COL00272 FOB00001 22.500000   ROW00261 1.000000
    COL00273 ROW00253 1.000000   ROW00254 1.000000
    COL00274 FOB00001 -500.000000   ROW00256 -1.000000
    COL00274 ROW00270 -0.480000   ROW00278 -0.490000
    COL00275 FOB00001 18.700000   ROW00256 -1.000000
    COL00275 ROW00270 -0.480000   ROW00277 1.000000
    COL00275 ROW00278 -0.490000
    COL00276 FOB00001 -258.300000   ROW00257 -1.000000
    COL00276 ROW00270 -0.480000   ROW00278 -0.490000
    COL00277 FOB00001 -662.000000   ROW00258 -1.000000
    COL00277 ROW00262 -1.000000   ROW00263 -0.500000
    COL00277 ROW00264 -0.500000   ROW00270 -9.320000
    COL00277 ROW00277 0.700000   ROW00278 -0.560000
    COL00277 ROW00279 -1.000000   ROW00281 1.000000
    COL00278 FOB00001 3.000000   ROW00259 -1.000000
    COL00278 ROW00267 1.000000   ROW00278 1.000000
    COL00279 FOB00001 0.390000   ROW00260 -1.000000
    COL00279 ROW00268 1.000000   ROW00279 1.000000
    COL00280 FOB00001 0.470000   ROW00261 -1.000000
    COL00280 ROW00269 1.000000   ROW00280 1.000000
    COL00281 FOB00001 -35.000000   ROW00263 1.000000
    COL00282 FOB00001 54.900000   ROW00263 1.000000
    COL00282 ROW00265 1.000000   ROW00270 -0.400000
    COL00282 ROW00280 -0.500000
    COL00283 FOB00001 54.900000   ROW00264 1.000000
    COL00283 ROW00266 1.000000   ROW00270 -0.400000
    COL00283 ROW00280 -0.500000
    COL00284 FOB00001 -35.000000   ROW00264 1.000000
    COL00285 FOB00001 23.500000   ROW00265 -1.000000
    COL00285 ROW00270 -1.700000   ROW00275 1.000000
    COL00285 ROW00278 -0.245000   ROW00280 -1.400000
    COL00286 FOB00001 23.500000   ROW00266 -1.000000
    COL00286 ROW00270 -1.700000   ROW00276 1.000000
    COL00286 ROW00278 -0.245000   ROW00280 -1.400000
    COL00287 FOB00001 8.720000   ROW00272 1.000000
    COL00287 ROW00278 0.200000
    COL00288 FOB00001 9.720000   ROW00270 1.500000
    COL00288 ROW00271 1.000000   ROW00272 1.000000
    COL00289 FOB00001 6.740000   ROW00272 1.000000
    COL00289 ROW00274 1.000000   ROW00279 1.200000
    COL00290 FOB00001 6.840000   ROW00272 1.000000
    COL00290 ROW00274 1.000000   ROW00280 1.000000
    COL00291 FOB00001 15.000000   ROW00270 1.000000
    COL00292 FOB00001 22.500000   ROW00280 1.000000
    COL00293 ROW00272 1.000000   ROW00273 1.000000
    COL00294 FOB00001 -500.000000   ROW00275 -1.000000
    COL00294 ROW00289 -0.480000   ROW00297 -0.490000
    COL00295 FOB00001 18.700000   ROW00275 -1.000000
    COL00295 ROW00289 -0.480000   ROW00296 1.000000
    COL00295 ROW00297 -0.490000
    COL00296 FOB00001 -258.300000   ROW00276 -1.000000
    COL00296 ROW00289 -0.480000   ROW00297 -0.490000
    COL00297 FOB00001 -662.000000   ROW00277 -1.000000
    COL00297 ROW00281 -1.000000   ROW00282 -0.500000
    COL00297 ROW00283 -0.500000   ROW00289 -9.320000
    COL00297 ROW00296 0.700000   ROW00297 -0.560000
    COL00297 ROW00298 -1.000000   ROW00300 1.000000
    COL00298 FOB00001 3.000000   ROW00278 -1.000000
    COL00298 ROW00286 1.000000   ROW00297 1.000000
    COL00299 FOB00001 0.390000   ROW00279 -1.000000
    COL00299 ROW00287 1.000000   ROW00298 1.000000
    COL00300 FOB00001 0.470000   ROW00280 -1.000000
    COL00300 ROW00288 1.000000   ROW00299 1.000000
    COL00301 FOB00001 -35.000000   ROW00282 1.000000
    COL00302 FOB00001 54.900000   ROW00282 1.000000
    COL00302 ROW00284 1.000000   ROW00289 -0.400000
    COL00302 ROW00299 -0.500000
    COL00303 FOB00001 54.900000   ROW00283 1.000000
    COL00303 ROW00285 1.000000   ROW00289 -0.400000
    COL00303 ROW00299 -0.500000
    COL00304 FOB00001 -35.000000   ROW00283 1.000000
    COL00305 FOB00001 23.500000   ROW00284 -1.000000
    COL00305 ROW00289 -1.700000   ROW00294 1.000000
    COL00305 ROW00297 -0.245000   ROW00299 -1.400000
    COL00306 FOB00001 23.500000   ROW00285 -1.000000
    COL00306 ROW00289 -1.700000   ROW00295 1.000000
    COL00306 ROW00297 -0.245000   ROW00299 -1.400000
    COL00307 FOB00001 8.720000   ROW00291 1.000000
    COL00307 ROW00297 0.200000
    COL00308 FOB00001 9.720000   ROW00289 1.500000
    COL00308 ROW00290 1.000000   ROW00291 1.000000
    COL00309 FOB00001 6.740000   ROW00291 1.000000
    COL00309 ROW00293 1.000000   ROW00298 1.200000
    COL00310 FOB00001 6.840000   ROW00291 1.000000
    COL00310 ROW00293 1.000000   ROW00299 1.000000
    COL00311 FOB00001 15.000000   ROW00289 1.000000
    COL00312 FOB00001 22.500000   ROW00299 1.000000
    COL00313 ROW00291 1.000000   ROW00292 1.000000
    COL00314 FOB00001 -500.000000   ROW00294 -1.000000
    COL00314 ROW00308 -0.480000   ROW00316 -0.490000
    COL00315 FOB00001 18.700000   ROW00294 -1.000000
    COL00315 ROW00308 -0.480000   ROW00315 1.000000
    COL00315 ROW00316 -0.490000
    COL00316 FOB00001 -258.300000   ROW00295 -1.000000
    COL00316 ROW00308 -0.480000   ROW00316 -0.490000
    COL00317 FOB00001 -662.000000   ROW00296 -1.000000
    COL00317 ROW00300 -1.000000   ROW00301 -0.500000
    COL00317 ROW00302 -0.500000   ROW00308 -9.320000
    COL00317 ROW00315 0.700000   ROW00316 -0.560000
    COL00317 ROW00317 -1.000000   ROW00319 1.000000
    COL00318 FOB00001 3.000000   ROW00297 -1.000000
    COL00318 ROW00305 1.000000   ROW00316 1.000000
    COL00319 FOB00001 0.390000   ROW00298 -1.000000
    COL00319 ROW00306 1.000000   ROW00317 1.000000
    COL00320 FOB00001 0.470000   ROW00299 -1.000000
    COL00320 ROW00307 1.000000   ROW00318 1.000000
    COL00321 FOB00001 -35.000000   ROW00301 1.000000
    COL00322 FOB00001 54.900000   ROW00301 1.000000
    COL00322 ROW00303 1.000000   ROW00308 -0.400000
    COL00322 ROW00318 -0.500000
    COL00323 FOB00001 54.900000   ROW00302 1.000000
    COL00323 ROW00304 1.000000   ROW00308 -0.400000
    COL00323 ROW00318 -0.500000
    COL00324 FOB00001 -35.000000   ROW00302 1.000000
    COL00325 FOB00001 23.500000   ROW00303 -1.000000
    COL00325 ROW00308 -1.700000   ROW00313 1.000000
    COL00325 ROW00316 -0.245000   ROW00318 -1.400000
    COL00326 FOB00001 23.500000   ROW00304 -1.000000
    COL00326 ROW00308 -1.700000   ROW00314 1.000000
    COL00326 ROW00316 -0.245000   ROW00318 -1.400000
    COL00327 FOB00001 8.720000   ROW00310 1.000000
    COL00327 ROW00316 0.200000
    COL00328 FOB00001 9.720000   ROW00308 1.500000
    COL00328 ROW00309 1.000000   ROW00310 1.000000
    COL00329 FOB00001 6.740000   ROW00310 1.000000
    COL00329 ROW00312 1.000000   ROW00317 1.200000
    COL00330 FOB00001 6.840000   ROW00310 1.000000
    COL00330 ROW00312 1.000000   ROW00318 1.000000
    COL00331 FOB00001 15.000000   ROW00308 1.000000
    COL00332 FOB00001 22.500000   ROW00318 1.000000
    COL00333 ROW00310 1.000000   ROW00311 1.000000
    COL00334 FOB00001 -500.000000   ROW00313 -1.000000
    COL00334 ROW00327 -0.480000   ROW00335 -0.490000
    COL00335 FOB00001 18.700000   ROW00313 -1.000000
    COL00335 ROW00327 -0.480000   ROW00334 1.000000
    COL00335 ROW00335 -0.490000
    COL00336 FOB00001 -258.300000   ROW00314 -1.000000
    COL00336 ROW00327 -0.480000   ROW00335 -0.490000
    COL00337 FOB00001 -662.000000   ROW00315 -1.000000
    COL00337 ROW00319 -1.000000   ROW00320 -0.500000
    COL00337 ROW00321 -0.500000   ROW00327 -9.320000
    COL00337 ROW00334 0.700000   ROW00335 -0.560000
    COL00337 ROW00336 -1.000000   ROW00338 1.000000
    COL00338 FOB00001 3.000000   ROW00316 -1.000000
    COL00338 ROW00324 1.000000   ROW00335 1.000000
    COL00339 FOB00001 0.390000   ROW00317 -1.000000
    COL00339 ROW00325 1.000000   ROW00336 1.000000
    COL00340 FOB00001 0.470000   ROW00318 -1.000000
    COL00340 ROW00326 1.000000   ROW00337 1.000000
    COL00341 FOB00001 -35.000000   ROW00320 1.000000
    COL00342 FOB00001 54.900000   ROW00320 1.000000
    COL00342 ROW00322 1.000000   ROW00327 -0.400000
    COL00342 ROW00337 -0.500000
    COL00343 FOB00001 54.900000   ROW00321 1.000000
    COL00343 ROW00323 1.000000   ROW00327 -0.400000
    COL00343 ROW00337 -0.500000
    COL00344 FOB00001 -35.000000   ROW00321 1.000000
    COL00345 FOB00001 23.500000   ROW00322 -1.000000
    COL00345 ROW00327 -1.700000   ROW00332 1.000000
    COL00345 ROW00335 -0.245000   ROW00337 -1.400000
    COL00346 FOB00001 23.500000   ROW00323 -1.000000
    COL00346 ROW00327 -1.700000   ROW00333 1.000000
    COL00346 ROW00335 -0.245000   ROW00337 -1.400000
    COL00347 FOB00001 8.720000   ROW00329 1.000000
    COL00347 ROW00335 0.200000
    COL00348 FOB00001 9.720000   ROW00327 1.500000
    COL00348 ROW00328 1.000000   ROW00329 1.000000
    COL00349 FOB00001 6.740000   ROW00329 1.000000
    COL00349 ROW00331 1.000000   ROW00336 1.200000
    COL00350 FOB00001 6.840000   ROW00329 1.000000
    COL00350 ROW00331 1.000000   ROW00337 1.000000
    COL00351 FOB00001 15.000000   ROW00327 1.000000
    COL00352 FOB00001 22.500000   ROW00337 1.000000
    COL00353 ROW00329 1.000000   ROW00330 1.000000
    COL00354 FOB00001 -500.000000   ROW00332 -1.000000
    COL00354 ROW00346 -0.480000   ROW00354 -0.490000
    COL00355 FOB00001 18.700000   ROW00332 -1.000000
    COL00355 ROW00346 -0.480000   ROW00353 1.000000
    COL00355 ROW00354 -0.490000
    COL00356 FOB00001 -258.300000   ROW00333 -1.000000
    COL00356 ROW00346 -0.480000   ROW00354 -0.490000
    COL00357 FOB00001 -662.000000   ROW00334 -1.000000
    COL00357 ROW00338 -1.000000   ROW00339 -0.500000
    COL00357 ROW00340 -0.500000   ROW00346 -9.320000
    COL00357 ROW00353 0.700000   ROW00354 -0.560000
    COL00357 ROW00355 -1.000000   ROW00357 1.000000
    COL00358 FOB00001 3.000000   ROW00335 -1.000000
    COL00358 ROW00343 1.000000   ROW00354 1.000000
    COL00359 FOB00001 0.390000   ROW00336 -1.000000
    COL00359 ROW00344 1.000000   ROW00355 1.000000
    COL00360 FOB00001 0.470000   ROW00337 -1.000000
    COL00360 ROW00345 1.000000   ROW00356 1.000000
    COL00361 FOB00001 -35.000000   ROW00339 1.000000
    COL00362 FOB00001 54.900000   ROW00339 1.000000
    COL00362 ROW00341 1.000000   ROW00346 -0.400000
    COL00362 ROW00356 -0.500000
    COL00363 FOB00001 54.900000   ROW00340 1.000000
    COL00363 ROW00342 1.000000   ROW00346 -0.400000
    COL00363 ROW00356 -0.500000
    COL00364 FOB00001 -35.000000   ROW00340 1.000000
    COL00365 FOB00001 23.500000   ROW00341 -1.000000
    COL00365 ROW00346 -1.700000   ROW00351 1.000000
    COL00365 ROW00354 -0.245000   ROW00356 -1.400000
    COL00366 FOB00001 23.500000   ROW00342 -1.000000
    COL00366 ROW00346 -1.700000   ROW00352 1.000000
    COL00366 ROW00354 -0.245000   ROW00356 -1.400000
    COL00367 FOB00001 8.720000   ROW00348 1.000000
    COL00367 ROW00354 0.200000
    COL00368 FOB00001 9.720000   ROW00346 1.500000
    COL00368 ROW00347 1.000000   ROW00348 1.000000
    COL00369 FOB00001 6.740000   ROW00348 1.000000
    COL00369 ROW00350 1.000000   ROW00355 1.200000
    COL00370 FOB00001 6.840000   ROW00348 1.000000
    COL00370 ROW00350 1.000000   ROW00356 1.000000
    COL00371 FOB00001 15.000000   ROW00346 1.000000
    COL00372 FOB00001 22.500000   ROW00356 1.000000
    COL00373 ROW00348 1.000000   ROW00349 1.000000
    COL00374 FOB00001 -500.000000   ROW00351 -1.000000
    COL00374 ROW00365 -0.480000   ROW00373 -0.490000
    COL00375 FOB00001 18.700000   ROW00351 -1.000000
    COL00375 ROW00365 -0.480000   ROW00372 1.000000
    COL00375 ROW00373 -0.490000
    COL00376 FOB00001 -258.300000   ROW00352 -1.000000
    COL00376 ROW00365 -0.480000   ROW00373 -0.490000
    COL00377 FOB00001 -662.000000   ROW00353 -1.000000
    COL00377 ROW00357 -1.000000   ROW00358 -0.500000
    COL00377 ROW00359 -0.500000   ROW00365 -9.320000
    COL00377 ROW00372 0.700000   ROW00373 -0.560000
    COL00377 ROW00374 -1.000000   ROW00376 1.000000
    COL00378 FOB00001 3.000000   ROW00354 -1.000000
    COL00378 ROW00362 1.000000   ROW00373 1.000000
    COL00379 FOB00001 0.390000   ROW00355 -1.000000
    COL00379 ROW00363 1.000000   ROW00374 1.000000
    COL00380 FOB00001 0.470000   ROW00356 -1.000000
    COL00380 ROW00364 1.000000   ROW00375 1.000000
    COL00381 FOB00001 -35.000000   ROW00358 1.000000
    COL00382 FOB00001 54.900000   ROW00358 1.000000
    COL00382 ROW00360 1.000000   ROW00365 -0.400000
    COL00382 ROW00375 -0.500000
    COL00383 FOB00001 54.900000   ROW00359 1.000000
    COL00383 ROW00361 1.000000   ROW00365 -0.400000
    COL00383 ROW00375 -0.500000
    COL00384 FOB00001 -35.000000   ROW00359 1.000000
    COL00385 FOB00001 23.500000   ROW00360 -1.000000
    COL00385 ROW00365 -1.700000   ROW00370 1.000000
    COL00385 ROW00373 -0.245000   ROW00375 -1.400000
    COL00386 FOB00001 23.500000   ROW00361 -1.000000
    COL00386 ROW00365 -1.700000   ROW00371 1.000000
    COL00386 ROW00373 -0.245000   ROW00375 -1.400000
    COL00387 FOB00001 8.720000   ROW00367 1.000000
    COL00387 ROW00373 0.200000
    COL00388 FOB00001 9.720000   ROW00365 1.500000
    COL00388 ROW00366 1.000000   ROW00367 1.000000
    COL00389 FOB00001 6.740000   ROW00367 1.000000
    COL00389 ROW00369 1.000000   ROW00374 1.200000
    COL00390 FOB00001 6.840000   ROW00367 1.000000
    COL00390 ROW00369 1.000000   ROW00375 1.000000
    COL00391 FOB00001 15.000000   ROW00365 1.000000
    COL00392 FOB00001 22.500000   ROW00375 1.000000
    COL00393 ROW00367 1.000000   ROW00368 1.000000
    COL00394 FOB00001 -500.000000   ROW00370 -1.000000
    COL00394 ROW00384 -0.480000   ROW00392 -0.490000
    COL00395 FOB00001 18.700000   ROW00370 -1.000000
    COL00395 ROW00384 -0.480000   ROW00391 1.000000
    COL00395 ROW00392 -0.490000
    COL00396 FOB00001 -258.300000   ROW00371 -1.000000
    COL00396 ROW00384 -0.480000   ROW00392 -0.490000
    COL00397 FOB00001 -662.000000   ROW00372 -1.000000
    COL00397 ROW00376 -1.000000   ROW00377 -0.500000
    COL00397 ROW00378 -0.500000   ROW00384 -9.320000
    COL00397 ROW00391 0.700000   ROW00392 -0.560000
    COL00397 ROW00393 -1.000000   ROW00395 1.000000
    COL00398 FOB00001 3.000000   ROW00373 -1.000000
    COL00398 ROW00381 1.000000   ROW00392 1.000000
    COL00399 FOB00001 0.390000   ROW00374 -1.000000
    COL00399 ROW00382 1.000000   ROW00393 1.000000
    COL00400 FOB00001 0.470000   ROW00375 -1.000000
    COL00400 ROW00383 1.000000   ROW00394 1.000000
    COL00401 FOB00001 -35.000000   ROW00377 1.000000
    COL00402 FOB00001 54.900000   ROW00377 1.000000
    COL00402 ROW00379 1.000000   ROW00384 -0.400000
    COL00402 ROW00394 -0.500000
    COL00403 FOB00001 54.900000   ROW00378 1.000000
    COL00403 ROW00380 1.000000   ROW00384 -0.400000
    COL00403 ROW00394 -0.500000
    COL00404 FOB00001 -35.000000   ROW00378 1.000000
    COL00405 FOB00001 23.500000   ROW00379 -1.000000
    COL00405 ROW00384 -1.700000   ROW00389 1.000000
    COL00405 ROW00392 -0.245000   ROW00394 -1.400000
    COL00406 FOB00001 23.500000   ROW00380 -1.000000
    COL00406 ROW00384 -1.700000   ROW00390 1.000000
    COL00406 ROW00392 -0.245000   ROW00394 -1.400000
    COL00407 FOB00001 8.720000   ROW00386 1.000000
    COL00407 ROW00392 0.200000
    COL00408 FOB00001 9.720000   ROW00384 1.500000
    COL00408 ROW00385 1.000000   ROW00386 1.000000
    COL00409 FOB00001 6.740000   ROW00386 1.000000
    COL00409 ROW00388 1.000000   ROW00393 1.200000
    COL00410 FOB00001 6.840000   ROW00386 1.000000
    COL00410 ROW00388 1.000000   ROW00394 1.000000
    COL00411 FOB00001 15.000000   ROW00384 1.000000
    COL00412 FOB00001 22.500000   ROW00394 1.000000
    COL00413 ROW00386 1.000000   ROW00387 1.000000
    COL00414 FOB00001 -500.000000   ROW00389 -1.000000
    COL00414 ROW00403 -0.480000   ROW00411 -0.490000
    COL00415 FOB00001 18.700000   ROW00389 -1.000000
    COL00415 ROW00403 -0.480000   ROW00410 1.000000
    COL00415 ROW00411 -0.490000
    COL00416 FOB00001 -258.300000   ROW00390 -1.000000
    COL00416 ROW00403 -0.480000   ROW00411 -0.490000
    COL00417 FOB00001 -662.000000   ROW00391 -1.000000
    COL00417 ROW00395 -1.000000   ROW00396 -0.500000
    COL00417 ROW00397 -0.500000   ROW00403 -9.320000
    COL00417 ROW00410 0.700000   ROW00411 -0.560000
    COL00417 ROW00412 -1.000000   ROW00414 1.000000
    COL00418 FOB00001 3.000000   ROW00392 -1.000000
    COL00418 ROW00400 1.000000   ROW00411 1.000000
    COL00419 FOB00001 0.390000   ROW00393 -1.000000
    COL00419 ROW00401 1.000000   ROW00412 1.000000
    COL00420 FOB00001 0.470000   ROW00394 -1.000000
    COL00420 ROW00402 1.000000   ROW00413 1.000000
    COL00421 FOB00001 -35.000000   ROW00396 1.000000
    COL00422 FOB00001 54.900000   ROW00396 1.000000
    COL00422 ROW00398 1.000000   ROW00403 -0.400000
    COL00422 ROW00413 -0.500000
    COL00423 FOB00001 54.900000   ROW00397 1.000000
    COL00423 ROW00399 1.000000   ROW00403 -0.400000
    COL00423 ROW00413 -0.500000
    COL00424 FOB00001 -35.000000   ROW00397 1.000000
    COL00425 FOB00001 23.500000   ROW00398 -1.000000
    COL00425 ROW00403 -1.700000   ROW00408 1.000000
    COL00425 ROW00411 -0.245000   ROW00413 -1.400000
    COL00426 FOB00001 23.500000   ROW00399 -1.000000
    COL00426 ROW00403 -1.700000   ROW00409 1.000000
    COL00426 ROW00411 -0.245000   ROW00413 -1.400000
    COL00427 FOB00001 8.720000   ROW00405 1.000000
    COL00427 ROW00411 0.200000
    COL00428 FOB00001 9.720000   ROW00403 1.500000
    COL00428 ROW00404 1.000000   ROW00405 1.000000
    COL00429 FOB00001 6.740000   ROW00405 1.000000
    COL00429 ROW00407 1.000000   ROW00412 1.200000
    COL00430 FOB00001 6.840000   ROW00405 1.000000
    COL00430 ROW00407 1.000000   ROW00413 1.000000
    COL00431 FOB00001 15.000000   ROW00403 1.000000
    COL00432 FOB00001 22.500000   ROW00413 1.000000
    COL00433 ROW00405 1.000000   ROW00406 1.000000
    COL00434 FOB00001 -500.000000   ROW00408 -1.000000
    COL00434 ROW00422 -0.480000   ROW00430 -0.490000
    COL00435 FOB00001 18.700000   ROW00408 -1.000000
    COL00435 ROW00422 -0.480000   ROW00429 1.000000
    COL00435 ROW00430 -0.490000
    COL00436 FOB00001 -258.300000   ROW00409 -1.000000
    COL00436 ROW00422 -0.480000   ROW00430 -0.490000
    COL00437 FOB00001 -662.000000   ROW00410 -1.000000
    COL00437 ROW00414 -1.000000   ROW00415 -0.500000
    COL00437 ROW00416 -0.500000   ROW00422 -9.320000
    COL00437 ROW00429 0.700000   ROW00430 -0.560000
    COL00437 ROW00431 -1.000000   ROW00433 1.000000
    COL00438 FOB00001 3.000000   ROW00411 -1.000000
    COL00438 ROW00419 1.000000   ROW00430 1.000000
    COL00439 FOB00001 0.390000   ROW00412 -1.000000
    COL00439 ROW00420 1.000000   ROW00431 1.000000
    COL00440 FOB00001 0.470000   ROW00413 -1.000000
    COL00440 ROW00421 1.000000   ROW00432 1.000000
    COL00441 FOB00001 -35.000000   ROW00415 1.000000
    COL00442 FOB00001 54.900000   ROW00415 1.000000
    COL00442 ROW00417 1.000000   ROW00422 -0.400000
    COL00442 ROW00432 -0.500000
    COL00443 FOB00001 54.900000   ROW00416 1.000000
    COL00443 ROW00418 1.000000   ROW00422 -0.400000
    COL00443 ROW00432 -0.500000
    COL00444 FOB00001 -35.000000   ROW00416 1.000000
    COL00445 FOB00001 23.500000   ROW00417 -1.000000
    COL00445 ROW00422 -1.700000   ROW00427 1.000000
    COL00445 ROW00430 -0.245000   ROW00432 -1.400000
    COL00446 FOB00001 23.500000   ROW00418 -1.000000
    COL00446 ROW00422 -1.700000   ROW00428 1.000000
    COL00446 ROW00430 -0.245000   ROW00432 -1.400000
    COL00447 FOB00001 8.720000   ROW00424 1.000000
    COL00447 ROW00430 0.200000
    COL00448 FOB00001 9.720000   ROW00422 1.500000
    COL00448 ROW00423 1.000000   ROW00424 1.000000
    COL00449 FOB00001 6.740000   ROW00424 1.000000
    COL00449 ROW00426 1.000000   ROW00431 1.200000
    COL00450 FOB00001 6.840000   ROW00424 1.000000
    COL00450 ROW00426 1.000000   ROW00432 1.000000
    COL00451 FOB00001 15.000000   ROW00422 1.000000
    COL00452 FOB00001 22.500000   ROW00432 1.000000
    COL00453 ROW00424 1.000000   ROW00425 1.000000
    COL00454 FOB00001 -500.000000   ROW00427 -1.000000
    COL00454 ROW00441 -0.480000   ROW00449 -0.490000
    COL00455 FOB00001 18.700000   ROW00427 -1.000000
    COL00455 ROW00441 -0.480000   ROW00448 1.000000
    COL00455 ROW00449 -0.490000
    COL00456 FOB00001 -258.300000   ROW00428 -1.000000
    COL00456 ROW00441 -0.480000   ROW00449 -0.490000
    COL00457 FOB00001 -662.000000   ROW00429 -1.000000
    COL00457 ROW00433 -1.000000   ROW00434 -0.500000
    COL00457 ROW00435 -0.500000   ROW00441 -9.320000
    COL00457 ROW00448 0.700000   ROW00449 -0.560000
    COL00457 ROW00450 -1.000000   ROW00452 1.000000
    COL00458 FOB00001 3.000000   ROW00430 -1.000000
    COL00458 ROW00438 1.000000   ROW00449 1.000000
    COL00459 FOB00001 0.390000   ROW00431 -1.000000
    COL00459 ROW00439 1.000000   ROW00450 1.000000
    COL00460 FOB00001 0.470000   ROW00432 -1.000000
    COL00460 ROW00440 1.000000   ROW00451 1.000000
    COL00461 FOB00001 -35.000000   ROW00434 1.000000
    COL00462 FOB00001 54.900000   ROW00434 1.000000
    COL00462 ROW00436 1.000000   ROW00441 -0.400000
    COL00462 ROW00451 -0.500000
    COL00463 FOB00001 54.900000   ROW00435 1.000000
    COL00463 ROW00437 1.000000   ROW00441 -0.400000
    COL00463 ROW00451 -0.500000
    COL00464 FOB00001 -35.000000   ROW00435 1.000000
    COL00465 FOB00001 23.500000   ROW00436 -1.000000
    COL00465 ROW00441 -1.700000   ROW00446 1.000000
    COL00465 ROW00449 -0.245000   ROW00451 -1.400000
    COL00466 FOB00001 23.500000   ROW00437 -1.000000
    COL00466 ROW00441 -1.700000   ROW00447 1.000000
    COL00466 ROW00449 -0.245000   ROW00451 -1.400000
    COL00467 FOB00001 8.720000   ROW00443 1.000000
    COL00467 ROW00449 0.200000
    COL00468 FOB00001 9.720000   ROW00441 1.500000
    COL00468 ROW00442 1.000000   ROW00443 1.000000
    COL00469 FOB00001 6.740000   ROW00443 1.000000
    COL00469 ROW00445 1.000000   ROW00450 1.200000
    COL00470 FOB00001 6.840000   ROW00443 1.000000
    COL00470 ROW00445 1.000000   ROW00451 1.000000
    COL00471 FOB00001 15.000000   ROW00441 1.000000
    COL00472 FOB00001 22.500000   ROW00451 1.000000
    COL00473 ROW00443 1.000000   ROW00444 1.000000
    COL00474 FOB00001 -500.000000   ROW00446 -1.000000
    COL00474 ROW00460 -0.480000   ROW00468 -0.490000
    COL00475 FOB00001 18.700000   ROW00446 -1.000000
    COL00475 ROW00460 -0.480000   ROW00467 1.000000
    COL00475 ROW00468 -0.490000
    COL00476 FOB00001 -258.300000   ROW00447 -1.000000
    COL00476 ROW00460 -0.480000   ROW00468 -0.490000
    COL00477 FOB00001 -662.000000   ROW00448 -1.000000
    COL00477 ROW00452 -1.000000   ROW00453 -0.500000
    COL00477 ROW00454 -0.500000   ROW00460 -9.320000
    COL00477 ROW00467 0.700000   ROW00468 -0.560000
    COL00477 ROW00469 -1.000000   ROW00471 1.000000
    COL00478 FOB00001 3.000000   ROW00449 -1.000000
    COL00478 ROW00457 1.000000   ROW00468 1.000000
    COL00479 FOB00001 0.390000   ROW00450 -1.000000
    COL00479 ROW00458 1.000000   ROW00469 1.000000
    COL00480 FOB00001 0.470000   ROW00451 -1.000000
    COL00480 ROW00459 1.000000   ROW00470 1.000000
    COL00481 FOB00001 -35.000000   ROW00453 1.000000
    COL00482 FOB00001 54.900000   ROW00453 1.000000
    COL00482 ROW00455 1.000000   ROW00460 -0.400000
    COL00482 ROW00470 -0.500000
    COL00483 FOB00001 54.900000   ROW00454 1.000000
    COL00483 ROW00456 1.000000   ROW00460 -0.400000
    COL00483 ROW00470 -0.500000
    COL00484 FOB00001 -35.000000   ROW00454 1.000000
    COL00485 FOB00001 23.500000   ROW00455 -1.000000
    COL00485 ROW00460 -1.700000   ROW00465 1.000000
    COL00485 ROW00468 -0.245000   ROW00470 -1.400000
    COL00486 FOB00001 23.500000   ROW00456 -1.000000
    COL00486 ROW00460 -1.700000   ROW00466 1.000000
    COL00486 ROW00468 -0.245000   ROW00470 -1.400000
    COL00487 FOB00001 8.720000   ROW00462 1.000000
    COL00487 ROW00468 0.200000
    COL00488 FOB00001 9.720000   ROW00460 1.500000
    COL00488 ROW00461 1.000000   ROW00462 1.000000
    COL00489 FOB00001 6.740000   ROW00462 1.000000
    COL00489 ROW00464 1.000000   ROW00469 1.200000
    COL00490 FOB00001 6.840000   ROW00462 1.000000
    COL00490 ROW00464 1.000000   ROW00470 1.000000
    COL00491 FOB00001 15.000000   ROW00460 1.000000
    COL00492 FOB00001 22.500000   ROW00470 1.000000
    COL00493 ROW00462 1.000000   ROW00463 1.000000
    COL00494 FOB00001 -500.000000   ROW00465 -1.000000
    COL00495 FOB00001 18.700000   ROW00465 -1.000000
    COL00496 FOB00001 -258.300000   ROW00466 -1.000000
    COL00497 FOB00001 -662.000000   ROW00467 -1.000000
    COL00497 ROW00471 -1.000000
    COL00498 FOB00001 3.000000   ROW00468 -1.000000
    COL00499 FOB00001 0.390000   ROW00469 -1.000000
    COL00500 FOB00001 0.470000   ROW00470 -1.000000
    SLACK25621 ROW00006 1.000000
    SLACK25622 ROW00008 1.000000
    SLACK25623 ROW00009 -1.000000
    SLACK25624 ROW00020 1.000000
    SLACK25625 ROW00021 1.000000
    SLACK25626 ROW00022 1.000000
    SLACK25627 ROW00024 1.000000
    SLACK25628 ROW00026 1.000000
    SLACK25629 ROW00027 -1.000000
    SLACK25630 ROW00034 1.000000
    SLACK25631 ROW00039 1.000000
    SLACK25632 ROW00040 1.000000
    SLACK25633 ROW00041 1.000000
    SLACK25634 ROW00043 1.000000
    SLACK25635 ROW00045 1.000000
    SLACK25636 ROW00046 -1.000000
    SLACK25637 ROW00053 1.000000
    SLACK25638 ROW00058 1.000000
    SLACK25639 ROW00059 1.000000
    SLACK25640 ROW00060 1.000000
    SLACK25641 ROW00062 1.000000
    SLACK25642 ROW00064 1.000000
    SLACK25643 ROW00065 -1.000000
    SLACK25644 ROW00072 1.000000
    SLACK25645 ROW00077 1.000000
    SLACK25646 ROW00078 1.000000
    SLACK25647 ROW00079 1.000000
    SLACK25648 ROW00081 1.000000
    SLACK25649 ROW00083 1.000000
    SLACK25650 ROW00084 -1.000000
    SLACK25651 ROW00091 1.000000
    SLACK25652 ROW00096 1.000000
    SLACK25653 ROW00097 1.000000
    SLACK25654 ROW00098 1.000000
    SLACK25655 ROW00100 1.000000
    SLACK25656 ROW00102 1.000000
    SLACK25657 ROW00103 -1.000000
    SLACK25658 ROW00110 1.000000
    SLACK25659 ROW00115 1.000000
    SLACK25660 ROW00116 1.000000
    SLACK25661 ROW00117 1.000000
    SLACK25662 ROW00119 1.000000
    SLACK25663 ROW00121 1.000000
    SLACK25664 ROW00122 -1.000000
    SLACK25665 ROW00129 1.000000
    SLACK25666 ROW00134 1.000000
    SLACK25667 ROW00135 1.000000
    SLACK25668 ROW00136 1.000000
    SLACK25669 ROW00138 1.000000
    SLACK25670 ROW00140 1.000000
    SLACK25671 ROW00141 -1.000000
    SLACK25672 ROW00148 1.000000
    SLACK25673 ROW00153 1.000000
    SLACK25674 ROW00154 1.000000
    SLACK25675 ROW00155 1.000000
    SLACK25676 ROW00157 1.000000
    SLACK25677 ROW00159 1.000000
    SLACK25678 ROW00160 -1.000000
    SLACK25679 ROW00167 1.000000
    SLACK25680 ROW00172 1.000000
    SLACK25681 ROW00173 1.000000
    SLACK25682 ROW00174 1.000000
    SLACK25683 ROW00176 1.000000
    SLACK25684 ROW00178 1.000000
    SLACK25685 ROW00179 -1.000000
    SLACK25686 ROW00186 1.000000
    SLACK25687 ROW00191 1.000000
    SLACK25688 ROW00192 1.000000
    SLACK25689 ROW00193 1.000000
    SLACK25690 ROW00195 1.000000
    SLACK25691 ROW00197 1.000000
    SLACK25692 ROW00198 -1.000000
    SLACK25693 ROW00205 1.000000
    SLACK25694 ROW00210 1.000000
    SLACK25695 ROW00211 1.000000
    SLACK25696 ROW00212 1.000000
    SLACK25697 ROW00214 1.000000
    SLACK25698 ROW00216 1.000000
    SLACK25699 ROW00217 -1.000000
    SLACK25700 ROW00224 1.000000
    SLACK25701 ROW00229 1.000000
    SLACK25702 ROW00230 1.000000
    SLACK25703 ROW00231 1.000000
    SLACK25704 ROW00233 1.000000
    SLACK25705 ROW00235 1.000000
    SLACK25706 ROW00236 -1.000000
    SLACK25707 ROW00243 1.000000
    SLACK25708 ROW00248 1.000000
    SLACK25709 ROW00249 1.000000
    SLACK25710 ROW00250 1.000000
    SLACK25711 ROW00252 1.000000
    SLACK25712 ROW00254 1.000000
    SLACK25713 ROW00255 -1.000000
    SLACK25714 ROW00262 1.000000
    SLACK25715 ROW00267 1.000000
    SLACK25716 ROW00268 1.000000
    SLACK25717 ROW00269 1.000000
    SLACK25718 ROW00271 1.000000
    SLACK25719 ROW00273 1.000000
    SLACK25720 ROW00274 -1.000000
    SLACK25721 ROW00281 1.000000
    SLACK25722 ROW00286 1.000000
    SLACK25723 ROW00287 1.000000
    SLACK25724 ROW00288 1.000000
    SLACK25725 ROW00290 1.000000
    SLACK25726 ROW00292 1.000000
    SLACK25727 ROW00293 -1.000000
    SLACK25728 ROW00300 1.000000
    SLACK25729 ROW00305 1.000000
    SLACK25730 ROW00306 1.000000
    SLACK25731 ROW00307 1.000000
    SLACK25732 ROW00309 1.000000
    SLACK25733 ROW00311 1.000000
    SLACK25734 ROW00312 -1.000000
    SLACK25735 ROW00319 1.000000
    SLACK25736 ROW00324 1.000000
    SLACK25737 ROW00325 1.000000
    SLACK25738 ROW00326 1.000000
    SLACK25739 ROW00328 1.000000
    SLACK25740 ROW00330 1.000000
    SLACK25741 ROW00331 -1.000000
    SLACK25742 ROW00338 1.000000
    SLACK25743 ROW00343 1.000000
    SLACK25744 ROW00344 1.000000
    SLACK25745 ROW00345 1.000000
    SLACK25746 ROW00347 1.000000
    SLACK25747 ROW00349 1.000000
    SLACK25748 ROW00350 -1.000000
    SLACK25749 ROW00357 1.000000
    SLACK25750 ROW00362 1.000000
    SLACK25751 ROW00363 1.000000
    SLACK25752 ROW00364 1.000000
    SLACK25753 ROW00366 1.000000
    SLACK25754 ROW00368 1.000000
    SLACK25755 ROW00369 -1.000000
    SLACK25756 ROW00376 1.000000
    SLACK25757 ROW00381 1.000000
    SLACK25758 ROW00382 1.000000
    SLACK25759 ROW00383 1.000000
    SLACK25760 ROW00385 1.000000
    SLACK25761 ROW00387 1.000000
    SLACK25762 ROW00388 -1.000000
    SLACK25763 ROW00395 1.000000
    SLACK25764 ROW00400 1.000000
    SLACK25765 ROW00401 1.000000
    SLACK25766 ROW00402 1.000000
    SLACK25767 ROW00404 1.000000
    SLACK25768 ROW00406 1.000000
    SLACK25769 ROW00407 -1.000000
    SLACK25770 ROW00414 1.000000
    SLACK25771 ROW00419 1.000000
    SLACK25772 ROW00420 1.000000
    SLACK25773 ROW00421 1.000000
    SLACK25774 ROW00423 1.000000
    SLACK25775 ROW00425 1.000000
    SLACK25776 ROW00426 -1.000000
    SLACK25777 ROW00433 1.000000
    SLACK25778 ROW00438 1.000000
    SLACK25779 ROW00439 1.000000
    SLACK25780 ROW00440 1.000000
    SLACK25781 ROW00442 1.000000
    SLACK25782 ROW00444 1.000000
    SLACK25783 ROW00445 -1.000000
    SLACK25784 ROW00452 1.000000
    SLACK25785 ROW00457 1.000000
    SLACK25786 ROW00458 1.000000
    SLACK25787 ROW00459 1.000000
    SLACK25788 ROW00461 1.000000
    SLACK25789 ROW00463 1.000000
    SLACK25790 ROW00464 -1.000000
    SLACK25791 ROW00471 1.000000
RHS
    RHS      ROW00001 158.000000
    RHS      ROW00002 158.000000
    RHS      ROW00005 3092.960000
    RHS      ROW00006 2566.670000
    RHS      ROW00007 6900.000000
    RHS      ROW00008 1600.000000
    RHS      ROW00009 800.000000
    RHS      ROW00012 -375.200000
    RHS      ROW00013 -92.120000
    RHS      ROW00014 -684.000000
    RHS      ROW00015 -150.000000
    RHS      ROW00020 1800.000000
    RHS      ROW00021 2400.000000
    RHS      ROW00022 1200.000000
    RHS      ROW00024 2566.670000
    RHS      ROW00025 6900.000000
    RHS      ROW00026 1600.000000
    RHS      ROW00027 800.000000
    RHS      ROW00039 1800.000000
    RHS      ROW00040 2400.000000
    RHS      ROW00041 1200.000000
    RHS      ROW00043 2566.670000
    RHS      ROW00044 6900.000000
    RHS      ROW00045 1600.000000
    RHS      ROW00046 800.000000
    RHS      ROW00058 1800.000000
    RHS      ROW00059 2400.000000
    RHS      ROW00060 1200.000000
    RHS      ROW00062 2566.670000
    RHS      ROW00063 6900.000000
    RHS      ROW00064 1600.000000
    RHS      ROW00065 800.000000
    RHS      ROW00077 1800.000000
    RHS      ROW00078 2400.000000
    RHS      ROW00079 1200.000000
    RHS      ROW00081 2566.670000
    RHS      ROW00082 6900.000000
    RHS      ROW00083 1600.000000
    RHS      ROW00084 800.000000
    RHS      ROW00096 1800.000000
    RHS      ROW00097 2400.000000
    RHS      ROW00098 1200.000000
    RHS      ROW00100 2566.670000
    RHS      ROW00101 6900.000000
    RHS      ROW00102 1600.000000
    RHS      ROW00103 800.000000
    RHS      ROW00115 1800.000000
    RHS      ROW00116 2400.000000
    RHS      ROW00117 1200.000000
    RHS      ROW00119 2566.670000
    RHS      ROW00120 6900.000000
    RHS      ROW00121 1600.000000
    RHS      ROW00122 800.000000
    RHS      ROW00134 1800.000000
    RHS      ROW00135 2400.000000
    RHS      ROW00136 1200.000000
    RHS      ROW00138 2566.670000
    RHS      ROW00139 6900.000000
    RHS      ROW00140 1600.000000
    RHS      ROW00141 800.000000
    RHS      ROW00153 1800.000000
    RHS      ROW00154 2400.000000
    RHS      ROW00155 1200.000000
    RHS      ROW00157 2566.670000
    RHS      ROW00158 6900.000000
    RHS      ROW00159 1600.000000
    RHS      ROW00160 800.000000
    RHS      ROW00172 1800.000000
    RHS      ROW00173 2400.000000
    RHS      ROW00174 1200.000000
    RHS      ROW00176 2566.670000
    RHS      ROW00177 6900.000000
    RHS      ROW00178 1600.000000
    RHS      ROW00179 800.000000
    RHS      ROW00191 1800.000000
    RHS      ROW00192 2400.000000
    RHS      ROW00193 1200.000000
    RHS      ROW00195 2566.670000
    RHS      ROW00196 6900.000000
    RHS      ROW00197 1600.000000
    RHS      ROW00198 800.000000
    RHS      ROW00210 1800.000000
    RHS      ROW00211 2400.000000
    RHS      ROW00212 1200.000000
    RHS      ROW00214 2566.670000
    RHS      ROW00215 6900.000000
    RHS      ROW00216 1600.000000
    RHS      ROW00217 800.000000
    RHS      ROW00229 1800.000000
    RHS      ROW00230 2400.000000
    RHS      ROW00231 1200.000000
    RHS      ROW00233 2566.670000
    RHS      ROW00234 6900.000000
    RHS      ROW00235 1600.000000
    RHS      ROW00236 800.000000
    RHS      ROW00248 1800.000000
    RHS      ROW00249 2400.000000
    RHS      ROW00250 1200.000000
    RHS      ROW00252 2566.670000
    RHS      ROW00253 6900.000000
    RHS      ROW00254 1600.000000
    RHS      ROW00255 800.000000
    RHS      ROW00267 1800.000000
    RHS      ROW00268 2400.000000
    RHS      ROW00269 1200.000000
    RHS      ROW00271 2566.670000
    RHS      ROW00272 6900.000000
    RHS      ROW00273 1600.000000
    RHS      ROW00274 800.000000
    RHS      ROW00286 1800.000000
    RHS      ROW00287 2400.000000
    RHS      ROW00288 1200.000000
    RHS      ROW00290 2566.670000
    RHS      ROW00291 6900.000000
    RHS      ROW00292 1600.000000
    RHS      ROW00293 800.000000
    RHS      ROW00305 1800.000000
    RHS      ROW00306 2400.000000
    RHS      ROW00307 1200.000000
    RHS      ROW00309 2566.670000
    RHS      ROW00310 6900.000000
    RHS      ROW00311 1600.000000
    RHS      ROW00312 800.000000
    RHS      ROW00324 1800.000000
    RHS      ROW00325 2400.000000
    RHS      ROW00326 1200.000000
    RHS      ROW00328 2566.670000
    RHS      ROW00329 6900.000000
    RHS      ROW00330 1600.000000
    RHS      ROW00331 800.000000
    RHS      ROW00343 1800.000000
    RHS      ROW00344 2400.000000
    RHS      ROW00345 1200.000000
    RHS      ROW00347 2566.670000
    RHS      ROW00348 6900.000000
    RHS      ROW00349 1600.000000
    RHS      ROW00350 800.000000
    RHS      ROW00362 1800.000000
    RHS      ROW00363 2400.000000
    RHS      ROW00364 1200.000000
    RHS      ROW00366 2566.670000
    RHS      ROW00367 6900.000000
    RHS      ROW00368 1600.000000
    RHS      ROW00369 800.000000
    RHS      ROW00381 1800.000000
    RHS      ROW00382 2400.000000
    RHS      ROW00383 1200.000000
    RHS      ROW00385 2566.670000
    RHS      ROW00386 6900.000000
    RHS      ROW00387 1600.000000
    RHS      ROW00388 800.000000
    RHS      ROW00400 1800.000000
    RHS      ROW00401 2400.000000
    RHS      ROW00402 1200.000000
    RHS      ROW00404 2566.670000
    RHS      ROW00405 6900.000000
    RHS      ROW00406 1600.000000
    RHS      ROW00407 800.000000
    RHS      ROW00419 1800.000000
    RHS      ROW00420 2400.000000
    RHS      ROW00421 1200.000000
    RHS      ROW00423 2566.670000
    RHS      ROW00424 6900.000000
    RHS      ROW00425 1600.000000
    RHS      ROW00426 800.000000
    RHS      ROW00438 1800.000000
    RHS      ROW00439 2400.000000
    RHS      ROW00440 1200.000000
    RHS      ROW00442 2566.670000
    RHS      ROW00443 6900.000000
    RHS      ROW00444 1600.000000
    RHS      ROW00445 800.000000
    RHS      ROW00457 1800.000000
    RHS      ROW00458 2400.000000
    RHS      ROW00459 1200.000000
    RHS      ROW00461 2566.670000
    RHS      ROW00462 6900.000000
    RHS      ROW00463 1600.000000
    RHS      ROW00464 800.000000
BOUNDS
ENDATA
