NAME          SCAGR7
ROWS
 N  FOB00001
 E  ROW00001
 E  ROW00002
 E  ROW00003
 E  ROW00004
 E  ROW00005
 E  ROW00006
 E  ROW00007
 E  ROW00008
 E  ROW00009
 E  ROW00010
 E  ROW00011
 E  ROW00012
 E  ROW00013
 E  ROW00014
 E  ROW00015
 E  ROW00016
 E  ROW00017
 E  ROW00018
 E  ROW00019
 E  ROW00020
 E  ROW00021
 E  ROW00022
 E  ROW00023
 E  ROW00024
 E  ROW00025
 E  ROW00026
 E  ROW00027
 E  ROW00028
 E  ROW00029
 E  ROW00030
 E  ROW00031
 E  ROW00032
 E  ROW00033
 E  ROW00034
 E  ROW00035
 E  ROW00036
 E  ROW00037
 E  ROW00038
 E  ROW00039
 E  ROW00040
 E  ROW00041
 E  ROW00042
 E  ROW00043
 E  ROW00044
 E  ROW00045
 E  ROW00046
 E  ROW00047
 E  ROW00048
 E  ROW00049
 E  ROW00050
 E  ROW00051
 E  ROW00052
 E  ROW00053
 E  ROW00054
 E  ROW00055
 E  ROW00056
 E  ROW00057
 E  ROW00058
 E  ROW00059
 E  ROW00060
 E  ROW00061
 E  ROW00062
 E  ROW00063
 E  ROW00064
 E  ROW00065
 E  ROW00066
 E  ROW00067
 E  ROW00068
 E  ROW00069
 E  ROW00070
 E  ROW00071
 E  ROW00072
 E  ROW00073
 E  ROW00074
 E  ROW00075
 E  ROW00076
 E  ROW00077
 E  ROW00078
 E  ROW00079
 E  ROW00080
 E  ROW00081
 E  ROW00082
 E  ROW00083
 E  ROW00084
 E  ROW00085
 E  ROW00086
 E  ROW00087
 E  ROW00088
 E  ROW00089
 E  ROW00090
 E  ROW00091
 E  ROW00092
 E  ROW00093
 E  ROW00094
 E  ROW00095
 E  ROW00096
 E  ROW00097
 E  ROW00098
 E  ROW00099
 E  ROW00100
 E  ROW00101
 E  ROW00102
 E  ROW00103
 E  ROW00104
 E  ROW00105
 E  ROW00106
 E  ROW00107
 E  ROW00108
 E  ROW00109
 E  ROW00110
 E  ROW00111
 E  ROW00112
 E  ROW00113
 E  ROW00114
 E  ROW00115
 E  ROW00116
 E  ROW00117
 E  ROW00118
 E  ROW00119
 E  ROW00120
 E  ROW00121
 E  ROW00122
 E  ROW00123
 E  ROW00124
 E  ROW00125
 E  ROW00126
 E  ROW00127
 E  ROW00128
 E  ROW00129
COLUMNS
    COL00001 FOB00001 -35.000000   ROW00001 1.000000
    COL00002 FOB00001 54.900000   ROW00001 1.000000
    COL00002 ROW00003 1.000000   ROW00005 -0.400000
    COL00002 ROW00015 -0.500000
    COL00003 FOB00001 54.900000   ROW00002 1.000000
    COL00003 ROW00004 1.000000   ROW00005 -0.400000
    COL00003 ROW00015 -0.500000
    COL00004 FOB00001 -35.000000   ROW00002 1.000000
    COL00005 FOB00001 23.500000   ROW00003 -1.000000
    COL00005 ROW00005 -1.700000   ROW00010 1.000000
    COL00005 ROW00013 -0.245000   ROW00015 -1.400000
    COL00006 FOB00001 23.500000   ROW00004 -1.000000
    COL00006 ROW00005 -1.700000   ROW00011 1.000000
    COL00006 ROW00013 -0.245000   ROW00015 -1.400000
    COL00007 FOB00001 8.720000   ROW00007 1.000000
    COL00007 ROW00013 0.200000
    COL00008 FOB00001 9.720000   ROW00005 1.500000
    COL00008 ROW00006 1.000000   ROW00007 1.000000
    COL00009 FOB00001 6.740000   ROW00007 1.000000
    COL00009 ROW00009 1.000000   ROW00014 1.200000
    COL00010 FOB00001 6.840000   ROW00007 1.000000
    COL00010 ROW00009 1.000000   ROW00015 1.000000
    COL00011 FOB00001 15.000000   ROW00005 1.000000
    COL00012 FOB00001 22.500000   ROW00015 1.000000
    COL00013 ROW00007 1.000000   ROW00008 1.000000
    COL00014 FOB00001 -500.000000   ROW00010 -1.000000
    COL00014 ROW00023 -0.480000   ROW00031 -0.490000
    COL00015 FOB00001 18.700000   ROW00010 -1.000000
    COL00015 ROW00023 -0.480000   ROW00030 1.000000
    COL00015 ROW00031 -0.490000
    COL00016 FOB00001 -258.300000   ROW00011 -1.000000
    COL00016 ROW00023 -0.480000   ROW00031 -0.490000
    COL00017 FOB00001 -662.000000   ROW00012 -1.000000
    COL00017 ROW00016 -0.500000   ROW00017 -0.500000
    COL00017 ROW00023 -9.320000   ROW00030 0.700000
    COL00017 ROW00031 -0.560000   ROW00032 -1.000000
    COL00017 ROW00034 1.000000
    COL00018 FOB00001 3.000000   ROW00013 -1.000000
    COL00018 ROW00020 1.000000   ROW00031 1.000000
    COL00019 FOB00001 0.390000   ROW00014 -1.000000
    COL00019 ROW00021 1.000000   ROW00032 1.000000
    COL00020 FOB00001 0.470000   ROW00015 -1.000000
    COL00020 ROW00022 1.000000   ROW00033 1.000000
    COL00021 FOB00001 -35.000000   ROW00016 1.000000
    COL00022 FOB00001 54.900000   ROW00016 1.000000
    COL00022 ROW00018 1.000000   ROW00023 -0.400000
    COL00022 ROW00033 -0.500000
    COL00023 FOB00001 54.900000   ROW00017 1.000000
    COL00023 ROW00019 1.000000   ROW00023 -0.400000
    COL00023 ROW00033 -0.500000
    COL00024 FOB00001 -35.000000   ROW00017 1.000000
    COL00025 FOB00001 23.500000   ROW00018 -1.000000
    COL00025 ROW00023 -1.700000   ROW00028 1.000000
    COL00025 ROW00031 -0.245000   ROW00033 -1.400000
    COL00026 FOB00001 23.500000   ROW00019 -1.000000
    COL00026 ROW00023 -1.700000   ROW00029 1.000000
    COL00026 ROW00031 -0.245000   ROW00033 -1.400000
    COL00027 FOB00001 8.720000   ROW00025 1.000000
    COL00027 ROW00031 0.200000
    COL00028 FOB00001 9.720000   ROW00023 1.500000
    COL00028 ROW00024 1.000000   ROW00025 1.000000
    COL00029 FOB00001 6.740000   ROW00025 1.000000
    COL00029 ROW00027 1.000000   ROW00032 1.200000
    COL00030 FOB00001 6.840000   ROW00025 1.000000
    COL00030 ROW00027 1.000000   ROW00033 1.000000
    COL00031 FOB00001 15.000000   ROW00023 1.000000
    COL00032 FOB00001 22.500000   ROW00033 1.000000
    COL00033 ROW00025 1.000000   ROW00026 1.000000
    COL00034 FOB00001 -500.000000   ROW00028 -1.000000
    COL00034 ROW00042 -0.480000   ROW00050 -0.490000
    COL00035 FOB00001 18.700000   ROW00028 -1.000000
    COL00035 ROW00042 -0.480000   ROW00049 1.000000
    COL00035 ROW00050 -0.490000
    COL00036 FOB00001 -258.300000   ROW00029 -1.000000
    COL00036 ROW00042 -0.480000   ROW00050 -0.490000
    COL00037 FOB00001 -662.000000   ROW00030 -1.000000
    COL00037 ROW00034 -1.000000   ROW00035 -0.500000
    COL00037 ROW00036 -0.500000   ROW00042 -9.320000
    COL00037 ROW00049 0.700000   ROW00050 -0.560000
    COL00037 ROW00051 -1.000000   ROW00053 1.000000
    COL00038 FOB00001 3.000000   ROW00031 -1.000000
    COL00038 ROW00039 1.000000   ROW00050 1.000000
    COL00039 FOB00001 0.390000   ROW00032 -1.000000
    COL00039 ROW00040 1.000000   ROW00051 1.000000
    COL00040 FOB00001 0.470000   ROW00033 -1.000000
    COL00040 ROW00041 1.000000   ROW00052 1.000000
    COL00041 FOB00001 -35.000000   ROW00035 1.000000
    COL00042 FOB00001 54.900000   ROW00035 1.000000
    COL00042 ROW00037 1.000000   ROW00042 -0.400000
    COL00042 ROW00052 -0.500000
    COL00043 FOB00001 54.900000   ROW00036 1.000000
    COL00043 ROW00038 1.000000   ROW00042 -0.400000
    COL00043 ROW00052 -0.500000
    COL00044 FOB00001 -35.000000   ROW00036 1.000000
    COL00045 FOB00001 23.500000   ROW00037 -1.000000
    COL00045 ROW00042 -1.700000   ROW00047 1.000000
    COL00045 ROW00050 -0.245000   ROW00052 -1.400000
    COL00046 FOB00001 23.500000   ROW00038 -1.000000
    COL00046 ROW00042 -1.700000   ROW00048 1.000000
    COL00046 ROW00050 -0.245000   ROW00052 -1.400000
    COL00047 FOB00001 8.720000   ROW00044 1.000000
    COL00047 ROW00050 0.200000
    COL00048 FOB00001 9.720000   ROW00042 1.500000
    COL00048 ROW00043 1.000000   ROW00044 1.000000
    COL00049 FOB00001 6.740000   ROW00044 1.000000
    COL00049 ROW00046 1.000000   ROW00051 1.200000
    COL00050 FOB00001 6.840000   ROW00044 1.000000
    COL00050 ROW00046 1.000000   ROW00052 1.000000
    COL00051 FOB00001 15.000000   ROW00042 1.000000
    COL00052 FOB00001 22.500000   ROW00052 1.000000
    COL00053 ROW00044 1.000000   ROW00045 1.000000
    COL00054 FOB00001 -500.000000   ROW00047 -1.000000
    COL00054 ROW00061 -0.480000   ROW00069 -0.490000
    COL00055 FOB00001 18.700000   ROW00047 -1.000000
    COL00055 ROW00061 -0.480000   ROW00068 1.000000
    COL00055 ROW00069 -0.490000
    COL00056 FOB00001 -258.300000   ROW00048 -1.000000
    COL00056 ROW00061 -0.480000   ROW00069 -0.490000
    COL00057 FOB00001 -662.000000   ROW00049 -1.000000
    COL00057 ROW00053 -1.000000   ROW00054 -0.500000
    COL00057 ROW00055 -0.500000   ROW00061 -9.320000
    COL00057 ROW00068 0.700000   ROW00069 -0.560000
    COL00057 ROW00070 -1.000000   ROW00072 1.000000
    COL00058 FOB00001 3.000000   ROW00050 -1.000000
    COL00058 ROW00058 1.000000   ROW00069 1.000000
    COL00059 FOB00001 0.390000   ROW00051 -1.000000
    COL00059 ROW00059 1.000000   ROW00070 1.000000
    COL00060 FOB00001 0.470000   ROW00052 -1.000000
    COL00060 ROW00060 1.000000   ROW00071 1.000000
    COL00061 FOB00001 -35.000000   ROW00054 1.000000
    COL00062 FOB00001 54.900000   ROW00054 1.000000
    COL00062 ROW00056 1.000000   ROW00061 -0.400000
    COL00062 ROW00071 -0.500000
    COL00063 FOB00001 54.900000   ROW00055 1.000000
    COL00063 ROW00057 1.000000   ROW00061 -0.400000
    COL00063 ROW00071 -0.500000
    COL00064 FOB00001 -35.000000   ROW00055 1.000000
    COL00065 FOB00001 23.500000   ROW00056 -1.000000
    COL00065 ROW00061 -1.700000   ROW00066 1.000000
    COL00065 ROW00069 -0.245000   ROW00071 -1.400000
    COL00066 FOB00001 23.500000   ROW00057 -1.000000
    COL00066 ROW00061 -1.700000   ROW00067 1.000000
    COL00066 ROW00069 -0.245000   ROW00071 -1.400000
    COL00067 FOB00001 8.720000   ROW00063 1.000000
    COL00067 ROW00069 0.200000
    COL00068 FOB00001 9.720000   ROW00061 1.500000
    COL00068 ROW00062 1.000000   ROW00063 1.000000
    COL00069 FOB00001 6.740000   ROW00063 1.000000
    COL00069 ROW00065 1.000000   ROW00070 1.200000
    COL00070 FOB00001 6.840000   ROW00063 1.000000
    COL00070 ROW00065 1.000000   ROW00071 1.000000
    COL00071 FOB00001 15.000000   ROW00061 1.000000
    COL00072 FOB00001 22.500000   ROW00071 1.000000
    COL00073 ROW00063 1.000000   ROW00064 1.000000
    COL00074 FOB00001 -500.000000   ROW00066 -1.000000
    COL00074 ROW00080 -0.480000   ROW00088 -0.490000
    COL00075 FOB00001 18.700000   ROW00066 -1.000000
    COL00075 ROW00080 -0.480000   ROW00087 1.000000
    COL00075 ROW00088 -0.490000
    COL00076 FOB00001 -258.300000   ROW00067 -1.000000
    COL00076 ROW00080 -0.480000   ROW00088 -0.490000
    COL00077 FOB00001 -662.000000   ROW00068 -1.000000
    COL00077 ROW00072 -1.000000   ROW00073 -0.500000
    COL00077 ROW00074 -0.500000   ROW00080 -9.320000
    COL00077 ROW00087 0.700000   ROW00088 -0.560000
    COL00077 ROW00089 -1.000000   ROW00091 1.000000
    COL00078 FOB00001 3.000000   ROW00069 -1.000000
    COL00078 ROW00077 1.000000   ROW00088 1.000000
    COL00079 FOB00001 0.390000   ROW00070 -1.000000
    COL00079 ROW00078 1.000000   ROW00089 1.000000
    COL00080 FOB00001 0.470000   ROW00071 -1.000000
    COL00080 ROW00079 1.000000   ROW00090 1.000000
    COL00081 FOB00001 -35.000000   ROW00073 1.000000
    COL00082 FOB00001 54.900000   ROW00073 1.000000
    COL00082 ROW00075 1.000000   ROW00080 -0.400000
    COL00082 ROW00090 -0.500000
    COL00083 FOB00001 54.900000   ROW00074 1.000000
    COL00083 ROW00076 1.000000   ROW00080 -0.400000
    COL00083 ROW00090 -0.500000
    COL00084 FOB00001 -35.000000   ROW00074 1.000000
    COL00085 FOB00001 23.500000   ROW00075 -1.000000
    COL00085 ROW00080 -1.700000   ROW00085 1.000000
    COL00085 ROW00088 -0.245000   ROW00090 -1.400000
    COL00086 FOB00001 23.500000   ROW00076 -1.000000
    COL00086 ROW00080 -1.700000   ROW00086 1.000000
    COL00086 ROW00088 -0.245000   ROW00090 -1.400000
    COL00087 FOB00001 8.720000   ROW00082 1.000000
    COL00087 ROW00088 0.200000
    COL00088 FOB00001 9.720000   ROW00080 1.500000
    COL00088 ROW00081 1.000000   ROW00082 1.000000
    COL00089 FOB00001 6.740000   ROW00082 1.000000
    COL00089 ROW00084 1.000000   ROW00089 1.200000
    COL00090 FOB00001 6.840000   ROW00082 1.000000
    COL00090 ROW00084 1.000000   ROW00090 1.000000
    COL00091 FOB00001 15.000000   ROW00080 1.000000
    COL00092 FOB00001 22.500000   ROW00090 1.000000
    COL00093 ROW00082 1.000000   ROW00083 1.000000
    COL00094 FOB00001 -500.000000   ROW00085 -1.000000
    COL00094 ROW00099 -0.480000   ROW00107 -0.490000
    COL00095 FOB00001 18.700000   ROW00085 -1.000000
    COL00095 ROW00099 -0.480000   ROW00106 1.000000
    COL00095 ROW00107 -0.490000
    COL00096 FOB00001 -258.300000   ROW00086 -1.000000
    COL00096 ROW00099 -0.480000   ROW00107 -0.490000
    COL00097 FOB00001 -662.000000   ROW00087 -1.000000
    COL00097 ROW00091 -1.000000   ROW00092 -0.500000
    COL00097 ROW00093 -0.500000   ROW00099 -9.320000
    COL00097 ROW00106 0.700000   ROW00107 -0.560000
    COL00097 ROW00108 -1.000000   ROW00110 1.000000
    COL00098 FOB00001 3.000000   ROW00088 -1.000000
    COL00098 ROW00096 1.000000   ROW00107 1.000000
    COL00099 FOB00001 0.390000   ROW00089 -1.000000
    COL00099 ROW00097 1.000000   ROW00108 1.000000
    COL00100 FOB00001 0.470000   ROW00090 -1.000000
    COL00100 ROW00098 1.000000   ROW00109 1.000000
    COL00101 FOB00001 -35.000000   ROW00092 1.000000
    COL00102 FOB00001 54.900000   ROW00092 1.000000
    COL00102 ROW00094 1.000000   ROW00099 -0.400000
    COL00102 ROW00109 -0.500000
    COL00103 FOB00001 54.900000   ROW00093 1.000000
    COL00103 ROW00095 1.000000   ROW00099 -0.400000
    COL00103 ROW00109 -0.500000
    COL00104 FOB00001 -35.000000   ROW00093 1.000000
    COL00105 FOB00001 23.500000   ROW00094 -1.000000
    COL00105 ROW00099 -1.700000   ROW00104 1.000000
    COL00105 ROW00107 -0.245000   ROW00109 -1.400000
    COL00106 FOB00001 23.500000   ROW00095 -1.000000
    COL00106 ROW00099 -1.700000   ROW00105 1.000000
    COL00106 ROW00107 -0.245000   ROW00109 -1.400000
    COL00107 FOB00001 8.720000   ROW00101 1.000000
    COL00107 ROW00107 0.200000
    COL00108 FOB00001 9.720000   ROW00099 1.500000
    COL00108 ROW00100 1.000000   ROW00101 1.000000
    COL00109 FOB00001 6.740000   ROW00101 1.000000
    COL00109 ROW00103 1.000000   ROW00108 1.200000
    COL00110 FOB00001 6.840000   ROW00101 1.000000
    COL00110 ROW00103 1.000000   ROW00109 1.000000
    COL00111 FOB00001 15.000000   ROW00099 1.000000
    COL00112 FOB00001 22.500000   ROW00109 1.000000
    COL00113 ROW00101 1.000000   ROW00102 1.000000
    COL00114 FOB00001 -500.000000   ROW00104 -1.000000
    COL00114 ROW00118 -0.480000   ROW00126 -0.490000
    COL00115 FOB00001 18.700000   ROW00104 -1.000000
    COL00115 ROW00118 -0.480000   ROW00125 1.000000
    COL00115 ROW00126 -0.490000
    COL00116 FOB00001 -258.300000   ROW00105 -1.000000
    COL00116 ROW00118 -0.480000   ROW00126 -0.490000
    COL00117 FOB00001 -662.000000   ROW00106 -1.000000
    COL00117 ROW00110 -1.000000   ROW00111 -0.500000
    COL00117 ROW00112 -0.500000   ROW00118 -9.320000
    COL00117 ROW00125 0.700000   ROW00126 -0.560000
    COL00117 ROW00127 -1.000000   ROW00129 1.000000
    COL00118 FOB00001 3.000000   ROW00107 -1.000000
    COL00118 ROW00115 1.000000   ROW00126 1.000000
    COL00119 FOB00001 0.390000   ROW00108 -1.000000
    COL00119 ROW00116 1.000000   ROW00127 1.000000
    COL00120 FOB00001 0.470000   ROW00109 -1.000000
    COL00120 ROW00117 1.000000   ROW00128 1.000000
    COL00121 FOB00001 -35.000000   ROW00111 1.000000
    COL00122 FOB00001 54.900000   ROW00111 1.000000
    COL00122 ROW00113 1.000000   ROW00118 -0.400000
    COL00122 ROW00128 -0.500000
    COL00123 FOB00001 54.900000   ROW00112 1.000000
    COL00123 ROW00114 1.000000   ROW00118 -0.400000
    COL00123 ROW00128 -0.500000
    COL00124 FOB00001 -35.000000   ROW00112 1.000000
    COL00125 FOB00001 23.500000   ROW00113 -1.000000
    COL00125 ROW00118 -1.700000   ROW00123 1.000000
    COL00125 ROW00126 -0.245000   ROW00128 -1.400000
    COL00126 FOB00001 23.500000   ROW00114 -1.000000
    COL00126 ROW00118 -1.700000   ROW00124 1.000000
    COL00126 ROW00126 -0.245000   ROW00128 -1.400000
    COL00127 FOB00001 8.720000   ROW00120 1.000000
    COL00127 ROW00126 0.200000
    COL00128 FOB00001 9.720000   ROW00118 1.500000
    COL00128 ROW00119 1.000000   ROW00120 1.000000
    COL00129 FOB00001 6.740000   ROW00120 1.000000
    COL00129 ROW00122 1.000000   ROW00127 1.200000
    COL00130 FOB00001 6.840000   ROW00120 1.000000
    COL00130 ROW00122 1.000000   ROW00128 1.000000
    COL00131 FOB00001 15.000000   ROW00118 1.000000
    COL00132 FOB00001 22.500000   ROW00128 1.000000
    COL00133 ROW00120 1.000000   ROW00121 1.000000
    COL00134 FOB00001 -500.000000   ROW00123 -1.000000
    COL00135 FOB00001 18.700000   ROW00123 -1.000000
    COL00136 FOB00001 -258.300000   ROW00124 -1.000000
    COL00137 FOB00001 -662.000000   ROW00125 -1.000000
    COL00137 ROW00129 -1.000000
    COL00138 FOB00001 3.000000   ROW00126 -1.000000
    COL00139 FOB00001 0.390000   ROW00127 -1.000000
    COL00140 FOB00001 0.470000   ROW00128 -1.000000
    SLACK6879 ROW00006 1.000000
    SLACK6880 ROW00008 1.000000
    SLACK6881 ROW00009 -1.000000
    SLACK6882 ROW00020 1.000000
    SLACK6883 ROW00021 1.000000
    SLACK6884 ROW00022 1.000000
    SLACK6885 ROW00024 1.000000
    SLACK6886 ROW00026 1.000000
    SLACK6887 ROW00027 -1.000000
    SLACK6888 ROW00034 1.000000
    SLACK6889 ROW00039 1.000000
    SLACK6890 ROW00040 1.000000
    SLACK6891 ROW00041 1.000000
    SLACK6892 ROW00043 1.000000
    SLACK6893 ROW00045 1.000000
    SLACK6894 ROW00046 -1.000000
    SLACK6895 ROW00053 1.000000
    SLACK6896 ROW00058 1.000000
    SLACK6897 ROW00059 1.000000
    SLACK6898 ROW00060 1.000000
    SLACK6899 ROW00062 1.000000
    SLACK6900 ROW00064 1.000000
    SLACK6901 ROW00065 -1.000000
    SLACK6902 ROW00072 1.000000
    SLACK6903 ROW00077 1.000000
    SLACK6904 ROW00078 1.000000
    SLACK6905 ROW00079 1.000000
    SLACK6906 ROW00081 1.000000
    SLACK6907 ROW00083 1.000000
    SLACK6908 ROW00084 -1.000000
    SLACK6909 ROW00091 1.000000
    SLACK6910 ROW00096 1.000000
    SLACK6911 ROW00097 1.000000
    SLACK6912 ROW00098 1.000000
    SLACK6913 ROW00100 1.000000
    SLACK6914 ROW00102 1.000000
    SLACK6915 ROW00103 -1.000000
    SLACK6916 ROW00110 1.000000
    SLACK6917 ROW00115 1.000000
    SLACK6918 ROW00116 1.000000
    SLACK6919 ROW00117 1.000000
    SLACK6920 ROW00119 1.000000
    SLACK6921 ROW00121 1.000000
    SLACK6922 ROW00122 -1.000000
    SLACK6923 ROW00129 1.000000
RHS
    RHS      ROW00001 158.000000
    RHS      ROW00002 158.000000
    RHS      ROW00005 3092.960000
    RHS      ROW00006 2566.670000
    RHS      ROW00007 6900.000000
    RHS      ROW00008 1600.000000
    RHS      ROW00009 800.000000
    RHS      ROW00012 -375.200000
    RHS      ROW00013 -92.120000
    RHS      ROW00014 -684.000000
    RHS      ROW00015 -150.000000
    RHS      ROW00020 1800.000000
    RHS      ROW00021 2400.000000
    RHS      ROW00022 1200.000000
    RHS      ROW00024 2566.670000
    RHS      ROW00025 6900.000000
    RHS      ROW00026 1600.000000
    RHS      ROW00027 800.000000
    RHS      ROW00039 1800.000000
    RHS      ROW00040 2400.000000
    RHS      ROW00041 1200.000000
    RHS      ROW00043 2566.670000
    RHS      ROW00044 6900.000000
    RHS      ROW00045 1600.000000
    RHS      ROW00046 800.000000
    RHS      ROW00058 1800.000000
    RHS      ROW00059 2400.000000
    RHS      ROW00060 1200.000000
    RHS      ROW00062 2566.670000
    RHS      ROW00063 6900.000000
    RHS      ROW00064 1600.000000
    RHS      ROW00065 800.000000
    RHS      ROW00077 1800.000000
    RHS      ROW00078 2400.000000
    RHS      ROW00079 1200.000000
    RHS      ROW00081 2566.670000
    RHS      ROW00082 6900.000000
    RHS      ROW00083 1600.000000
    RHS      ROW00084 800.000000
    RHS      ROW00096 1800.000000
    RHS      ROW00097 2400.000000
    RHS      ROW00098 1200.000000
    RHS      ROW00100 2566.670000
    RHS      ROW00101 6900.000000
    RHS      ROW00102 1600.000000
    RHS      ROW00103 800.000000
    RHS      ROW00115 1800.000000
    RHS      ROW00116 2400.000000
    RHS      ROW00117 1200.000000
    RHS      ROW00119 2566.670000
    RHS      ROW00120 6900.000000
    RHS      ROW00121 1600.000000
    RHS      ROW00122 800.000000
BOUNDS
ENDATA
