NAME          SCFXM1
ROWS
 N  .COSTA  
 E  1DT001  
 E  1DT002  
 E  1DT003  
 E  1DT004  
 E  1DT005  
 E  1DT006  
 E  1DT007  
 E  1DT008  
 E  1DT009  
 E  1DT010  
 E  1DT011  
 E  1DT012  
 E  1DT013  
 E  1DT014  
 E  1DT015  
 E  1DT016  
 E  1DT017  
 E  1DT018  
 E  1DT021  
 E  1DT022  
 E  1DT023  
 E  1DT024  
 E  1DT025  
 E  1DT026  
 E  1DT027  
 E  1DT028  
 E  1DT029  
 E  1DT030  
 E  1DT031  
 E  1DT032  
 E  1DT033  
 E  1DT034  
 E  1DT035  
 E  1DT036  
 E  1DT037  
 E  1DT038  
 E  1DT039  
 E  1DT040  
 E  1DT041  
 E  1DT042  
 E  1DT043  
 E  1DT044  
 E  1DT045  
 E  1DT047  
 E  1DT048  
 E  1DT049  
 E  1DT050  
 E  1DT051  
 E  1DT052  
 E  1DT053  
 E  1DT055  
 E  1DT056  
 E  1DT057  
 E  1DT059  
 E  1DT060  
 E  1DT062  
 E  1DT063  
 E  1DT064  
 E  1DT066  
 E  1DT067  
 E  1DT068  
 E  1DT069  
 E  1DT070  
 E  1DT071  
 E  1DT072  
 E  1DT073  
 E  1DT074  
 E  1DT075  
 E  1DT076  
 E  1DT077  
 E  1DT078  
 E  1DT079  
 E  1DT080  
 E  1DT081  
 E  1DT082  
 E  1DT083  
 E  1DT084  
 E  1DT087  
 E  1DT088  
 E  1DT089  
 E  1DT090  
 E  1DT091  
 E  1DT092  
 E  1DT094  
 E  1DT095  
 E  1DT096  
 E  1DT097  
 E  1DT098  
 E  1DT099  
 E  1DT100  
 E  1DT101  
 E  1DT102  
 E  1DT019  
 E  1DT020  
 E  1DT046  
 E  1DT093  
 E  SCROW1  
 E  SCROW2  
 E  SCROW3  
 E  SCROW4  
 E  SCROW5  
 E  1MS001  
 E  1MS002  
 E  1MS003  
 E  1MS004  
 E  1MS005  
 E  1MS006  
 E  1MS007  
 E  1MS008  
 E  1MS009  
 E  1MS010  
 E  1MS011  
 E  1MS012  
 E  1MS013  
 E  1MS014  
 E  1MS015  
 E  1MS016  
 E  1MS017  
 E  1MS018  
 E  1MS019  
 E  1MS020  
 E  1MS021  
 E  1MS022  
 E  1MS023  
 E  1MS024  
 E  1MS025  
 E  1MS026  
 E  1MS027  
 E  1MS028  
 E  1MS029  
 E  1MS030  
 E  1MS031  
 E  1MS032  
 E  1MS033  
 E  1MS034  
 E  1MS035  
 E  1MS036  
 E  1MS037  
 E  1MS038  
 E  1MS039  
 E  1MS040  
 E  1MS041  
 E  1MS043  
 E  1MS044  
 E  1MS045  
 E  1MS046  
 E  1MS047  
 E  1MS048  
 E  1MS049  
 E  1MS050  
 E  1MS051  
 E  1MS052  
 E  1MS053  
 E  1MS054  
 E  1MS055  
 E  1MS059  
 E  1MS060  
 E  1MS061  
 E  1MS062  
 E  1MS063  
 E  1MS064  
 E  1MS065  
 E  1MS067  
 E  1MS068  
 E  1MS069  
 E  1MS070  
 E  1MS071  
 E  1MS072  
 E  1MS073  
 E  1MS074  
 E  1MS075  
 E  1MS076  
 E  1MS078  
 E  1MS077  
 E  1MS042  
 E  1MS056  
 E  1MS057  
 E  1MS058  
 E  SCROW6  
 E  1DT054  
 E  1DT058  
 E  1DT061  
 E  1DT065  
 E  1PD004  
 E  1PD009  
 E  1PD010  
 E  1PD011  
 E  1PD012  
 E  1PD013  
 E  1PD014  
 E  1PD015  
 E  1PD016  
 E  1PD017  
 E  1PD018  
 E  1PD019  
 E  1PD020  
 E  1PD021  
 E  1PD022  
 E  1PD023  
 E  1PD024  
 E  1PD025  
 E  1PD026  
 E  1PD027  
 E  1PD028  
 E  1PD029  
 E  1PD030  
 E  1PD031  
 E  1PD032  
 E  1PD033  
 E  1PD034  
 E  1PD035  
 E  1PD036  
 E  1PD037  
 E  1PD038  
 E  1PD039  
 E  1PD040  
 E  1PD049  
 E  1PD050  
 E  1PD051  
 E  1PD052  
 E  1PD053  
 E  1PD054  
 E  1PD055  
 E  1PD056  
 E  1PD057  
 E  1PD058  
 E  1PD059  
 E  1PD060  
 E  1PD061  
 E  1PD062  
 E  1PD063  
 E  1PD064  
 E  1PD065  
 E  1PD066  
 E  1PD067  
 E  1PD068  
 E  1PD069  
 E  1PD070  
 E  1PD071  
 E  1PD072  
 E  1RB045  
 E  1RB038  
 E  1RB039  
 E  1RB040  
 E  1RB041  
 E  1RB001  
 E  1RB002  
 E  1RB003  
 E  1RB004  
 E  1RB005  
 E  1RB006  
 E  1RB059  
 E  1RB060  
 E  1RB061  
 E  1RB063  
 E  1RB064  
 E  1RB065  
 E  1RB066  
 E  1RB067  
 E  1RB068  
 E  1RB070  
 E  1RB073  
 E  1RB076  
 E  1RB077  
 E  1RB079  
 E  1RB080  
 E  1RB083  
 E  1RB084  
 E  1RB086  
 E  1RB087  
 E  1RB088  
 E  1RB092  
 E  1RB007  
 E  1RB008  
 E  1RB009  
 E  1RB010  
 E  1RB011  
 E  1RB012  
 E  1RB013  
 E  1RB014  
 E  1RB015  
 E  1RB016  
 E  1RB017  
 E  1RB018  
 E  1RB019  
 E  1RB020  
 E  1RB021  
 E  1RB022  
 E  1RB023  
 E  1RB024  
 E  1RB025  
 E  1RB026  
 E  1RB027  
 E  1RB028  
 E  1RB029  
 E  1RB030  
 E  1RB031  
 E  1RB032  
 E  1RB033  
 E  1RB034  
 E  1RB035  
 E  1RB036  
 E  1RB037  
 E  1RB042  
 E  1RB043  
 E  1RB044  
 E  1RB046  
 E  1RB047  
 E  1RB048  
 E  1RB049  
 E  1RB050  
 E  1RB051  
 E  1RB052  
 E  1RB053  
 E  1RB054  
 E  1RB055  
 E  1RB056  
 E  1RB057  
 E  1RB058  
 E  1RB062  
 E  1RB069  
 E  1RB071  
 E  1RB072  
 E  1RB078  
 E  1RB081  
 E  1RB082  
 E  1RB085  
 E  1RB089  
 E  1RB090  
 E  1RB091  
COLUMNS
    1D1IK    1DT012   1.000000   1DT060   -0.130000
    1D1IK    SCROW4   1.000000
    1D1IN    SCROW4   -1.000000   1DT098   1.000000
    1D1MK    1DT011   1.000000   1DT060   -0.154000
    1D1MK    SCROW4   1.000000
    1D1YK    1DT010   1.000000   1DT060   0.278000
    1D1YK    SCROW4   1.000000
    1D2ID    1DT015   1.000000   1DT062   -0.281000
    1D2ID    1DT063   7.500000   1DT064   -12.600000
    1D2ID    SCROW5   1.000000
    1D2IK    1DT012   1.000000   1DT062   -0.333300
    1D2IK    1DT063   -30.000000   1DT064   -6.250000
    1D2IK    SCROW5   1.000000
    1D2IN    SCROW5   -1.000000   1DT099   1.000000
    1D2LC    1DT043   1.000000   1DT062   0.013000
    1D2LC    1DT063   5.000000   1DT064   10.250000
    1D2LC    SCROW5   1.000000
    1D2MD    1DT014   1.000000   1DT062   -0.316000
    1D2MD    1DT063   20.000000   1DT064   -20.000000
    1D2MD    SCROW5   1.000000
    1D2MK    1DT011   1.000000   1DT062   -0.354000
    1D2MK    1DT063   -22.500000   1DT064   -16.000000
    1D2MK    SCROW5   1.000000
    1D2PB    1DT059   1.000000   1DT062   -0.394000
    1D2PB    1DT063   -62.500000   1DT064   -7.500000
    1D2PB    SCROW5   1.000000
    1D2US    1DT026   1.000000   1DT062   -0.307000
    1D2US    1DT063   -17.500000   1DT064   -2.000000
    1D2US    SCROW5   1.000000
    1D2YD    1DT013   1.000000   1DT062   0.724000
    1D2YD    1DT063   2.500000   1DT064   -7.400000
    1D2YD    SCROW5   1.000000
    1D2YK    1DT010   1.000000   1DT062   0.073000
    1D2YK    1DT063   -45.000000   1DT064   -4.000000
    1D2YK    SCROW5   1.000000
    1D4BY    1DT093   -1.000000   1DT101   -3.260000
    1DAOU    1DT009   -0.013700   1DT016   -0.001200
    1DAOU    1DT021   0.023200   1DT024   0.100000
    1DAOU    1DT025   -0.830000   1DT026   -0.150000
    1DAOU    1DT033   1.000000   1DT082   -0.001000
    1DAOU    1DT083   1.000000   1DT084   -0.005100
    1DAOU    1DT088   -0.005100   1DT089   -0.013700
    1DAOU    1DT100   -0.083600
    1DASP    1DT018   0.138000   1DT020   0.862000
    1DASP    1DT031   1.000000   1DT102   3.460000
    1DBZS    1DT035   1.000000   1DT049   1.000000
    1DBZS    1DT102   8.950000
    1DC2P    1DT001   1.000000   1DT021   -1.000000
    1DC3A    1DT046   -0.773900   1DT047   1.000000
    1DC3A    1DT091   0.434800   1DT092   0.565200
    1DC3A    1DT100   -0.328400
    1DC3P    1DT021   -0.610000   1DT090   1.000000
    1DC3R    1DT001   -0.090000   1DT002   1.000000
    1DC3R    1DT090   -0.850000
    1DC4A    1DT046   -0.800000   1DT047   1.000000
    1DC4A    1DT092   0.534900   1DT094   0.465100
    1DC4A    1DT100   -0.339900
    1DC65    .COSTA   10.000000   1DT001   -0.025000
    1DC65    1DT002   -0.036000   1DT003   -0.058000
    1DC65    1DT004   -0.041000   1DT005   -0.011000
    1DC65    1DT006   -0.077000   1DT016   -0.475000
    1DC65    1DT021   0.031800   1DT025   1.000000
    1DC65    1DT042   -0.050000   1DT043   -0.270000
    1DC65    1DT044   -0.080000   1DT045   1.000000
    1DC75    1DT001   -0.036000   1DT002   -0.042000
    1DC75    1DT003   -0.067000   1DT004   -0.047000
    1DC75    1DT005   -0.015000   1DT006   -0.090000
    1DC75    1DT016   -0.525000   1DT021   0.031800
    1DC75    1DT025   1.000000   1DT042   -0.052500
    1DC75    1DT043   -0.220000   1DT044   -0.030000
    1DC75    1DT045   1.000000   1DT100   -0.012400
    1DC8U    1DT084   -1.000000   1DT089   1.000000
    1DCKP    1DT017   1.000000   1DT021   -4.409000
    1DCKP    1DT022   1.000000
    1DCKS    1DT022   1.000000   1DT102   4.000000
    1DCOU    1DT021   0.023200   1DT024   0.550000
    1DCOU    1DT025   -0.900000   1DT026   -0.100000
    1DCOU    1DT033   1.000000   1DT081   1.000000
    1DCOU    1DT082   -0.003900   1DT100   -0.083600
    1DCTL    1DT016   1.000000   1DT042   1.000000
    1DCTL    1DT043   -1.000000
    1DDID    1DT015   1.000000   1DT066   -0.282000
    1DDID    1DT067   1.000000   1DT068   1.000000
    1DDMD    1DT014   1.000000   1DT066   -0.316000
    1DDMD    1DT067   1.000000   1DT068   1.000000
    1DDUS    1DT026   1.000000   1DT066   -0.307000
    1DDUS    1DT067   -3.000000   1DT068   1.000000
    1DDYD    1DT013   1.000000   1DT066   0.724000
    1DDYD    1DT067   1.000000   1DT068   1.000000
    1DFVB    1DT001   -0.017000   1DT002   -0.016000
    1DFVB    1DT003   -0.010000   1DT004   -0.003000
    1DFVB    1DT005   -0.007000   1DT006   -0.007000
    1DFVB    1DT008   -0.150000   1DT009   -0.107400
    1DFVB    1DT016   -0.007900   1DT019   1.000000
    1DFVB    1DT021   0.038000   1DT072   0.676000
    1DFVB    1DT074   1.000000   1DT084   -0.042700
    1DFVB    1DT088   -0.042700   1DT089   -0.107400
    1DFVB    1DT102   2.210000
    1DGBY    1DT025   -1.000000   1DT033   1.000000
    1DGBY    1DT077   1.000000   1DT101   -2.880000
    1DGOU    1DT009   -0.013700   1DT016   -0.001200
    1DGOU    1DT018   1.000000   1DT021   0.023200
    1DGOU    1DT024   0.200000   1DT025   -0.880000
    1DGOU    1DT026   -0.100000   1DT033   1.000000
    1DGOU    1DT082   -0.003900   1DT084   -0.005100
    1DGOU    1DT088   -0.005100   1DT089   -0.013700
    1DGOU    1DT100   -0.083600
    1DH2P    1DT021   -0.051100   1DT024   1.000000
    1DHNU    1DT009   -0.785000   1DT021   0.023200
    1DHNU    1DT024   0.450000   1DT033   1.000000
    1DHNU    1DT080   1.000000   1DT084   -0.215000
    1DHNU    1DT088   -0.215000   1DT089   -0.785000
    1DHNU    1DT100   -0.083600
    1DHPU    1DT021   0.024400   1DT024   0.050000
    1DHPU    1DT041   1.000000   1DT084   1.000000
    1DHPU    1DT100   -0.040900
    1DI4R    1DT001   -0.052200   1DT004   1.000000
    1DI4R    1DT092   -0.920000
    1DIBY    1DT092   -1.000000   1DT101   -3.670000
    1DICD    .COSTA   10.000000   1DT002   -0.007000
    1DICD    1DT004   -0.003400   1DT005   -0.014500
    1DICD    1DT007   -0.019500   1DT009   -0.098000
    1DICD    1DT012   -0.179000   1DT015   -0.080000
    1DICD    1DT019   -0.150000   1DT021   0.013900
    1DICD    1DT025   -0.215000   1DT028   1.000000
    1DICD    1DT078   -0.223000   1DT083   -0.100000
    1DICD    1DT088   -0.125000
    1DICG    1DT002   -0.007000   1DT004   -0.003400
    1DICG    1DT005   -0.014500   1DT007   -0.019500
    1DICG    1DT009   -0.128000   1DT012   -0.149000
    1DICG    1DT015   -0.045000   1DT019   -0.150000
    1DICG    1DT021   0.013900   1DT025   -0.260000
    1DICG    1DT028   1.000000   1DT078   -0.253000
    1DICG    1DT083   -0.090000   1DT088   -0.125000
    1DICG    1DT100   -0.048700   1DT101   -3.114000
    1DICK    .COSTA   10.000000   1DT002   -0.007000
    1DICK    1DT004   -0.003400   1DT005   -0.014500
    1DICK    1DT007   -0.019500   1DT009   -0.098000
    1DICK    1DT012   -0.179000   1DT015   -0.045000
    1DICK    1DT019   -0.150000   1DT021   0.013900
    1DICK    1DT025   -0.260000   1DT028   1.000000
    1DICK    1DT078   -0.223000   1DT083   -0.090000
    1DICK    1DT088   -0.125000
    1DIGD    .COSTA   10.000000   1DT002   -0.007000
    1DIGD    1DT004   -0.003400   1DT005   -0.014500
    1DIGD    1DT007   -0.019500   1DT009   -0.128000
    1DIGD    1DT012   -0.149000   1DT015   -0.080000
    1DIGD    1DT019   -0.150000   1DT021   0.013900
    1DIGD    1DT025   -0.215000   1DT028   1.000000
    1DIGD    1DT078   -0.253000   1DT083   -0.100000
    1DIGD    1DT088   -0.125000
    1DLBY    1DT002   -0.020000   1DT004   -0.380000
    1DLBY    1DT005   -0.300000   1DT007   -0.200000
    1DLBY    1DT076   1.000000   1DT101   -2.310000
    1DLPU    1DT021   0.024400   1DT024   0.050000
    1DLPU    1DT040   1.000000   1DT078   1.000000
    1DLPU    1DT100   -0.027100
    1DMCD    .COSTA   10.000000   1DT002   -0.007200
    1DMCD    1DT004   -0.006800   1DT005   -0.037500
    1DMCD    1DT007   -0.023000   1DT009   -0.090000
    1DMCD    1DT011   -0.202000   1DT014   -0.095000
    1DMCD    1DT019   -0.115000   1DT021   0.013900
    1DMCD    1DT025   -0.228500   1DT028   1.000000
    1DMCD    1DT030   1.000000   1DT078   -0.205000
    1DMCD    1DT083   -0.080000   1DT087   -0.115000
    1DMCG    1DT002   -0.007200   1DT004   -0.006800
    1DMCG    1DT005   -0.037500   1DT007   -0.023000
    1DMCG    1DT009   -0.130000   1DT011   -0.162000
    1DMCG    1DT014   -0.060000   1DT019   -0.115000
    1DMCG    1DT021   0.013900   1DT025   -0.273500
    1DMCG    1DT028   1.000000   1DT030   1.000000
    1DMCG    1DT078   -0.245000   1DT083   -0.070000
    1DMCG    1DT087   -0.115000   1DT100   -0.048700
    1DMCG    1DT101   -2.937500
    1DMCK    .COSTA   10.000000   1DT002   -0.007200
    1DMCK    1DT004   -0.006800   1DT005   -0.037500
    1DMCK    1DT007   -0.023000   1DT009   -0.090000
    1DMCK    1DT011   -0.202000   1DT014   -0.060000
    1DMCK    1DT019   -0.115000   1DT021   0.013900
    1DMCK    1DT025   -0.273500   1DT028   1.000000
    1DMCK    1DT030   1.000000   1DT078   -0.205000
    1DMCK    1DT083   -0.070000   1DT087   -0.115000
    1DMCST   .COSTA   1.000000   1DT101   1.000000
    1DMGD    .COSTA   10.000000   1DT002   -0.007200
    1DMGD    1DT004   -0.006800   1DT005   -0.037500
    1DMGD    1DT007   -0.023000   1DT009   -0.130000
    1DMGD    1DT011   -0.162000   1DT014   -0.095000
    1DMGD    1DT019   -0.115000   1DT021   0.013900
    1DMGD    1DT025   -0.228500   1DT028   1.000000
    1DMGD    1DT030   1.000000   1DT078   -0.245000
    1DMGD    1DT083   -0.080000   1DT087   -0.115000
    1DN4R    1DT001   -0.047200   1DT005   1.000000
    1DN4R    1DT093   -0.930000
    1DNBY    1DT021   -1.000000   1DT101   -2.670000
    1DO3R    1DT001   -0.118000   1DT003   1.000000
    1DO3R    1DT091   -0.820000
    1DO4N    1DT093   -1.000000   1DT094   1.000000
    1DO4R    1DT001   -0.013800   1DT006   1.000000
    1DO4R    1DT094   -0.980000
    1DOCST   .COSTA   1.000000   1DT100   1.000000
    1DP94    1DT001   -0.063700   1DT002   -0.038060
    1DP94    1DT004   -0.020750   1DT005   -0.003090
    1DP94    1DT009   1.150000   1DT021   0.063500
    1DP94    1DT024   -0.793800   1DT038   1.150000
    1DP94    1DT051   4.300000   1DT052   -3.600000
    1DP94    1DT053   -2.000000   SCROW2   1.000000
    1DP94    1DT059   -0.069020   1DT100   -0.073500
    1DP94    1DT101   -0.371700
    1DP98    1DT001   -0.092650   1DT002   -0.049460
    1DP98    1DT004   -0.027310   1DT005   -0.003030
    1DP98    1DT009   1.207000   1DT021   0.063500
    1DP98    1DT024   -0.929600   1DT038   1.412000
    1DP98    1DT051   1.900000   1DT052   -2.000000
    1DP98    1DT053   -2.000000   SCROW2   1.000000
    1DP98    1DT059   -0.072430   1DT100   -0.077100
    1DP98    1DT101   -0.371700
    1DPAL    1DT046   1.000000   1DT051   -8.400000
    1DPAL    1DT052   3.820000   1DT053   -2.000000
    1DPAL    SCROW2   1.000000   1DT101   -0.371700
    1DPC4    1DT051   -8.300000   1DT052   38.430000
    1DPC4    1DT053   -2.000000   SCROW2   1.000000
    1DPC4    1DT093   1.000000   1DT101   -0.371700
    1DPCT    1DT016   1.000000   1DT051   5.500000
    1DPCT    1DT052   -3.310000   1DT053   -2.000000
    1DPCT    SCROW2   1.000000   1DT101   -0.371700
    1DPIN    SCROW2   -1.000000   1DT096   1.000000
    1DPOH    1DT034   1.000000   1DT051   -0.400000
    1DPOH    1DT052   10.150000   1DT053   -2.000000
    1DPOH    SCROW2   1.000000   1DT101   -0.371700
    1DPPS    1DT048   1.000000   1DT090   0.950000
    1DPPS    1DT091   0.050000   1DT102   2.410000
    1DPREV   .COSTA   -1.000000   1DT102   -1.000000
    1DPRF    1DT007   1.000000   1DT051   6.700000
    1DPRF    1DT052   0.260000   1DT053   -2.000000
    1DPRF    SCROW2   1.000000   1DT101   -0.371700
    1DPTL    1DT051   1.250000   1DT053   1.000000
    1DPTL    1DT101   0.092930
    1DPXY    1DT037   1.000000   1DT051   -20.300000
    1DPXY    1DT052   -8.500000   1DT053   -2.000000
    1DPXY    SCROW2   1.000000   1DT101   -0.371700
    1DPYS    1DT027   1.000000   1DT090   0.020000
    1DPYS    1DT091   0.980000   1DT102   4.720000
    1DR94    1DT001   -0.063700   1DT002   -0.038060
    1DR94    1DT004   -0.020750   1DT005   -0.003090
    1DR94    1DT009   1.150000   1DT021   0.063500
    1DR94    1DT024   -0.793800   1DT038   1.150000
    1DR94    1DT055   -0.400000   1DT056   -3.600000
    1DR94    1DT057   -1.500000   SCROW3   1.000000
    1DR94    1DT059   -0.069020   1DT100   -0.073500
    1DR94    1DT101   -0.371700
    1DR98    1DT001   -0.092650   1DT002   -0.049460
    1DR98    1DT004   -0.027310   1DT005   -0.003030
    1DR98    1DT009   1.207000   1DT021   0.063500
    1DR98    1DT024   -0.929600   1DT038   1.412000
    1DR98    1DT055   -2.500000   1DT056   -2.000000
    1DR98    1DT057   -1.500000   SCROW3   1.000000
    1DR98    1DT059   -0.072430   1DT100   -0.077100
    1DR98    1DT101   -0.371700
    1DRAL    1DT046   1.000000   1DT055   -9.400000
    1DRAL    1DT056   3.820000   1DT057   -1.500000
    1DRAL    SCROW3   1.000000   1DT101   -0.371700
    1DRBT    1DT001   -0.021000   1DT002   -0.025000
    1DRBT    1DT004   -0.013000   1DT005   -0.026000
    1DRBT    1DT007   -0.451000   1DT021   0.115000
    1DRBT    1DT024   -0.900000   1DT034   -0.095000
    1DRBT    1DT035   -0.098000   1DT036   -0.182000
    1DRBT    1DT037   -0.060000   1DT039   1.000000
    1DRBT    1DT078   -1.000000   1DT100   -0.063900
    1DRBT    SCROW1   -1.000000
    1DRC4    1DT055   -9.900000   1DT056   38.430000
    1DRC4    1DT057   -1.500000   SCROW3   1.000000
    1DRC4    1DT093   1.000000   1DT101   -0.371700
    1DRCT    1DT016   1.000000   1DT055   -2.600000
    1DRCT    1DT056   -3.310000   1DT057   -1.500000
    1DRCT    SCROW3   1.000000   1DT101   -0.371700
    1DRIN    SCROW3   -1.000000   1DT097   1.000000
    1DROH    1DT034   1.000000   1DT055   -1.700000
    1DROH    1DT056   10.150000   1DT057   -1.500000
    1DROH    SCROW3   1.000000   1DT101   -0.371700
    1DRRF    1DT007   1.000000   1DT055   5.600000
    1DRRF    1DT056   0.260000   1DT057   -1.500000
    1DRRF    SCROW3   1.000000   1DT101   -0.371700
    1DRTL    1DT055   1.870000   1DT057   1.000000
    1DRTL    1DT101   0.092930
    1DRXY    1DT037   1.000000   1DT055   -24.100000
    1DRXY    1DT056   -8.500000   1DT057   -1.500000
    1DRXY    SCROW3   1.000000   1DT101   -0.371700
    1DS5B    1DT019   1.000000   1DT073   2.640000
    1DS5B    1DT075   1.000000
    1DS5F    1DT020   1.000000   1DT073   5.690000
    1DS5F    1DT075   1.000000
    1DS5G    1DT023   1.000000   1DT073   6.490000
    1DS5G    1DT075   1.000000
    1DS5L    1DT043   1.000000   1DT073   -7.690000
    1DS5L    1DT075   1.000000
    1DS5P    1DT021   -1.000000   1DT075   -1.000000
    1DS5R    1DT072   -1.000000   1DT073   0.300000
    1DS5R    1DT075   1.000000   1DT102   -3.360000
    1DS5S    1DT044   1.000000   1DT073   -3.690000
    1DS5S    1DT075   1.000000
    1DS5V    1DT008   1.000000   1DT073   -8.080000
    1DS5V    1DT075   1.000000
    1DS6B    1DT019   1.000000   1DT069   3.620000
    1DS6B    1DT070   -0.487000   1DT071   1.000000
    1DS6L    1DT043   1.000000   1DT069   -6.690000
    1DS6L    1DT070   -0.428000   1DT071   1.000000
    1DS6R    1DT069   1.280000   1DT070   -0.151000
    1DS6R    1DT071   1.000000   1DT072   -1.000000
    1DS6R    1DT102   -3.360000
    1DS6S    1DT044   1.000000   1DT069   -2.700000
    1DS6S    1DT070   -0.094600   1DT071   1.000000
    1DS6V    1DT008   1.000000   1DT069   -7.090000
    1DS6V    1DT070   -5.040000   1DT071   1.000000
    1DSCO    1DT001   -0.072000   1DT002   -0.027000
    1DSCO    1DT003   -0.034000   1DT004   -0.005000
    1DSCO    1DT005   -0.015000   1DT006   -0.019000
    1DSCO    1DT009   -0.005000   1DT016   -0.040000
    1DSCO    1DT019   1.000000   1DT021   0.047500
    1DSCO    1DT022   -0.012000   1DT023   -0.040000
    1DSCO    1DT032   1.000000   1DT080   -0.137000
    1DSCO    1DT081   -0.580000   1DT084   -0.055000
    1DSCO    1DT088   -0.055000   1DT089   -0.005000
    1DSCO    1DT100   -0.141500
    1DSPF    1DT021   -1.055000   1DT023   1.000000
    1DSUS    1DT082   1.000000   1DT102   25.000000
    1DSVB    1DT001   -0.035000   1DT002   -0.026000
    1DSVB    1DT003   -0.016000   1DT004   -0.004000
    1DSVB    1DT005   -0.010000   1DT006   -0.001000
    1DSVB    1DT008   -0.100000   1DT009   -0.142800
    1DSVB    1DT016   -0.010500   1DT021   0.038000
    1DSVB    1DT044   1.000000   1DT072   0.610000
    1DSVB    1DT074   1.000000   1DT084   -0.056700
    1DSVB    1DT088   -0.056700   1DT089   -0.142800
    1DSVB    1DT102   1.977000
    1DTLS    1DT036   1.000000   1DT049   1.000000
    1DTLS    1DT102   6.780000
    1DV6I    1DT001   -0.021000   1DT002   -0.025000
    1DV6I    1DT004   -0.013000   1DT005   -0.026000
    1DV6I    1DT007   -0.451000   1DT021   0.115000
    1DV6I    1DT024   -0.900000   1DT034   -0.095000
    1DV6I    1DT035   -0.098000   1DT036   -0.182000
    1DV6I    1DT037   -0.060000   1DT039   1.000000
    1DV6I    1DT088   1.000000   1DT100   -0.063900
    1DV6M    1DT001   -0.029000   1DT002   -0.030000
    1DV6M    1DT004   -0.022000   1DT005   -0.033000
    1DV6M    1DT007   -0.520000   1DT021   0.115000
    1DV6M    1DT024   -0.550000   1DT034   -0.133000
    1DV6M    1DT035   -0.042000   1DT036   -0.125000
    1DV6M    1DT037   -0.010000   1DT039   1.000000
    1DV6M    1DT087   1.000000   1DT100   -0.063900
    1DV6Y    1DT001   -0.025000   1DT002   -0.027000
    1DV6Y    1DT004   -0.015000   1DT005   -0.024000
    1DV6Y    1DT007   -0.480000   1DT021   0.115000
    1DV6Y    1DT024   -0.750000   1DT034   -0.124000
    1DV6Y    1DT035   -0.050000   1DT036   -0.150000
    1DV6Y    1DT037   -0.040000   1DT039   1.000000
    1DV6Y    1DT079   1.000000   1DT100   -0.063900
    1DXC3    1DT090   1.000000   1DT095   1.000000
    1DXI4    1DT092   1.000000
    1DXO4    1DT094   1.000000
    1DXPY    1DT091   1.000000
    1DXYS    1DT037   1.000000   1DT050   1.000000
    1DXYS    1DT102   7.980000
    1DYCD    .COSTA   10.000000   1DT002   -0.002000
    1DYCD    1DT004   -0.002500   1DT005   -0.009300
    1DYCD    1DT007   -0.005000   1DT009   -0.060000
    1DYCD    1DT010   -0.115000   1DT013   -0.075000
    1DYCD    1DT018   -0.431000   1DT020   -0.250000
    1DYCD    1DT021   0.013900   1DT028   1.000000
    1DYCD    1DT029   1.000000   1DT078   -0.110000
    1DYCD    1DT079   -0.050000
    1DYCG    1DT002   -0.002200   1DT004   -0.002500
    1DYCG    1DT005   -0.009300   1DT007   -0.005000
    1DYCG    1DT009   -0.075000   1DT010   -0.100000
    1DYCG    1DT013   -0.050000   1DT018   -0.456000
    1DYCG    1DT020   -0.250000   1DT021   0.013900
    1DYCG    1DT028   1.000000   1DT029   1.000000
    1DYCG    1DT078   -0.125000   1DT079   -0.050000
    1DYCG    1DT100   -0.048700   1DT101   -2.649800
    1DYCK    .COSTA   10.000000   1DT002   -0.002000
    1DYCK    1DT004   -0.002500   1DT005   -0.009300
    1DYCK    1DT007   -0.005000   1DT009   -0.060000
    1DYCK    1DT010   -0.115000   1DT013   -0.050000
    1DYCK    1DT018   -0.456000   1DT020   -0.250000
    1DYCK    1DT021   0.013900   1DT028   1.000000
    1DYCK    1DT029   1.000000   1DT078   -0.110000
    1DYCK    1DT079   -0.050000
    1DYCO    1DT001   -0.135000   1DT002   -0.040000
    1DYCO    1DT003   -0.060000   1DT004   -0.011000
    1DYCO    1DT005   -0.022000   1DT006   -0.022000
    1DYCO    1DT009   -0.005000   1DT016   -0.040000
    1DYCO    1DT020   1.000000   1DT021   0.047500
    1DYCO    1DT022   -0.043400   1DT023   -0.040000
    1DYCO    1DT032   1.000000   1DT080   -0.136000
    1DYCO    1DT081   -0.307000   1DT084   -0.055000
    1DYCO    1DT088   -0.055000   1DT089   -0.005000
    1DYCO    1DT100   -0.141500
    1DYGD    .COSTA   10.000000   1DT002   -0.002000
    1DYGD    1DT004   -0.002500   1DT005   -0.009300
    1DYGD    1DT007   -0.005000   1DT009   -0.075000
    1DYGD    1DT010   -0.100000   1DT013   -0.075000
    1DYGD    1DT018   -0.431000   1DT020   -0.250000
    1DYGD    1DT021   0.013900   1DT028   1.000000
    1DYGD    1DT029   1.000000   1DT078   -0.125000
    1DYGD    1DT079   -0.050000
    SCCOL1   SCROW1   1.000000   SCROW6   1.000000
    SCCOL2   SCROW2   -1.000000   1DT054   1.000000
    SCCOL3   SCROW3   -1.000000   1DT058   1.000000
    SCCOL4   SCROW4   -1.000000   1DT061   1.000000
    SCCOL5   SCROW5   -1.000000   1DT065   1.000000
    1M1SK    1MS014   1.000000   1MS056   1.000000
    1M1YK    1MS013   1.000000   1MS056   1.000000
    1M2BD    1MS027   1.000000   1MS046   2.000000
    1M2BD    1MS047   -40.000000   1MS048   -0.400000
    1M2BD    1MS057   1.000000
    1M2BG    1MS026   1.000000   1MS046   -1.000000
    1M2BG    1MS047   -40.000000   1MS048   -0.403000
    1M2BG    1MS057   1.000000
    1M2SK    1MS014   1.000000   1MS046   -15.000000
    1M2SK    1MS047   -35.000000   1MS048   -0.288000
    1M2SK    1MS057   1.000000
    1M2YK    1MS013   1.000000   1MS046   -10.000000
    1M2YK    1MS047   -40.000000   1MS048   0.125000
    1M2YK    1MS057   1.000000
    1M1IN    1MS056   -1.000000   1MS077   1.000000
    1M2IN    1MS057   -1.000000   1MS078   1.000000
    1M2LS    1MS033   1.000000   1MS046   17.500000
    1M2LS    1MS047   5.500000   1MS048   -0.091000
    1M2LS    1MS057   1.000000
    1M2LY    1MS032   1.000000   1MS046   15.000000
    1M2LY    1MS048   1.191000   1MS057   1.000000
    1M2SD    1MS018   1.000000   1MS046   -16.000000
    1M2SD    1MS047   30.000000   1MS048   -0.262000
    1M2SD    1MS057   1.000000
    1M2SG    1MS016   1.000000   1MS046   -14.300000
    1M2SG    1MS047   50.000000   1MS048   -0.261000
    1M2SG    1MS057   1.000000
    1M2UD    1MS046   -9.000000   1MS047   5.000000
    1M2UD    1MS048   -0.260000   1MS057   1.000000
    1M2UD    1MS059   1.000000
    1M2UG    1MS035   1.000000   1MS046   -9.500000
    1M2UG    1MS047   20.000000   1MS048   -0.210000
    1M2UG    1MS057   1.000000
    1M2UL    1MS036   1.000000   1MS046   12.500000
    1M2UL    1MS047   12.000000   1MS048   -0.250000
    1M2UL    1MS057   1.000000
    1M2YD    1MS017   1.000000   1MS046   -8.000000
    1M2YD    1MS047   20.000000   1MS048   1.064000
    1M2YD    1MS057   1.000000
    1M2YG    1MS015   1.000000   1MS046   -8.500000
    1M2YG    1MS047   30.000000   1MS048   1.115000
    1M2YG    1MS057   1.000000
    1M5LS    1MS033   1.000000   1MS045   -7.110000
    1M5LS    1MS055   -1.000000
    1M5LY    1MS032   1.000000   1MS045   -6.330000
    1M5LY    1MS055   -1.000000
    1M5R     1MS041   1.000000   1MS055   1.000000
    1M5SB    1MS022   1.000000   1MS045   2.720000
    1M5SB    1MS055   -1.000000
    1M5SD    1MS018   1.000000   1MS045   -4.130000
    1M5SD    1MS055   -1.000000
    1M5SG    1MS016   1.000000   1MS045   -4.030000
    1M5SG    1MS055   -1.000000
    1M5SL    1MS034   1.000000   1MS045   -3.580000
    1M5SL    1MS055   -1.000000
    1M5YB    1MS021   1.000000   1MS045   5.170000
    1M5YB    1MS055   -1.000000
    1M5YD    1MS017   1.000000   1MS045   -3.730000
    1M5YD    1MS055   -1.000000
    1M5YG    1MS015   1.000000   1MS045   -3.830000
    1M5YG    1MS055   -1.000000
    1M65S    1MS002   -0.065000   1MS004   -0.025000
    1M65S    1MS005   -0.036000   1MS006   -0.056000
    1M65S    1MS007   -0.017500   1MS008   -0.048000
    1M65S    1MS009   -0.064000   1MS020   1.000000
    1M65S    1MS023   0.027000   1MS031   -0.470000
    1M65S    1MS033   -0.270000   1MS034   -0.080000
    1M65S    1MS063   1.000000
    1M65Y    1MS002   -0.065000   1MS004   -0.027500
    1M65Y    1MS005   -0.035000   1MS006   -0.056000
    1M65Y    1MS007   -0.016500   1MS008   -0.048500
    1M65Y    1MS009   -0.062000   1MS019   1.000000
    1M65Y    1MS023   0.027000   1MS031   -0.470000
    1M65Y    1MS032   -0.230000   1MS034   -0.120000
    1M65Y    1MS063   1.000000
    1M6SB    1MS003   3.040000   1MS022   1.000000
    1M6SB    1MS040   1.000000   1MS043   3.030000
    1M6SB    1MS044   0.151000
    1M6SD    1MS003   3.040000   1MS018   1.000000
    1M6SD    1MS040   1.000000   1MS043   -3.820000
    1M6SD    1MS044   -0.895000
    1M6SG    1MS003   3.040000   1MS016   1.000000
    1M6SG    1MS040   1.000000   1MS043   -3.720000
    1M6SG    1MS044   -0.891000
    1M6SL    1MS003   3.040000   1MS034   1.000000
    1M6SL    1MS040   1.000000   1MS043   -3.270000
    1M6SL    1MS044   -0.740000
    1M75S    1MS002   -0.065000   1MS004   -0.036000
    1M75S    1MS005   -0.041000   1MS006   -0.066500
    1M75S    1MS007   -0.020000   1MS008   -0.055500
    1M75S    1MS009   -0.075500   1MS020   1.000000
    1M75S    1MS023   0.035000   1MS031   -0.520000
    1M75S    1MS033   -0.210000   1MS034   -0.040000
    1M75S    1MS063   1.000000
    1M75Y    1MS002   -0.065000   1MS004   -0.039000
    1M75Y    1MS005   -0.039000   1MS006   -0.064000
    1M75Y    1MS007   -0.018500   1MS008   -0.054000
    1M75Y    1MS009   -0.070000   1MS019   1.000000
    1M75Y    1MS023   0.035000   1MS031   -0.520000
    1M75Y    1MS032   -0.180000   1MS034   -0.070000
    1M75Y    1MS063   1.000000
    1M94S    1MS002   -0.080000   1MS004   -0.007400
    1M94S    1MS005   -0.027500   1MS007   -0.002450
    1M94S    1MS008   -0.014000   1MS023   0.066300
    1M94S    1MS025   1.000000   1MS028   -0.885000
    1M94S    1MS029   -0.878500   1MS062   1.000000
    1M94Y    1MS002   -0.110000   1MS004   -0.012800
    1M94Y    1MS005   -0.045700   1MS007   -0.002950
    1M94Y    1MS008   -0.002310   1MS023   0.066300
    1M94Y    1MS024   1.000000   1MS028   -0.700000
    1M94Y    1MS029   -0.844200   1MS062   1.000000
    1M98S    1MS002   -0.090000   1MS004   -0.008300
    1M98S    1MS005   -0.031400   1MS007   -0.002400
    1M98S    1MS008   -0.016300   1MS023   0.069000
    1M98S    1MS025   1.000000   1MS028   -0.925000
    1M98S    1MS030   -0.860600   1MS062   1.170000
    1M98Y    1MS002   -0.120000   1MS004   -0.013700
    1M98Y    1MS005   -0.050000   1MS007   -0.002800
    1M98Y    1MS008   -0.025500   1MS023   0.069000
    1M98Y    1MS024   1.000000   1MS028   -0.740000
    1M98Y    1MS030   -0.824000   1MS062   1.170000
    1MAF1    1MS014   0.750000   1MS026   0.250000
    1MAF1    1MS039   1.000000
    1MAF2    1MS014   0.750000   1MS027   0.250000
    1MAF2    1MS039   1.000000
    1MAF3    1MS013   0.750000   1MS026   0.250000
    1MAF3    1MS039   1.000000
    1MAF4    1MS013   0.750000   1MS027   0.250000
    1MAF4    1MS039   1.000000
    1MALK    1DT046   1.000000   1MS001   -0.392800
    1MALK    1MS042   1.000000   1MS049   -2.100000
    1MALK    1MS050   -5.560000   1MS051   -2.000000
    1MALK    1MS074   -0.120000
    1MASP    1MS003   3.360000   1MS019   0.138000
    1MASP    1MS021   0.862000   1MS038   1.000000
    1MC2P    1MS004   1.000000   1MS065   -1.000000
    1MC3F    1MS023   -0.670000   1MS068   1.000000
    1MC3P    1MS005   1.000000   1MS065   -0.090000
    1MC3P    1MS068   -0.850000
    1MC3S    1MS003   2.310000   1MS037   1.000000
    1MC3S    1MS068   1.000000
    1MC4P    1MS007   1.000000   1MS065   -0.047200
    1MC4P    1MS067   -0.930000
    1MCSD    1MS001   -3.212000   1MS002   -0.033900
    1MCSD    1MS005   -0.002000   1MS007   -0.007000
    1MCSD    1MS008   -0.004000   1MS010   -0.083000
    1MCSD    1MS014   -0.130000   1MS018   -0.100000
    1MCSD    1MS020   -0.344000   1MS022   -0.110000
    1MCSD    1MS023   0.013900   1MS061   1.000000
    1MCSD    1MS064   0.130000   1MS073   -0.220000
    1MCSG    1MS001   -3.212000   1MS002   -0.033900
    1MCSG    1MS005   -0.002000   1MS007   -0.007000
    1MCSG    1MS008   -0.004000   1MS010   -0.083000
    1MCSG    1MS012   -0.220000   1MS014   -0.130000
    1MCSG    1MS016   -0.050000   1MS020   -0.394000
    1MCSG    1MS022   -0.110000   1MS023   0.013900
    1MCSG    1MS061   1.000000   1MS064   0.130000
    1MCYD    1MS001   -2.728900   1MS002   -0.049300
    1MCYD    1MS005   -0.001000   1MS007   -0.006000
    1MCYD    1MS008   -0.002000   1MS010   -0.030000
    1MCYD    1MS013   -0.107000   1MS017   -0.100000
    1MCYD    1MS019   -0.354000   1MS021   -0.275000
    1MCYD    1MS023   0.013900   1MS060   1.000000
    1MCYD    1MS061   1.000000   1MS064   0.107000
    1MCYD    1MS072   -0.125000
    1MCYG    1MS001   -2.728900   1MS002   -0.049300
    1MCYG    1MS005   -0.001000   1MS007   -0.006000
    1MCYG    1MS008   -0.002000   1MS010   -0.030000
    1MCYG    1MS011   -0.125000   1MS013   -0.107000
    1MCYG    1MS015   -0.047000   1MS019   -0.407000
    1MCYG    1MS021   -0.275000   1MS023   0.013900
    1MCYG    1MS060   1.000000   1MS061   1.000000
    1MCYG    1MS064   0.107000
    1MFG     1MS023   -1.000000   1MS065   1.000000
    1MH2P    1MS028   1.000000   1MS065   -0.051100
    1MI4D    1DT093   -1.000000   1MS069   1.000000
    1MI4D    1MS074   -0.120000
    1MI4P    1MS008   1.000000   1MS065   -0.052200
    1MI4P    1MS069   -0.920000
    1MIN4    1MS067   -1.000000   1MS069   1.000000
    1MMLC    .COSTA   1.000000   1MS001   1.000000
    1MN4D    1DT093   1.000000   1MS007   -1.000000
    1MN4D    1MS074   -0.120000
    1MO4P    1MS009   1.000000   1MS065   -0.013800
    1MO4P    1MS071   -0.980000
    1MON4    1MS067   -1.000000   1MS071   1.000000
    1MOPC    .COSTA   1.000000   1MS002   1.000000
    1MP94    1MS001   -0.392800   1MS029   1.000000
    1MP94    1MS042   1.000000   1MS049   -4.500000
    1MP94    1MS050   2.200000   1MS051   -2.000000
    1MP98    1MS001   -0.392800   1MS030   1.000000
    1MP98    1MS042   1.000000   1MS049   -1.700000
    1MP98    1MS050   -0.500000   1MS051   -2.000000
    1MPC3    1MS002   -0.480000   1MS005   -0.100000
    1MPC3    1MS031   -0.625000   1MS070   1.000000
    1MPC4    1MS002   -0.408000   1MS007   -0.100000
    1MPC4    1MS031   -0.735000   1MS071   1.000000
    1MPCP    1MS001   -0.392800   1MS031   1.000000
    1MPCP    1MS042   1.000000   1MS049   -1.700000
    1MPCP    1MS050   2.800000   1MS051   -2.000000
    1MPIN    1MS042   -1.000000   1MS075   1.000000
    1MPN4    1MS001   -0.392800   1MS042   1.000000
    1MPN4    1MS049   60.500000   1MS050   -9.190000
    1MPN4    1MS051   -2.000000   1MS067   1.000000
    1MPRC    .COSTA   -1.000000   1MS003   -1.000000
    1MPSD    1MS010   -0.030000   1MS025   -0.750000
    1MPSD    1MS027   -0.220000   1MS073   1.000000
    1MPSG    1MS010   -0.030000   1MS012   1.000000
    1MPSG    1MS025   -0.860000   1MS026   -0.110000
    1MPSR    1MS001   -0.392800   1MS010   1.000000
    1MPSR    1MS042   1.000000   1MS049   -1.900000
    1MPSR    1MS050   4.300000   1MS051   -2.000000
    1MPTL    1MS001   0.098210   1MS050   0.870000
    1MPTL    1MS051   1.000000
    1MPYD    1MS010   -0.030000   1MS024   -0.810000
    1MPYD    1MS027   -0.160000   1MS072   1.000000
    1MPYG    1MS010   -0.030000   1MS011   1.000000
    1MPYG    1MS024   -0.890000   1MS026   -0.080000
    1MPYP    1MS006   1.000000   1MS065   -0.118000
    1MPYP    1MS070   -0.820000
    1MR94    1MS029   1.000000   1MS052   -4.500000
    1MR94    1MS053   -1.500000   1MS054   -1.500000
    1MR94    1MS058   1.000000
    1MR98    1MS030   1.000000   1MS052   -1.700000
    1MR98    1MS053   -4.800000   1MS054   -1.500000
    1MR98    1MS058   1.000000
    1MRCP    1MS031   1.000000   1MS052   -1.700000
    1MRCP    1MS053   -3.500000   1MS054   -1.500000
    1MRCP    1MS058   1.000000
    1MRIN    1MS001   -0.392800   1MS058   -1.000000
    1MRIN    1MS076   1.000000
    1MRN4    1MS052   60.500000   1MS053   -11.930000
    1MRN4    1MS054   -1.500000   1MS058   1.000000
    1MRN4    1MS067   1.000000
    1MRSR    1MS010   1.000000   1MS052   -1.900000
    1MRSR    1MS053   3.020000   1MS054   -1.500000
    1MRSR    1MS058   1.000000
    1MRTL    1MS001   0.098210   1MS053   1.430000
    1MS6P    1MS023   -1.000000   1MS055   1.000000
    1MSRD    1DT020   -1.000000   1MS021   1.000000
    1MSRD    1MS074   -0.120000
    1MSWD    1DT019   -1.000000   1MS022   1.000000
    1MSWD    1MS074   -0.120000
    1MTCS    .COSTA   -1.000000   1MS074   1.000000
    1MULS    1MS002   -0.040000   1MS010   -0.010000
    1MULS    1MS023   0.025000   1MS028   0.400000
    1MULS    1MS033   1.000000   1MS036   -0.990000
    1MULS    1MS064   1.000000
    1MULY    1MS002   -0.040000   1MS010   -0.010000
    1MULY    1MS023   0.025000   1MS028   0.500000
    1MULY    1MS032   1.000000   1MS036   -0.990000
    1MULY    1MS064   1.000000
    1MUYD    1MS002   -0.040000   1MS010   -0.010000
    1MUYD    1MS017   1.000000   1MS023   0.025000
    1MUYD    1MS028   0.250000   1MS059   -0.990000
    1MUYD    1MS064   1.000000
    1MUYG    1MS002   -0.040000   1MS010   -0.010000
    1MUYG    1MS015   1.000000   1MS023   0.025000
    1MUYG    1MS028   0.250000   1MS035   -0.990000
    1MUYG    1MS064   1.000000
    SCCOL6   SCROW6   -1.000000   1RB045   -1.000000
    1P1BNP   1PD013   -1.000000   1PD025   50.000000
    1P1BNR   1PD018   -1.000000   1PD026   50.000000
    1P1SNP   1PD013   1.000000   1PD025   -50.000000
    1P1SNR   1PD018   1.000000   1PD026   -50.000000
    1P2BNP   1PD027   -1.000000   1PD031   -1.000000
    1P2BNP   1PD039   50.000000
    1P2BNR   1PD028   -1.000000   1PD032   -1.000000
    1P2BNR   1PD040   50.000000
    1P2SNP   1PD027   1.000000   1PD031   1.000000
    1P2SNP   1PD039   -50.000000
    1P2SNR   1PD028   1.000000   1PD032   1.000000
    1P2SNR   1PD040   -50.000000
    1PG11D   1DT061   -1.000000   1PD015   -1.000000
    1PG11I   1PD015   -1.000000
    1PG11R   1PD015   -1.000000   1RB040   -1.000000
    1PG11T   1PD015   1.000000   1PD019   -1.000000
    1PG11T   1PD023   1.000000
    1PG12D   1DT065   -1.000000   1PD016   -1.000000
    1PG12I   1PD016   -1.000000
    1PG12R   1PD016   -1.000000   1RB041   -1.000000
    1PG12T   1PD016   1.000000   1PD020   -1.000000
    1PG12T   1PD024   1.000000
    1PG1PD   1DT054   -1.000000   1PD013   -1.000000
    1PG1PD   1PD025   10.000000
    1PG1PI   1PD013   -1.000000   1PD025   10.000000
    1PG1PI   1PD069   1.000000
    1PG1PR   1PD013   -1.000000   1PD025   10.000000
    1PG1PR   1RB038   -1.000000
    1PG1PT   1PD013   1.000000   1PD017   -1.000000
    1PG1PT   1PD021   1.000000   1PD025   -10.000000
    1PG1RD   1DT058   -1.000000   1PD014   -1.000000
    1PG1RD   1PD026   10.000000
    1PG1RI   1PD014   -1.000000   1PD026   10.000000
    1PG1RI   1PD070   1.000000
    1PG1RR   1PD014   -1.000000   1PD026   10.000000
    1PG1RR   1RB039   -1.000000
    1PG1RT   1PD014   1.000000   1PD018   -1.000000
    1PG1RT   1PD022   1.000000   1PD026   -10.000000
    1PG21D   1DT061   -1.000000   1PD029   -1.000000
    1PG21I   1PD029   -1.000000
    1PG21M   1MS056   -1.000000   1PD029   -1.000000
    1PG21R   1PD029   -1.000000   1RB040   -1.000000
    1PG21T   1PD029   1.000000   1PD033   -1.000000
    1PG21T   1PD037   1.000000
    1PG22D   1DT065   -1.000000   1PD030   -1.000000
    1PG22I   1PD030   -1.000000
    1PG22M   1MS057   -1.000000   1PD030   -1.000000
    1PG22R   1PD030   -1.000000   1RB041   -1.000000
    1PG22T   1PD030   1.000000   1PD034   -1.000000
    1PG22T   1PD038   1.000000
    1PG2PD   1DT054   -1.000000   1PD027   -1.000000
    1PG2PD   1PD039   10.000000
    1PG2PI   1PD027   -1.000000   1PD039   10.000000
    1PG2PI   1PD071   1.000000
    1PG2PM   1MS042   -1.000000   1PD027   -1.000000
    1PG2PM   1PD039   10.000000
    1PG2PR   1PD027   -1.000000   1PD039   10.000000
    1PG2PR   1RB038   -1.000000
    1PG2PT   1PD027   1.000000   1PD031   -1.000000
    1PG2PT   1PD035   1.000000   1PD039   -10.000000
    1PG2RD   1DT058   -1.000000   1PD028   -1.000000
    1PG2RD   1PD040   10.000000
    1PG2RI   1PD028   -1.000000   1PD040   10.000000
    1PG2RI   1PD072   1.000000
    1PG2RM   1MS058   -1.000000   1PD028   -1.000000
    1PG2RM   1PD040   10.000000
    1PG2RR   1PD028   -1.000000   1PD040   10.000000
    1PG2RR   1RB039   -1.000000
    1PG2RT   1PD028   1.000000   1PD032   -1.000000
    1PG2RT   1PD036   1.000000   1PD040   -10.000000
    1PT11D   1DT061   -1.000000   1PD004   0.142600
    1PT11D   1PD011   1.000000
    1PT11I   1PD011   1.000000   1PD019   1.000000
    1PT11R   1PD004   0.236300   1PD011   1.000000
    1PT11R   1RB040   -1.000000
    1PT12D   1DT065   -1.000000   1PD004   0.142600
    1PT12D   1PD012   1.000000
    1PT12I   1PD012   1.000000   1PD020   1.000000
    1PT12R   1PD004   0.236300   1PD012   1.000000
    1PT12R   1RB041   -1.000000
    1PT1PD   1DT054   -1.000000   1PD004   0.142600
    1PT1PD   1PD009   1.000000
    1PT1PI   1PD009   1.000000   1PD017   1.000000
    1PT1PR   1PD004   0.236300   1PD009   1.000000
    1PT1PR   1RB038   -1.000000
    1PT1RD   1DT058   -1.000000   1PD004   0.142600
    1PT1RD   1PD010   1.000000
    1PT1RI   1PD010   1.000000   1PD018   1.000000
    1PT1RR   1PD004   0.236300   1PD010   1.000000
    1PT1RR   1RB039   -1.000000
    1PT21D   1DT061   -1.000000   1PD004   0.202600
    1PT21D   1PD051   1.000000
    1PT21I   1PD019   1.000000   1PD051   1.000000
    1PT21R   1PD004   0.286300   1PD051   1.000000
    1PT21R   1RB040   -1.000000
    1PT22D   1DT065   -1.000000   1PD004   0.202600
    1PT22D   1PD052   1.000000
    1PT22I   1PD020   1.000000   1PD052   1.000000
    1PT22R   1PD004   0.286300   1PD052   1.000000
    1PT22R   1RB041   -1.000000
    1PT2PD   1DT054   -1.000000   1PD004   0.202600
    1PT2PD   1PD049   1.000000
    1PT2PI   1PD017   1.000000   1PD049   1.000000
    1PT2PR   1PD004   0.286300   1PD049   1.000000
    1PT2PR   1RB038   -1.000000
    1PT2RD   1DT058   -1.000000   1PD004   0.202600
    1PT2RD   1PD050   1.000000
    1PT2RI   1PD018   1.000000   1PD050   1.000000
    1PT2RR   1PD004   0.286300   1PD050   1.000000
    1PT2RR   1RB039   -1.000000
    1PT31D   1DT061   -1.000000   1PD004   0.147600
    1PT31D   1PD055   1.000000
    1PT31I   1PD019   1.000000   1PD055   1.000000
    1PT31R   1PD004   0.352600   1PD055   1.000000
    1PT31R   1RB040   -1.000000
    1PT32D   1DT065   -1.000000   1PD004   0.147600
    1PT32D   1PD056   1.000000
    1PT32I   1PD020   1.000000   1PD056   1.000000
    1PT32R   1PD004   0.352600   1PD056   1.000000
    1PT32R   1RB041   -1.000000
    1PT3PD   1DT054   -1.000000   1PD004   0.147600
    1PT3PD   1PD053   1.000000
    1PT3PI   1PD017   1.000000   1PD053   1.000000
    1PT3PR   1PD004   0.352600   1PD053   1.000000
    1PT3PR   1RB038   -1.000000
    1PT3RD   1DT058   -1.000000   1PD004   0.147600
    1PT3RD   1PD054   1.000000
    1PT3RI   1PD018   1.000000   1PD054   1.000000
    1PT3RR   1PD004   0.352600   1PD054   1.000000
    1PT3RR   1RB039   -1.000000
    1PT41D   1DT061   -1.000000   1PD004   0.071300
    1PT41D   1PD059   1.000000
    1PT41I   1PD019   1.000000   1PD059   1.000000
    1PT41R   1PD004   0.286300   1PD059   1.000000
    1PT41R   1RB040   -1.000000
    1PT42D   1DT065   -1.000000   1PD004   0.071300
    1PT42D   1PD060   1.000000
    1PT42I   1PD020   1.000000   1PD060   1.000000
    1PT42R   1PD004   0.286300   1PD060   1.000000
    1PT42R   1RB041   -1.000000
    1PT4PD   1DT054   -1.000000   1PD004   0.071300
    1PT4PD   1PD057   1.000000
    1PT4PI   1PD017   1.000000   1PD057   1.000000
    1PT4PR   1PD004   0.286300   1PD057   1.000000
    1PT4PR   1RB038   -1.000000
    1PT4RD   1DT058   -1.000000   1PD004   0.071300
    1PT4RD   1PD058   1.000000
    1PT4RI   1PD018   1.000000   1PD058   1.000000
    1PT4RR   1PD004   0.286300   1PD058   1.000000
    1PT4RR   1RB039   -1.000000
    1PT51D   1DT061   -1.000000   1PD004   0.395000
    1PT51D   1PD063   1.000000
    1PT51I   1PD033   1.000000   1PD063   1.000000
    1PT51M   1MS056   -1.000000   1PD004   0.146700
    1PT51M   1PD063   1.000000
    1PT51R   1PD004   0.123900   1PD063   1.000000
    1PT51R   1RB040   -1.000000
    1PT52D   1DT065   -1.000000   1PD004   0.406600
    1PT52D   1PD064   1.000000
    1PT52I   1PD034   1.000000   1PD064   1.000000
    1PT52M   1MS057   -1.000000   1PD004   0.151000
    1PT52M   1PD064   1.000000
    1PT52R   1PD004   0.127300   1PD064   1.000000
    1PT52R   1RB041   -1.000000
    1PT5PD   1DT054   -1.000000   1PD004   0.353600
    1PT5PD   1PD061   1.000000
    1PT5PI   1PD031   1.000000   1PD061   1.000000
    1PT5PM   1MS042   -1.000000   1PD004   0.131300
    1PT5PM   1PD061   1.000000
    1PT5PR   1PD004   0.112000   1PD061   1.000000
    1PT5PR   1RB038   -1.000000
    1PT5RD   1DT058   -1.000000   1PD004   0.353600
    1PT5RD   1PD062   1.000000
    1PT5RI   1PD032   1.000000   1PD062   1.000000
    1PT5RM   1MS058   -1.000000   1PD004   0.131300
    1PT5RM   1PD062   1.000000
    1PT5RR   1PD004   0.112000   1PD062   1.000000
    1PT5RR   1RB039   -1.000000
    1PT61D   1DT061   -1.000000   1PD004   0.308500
    1PT61D   1PD067   1.000000
    1PT61I   1PD033   1.000000   1PD067   1.000000
    1PT61M   1MS056   -1.000000   1PD004   0.254700
    1PT61M   1PD067   1.000000
    1PT61R   1PD004   0.307400   1PD067   1.000000
    1PT61R   1RB040   -1.000000
    1PT62D   1DT065   -1.000000   1PD004   0.317500
    1PT62D   1PD068   1.000000
    1PT62I   1PD034   1.000000   1PD068   1.000000
    1PT62M   1MS057   -1.000000   1PD004   0.262300
    1PT62M   1PD068   1.000000
    1PT62R   1PD004   0.316100   1PD068   1.000000
    1PT62R   1RB041   -1.000000
    1PT6PD   1DT054   -1.000000   1PD004   0.276600
    1PT6PD   1PD065   1.000000
    1PT6PI   1PD031   1.000000   1PD065   1.000000
    1PT6PM   1MS042   -1.000000   1PD004   0.228000
    1PT6PM   1PD065   1.000000
    1PT6PR   1PD004   0.277000   1PD065   1.000000
    1PT6PR   1RB038   -1.000000
    1PT6RD   1DT058   -1.000000   1PD004   0.276600
    1PT6RD   1PD066   1.000000
    1PT6RI   1PD032   1.000000   1PD066   1.000000
    1PT6RM   1MS058   -1.000000   1PD004   0.228000
    1PT6RM   1PD066   1.000000
    1PT6RR   1PD004   0.277000   1PD066   1.000000
    1PT6RR   1RB039   -1.000000
    1PTCST   .COSTA   1.000000   1PD004   -1.000000
    1R1IN    1RB040   -1.000000   1RB091   1.000000
    1R2IN    1RB041   -1.000000   1RB092   1.000000
    1RALKI   1RB004   0.588000   1RB005   0.650000
    1RALKI   1RB031   0.265000   1RB037   1.000000
    1RALKI   1RB076   -0.320800   1RB079   1.000000
    1RALKI   1RB088   6.010000
    1RBGAS   1RB059   16.090000   1RB060   -4.000000
    1RBGAS   1RB061   -86.000000   1RB062   -84.000000
    1RBGAS   1RB063   -80.400000   1RB064   -84.500000
    1RBGAS   1RB065   -82.500000   1RB066   -79.400000
    1RBGAS   1RB070   1.000000   1RB086   1.000000
    1RBGAS   1RB087   -3.570000
    1RBIC4   1RB005   -1.000000   1RB087   -3.255000
    1RBNC4   1RB006   -1.000000   1RB087   -3.045000
    1RC3FU   1RB003   1.000000   1RB031   -3.836000
    1RC4FU   1RB006   1.000000   1RB031   -4.325000
    1RC6     1RB008   1.000000   1RB045   1.000000
    1RC6     1RB088   1.000000
    1RC7     1RB009   1.000000   1RB045   1.000000
    1RC7TX   1RB009   1.000000   1RB011   -1.000000
    1RC8TX   1RB010   1.000000   1RB011   -1.000000
    1RCOKE   1RB022   1.000000   1RB088   14.500000
    1RCOKR   1RB001   -0.410000   1RB002   -0.007200
    1RCOKR   1RB003   -0.018300   1RB004   -0.010600
    1RCOKR   1RB005   -0.003200   1RB006   -0.011600
    1RCOKR   1RB017   1.000000   1RB018   -0.125000
    1RCOKR   1RB019   -0.300000   1RB020   -0.340000
    1RCOKR   1RB022   -0.042700   1RB031   0.221000
    1RCOKR   1RB036   1.000000   1RB076   -0.058200
    1RCOKS   .COSTA   10.000000   1RB001   -0.492000
    1RCOKS   1RB002   -0.056000   1RB003   -0.033000
    1RCOKS   1RB004   -0.075000   1RB005   -0.037000
    1RCOKS   1RB006   -0.019000   1RB018   -0.015000
    1RCOKS   1RB019   -0.015000   1RB023   -0.039900
    1RCOKS   1RB024   -0.024000   1RB025   -0.011000
    1RCOKS   1RB026   -0.035000   1RB027   0.538000
    1RCOKS   1RB031   0.273000   1RB036   1.000000
    1RCOKS   1RB076   -0.181000
    1RCOKT   .COSTA   10.000000   1RB001   -0.572000
    1RCOKT   1RB021   -0.423000   1RB023   -0.065100
    1RCOKT   1RB030   1.000000   1RB031   0.228000
    1RCOKT   1RB036   1.000000   1RB076   -0.065000
    1RCRUD   1RB001   -0.000500   1RB003   -0.008300
    1RCRUD   1RB005   -0.001000   1RB006   -0.001000
    1RCRUD   1RB007   -0.070000   1RB008   -0.037500
    1RCRUD   1RB009   -0.037500   1RB010   -0.037000
    1RCRUD   1RB011   -0.140000   1RB012   -0.045100
    1RCRUD   1RB013   -0.110000   1RB014   -0.070000
    1RCRUD   1RB015   -0.023000   1RB016   -0.325000
    1RCRUD   1RB017   -0.139000   1RB031   0.124000
    1RCRUD   1RB033   1.000000   1RB076   -0.017800
    1RCRUD   1RB087   -3.010000
    1RDLCO   1RB026   1.000000   1RB088   1.000000
    1REXTR   1RB083   1.000000   1RB084   1.000000
    1REXTR   1RB088   6.300000
    1RF2GO   1RB015   1.000000   1RB041   1.000000
    1RF2GO   1RB067   -14.600000   1RB073   1.000000
    1RF2KR   1RB013   1.000000   1RB041   1.000000
    1RF2KR   1RB067   -1.600000   1RB073   -0.500000
    1RF3CO   1RB026   1.000000   1RB042   1.000000
    1RF6CO   1RB026   1.000000   1RB043   1.000000
    1RF6CO   1RB068   -44.500000   1RB077   43.700000
    1RF6CO   1RB088   2.520000
    1RF6SL   1RB027   1.000000   1RB043   1.000000
    1RF6SL   1RB068   -12.700000   1RB077   11.900000
    1RF6SL   1RB088   2.520000
    1RFC01   1RB001   -0.374000   1RB002   -0.065000
    1RFC01   1RB003   -0.038200   1RB004   -0.075300
    1RFC01   1RB005   -0.053500   1RB006   -0.018000
    1RFC01   1RB016   1.000000   1RB024   -0.422000
    1RFC01   1RB025   -0.181000   1RB026   -0.144000
    1RFC01   1RB027   -0.050000   1RB031   0.159000
    1RFC01   1RB032   0.060610   1RB076   -0.078300
    1RFC01   1RB080   1.000000
    1RFC02   1RB001   -0.333000   1RB002   -0.059500
    1RFC02   1RB003   -0.029300   1RB004   -0.072400
    1RFC02   1RB005   -0.045500   1RB006   -0.015300
    1RFC02   1RB016   1.000000   1RB024   -0.411000
    1RFC02   1RB025   -0.176000   1RB026   -0.166000
    1RFC02   1RB027   -0.060000   1RB031   0.152000
    1RFC02   1RB032   0.046620   1RB076   -0.073900
    1RFC02   1RB080   1.000000
    1RFC03   1RB001   -0.335000   1RB002   -0.060300
    1RFC03   1RB003   -0.031300   1RB004   -0.072600
    1RFC03   1RB005   -0.051000   1RB006   -0.016700
    1RFC03   1RB015   0.073000   1RB016   0.927000
    1RFC03   1RB024   -0.419000   1RB025   -0.180000
    1RFC03   1RB026   -0.144000   1RB027   -0.061000
    1RFC03   1RB031   0.154000   1RB032   0.056180
    1RFC03   1RB076   -0.076300   1RB080   1.000000
    1RFC04   1RB001   -0.363000   1RB002   -0.061000
    1RFC04   1RB003   -0.031000   1RB004   -0.073000
    1RFC04   1RB005   -0.045700   1RB006   -0.015400
    1RFC04   1RB015   0.057000   1RB016   0.943000
    1RFC04   1RB024   -0.398000   1RB025   -0.170000
    1RFC04   1RB026   -0.179000   1RB027   -0.060000
    1RFC04   1RB031   0.153000   1RB032   0.043960
    1RFC04   1RB076   -0.076300   1RB080   1.000000
    1RFC05   1RB001   -0.320000   1RB002   -0.059200
    1RFC05   1RB003   -0.027500   1RB004   -0.068500
    1RFC05   1RB005   -0.040700   1RB006   -0.013900
    1RFC05   1RB016   0.834000   1RB020   0.166000
    1RFC05   1RB024   -0.402000   1RB025   -0.173000
    1RFC05   1RB026   -0.175000   1RB027   -0.060000
    1RFC05   1RB031   0.149000   1RB032   0.050560
    1RFC05   1RB076   -0.076700   1RB080   1.000000
    1RFC06   1RB001   -0.402000   1RB002   -0.056300
    1RFC06   1RB003   -0.031000   1RB004   -0.071800
    1RFC06   1RB005   -0.040000   1RB006   -0.014200
    1RFC06   1RB016   0.867000   1RB020   0.133000
    1RFC06   1RB024   -0.384000   1RB025   -0.165000
    1RFC06   1RB026   -0.204000   1RB027   -0.058000
    1RFC06   1RB031   0.150000   1RB032   0.040440
    1RFC06   1RB076   -0.074000   1RB080   1.000000
    1RFC07   1RB001   -0.388000   1RB002   -0.062200
    1RFC07   1RB003   -0.030600   1RB004   -0.070700
    1RFC07   1RB005   -0.042600   1RB006   -0.014500
    1RFC07   1RB015   0.062000   1RB016   0.783000
    1RFC07   1RB020   0.155000   1RB024   -0.402000
    1RFC07   1RB025   -0.173000   1RB026   -0.158000
    1RFC07   1RB027   -0.064000   1RB031   0.152000
    1RFC07   1RB032   0.047440   1RB076   -0.074300
    1RFC07   1RB080   1.000000
    1RFC08   1RB001   -0.431000   1RB002   -0.058000
    1RFC08   1RB003   -0.032000   1RB004   -0.073400
    1RFC08   1RB005   -0.039400   1RB006   -0.014200
    1RFC08   1RB015   0.050000   1RB016   0.824000
    1RFC08   1RB020   0.126000   1RB024   -0.372000
    1RFC08   1RB025   -0.159000   1RB026   -0.197000
    1RFC08   1RB027   -0.075000   1RB031   0.151000
    1RFC08   1RB032   0.038420   1RB076   -0.074100
    1RFC08   1RB080   1.000000
    1RFC09   1RB001   -0.310000   1RB002   -0.061500
    1RFC09   1RB003   -0.029300   1RB004   -0.068900
    1RFC09   1RB005   -0.038800   1RB006   -0.013600
    1RFC09   1RB016   0.928000   1RB021   0.078000
    1RFC09   1RB024   -0.415000   1RB025   -0.178000
    1RFC09   1RB026   -0.169000   1RB027   -0.060000
    1RFC09   1RB031   0.150000   1RB032   0.056240
    1RFC09   1RB076   -0.074800   1RB080   1.000000
    1RFC10   1RB001   -0.330000   1RB002   -0.060100
    1RFC10   1RB003   -0.028800   1RB004   -0.069300
    1RFC10   1RB005   -0.038400   1RB006   -0.013400
    1RFC10   1RB016   0.944000   1RB021   0.056000
    1RFC10   1RB024   -0.397000   1RB025   -0.170000
    1RFC10   1RB026   -0.193000   1RB027   -0.065000
    1RFC10   1RB031   0.149000   1RB032   0.043990
    1RFC10   1RB076   -0.072400   1RB080   1.000000
    1RFC11   1RB001   -0.290000   1RB002   -0.058500
    1RFC11   1RB003   -0.026200   1RB004   -0.066800
    1RFC11   1RB005   -0.038400   1RB006   -0.013400
    1RFC11   1RB015   0.068000   1RB016   0.865000
    1RFC11   1RB021   0.067000   1RB024   -0.406000
    1RFC11   1RB025   -0.174000   1RB026   -0.180000
    1RFC11   1RB027   -0.065000   1RB031   0.148000
    1RFC11   1RB032   0.052410   1RB076   -0.073300
    1RFC11   1RB080   1.000000
    1RFC12   1RB001   -0.385000   1RB002   -0.058200
    1RFC12   1RB003   -0.030400   1RB004   -0.073800
    1RFC12   1RB005   -0.040100   1RB006   -0.014500
    1RFC12   1RB015   0.054000   1RB016   0.893000
    1RFC12   1RB021   0.053000   1RB024   -0.387000
    1RFC12   1RB025   -0.166000   1RB026   -0.201000
    1RFC12   1RB027   -0.060000   1RB031   0.151000
    1RFC12   1RB032   0.041610   1RB076   -0.073400
    1RFC12   1RB080   1.000000
    1RFC13   1RB001   -0.263000   1RB002   -0.051900
    1RFC13   1RB003   -0.022800   1RB004   -0.058500
    1RFC13   1RB005   -0.030100   1RB006   -0.010800
    1RFC13   1RB016   0.783000   1RB020   0.156000
    1RFC13   1RB021   0.061000   1RB024   -0.387000
    1RFC13   1RB025   -0.166000   1RB026   -0.217000
    1RFC13   1RB027   -0.083000   1RB031   0.141000
    1RFC13   1RB032   0.047480   1RB076   -0.069900
    1RFC13   1RB080   1.000000
    1RFC14   1RB001   -0.400000   1RB002   -0.055800
    1RFC14   1RB003   -0.029200   1RB004   -0.069400
    1RFC14   1RB005   -0.033200   1RB006   -0.012400
    1RFC14   1RB016   0.825000   1RB020   0.126000
    1RFC14   1RB021   0.049000   1RB024   -0.372000
    1RFC14   1RB025   -0.159000   1RB026   -0.211000
    1RFC14   1RB027   -0.084000   1RB031   0.147000
    1RFC14   1RB032   0.038450   1RB076   -0.071300
    1RFC14   1RB080   1.000000
    1RFC15   1RB001   -0.356000   1RB002   -0.059300
    1RFC15   1RB003   -0.027600   1RB004   -0.065200
    1RFC15   1RB005   -0.033100   1RB006   -0.011800
    1RFC15   1RB015   0.058000   1RB016   0.738000
    1RFC15   1RB020   0.147000   1RB021   0.057000
    1RFC15   1RB024   -0.385000   1RB025   -0.165000
    1RFC15   1RB026   -0.205000   1RB027   -0.070000
    1RFC15   1RB031   0.146000   1RB032   0.044720
    1RFC15   1RB076   -0.072800   1RB080   1.000000
    1RFC16   1RB001   -0.436000   1RB002   -0.057800
    1RFC16   1RB003   -0.030200   1RB004   -0.072400
    1RFC16   1RB005   -0.033900   1RB006   -0.012600
    1RFC16   1RB015   0.048000   1RB016   0.785000
    1RFC16   1RB020   0.120000   1RB021   0.047000
    1RFC16   1RB024   -0.364000   1RB025   -0.156000
    1RFC16   1RB026   -0.186000   1RB027   -0.107000
    1RFC16   1RB031   0.148000   1RB032   0.036620
    1RFC16   1RB076   -0.071900   1RB080   1.000000
    1RFC17   1RB001   -0.404000   1RB002   -0.062500
    1RFC17   1RB003   -0.031800   1RB004   -0.071600
    1RFC17   1RB005   -0.040900   1RB006   -0.014100
    1RFC17   1RB015   0.027000   1RB016   0.857000
    1RFC17   1RB020   0.116000   1RB024   -0.389000
    1RFC17   1RB025   -0.167000   1RB026   -0.192000
    1RFC17   1RB027   -0.058000   1RB031   0.152000
    1RFC17   1RB032   0.042020   1RB076   -0.074700
    1RFC17   1RB080   1.000000
    1RFC18   1RB001   -0.385000   1RB002   -0.061500
    1RFC18   1RB003   -0.030700   1RB004   -0.071300
    1RFC18   1RB005   -0.040500   1RB006   -0.014000
    1RFC18   1RB016   0.881000   1RB020   0.119000
    1RFC18   1RB024   -0.396000   1RB025   -0.170000
    1RFC18   1RB026   -0.189000   1RB027   -0.056000
    1RFC18   1RB031   0.152000   1RB032   0.043200
    1RFC18   1RB076   -0.074600   1RB080   1.000000
    1RFC19   1RB001   -0.400000   1RB002   -0.061700
    1RFC19   1RB003   -0.031600   1RB004   -0.070800
    1RFC19   1RB005   -0.039900   1RB006   -0.013700
    1RFC19   1RB015   0.027000   1RB016   0.843000
    1RFC19   1RB020   0.130000   1RB024   -0.388000
    1RFC19   1RB025   -0.166000   1RB026   -0.198000
    1RFC19   1RB027   -0.058000   1RB031   0.151000
    1RFC19   1RB032   0.041320   1RB076   -0.074400
    1RFC19   1RB080   1.000000
    1RFC20   1RB001   -0.382000   1RB002   -0.060600
    1RFC20   1RB003   -0.030700   1RB004   -0.070100
    1RFC20   1RB005   -0.039800   1RB006   -0.013800
    1RFC20   1RB016   0.866000   1RB020   0.134000
    1RFC20   1RB024   -0.393000   1RB025   -0.169000
    1RFC20   1RB026   -0.195000   1RB027   -0.056000
    1RFC20   1RB031   0.150000   1RB032   0.042460
    1RFC20   1RB076   -0.074600   1RB080   1.000000
    1RFC21   1RB001   -0.368000   1RB002   -0.054100
    1RFC21   1RB003   -0.028200   1RB004   -0.067600
    1RFC21   1RB005   -0.033900   1RB006   -0.012300
    1RFC21   1RB015   0.025000   1RB016   0.801000
    1RFC21   1RB020   0.124000   1RB021   0.050000
    1RFC21   1RB024   -0.370000   1RB025   -0.159000
    1RFC21   1RB026   -0.214000   1RB027   -0.086000
    1RFC21   1RB031   0.146000   1RB032   0.039250
    1RFC21   1RB076   -0.071700   1RB080   1.000000
    1RFC22   1RB001   -0.360000   1RB002   -0.053900
    1RFC22   1RB003   -0.028000   1RB004   -0.067200
    1RFC22   1RB005   -0.034300   1RB006   -0.012500
    1RFC22   1RB016   0.821000   1RB020   0.127000
    1RFC22   1RB021   0.052000   1RB024   -0.375000
    1RFC22   1RB025   -0.161000   1RB026   -0.216000
    1RFC22   1RB027   -0.079000   1RB031   0.146000
    1RFC22   1RB032   0.040270   1RB076   -0.071900
    1RFC22   1RB080   1.000000
    1RFCCU   1RB080   -1.000000
    1RFCOD   1RB019   1.000000   1RB031   0.053000
    1RFCOD   1RB035   1.000000   1RB041   1.000000
    1RFCOD   1RB067   3.400000   1RB076   -0.008000
    1RFDIE   1RB014   1.000000   1RB041   1.000000
    1RFDIE   1RB067   -8.600000
    1RFHDO   1RB019   0.385000   1RB026   0.615000
    1RFHDO   1RB035   1.000000   1RB042   1.000000
    1RFHDO   1RB076   -0.008000
    1RFKER   1RB013   1.000000   1RB040   1.000000
    1RFLCO   1RB026   1.000000   1RB031   0.053000
    1RFLCO   1RB035   1.000000   1RB041   1.000000
    1RFLCO   1RB067   15.400000   1RB076   -0.008000
    1RFRED   1RB041   1.000000   1RB067   5.400000
    1RFRED   1RB085   1.000000
    1RFRES   1RB017   1.000000   1RB043   1.000000
    1RFRES   1RB068   10.900000   1RB077   -11.700000
    1RFRES   1RB088   2.520000
    1RFRHC   1RB028   1.000000   1RB042   1.000000
    1RFRHC   1RB059   -0.010000   1RB060   4.000000
    1RFRHC   1RB061   88.500000   1RB062   87.500000
    1RFRHC   1RB063   85.700000   1RB064   76.300000
    1RFRHC   1RB065   75.600000   1RB066   74.500000
    1RFRHC   1RB070   -1.000000
    1RFTHR   1RB030   1.000000   1RB043   1.000000
    1RFTHR   1RB068   -0.600000   1RB077   -0.200000
    1RFTHR   1RB088   2.520000
    1RGAS    1RB001   1.000000   1RB031   -1.000000
    1RLFUL   1RB026   1.000000   1RB031   -6.500000
    1RLFUL   1RB078   -44.500000
    1RLPG    1RB003   1.000000   1RB044   1.000000
    1RLPG    1RB088   1.890000
    1RMCST   .COSTA   1.000000   1RB087   1.000000
    1ROCST   .COSTA   1.000000   1RB076   1.000000
    1RP84R   1RB001   -0.629000   1RB003   -0.021900
    1RP84R   1RB005   -0.004500   1RB006   -0.001000
    1RP84R   1RB011   1.119000   1RB031   0.370000
    1RP84R   1RB034   1.119000   1RB048   3.840000
    1RP84R   1RB049   8.900000   1RB050   -4.000000
    1RP84R   1RB051   -92.500000   1RB052   -91.400000
    1RP84R   1RB053   -88.900000   1RB054   -84.000000
    1RP84R   1RB055   -83.100000   1RB056   -80.400000
    1RP84R   1RB069   1.000000   1RB076   -0.037900
    1RP84R   1RB081   -92.900000   1RB082   -85.100000
    1RP88R   1RB001   -0.756000   1RB003   -0.028400
    1RP88R   1RB005   -0.006100   1RB006   -0.001300
    1RP88R   1RB011   1.146000   1RB031   0.405000
    1RP88R   1RB034   1.146000   1RB048   4.830000
    1RP88R   1RB049   7.500000   1RB050   -4.000000
    1RP88R   1RB051   -94.500000   1RB052   -93.700000
    1RP88R   1RB053   -91.700000   1RB054   -85.500000
    1RP88R   1RB055   -84.700000   1RB056   -82.500000
    1RP88R   1RB069   1.000000   1RB076   -0.045800
    1RP88R   1RB081   -94.700000   1RB082   -86.500000
    1RP92R   1RB001   -0.898000   1RB003   -0.035900
    1RP92R   1RB005   -0.008000   1RB006   -0.001600
    1RP92R   1RB011   1.182000   1RB031   0.455000
    1RP92R   1RB034   1.182000   1RB048   6.120000
    1RP92R   1RB049   6.200000   1RB050   -4.000000
    1RP92R   1RB051   -96.500000   1RB052   -95.900000
    1RP92R   1RB053   -94.400000   1RB054   -86.900000
    1RP92R   1RB055   -86.400000   1RB056   -84.500000
    1RP92R   1RB069   1.000000   1RB076   -0.059200
    1RP92R   1RB081   -96.600000   1RB082   -87.700000
    1RP95R   1RB001   -1.056000   1RB003   -0.043300
    1RP95R   1RB005   -0.010000   1RB006   -0.001900
    1RP95R   1RB011   1.224000   1RB031   0.510000
    1RP95R   1RB034   1.224000   1RB048   7.620000
    1RP95R   1RB049   5.200000   1RB050   -4.000000
    1RP95R   1RB051   -98.000000   1RB052   -97.500000
    1RP95R   1RB053   -96.300000   1RB054   -88.000000
    1RP95R   1RB055   -87.700000   1RB056   -86.100000
    1RP95R   1RB069   1.000000   1RB076   -0.086000
    1RP95R   1RB081   -98.100000   1RB082   -88.900000
    1RPALC   1RB083   1.000000   1RB087   -5.000000
    1RPALK   1RB004   0.588000   1RB005   0.650000
    1RPALK   1RB031   0.265000   1RB037   1.000000
    1RPALK   1RB048   4.390000   1RB049   -7.300000
    1RPALK   1RB050   -4.000000   1RB051   -102.300000
    1RPALK   1RB052   -101.100000   1RB053   -98.800000
    1RPALK   1RB054   -96.000000   1RB055   -94.900000
    1RPALK   1RB056   -91.500000   1RB069   1.000000
    1RPALK   1RB076   -0.320800   1RB081   -104.600000
    1RPALK   1RB082   -102.300000
    1RPBBL   1RB038   1.000000   1RB046   95.500000
    1RPBBL   1RB047   99.000000   1RB048   -10.000000
    1RPBBL   1RB049   20.000000   1RB069   -1.000000
    1RPBBL   1RB071   -0.100000   1RB072   0.250000
    1RPBBL   1RB076   -0.013900
    1RPCAT   1RB024   1.000000   1RB048   9.360000
    1RPCAT   1RB049   -32.200000   1RB050   -4.000000
    1RPCAT   1RB051   -98.000000   1RB052   -97.500000
    1RPCAT   1RB053   -96.200000   1RB054   -80.700000
    1RPCAT   1RB055   -80.500000   1RB056   -79.200000
    1RPCAT   1RB069   1.000000   1RB072   -1.000000
    1RPCAT   1RB076   -0.025000   1RB081   -98.100000
    1RPCAT   1RB082   -81.300000
    1RPIC4   1RB005   1.000000   1RB048   95.620000
    1RPIC4   1RB049   -130.000000   1RB050   -4.000000
    1RPIC4   1RB051   -107.000000   1RB052   -105.800000
    1RPIC4   1RB053   -103.500000   1RB054   -106.700000
    1RPIC4   1RB055   -105.600000   1RB056   -103.100000
    1RPIC4   1RB069   1.000000   1RB081   -106.900000
    1RPIC4   1RB082   -107.300000
    1RPIN    1RB038   -1.000000   1RB089   1.000000
    1RPMON   1RB046   -0.500000   1RB054   1.000000
    1RPMON   1RB055   1.000000   1RB056   1.000000
    1RPMON   1RB082   1.000000
    1RPNAG   1RB086   1.000000   1RB087   -5.000000
    1RPNC4   1RB006   1.000000   1RB048   68.560000
    1RPNC4   1RB049   -130.000000   1RB050   -4.000000
    1RPNC4   1RB051   -97.000000   1RB052   -96.400000
    1RPNC4   1RB053   -94.800000   1RB054   -96.700000
    1RPNC4   1RB055   -96.200000   1RB056   -94.400000
    1RPNC4   1RB069   1.000000   1RB081   -97.200000
    1RPNC4   1RB082   -97.600000
    1RPREV   .COSTA   -1.000000   1RB088   -1.000000
    1RPRON   1RB046   -0.500000   1RB047   -1.000000
    1RPRON   1RB051   1.000000   1RB052   1.000000
    1RPRON   1RB053   1.000000   1RB081   1.000000
    1RPTEL   1RB050   1.000000   1RB051   -1.000000
    1RPTEL   1RB052   -1.300000   1RB053   -2.500000
    1RPTEL   1RB054   -1.100000   1RB055   -1.400000
    1RPTEL   1RB056   -2.900000   1RB081   -0.900000
    1RPTEL   1RB082   -0.800000   1RB087   -0.088600
    1RPUFU   1RB031   -1.000000   1RB087   -0.350000
    1RR80R   1RB001   -0.517000   1RB003   -0.016400
    1RR80R   1RB005   -0.003200   1RB006   -0.000700
    1RR80R   1RB011   1.094000   1RB031   0.350000
    1RR80R   1RB034   1.094000   1RB059   2.890000
    1RR80R   1RB060   -4.000000   1RB061   -90.200000
    1RR80R   1RB062   -88.500000   1RB063   -85.400000
    1RR80R   1RB064   -83.000000   1RB065   -81.300000
    1RR80R   1RB066   -78.500000   1RB070   1.000000
    1RR80R   1RB076   -0.032700
    1RR84R   1RB001   -0.629000   1RB003   -0.021900
    1RR84R   1RB005   -0.004500   1RB006   -0.001000
    1RR84R   1RB011   1.119000   1RB031   0.370000
    1RR84R   1RB034   1.119000   1RB059   3.720000
    1RR84R   1RB060   -4.000000   1RB061   -92.200000
    1RR84R   1RB062   -90.800000   1RB063   -88.100000
    1RR84R   1RB064   -84.600000   1RB065   -83.300000
    1RR84R   1RB066   -80.800000   1RB070   1.000000
    1RR84R   1RB076   -0.037900
    1RR88R   1RB001   -0.756000   1RB003   -0.028400
    1RR88R   1RB005   -0.006100   1RB006   -0.001300
    1RR88R   1RB011   1.146000   1RB031   0.405000
    1RR88R   1RB034   1.146000   1RB059   4.690000
    1RR88R   1RB060   -4.000000   1RB061   -94.200000
    1RR88R   1RB062   -93.100000   1RB063   -90.900000
    1RR88R   1RB064   -86.100000   1RB065   -84.900000
    1RR88R   1RB066   -82.900000   1RB070   1.000000
    1RR88R   1RB076   -0.045800
    1RR92R   1RB001   -0.898000   1RB003   -0.035900
    1RR92R   1RB005   -0.008000   1RB006   -0.001600
    1RR92R   1RB011   1.182000   1RB031   0.455000
    1RR92R   1RB034   1.182000   1RB059   5.930000
    1RR92R   1RB060   -4.000000   1RB061   -96.200000
    1RR92R   1RB062   -95.300000   1RB063   -93.600000
    1RR92R   1RB064   -87.500000   1RB065   -86.600000
    1RR92R   1RB066   -84.900000   1RB070   1.000000
    1RR92R   1RB076   -0.059200
    1RR95R   1RB001   -1.056000   1RB003   -0.043300
    1RR95R   1RB005   -0.010000   1RB006   -0.001900
    1RR95R   1RB011   1.224000   1RB031   0.510000
    1RR95R   1RB034   1.224000   1RB059   7.390000
    1RR95R   1RB060   -4.000000   1RB061   -97.700000
    1RR95R   1RB062   -96.900000   1RB063   -95.500000
    1RR95R   1RB064   -88.600000   1RB065   -87.900000
    1RR95R   1RB066   -86.500000   1RB070   1.000000
    1RR95R   1RB076   -0.086000
    1RRALK   1RB004   0.588000   1RB005   0.650000
    1RRALK   1RB031   0.265000   1RB037   1.000000
    1RRALK   1RB059   4.260000   1RB060   -4.000000
    1RRALK   1RB061   -103.700000   1RB062   -102.100000
    1RRALK   1RB063   -99.400000   1RB064   -101.300000
    1RRALK   1RB065   -99.400000   1RB066   -96.600000
    1RRALK   1RB070   1.000000   1RB076   -0.320800
    1RRBBL   1RB039   1.000000   1RB057   91.200000
    1RRBBL   1RB058   93.000000   1RB059   -10.000000
    1RRBBL   1RB070   -1.000000   1RB076   -0.004600
    1RRC3P   1RB002   1.587300   1RB003   -0.158730
    1RRC3P   1RB031   0.075000   1RB059   4.030000
    1RRC3P   1RB060   -4.000000   1RB061   -101.700000
    1RRC3P   1RB062   -101.000000   1RB063   -99.700000
    1RRC3P   1RB064   -79.300000   1RB065   -78.600000
    1RRC3P   1RB066   -77.500000   1RB070   1.000000
    1RRC3P   1RB076   -0.269500
    1RRC45   1RB007   1.000000   1RB059   26.570000
    1RRC45   1RB060   -4.000000   1RB061   -88.000000
    1RRC45   1RB062   -86.000000   1RB063   -82.200000
    1RRC45   1RB064   -89.000000   1RB065   -86.800000
    1RRC45   1RB066   -82.900000   1RB070   1.000000
    1RRC4O   1RB004   1.000000   1RB059   69.090000
    1RRC4O   1RB060   -4.000000   1RB061   -106.700000
    1RRC4O   1RB062   -105.200000   1RB063   -102.700000
    1RRC4O   1RB064   -92.300000   1RB065   -90.800000
    1RRC4O   1RB066   -88.400000   1RB070   1.000000
    1RRC4P   1RB004   1.250000   1RB031   0.075000
    1RRC4P   1RB059   4.030000   1RB060   -4.000000
    1RRC4P   1RB061   -101.700000   1RB062   -101.000000
    1RRC4P   1RB063   -99.700000   1RB064   -79.300000
    1RRC4P   1RB065   -78.600000   1RB066   -77.500000
    1RRC4P   1RB070   1.000000   1RB076   -0.212200
    1RRC6    1RB008   1.000000   1RB059   4.210000
    1RRC6    1RB060   -4.000000   1RB061   -81.200000
    1RRC6    1RB062   -79.000000   1RB063   -75.100000
    1RRC6    1RB064   -80.300000   1RB065   -77.900000
    1RRC6    1RB066   -74.000000   1RB070   1.000000
    1RRC7    1RB009   1.000000   1RB059   2.100000
    1RRC7    1RB060   -4.000000   1RB061   -76.200000
    1RRC7    1RB062   -74.200000   1RB063   -70.700000
    1RRC7    1RB064   -76.100000   1RB065   -74.100000
    1RRC7    1RB066   -71.000000   1RB070   1.000000
    1RRC8E   1RB010   1.000000   1RB059   0.970000
    1RRC8E   1RB060   -4.000000   1RB061   -74.500000
    1RRC8E   1RB062   -72.500000   1RB063   -67.400000
    1RRC8E   1RB064   -74.600000   1RB065   -72.400000
    1RRC8E   1RB066   -67.400000   1RB070   1.000000
    1RRCAT   1RB025   1.000000   1RB028   -0.500000
    1RRCAT   1RB059   0.080000   1RB060   -4.000000
    1RRCAT   1RB061   -93.700000   1RB062   -93.000000
    1RRCAT   1RB063   -91.400000   1RB064   -81.300000
    1RRCAT   1RB065   -80.700000   1RB066   -79.600000
    1RRCAT   1RB070   1.000000
    1RRCOK   1RB018   1.000000   1RB059   6.620000
    1RRCOK   1RB060   -4.000000   1RB061   -84.700000
    1RRCOK   1RB062   -82.600000   1RB063   -79.100000
    1RRCOK   1RB064   -74.600000   1RB065   -73.700000
    1RRCOK   1RB066   -72.300000   1RB070   1.000000
    1RRCTF   1RB028   1.000000   1RB041   1.000000
    1RRCTF   1RB059   -0.010000   1RB060   4.000000
    1RRCTF   1RB061   88.500000   1RB062   87.500000
    1RRCTF   1RB063   85.700000   1RB064   76.300000
    1RRCTF   1RB065   75.600000   1RB066   74.500000
    1RRCTF   1RB067   23.000000   1RB070   -1.000000
    1RRDEX   1RB026   1.000000   1RB076   -0.220000
    1RRDEX   1RB084   -0.260000   1RB085   -0.740000
    1RRHN    1RB011   1.000000   1RB059   0.380000
    1RRHN    1RB060   -4.000000   1RB061   -66.700000
    1RRHN    1RB062   -62.800000   1RB063   -56.300000
    1RRHN    1RB064   -67.300000   1RB065   -63.300000
    1RRHN    1RB066   -56.800000   1RB070   1.000000
    1RRIC4   1RB005   1.000000   1RB059   92.730000
    1RRIC4   1RB060   -4.000000   1RB061   -106.700000
    1RRIC4   1RB062   -105.200000   1RB063   -102.700000
    1RRIC4   1RB064   -107.300000   1RB065   -105.800000
    1RRIC4   1RB066   -103.500000   1RB070   1.000000
    1RRIN    1RB039   -1.000000   1RB090   1.000000
    1RRLCT   1RB024   1.000000   1RB059   9.080000
    1RRLCT   1RB060   -4.000000   1RB061   -97.700000
    1RRLCT   1RB062   -96.900000   1RB063   -95.400000
    1RRLCT   1RB064   -81.300000   1RB065   -80.700000
    1RRLCT   1RB066   -79.600000   1RB070   1.000000
    1RRMON   1RB057   -0.333000   1RB064   1.000000
    1RRMON   1RB065   1.000000   1RB066   1.000000
    1RRNC4   1RB006   1.000000   1RB059   66.480000
    1RRNC4   1RB060   -4.000000   1RB061   -96.700000
    1RRNC4   1RB062   -95.800000   1RB063   -94.000000
    1RRNC4   1RB064   -97.300000   1RB065   -96.400000
    1RRNC4   1RB066   -94.800000   1RB070   1.000000
    1RRRON   1RB057   -0.667000   1RB058   -1.000000
    1RRRON   1RB061   1.000000   1RB062   1.000000
    1RRRON   1RB063   1.000000
    1RRTEL   1RB060   1.000000   1RB061   -1.100000
    1RRTEL   1RB062   -1.600000   1RB063   -3.300000
    1RRTEL   1RB064   -0.900000   1RB065   -1.300000
    1RRTEL   1RB066   -2.500000   1RB087   0.088600
    1RRTHR   1RB029   1.000000   1RB059   6.620000
    1RRTHR   1RB060   -4.000000   1RB061   -78.700000
    1RRTHR   1RB062   -76.200000   1RB063   -72.100000
    1RRTHR   1RB064   -74.600000   1RB065   -72.000000
    1RRTHR   1RB066   -67.900000   1RB070   1.000000
    1RRXF1   1RB011   0.850000   1RB012   1.000000
    1RRXF1   1RB013   -1.000000   1RB014   0.150000
    1RSBT    1RB045   1.000000   1RB087   -5.000000
    1RSCOK   1RB023   1.000000   1RB088   40.000000
    1RSLFU   1RB027   1.000000   1RB031   -6.500000
    1RSLFU   1RB078   -12.700000
    1RSNO1   1RB040   1.000000   1RB087   -4.200000
    1RSNO2   1RB041   1.000000   1RB087   -3.780000
    1RSNO3   1RB042   1.000000   1RB087   -3.570000
    1RSPRM   1RB038   1.000000   1RB087   -5.460000
    1RSREG   1RB039   1.000000   1RB087   -4.620000
    1RTCHG   1RB001   -0.359000   1RB002   -0.009000
    1RTCHG   1RB003   -0.022900   1RB004   -0.013200
    1RTCHG   1RB005   -0.003900   1RB006   -0.014500
    1RTCHG   1RB027   1.000000   1RB029   -0.289600
    1RTCHG   1RB030   -0.639000   1RB031   0.400000
    1RTCHG   1RB076   -0.099000
    1RTFUL   1RB030   1.000000   1RB031   -6.500000
    1RTFUL   1RB078   -0.600000
    1RVFUL   1RB017   1.000000   1RB031   -6.500000
    1RVFUL   1RB078   10.900000
    1RXSFL   1RB031   1.000000   1RB088   0.250000
    SLACK48651 1DT009   1.000000
    SLACK48652 1DT017   1.000000
    SLACK48653 1DT025   1.000000
    SLACK48654 1DT027   1.000000
    SLACK48655 1DT028   1.000000
    SLACK48656 1DT029   1.000000
    SLACK48657 1DT030   1.000000
    SLACK48658 1DT032   1.000000
    SLACK48659 1DT033   1.000000
    SLACK48660 1DT038   1.000000
    SLACK48661 1DT039   1.000000
    SLACK48662 1DT040   1.000000
    SLACK48663 1DT041   1.000000
    SLACK48664 1DT042   1.000000
    SLACK48665 1DT045   1.000000
    SLACK48666 1DT047   1.000000
    SLACK48667 1DT048   1.000000
    SLACK48668 1DT049   1.000000
    SLACK48669 1DT051   1.000000
    SLACK48670 1DT053   1.000000
    SLACK48671 1DT055   1.000000
    SLACK48672 1DT057   1.000000
    SLACK48673 1DT060   1.000000
    SLACK48674 1DT062   1.000000
    SLACK48675 1DT063   1.000000
    SLACK48676 1DT064   1.000000
    SLACK48677 1DT066   1.000000
    SLACK48678 1DT067   1.000000
    SLACK48679 1DT070   1.000000
    SLACK48680 1DT074   1.000000
    SLACK48681 1DT076   1.000000
    SLACK48682 1DT077   1.000000
    SLACK48683 1DT095   1.000000
    SLACK48684 1DT096   1.000000
    SLACK48685 1DT097   1.000000
    SLACK48686 1DT098   1.000000
    SLACK48687 1DT099   1.000000
    SLACK48688 1DT093   1.000000
    SLACK48689 1MS022   1.000000
    SLACK48690 1MS037   1.000000
    SLACK48691 1MS043   1.000000
    SLACK48692 1MS044   1.000000
    SLACK48693 1MS045   1.000000
    SLACK48694 1MS046   1.000000
    SLACK48695 1MS047   1.000000
    SLACK48696 1MS048   1.000000
    SLACK48697 1MS049   1.000000
    SLACK48698 1MS050   1.000000
    SLACK48699 1MS051   1.000000
    SLACK48700 1MS052   1.000000
    SLACK48701 1MS053   1.000000
    SLACK48702 1MS054   1.000000
    SLACK48703 1MS060   1.000000
    SLACK48704 1MS061   1.000000
    SLACK48705 1MS062   1.000000
    SLACK48706 1MS063   1.000000
    SLACK48707 1MS064   1.000000
    SLACK48708 1MS075   1.000000
    SLACK48709 1MS076   1.000000
    SLACK48710 1MS078   1.000000
    SLACK48711 1MS077   1.000000
    SLACK48712 1PD021   1.000000
    SLACK48713 1PD022   1.000000
    SLACK48714 1PD023   1.000000
    SLACK48715 1PD024   1.000000
    SLACK48716 1PD035   1.000000
    SLACK48717 1PD036   1.000000
    SLACK48718 1PD037   1.000000
    SLACK48719 1PD038   1.000000
    SLACK48720 1RB001   1.000000
    SLACK48721 1RB002   1.000000
    SLACK48722 1RB003   1.000000
    SLACK48723 1RB004   1.000000
    SLACK48724 1RB005   1.000000
    SLACK48725 1RB006   1.000000
    SLACK48726 1RB059   1.000000
    SLACK48727 1RB060   1.000000
    SLACK48728 1RB061   1.000000
    SLACK48729 1RB063   1.000000
    SLACK48730 1RB064   1.000000
    SLACK48731 1RB065   1.000000
    SLACK48732 1RB066   1.000000
    SLACK48733 1RB067   1.000000
    SLACK48734 1RB068   1.000000
    SLACK48735 1RB073   1.000000
    SLACK48736 1RB077   1.000000
    SLACK48737 1RB079   1.000000
    SLACK48738 1RB084   1.000000
    SLACK48739 1RB092   1.000000
    SLACK48740 1RB007   1.000000
    SLACK48741 1RB008   1.000000
    SLACK48742 1RB009   1.000000
    SLACK48743 1RB010   1.000000
    SLACK48744 1RB011   1.000000
    SLACK48745 1RB012   1.000000
    SLACK48746 1RB013   1.000000
    SLACK48747 1RB014   1.000000
    SLACK48748 1RB015   1.000000
    SLACK48749 1RB016   1.000000
    SLACK48750 1RB017   1.000000
    SLACK48751 1RB018   1.000000
    SLACK48752 1RB019   1.000000
    SLACK48753 1RB020   1.000000
    SLACK48754 1RB021   1.000000
    SLACK48755 1RB022   1.000000
    SLACK48756 1RB023   1.000000
    SLACK48757 1RB024   1.000000
    SLACK48758 1RB025   1.000000
    SLACK48759 1RB026   1.000000
    SLACK48760 1RB027   1.000000
    SLACK48761 1RB028   1.000000
    SLACK48762 1RB029   1.000000
    SLACK48763 1RB030   1.000000
    SLACK48764 1RB033   1.000000
    SLACK48765 1RB034   1.000000
    SLACK48766 1RB035   1.000000
    SLACK48767 1RB036   1.000000
    SLACK48768 1RB037   1.000000
    SLACK48769 1RB043   1.000000
    SLACK48770 1RB044   1.000000
    SLACK48771 1RB046   1.000000
    SLACK48772 1RB047   1.000000
    SLACK48773 1RB048   1.000000
    SLACK48774 1RB049   1.000000
    SLACK48775 1RB050   1.000000
    SLACK48776 1RB051   1.000000
    SLACK48777 1RB052   1.000000
    SLACK48778 1RB053   1.000000
    SLACK48779 1RB054   1.000000
    SLACK48780 1RB055   1.000000
    SLACK48781 1RB056   1.000000
    SLACK48782 1RB057   1.000000
    SLACK48783 1RB058   1.000000
    SLACK48784 1RB062   1.000000
    SLACK48785 1RB071   1.000000
    SLACK48786 1RB072   1.000000
    SLACK48787 1RB078   1.000000
    SLACK48788 1RB081   1.000000
    SLACK48789 1RB082   1.000000
    SLACK48790 1RB085   1.000000
    SLACK48791 1RB089   1.000000
    SLACK48792 1RB090   1.000000
    SLACK48793 1RB091   1.000000
RHS
    ZZZZ0001 1DT058   480.000000
    ZZZZ0001 1DT061   30.000000
    ZZZZ0001 1DT065   210.000000
    ZZZZ0001 1DT054   120.000000
    ZZZZ0001 1MS042   15.300000
    ZZZZ0001 1MS056   3.000000
    ZZZZ0001 1MS057   30.000000
    ZZZZ0001 1MS058   65.000000
    ZZZZ0001 1RB039   1050.000000
    ZZZZ0001 1RB040   150.000000
    ZZZZ0001 1RB041   540.000000
    ZZZZ0001 1RB038   243.000000
    ZZZZ0001 1DT017   0.750000
    ZZZZ0001 1DT027   37.500000
    ZZZZ0001 1DT028   1200.000000
    ZZZZ0001 1DT029   480.000000
    ZZZZ0001 1DT030   480.000000
    ZZZZ0001 1DT031   105.000000
    ZZZZ0001 1DT032   135.000000
    ZZZZ0001 1DT033   450.000000
    ZZZZ0001 1DT038   225.000000
    ZZZZ0001 1DT039   300.000000
    ZZZZ0001 1DT040   480.000000
    ZZZZ0001 1DT041   45.000000
    ZZZZ0001 1DT045   570.000000
    ZZZZ0001 1DT047   112.500000
    ZZZZ0001 1DT048   45.000000
    ZZZZ0001 1DT049   67.500000
    ZZZZ0001 1DT050   3.000000
    ZZZZ0001 1DT068   45.000000
    ZZZZ0001 1DT072   30.000000
    ZZZZ0001 1DT074   120.000000
    ZZZZ0001 1DT075   13.340000
    ZZZZ0001 1DT076   180.000000
    ZZZZ0001 1DT077   45.000000
    ZZZZ0001 1DT095   100.000000
    ZZZZ0001 1DT096   94.500000
    ZZZZ0001 1DT097   465.500000
    ZZZZ0001 1DT098   249.100000
    ZZZZ0001 1DT099   648.200000
    ZZZZ0001 1MS037   15.000000
    ZZZZ0001 1MS038   34.160000
    ZZZZ0001 1MS039   4.500000
    ZZZZ0001 1MS041   21.930000
    ZZZZ0001 1MS060   147.000000
    ZZZZ0001 1MS061   270.000000
    ZZZZ0001 1MS062   72.000000
    ZZZZ0001 1MS063   180.000000
    ZZZZ0001 1MS064   60.000000
    ZZZZ0001 1MS075   45.000000
    ZZZZ0001 1MS076   118.000000
    ZZZZ0001 1MS077   125.500000
    ZZZZ0001 1MS078   105.000000
    ZZZZ0001 1PD072   50.000000
    ZZZZ0001 1PD009   50.000000
    ZZZZ0001 1PD010   150.000000
    ZZZZ0001 1PD011   25.000000
    ZZZZ0001 1PD012   75.000000
    ZZZZ0001 1PD015   25.000000
    ZZZZ0001 1PD016   100.000000
    ZZZZ0001 1PD017   -25.000000
    ZZZZ0001 1PD018   -100.000000
    ZZZZ0001 1PD019   -25.000000
    ZZZZ0001 1PD020   -100.000000
    ZZZZ0001 1PD021   84.900000
    ZZZZ0001 1PD022   203.500000
    ZZZZ0001 1PD023   89.800000
    ZZZZ0001 1PD024   219.200000
    ZZZZ0001 1PD029   25.000000
    ZZZZ0001 1PD030   30.000000
    ZZZZ0001 1PD031   -25.000000
    ZZZZ0001 1PD032   -50.000000
    ZZZZ0001 1PD033   -25.000000
    ZZZZ0001 1PD034   -30.000000
    ZZZZ0001 1PD035   44.000000
    ZZZZ0001 1PD036   91.700000
    ZZZZ0001 1PD037   69.500000
    ZZZZ0001 1PD038   55.000000
    ZZZZ0001 1PD049   50.000000
    ZZZZ0001 1PD050   200.000000
    ZZZZ0001 1PD051   25.000000
    ZZZZ0001 1PD052   75.000000
    ZZZZ0001 1PD053   25.000000
    ZZZZ0001 1PD054   100.000000
    ZZZZ0001 1PD055   20.000000
    ZZZZ0001 1PD056   50.000000
    ZZZZ0001 1PD057   25.000000
    ZZZZ0001 1PD058   100.000000
    ZZZZ0001 1PD059   10.000000
    ZZZZ0001 1PD060   40.000000
    ZZZZ0001 1PD061   50.000000
    ZZZZ0001 1PD062   200.000000
    ZZZZ0001 1PD063   50.000000
    ZZZZ0001 1PD064   150.000000
    ZZZZ0001 1PD065   10.000000
    ZZZZ0001 1PD066   50.000000
    ZZZZ0001 1PD067   20.000000
    ZZZZ0001 1PD068   50.000000
    ZZZZ0001 1PD069   25.000000
    ZZZZ0001 1PD070   100.000000
    ZZZZ0001 1PD071   25.000000
    ZZZZ0001 1RB032   1.000000
    ZZZZ0001 1RB033   1800.000000
    ZZZZ0001 1RB034   315.000000
    ZZZZ0001 1RB035   195.000000
    ZZZZ0001 1RB036   360.000000
    ZZZZ0001 1RB037   105.000000
    ZZZZ0001 1RB042   30.000000
    ZZZZ0001 1RB043   90.000000
    ZZZZ0001 1RB044   90.000000
    ZZZZ0001 1RB083   15.000000
    ZZZZ0001 1RB086   75.000000
    ZZZZ0001 1RB089   721.500000
    ZZZZ0001 1RB090   1626.700000
    ZZZZ0001 1RB091   692.000000
    ZZZZ0001 1RB092   1229.700000
BOUNDS
ENDATA
