NAME          SCORPION
ROWS
 N  C9999   
 E  C0361   
 E  C0355   
 E  C0349   
 E  C0343   
 E  C0337   
 E  C0331   
 E  C0325   
 E  C0319   
 E  C0313   
 E  C0307   
 E  C0301   
 E  C0295   
 E  C0289   
 E  C0283   
 E  C0277   
 E  C0271   
 E  C0265   
 E  C0259   
 E  C0253   
 E  C0247   
 E  C0241   
 E  C0235   
 E  C0229   
 E  C0223   
 E  C0217   
 E  C0211   
 E  C0205   
 E  C0199   
 E  C0193   
 E  C0187   
 E  C0181   
 E  C0175   
 E  C0169   
 E  C0163   
 E  C0157   
 E  C0151   
 E  C0140   
 E  C0139   
 E  C0133   
 E  C0127   
 E  C0121   
 E  C0115   
 E  C0109   
 E  C0103   
 E  C0097   
 E  C0091   
 E  C0085   
 E  C0079   
 E  C0073   
 E  C0067   
 E  C0061   
 E  C0055   
 E  C0049   
 E  C0043   
 E  C0037   
 E  C0031   
 E  C0025   
 E  C0019   
 E  C0013   
 E  C0007   
 E  C0001   
 E  C1134   
 E  C1141   
 E  C1142   
 E  C1152   
 E  C1158   
 E  C0362   
 E  C0356   
 E  C0350   
 E  C0344   
 E  C0338   
 E  C0332   
 E  C0326   
 E  C0320   
 E  C0314   
 E  C0308   
 E  C0302   
 E  C0296   
 E  C0290   
 E  C0284   
 E  C0278   
 E  C0272   
 E  C0266   
 E  C0260   
 E  C0254   
 E  C0248   
 E  C0242   
 E  C0236   
 E  C0230   
 E  C0224   
 E  C0218   
 E  C0212   
 E  C0206   
 E  C0200   
 E  C0194   
 E  C0188   
 E  C0182   
 E  C0176   
 E  C0170   
 E  C0164   
 E  C0158   
 E  C0152   
 E  C0142   
 E  C0141   
 E  C0134   
 E  C0128   
 E  C0122   
 E  C0116   
 E  C0110   
 E  C0104   
 E  C0098   
 E  C0092   
 E  C0086   
 E  C0080   
 E  C0074   
 E  C0068   
 E  C0062   
 E  C0056   
 E  C0050   
 E  C0044   
 E  C0038   
 E  C0032   
 E  C0026   
 E  C0020   
 E  C0014   
 E  C0008   
 E  C0002   
 E  C1135   
 E  C2135   
 E  C1143   
 E  C2143   
 E  C1144   
 E  C2144   
 E  C1153   
 E  C2153   
 E  C1159   
 E  C2159   
 E  C0363   
 E  C0357   
 E  C0351   
 E  C0345   
 E  C0339   
 E  C0333   
 E  C0327   
 E  C0321   
 E  C0315   
 E  C0309   
 E  C0303   
 E  C0297   
 E  C0291   
 E  C0285   
 E  C0279   
 E  C0273   
 E  C0267   
 E  C0261   
 E  C0255   
 E  C0249   
 E  C0243   
 E  C0237   
 E  C0231   
 E  C0225   
 E  C0219   
 E  C0213   
 E  C0207   
 E  C0201   
 E  C0195   
 E  C0189   
 E  C0183   
 E  C0177   
 E  C0171   
 E  C0165   
 E  C0159   
 E  C0153   
 E  C0144   
 E  C0143   
 E  C0135   
 E  C0129   
 E  C0123   
 E  C0117   
 E  C0111   
 E  C0105   
 E  C0099   
 E  C0093   
 E  C0087   
 E  C0081   
 E  C0075   
 E  C0069   
 E  C0063   
 E  C0057   
 E  C0051   
 E  C0045   
 E  C0039   
 E  C0033   
 E  C0027   
 E  C0021   
 E  C0015   
 E  C0009   
 E  C0003   
 E  C1136   
 E  C1154   
 E  C2154   
 E  C3154   
 E  C1160   
 E  C2160   
 E  C3160   
 E  C0364   
 E  C0358   
 E  C0352   
 E  C0346   
 E  C0340   
 E  C0334   
 E  C0328   
 E  C0322   
 E  C0316   
 E  C0310   
 E  C0304   
 E  C0298   
 E  C0292   
 E  C0286   
 E  C0280   
 E  C0274   
 E  C0268   
 E  C0262   
 E  C0256   
 E  C0250   
 E  C0244   
 E  C0238   
 E  C0232   
 E  C0226   
 E  C0220   
 E  C0214   
 E  C0208   
 E  C0202   
 E  C0196   
 E  C0190   
 E  C0184   
 E  C0178   
 E  C0172   
 E  C0166   
 E  C0160   
 E  C0154   
 E  C0146   
 E  C0145   
 E  C0136   
 E  C0130   
 E  C0124   
 E  C0118   
 E  C0112   
 E  C0106   
 E  C0100   
 E  C0094   
 E  C0088   
 E  C0082   
 E  C0076   
 E  C0070   
 E  C0064   
 E  C0058   
 E  C0052   
 E  C0046   
 E  C0040   
 E  C0034   
 E  C0028   
 E  C0022   
 E  C0016   
 E  C0010   
 E  C0004   
 E  C0365   
 E  C0359   
 E  C0353   
 E  C0347   
 E  C0341   
 E  C0335   
 E  C0329   
 E  C0323   
 E  C0317   
 E  C0311   
 E  C0305   
 E  C0299   
 E  C0293   
 E  C0287   
 E  C0281   
 E  C0275   
 E  C0269   
 E  C0263   
 E  C0257   
 E  C0251   
 E  C0245   
 E  C0239   
 E  C0233   
 E  C0227   
 E  C0221   
 E  C0215   
 E  C0209   
 E  C0203   
 E  C0197   
 E  C0191   
 E  C0185   
 E  C0179   
 E  C0173   
 E  C0167   
 E  C0161   
 E  C0155   
 E  C0148   
 E  C0147   
 E  C0137   
 E  C0131   
 E  C0125   
 E  C0119   
 E  C0113   
 E  C0107   
 E  C0101   
 E  C0095   
 E  C0089   
 E  C0083   
 E  C0077   
 E  C0071   
 E  C0065   
 E  C0059   
 E  C0053   
 E  C0047   
 E  C0041   
 E  C0035   
 E  C0029   
 E  C0023   
 E  C0017   
 E  C0011   
 E  C0005   
 E  C0366   
 E  C0360   
 E  C0354   
 E  C0348   
 E  C0342   
 E  C0336   
 E  C0330   
 E  C0324   
 E  C0318   
 E  C0312   
 E  C0306   
 E  C0300   
 E  C0294   
 E  C0288   
 E  C0282   
 E  C0276   
 E  C0270   
 E  C0264   
 E  C0258   
 E  C0252   
 E  C0246   
 E  C0240   
 E  C0234   
 E  C0228   
 E  C0222   
 E  C0216   
 E  C0210   
 E  C0204   
 E  C0198   
 E  C0192   
 E  C0186   
 E  C0180   
 E  C0174   
 E  C0168   
 E  C0162   
 E  C0156   
 E  C0150   
 E  C0149   
 E  C0138   
 E  C0132   
 E  C0126   
 E  C0120   
 E  C0114   
 E  C0108   
 E  C0102   
 E  C0096   
 E  C0090   
 E  C0084   
 E  C0078   
 E  C0072   
 E  C0066   
 E  C0060   
 E  C0054   
 E  C0048   
 E  C0042   
 E  C0036   
 E  C0030   
 E  C0024   
 E  C0018   
 E  C0012   
 E  C0006   
COLUMNS
    X0001    C0001    1.000000   C0019    -0.940000
    X0001    C0133    1.000000   C9999    20.640000
    X0007    C0007    1.000000   C0019    -0.940000
    X0007    C0133    1.000000   C9999    102.270000
    X0013    C0013    1.000000   C0019    -0.940000
    X0013    C0133    1.000000
    X0019    C0025    -0.940000   C0133    1.000000
    X0019    C9999    189.840000
    X0025    C0031    -0.940000   C0133    1.000000
    X0025    C9999    180.480000
    X0031    C0037    -0.940000   C0133    1.000000
    X0031    C9999    171.320000
    X0037    C0019    1.000000   C0079    -1.000000
    X0037    C0151    0.100000   C0163    0.985000
    X0037    C0169    -0.400000   C0175    -0.105000
    X0037    C0181    -0.480000   C9999    0.450000
    X0043    C0019    1.000000   C0049    -0.990000
    X0043    C0157    0.250000   C0163    -0.015000
    X0043    C0169    0.600000   C0175    -0.105000
    X0043    C0181    -0.480000   C9999    0.450000
    X0049    C0019    1.000000   C0055    -0.990000
    X0049    C0157    0.250000   C0163    -0.015000
    X0049    C0169    -0.400000   C0175    0.895000
    X0049    C0181    -0.480000   C9999    0.450000
    X0055    C0019    1.000000   C0073    -1.000000
    X0055    C0163    -0.015000   C0169    -0.400000
    X0055    C0175    -0.105000   C0181    0.520000
    X0055    C9999    0.450000
    X0061    C0025    1.000000   C0079    -1.000000
    X0061    C0151    0.100000   C0187    0.980000
    X0061    C0193    -0.390000   C0199    -0.200000
    X0061    C0205    -0.390000   C9999    0.450000
    X0067    C0025    1.000000   C0049    -0.990000
    X0067    C0157    0.250000   C0187    -0.020000
    X0067    C0193    0.610000   C0199    -0.200000
    X0067    C0205    -0.390000   C9999    0.450000
    X0073    C0025    1.000000   C0055    -0.990000
    X0073    C0157    0.250000   C0187    -0.020000
    X0073    C0193    -0.390000   C0199    0.800000
    X0073    C0205    -0.390000   C9999    0.450000
    X0079    C0025    1.000000   C0073    -1.000000
    X0079    C0187    -0.020000   C0193    -0.390000
    X0079    C0199    -0.200000   C0205    0.610000
    X0079    C9999    0.450000
    X0085    C0031    1.000000   C0079    -1.000000
    X0085    C0151    0.100000   C0211    0.985000
    X0085    C0217    -0.350000   C0223    -0.175000
    X0085    C0229    -0.460000   C9999    0.450000
    X0091    C0031    1.000000   C0049    -0.990000
    X0091    C0157    0.250000   C0211    -0.015000
    X0091    C0217    0.650000   C0223    -0.175000
    X0091    C0229    -0.460000   C9999    0.450000
    X0097    C0031    1.000000   C0055    -0.990000
    X0097    C0157    0.250000   C0211    -0.015000
    X0097    C0217    -0.350000   C0223    0.825000
    X0097    C0229    -0.460000   C9999    0.450000
    X0103    C0031    1.000000   C0073    -1.000000
    X0103    C0211    -0.015000   C0217    -0.350000
    X0103    C0223    -0.175000   C0229    0.540000
    X0103    C9999    0.450000
    X0109    C0037    1.000000   C0079    -1.000000
    X0109    C0151    0.100000   C0235    0.990000
    X0109    C0241    -0.270000   C0247    -0.016000
    X0109    C0253    -0.560000   C9999    0.450000
    X0115    C0037    1.000000   C0049    -0.990000
    X0115    C0157    0.250000   C0235    -0.010000
    X0115    C0241    0.730000   C0247    -0.016000
    X0115    C0253    -0.560000   C9999    0.450000
    X0121    C0037    1.000000   C0055    -0.990000
    X0121    C0157    0.250000   C0235    -0.010000
    X0121    C0241    -0.270000   C0247    0.984000
    X0121    C0253    -0.560000   C9999    0.450000
    X0127    C0037    1.000000   C0073    -1.000000
    X0127    C0235    -0.010000   C0241    -0.270000
    X0127    C0247    -0.016000   C0253    0.440000
    X0127    C9999    0.450000
    X0133    C0043    -0.940000   C0073    1.000000
    X0133    C0139    1.000000
    X0139    C0061    -0.940000   C0073    1.000000
    X0139    C0140    1.000000
    X0145    C0067    -0.990000   C0073    1.000000
    X0145    C0157    0.250000
    X0151    C0043    1.000000   C0067    -0.990000
    X0151    C0157    0.250000   C0259    0.765000
    X0151    C0265    -0.120000   C0271    -0.325000
    X0151    C0277    -0.320000   C9999    0.910000
    X0157    C0043    1.000000   C0079    -1.000000
    X0157    C0151    0.100000   C0259    -0.235000
    X0157    C0265    0.880000   C0271    -0.325000
    X0157    C0277    -0.320000   C9999    0.910000
    X0163    C0043    1.000000   C0049    -0.990000
    X0163    C0157    0.250000   C0259    -0.235000
    X0163    C0265    -0.120000   C0271    0.675000
    X0163    C0277    -0.320000   C9999    0.910000
    X0169    C0043    1.000000   C0055    -0.990000
    X0169    C0157    0.250000   C0259    -0.235000
    X0169    C0265    -0.120000   C0271    -0.325000
    X0169    C0277    0.680000   C9999    0.910000
    X0175    C0061    1.000000   C0067    -0.990000
    X0175    C0157    0.250000   C0283    1.000000
    X0175    C0289    -0.120000   C0301    -0.880000
    X0175    C9999    1.810000
    X0181    C0061    1.000000   C0079    -1.000000
    X0181    C0151    0.100000   C0289    0.880000
    X0181    C0301    -0.880000   C9999    1.810000
    X0187    C0049    -0.990000   C0061    1.000000
    X0187    C0157    0.250000   C0289    -0.120000
    X0187    C0295    1.000000   C0301    -0.880000
    X0187    C9999    1.810000
    X0193    C0055    -0.990000   C0061    1.000000
    X0193    C0157    0.250000   C0289    -0.120000
    X0193    C0301    0.120000   C9999    1.810000
    X0199    C0067    1.000000   C0361    1.000000
    X0205    C0067    1.000000   C0085    -1.000000
    X0211    C0067    1.000000   C0091    -1.000000
    X0217    C0049    1.000000   C0097    -1.000000
    X0223    C0055    1.000000   C0103    -1.000000
    X0229    C0097    1.000000   C0109    -1.000000
    X0229    C9999    4.540000
    X0235    C0097    1.000000   C0115    -1.000000
    X0235    C9999    4.540000
    X0241    C0097    1.000000   C0121    -1.000000
    X0241    C9999    4.540000
    X0247    C0103    1.000000   C0127    -1.000000
    X0247    C9999    4.540000
    X0253    C0085    1.000000   C0355    1.000000
    X0253    C9999    2.270000
    X0259    C0091    1.000000   C0349    1.000000
    X0259    C9999    4.540000
    X0265    C0091    1.000000   C0343    1.000000
    X0265    C9999    4.540000
    X0271    C0079    1.000000   C0337    1.000000
    X0271    C9999    0.450000
    X0277    C0109    1.000000   C0331    1.000000
    X0277    C9999    4.540000
    X0283    C0115    1.000000   C0325    1.000000
    X0283    C9999    56.690000
    X0289    C0121    1.000000   C0319    1.000000
    X0289    C9999    25.620000
    X0295    C0127    1.000000   C0313    1.000000
    X0295    C9999    56.690000
    X0301    C0103    1.000000   C0307    1.000000
    X0301    C9999    4.540000
    X0308    C0151    -1.000000   C0152    -1.000000
    X0308    C1152    1.000000   C9999    200.960000
    X0314    C0157    -1.000000   C0158    -1.000000
    X0314    C1158    1.000000   C9999    74.450000
    X0320    C0140    -0.850000   C0142    -0.850000
    X0320    C1142    1.000000   C9999    184.650000
    X0326    C0139    -0.850000   C0141    -0.850000
    X0326    C1141    1.000000   C9999    118.700000
    X0332    C0133    -0.950000   C0134    -0.950000
    X0332    C1134    1.000000   C9999    35.910000
    X0002    C0002    1.000000   C0020    -0.940000
    X0002    C0134    1.000000   C9999    17.570000
    X0008    C0008    1.000000   C0020    -0.940000
    X0008    C0134    1.000000   C9999    87.050000
    X0014    C0014    1.000000   C0020    -0.940000
    X0014    C0134    1.000000
    X0020    C0026    -0.940000   C0134    1.000000
    X0020    C9999    177.180000
    X0026    C0032    -0.940000   C0134    1.000000
    X0026    C9999    168.440000
    X0032    C0038    -0.940000   C0134    1.000000
    X0032    C9999    160.060000
    X0038    C0020    1.000000   C0080    -1.000000
    X0038    C0152    0.100000   C0164    0.985000
    X0038    C0170    -0.400000   C0176    -0.105000
    X0038    C0182    -0.480000   C9999    0.390000
    X0044    C0020    1.000000   C0050    -0.990000
    X0044    C0158    0.250000   C0164    -0.015000
    X0044    C0170    0.600000   C0176    -0.105000
    X0044    C0182    -0.480000   C9999    0.390000
    X0050    C0020    1.000000   C0056    -0.990000
    X0050    C0158    0.250000   C0164    -0.015000
    X0050    C0170    -0.400000   C0176    0.895000
    X0050    C0182    -0.480000   C9999    0.390000
    X0056    C0020    1.000000   C0074    -1.000000
    X0056    C0164    -0.015000   C0170    -0.400000
    X0056    C0176    -0.105000   C0182    0.520000
    X0056    C9999    0.390000
    X0062    C0026    1.000000   C0080    -1.000000
    X0062    C0152    0.100000   C0188    0.980000
    X0062    C0194    -0.390000   C0200    -0.200000
    X0062    C0206    -0.390000   C9999    0.390000
    X0068    C0026    1.000000   C0050    -0.990000
    X0068    C0158    0.250000   C0188    -0.020000
    X0068    C0194    0.610000   C0200    -0.200000
    X0068    C0206    -0.390000   C9999    0.390000
    X0074    C0026    1.000000   C0056    -0.990000
    X0074    C0158    0.250000   C0188    -0.020000
    X0074    C0194    -0.390000   C0200    0.800000
    X0074    C0206    -0.390000   C9999    0.390000
    X0080    C0026    1.000000   C0074    -1.000000
    X0080    C0188    -0.020000   C0194    -0.390000
    X0080    C0200    -0.200000   C0206    0.610000
    X0080    C9999    0.390000
    X0086    C0032    1.000000   C0080    -1.000000
    X0086    C0152    0.100000   C0212    0.985000
    X0086    C0218    -0.350000   C0224    -0.175000
    X0086    C0230    -0.460000   C9999    0.390000
    X0092    C0032    1.000000   C0050    -0.990000
    X0092    C0158    0.250000   C0212    -0.015000
    X0092    C0218    0.650000   C0224    -0.175000
    X0092    C0230    -0.460000   C9999    0.390000
    X0098    C0032    1.000000   C0056    -0.990000
    X0098    C0158    0.250000   C0212    -0.015000
    X0098    C0218    -0.350000   C0224    0.825000
    X0098    C0230    -0.460000   C9999    0.390000
    X0104    C0032    1.000000   C0074    -1.000000
    X0104    C0212    -0.015000   C0218    -0.350000
    X0104    C0224    -0.175000   C0230    0.540000
    X0104    C9999    0.390000
    X0110    C0038    1.000000   C0080    -1.000000
    X0110    C0152    0.100000   C0236    0.990000
    X0110    C0242    -0.270000   C0248    -0.016000
    X0110    C0254    -0.560000   C9999    0.390000
    X0116    C0038    1.000000   C0050    -0.990000
    X0116    C0158    0.250000   C0236    -0.010000
    X0116    C0242    0.730000   C0248    -0.016000
    X0116    C0254    -0.560000   C9999    0.390000
    X0122    C0038    1.000000   C0056    -0.990000
    X0122    C0158    0.250000   C0236    -0.010000
    X0122    C0242    -0.270000   C0248    0.984000
    X0122    C0254    -0.560000   C9999    0.390000
    X0128    C0038    1.000000   C0074    -1.000000
    X0128    C0236    -0.010000   C0242    -0.270000
    X0128    C0248    -0.016000   C0254    0.440000
    X0128    C9999    0.390000
    X0134    C0044    -0.940000   C0074    1.000000
    X0134    C0141    1.000000
    X0140    C0062    -0.940000   C0074    1.000000
    X0140    C0142    1.000000
    X0146    C0068    -0.990000   C0074    1.000000
    X0146    C0158    0.250000
    X0152    C0044    1.000000   C0068    -0.990000
    X0152    C0158    0.250000   C0260    0.765000
    X0152    C0266    -0.120000   C0272    -0.325000
    X0152    C0278    -0.320000   C9999    0.770000
    X0158    C0044    1.000000   C0080    -1.000000
    X0158    C0152    0.100000   C0260    -0.235000
    X0158    C0266    0.880000   C0272    -0.325000
    X0158    C0278    -0.320000   C9999    0.770000
    X0164    C0044    1.000000   C0050    -0.990000
    X0164    C0158    0.250000   C0260    -0.235000
    X0164    C0266    -0.120000   C0272    0.675000
    X0164    C0278    -0.320000   C9999    0.770000
    X0170    C0044    1.000000   C0056    -0.990000
    X0170    C0158    0.250000   C0260    -0.235000
    X0170    C0266    -0.120000   C0272    -0.325000
    X0170    C0278    0.680000   C9999    0.770000
    X0176    C0062    1.000000   C0068    -0.990000
    X0176    C0158    0.250000   C0284    1.000000
    X0176    C0290    -0.120000   C0302    -0.880000
    X0176    C9999    1.540000
    X0182    C0062    1.000000   C0080    -1.000000
    X0182    C0152    0.100000   C0290    0.880000
    X0182    C0302    -0.880000   C9999    1.540000
    X0188    C0050    -0.990000   C0062    1.000000
    X0188    C0158    0.250000   C0290    -0.120000
    X0188    C0296    1.000000   C0302    -0.880000
    X0188    C9999    1.540000
    X0194    C0056    -0.990000   C0062    1.000000
    X0194    C0158    0.250000   C0290    -0.120000
    X0194    C0302    0.120000   C9999    1.540000
    X0200    C0068    1.000000   C0362    1.000000
    X0206    C0068    1.000000   C0086    -1.000000
    X0212    C0068    1.000000   C0092    -1.000000
    X0218    C0050    1.000000   C0098    -1.000000
    X0224    C0056    1.000000   C0104    -1.000000
    X0230    C0098    1.000000   C0110    -1.000000
    X0230    C9999    3.860000
    X0236    C0098    1.000000   C0116    -1.000000
    X0236    C9999    3.860000
    X0242    C0098    1.000000   C0122    -1.000000
    X0242    C9999    3.860000
    X0248    C0104    1.000000   C0128    -1.000000
    X0248    C9999    3.860000
    X0254    C0086    1.000000   C0356    1.000000
    X0254    C9999    1.930000
    X0260    C0092    1.000000   C0350    1.000000
    X0260    C9999    3.860000
    X0266    C0092    1.000000   C0344    1.000000
    X0266    C9999    3.860000
    X0272    C0080    1.000000   C0338    1.000000
    X0272    C9999    0.390000
    X0278    C0110    1.000000   C0332    1.000000
    X0278    C9999    3.860000
    X0284    C0116    1.000000   C0326    1.000000
    X0284    C9999    48.260000
    X0290    C0122    1.000000   C0320    1.000000
    X0290    C9999    21.810000
    X0296    C0128    1.000000   C0314    1.000000
    X0296    C9999    48.260000
    X0302    C0104    1.000000   C0308    1.000000
    X0302    C9999    3.860000
    X0309    C0152    -1.000000   C0153    -1.000000
    X0309    C2153    1.000000   C9999    146.540000
    X0315    C0158    -1.000000   C0159    -1.000000
    X0315    C2159    1.000000   C9999    54.290000
    X0321    C0142    -0.850000   C0144    -0.850000
    X0321    C2144    1.000000   C9999    136.670000
    X0327    C0141    -0.850000   C0143    -0.850000
    X0327    C2143    1.000000   C9999    87.860000
    X0333    C0134    -0.950000   C0135    -0.950000
    X0333    C2135    1.000000   C9999    26.580000
    X2308    C1152    -1.000000   C0153    -1.000000
    X2308    C1153    1.000000
    X2314    C1158    -1.000000   C0159    -1.000000
    X2314    C1159    1.000000
    X2320    C1142    -1.000000   C0144    -0.850000
    X2320    C1144    1.000000
    X2326    C1141    -1.000000   C0143    -0.850000
    X2326    C1143    1.000000
    X2332    C1134    -1.000000   C0135    -0.950000
    X2332    C1135    1.000000
    X0003    C0003    1.000000   C0021    -0.940000
    X0003    C0135    1.000000   C9999    15.520000
    X0009    C0009    1.000000   C0021    -0.940000
    X0009    C0135    1.000000   C9999    76.910000
    X0015    C0015    1.000000   C0021    -0.940000
    X0015    C0135    1.000000
    X0021    C0027    -0.940000   C0135    1.000000
    X0021    C9999    173.260000
    X0027    C0033    -0.940000   C0135    1.000000
    X0027    C9999    164.720000
    X0033    C0039    -0.940000   C0135    1.000000
    X0033    C9999    156.500000
    X0039    C0021    1.000000   C0081    -1.000000
    X0039    C0153    0.100000   C0165    0.985000
    X0039    C0171    -0.400000   C0177    -0.105000
    X0039    C0183    -0.480000   C9999    0.340000
    X0045    C0021    1.000000   C0051    -0.990000
    X0045    C0159    0.250000   C0165    -0.015000
    X0045    C0171    0.600000   C0177    -0.105000
    X0045    C0183    -0.480000   C9999    0.340000
    X0051    C0021    1.000000   C0057    -0.990000
    X0051    C0159    0.250000   C0165    -0.015000
    X0051    C0171    -0.400000   C0177    0.895000
    X0051    C0183    -0.480000   C9999    0.340000
    X0057    C0021    1.000000   C0075    -1.000000
    X0057    C0165    -0.015000   C0171    -0.400000
    X0057    C0177    -0.105000   C0183    0.520000
    X0057    C9999    0.340000
    X0063    C0027    1.000000   C0081    -1.000000
    X0063    C0153    0.100000   C0189    0.980000
    X0063    C0195    -0.390000   C0201    -0.200000
    X0063    C0207    -0.390000   C9999    0.340000
    X0069    C0027    1.000000   C0051    -0.990000
    X0069    C0159    0.250000   C0189    -0.020000
    X0069    C0195    0.610000   C0201    -0.200000
    X0069    C0207    -0.390000   C9999    0.340000
    X0075    C0027    1.000000   C0057    -0.990000
    X0075    C0159    0.250000   C0189    -0.020000
    X0075    C0195    -0.390000   C0201    0.800000
    X0075    C0207    -0.390000   C9999    0.340000
    X0081    C0027    1.000000   C0075    -1.000000
    X0081    C0189    -0.020000   C0195    -0.390000
    X0081    C0201    -0.200000   C0207    0.610000
    X0081    C9999    0.340000
    X0087    C0033    1.000000   C0081    -1.000000
    X0087    C0153    0.100000   C0213    0.985000
    X0087    C0219    -0.350000   C0225    -0.175000
    X0087    C0231    -0.460000   C9999    0.340000
    X0093    C0033    1.000000   C0051    -0.990000
    X0093    C0159    0.250000   C0213    -0.015000
    X0093    C0219    0.650000   C0225    -0.175000
    X0093    C0231    -0.460000   C9999    0.340000
    X0099    C0033    1.000000   C0057    -0.990000
    X0099    C0159    0.250000   C0213    -0.015000
    X0099    C0219    -0.350000   C0225    0.825000
    X0099    C0231    -0.460000   C9999    0.340000
    X0105    C0033    1.000000   C0075    -1.000000
    X0105    C0213    -0.015000   C0219    -0.350000
    X0105    C0225    -0.175000   C0231    0.540000
    X0105    C9999    0.340000
    X0111    C0039    1.000000   C0081    -1.000000
    X0111    C0153    0.100000   C0237    0.990000
    X0111    C0243    -0.270000   C0249    -0.016000
    X0111    C0255    -0.560000   C9999    0.340000
    X0117    C0039    1.000000   C0051    -0.990000
    X0117    C0159    0.250000   C0237    -0.010000
    X0117    C0243    0.730000   C0249    -0.016000
    X0117    C0255    -0.560000   C9999    0.340000
    X0123    C0039    1.000000   C0057    -0.990000
    X0123    C0159    0.250000   C0237    -0.010000
    X0123    C0243    -0.270000   C0249    0.984000
    X0123    C0255    -0.560000   C9999    0.340000
    X0129    C0039    1.000000   C0075    -1.000000
    X0129    C0237    -0.010000   C0243    -0.270000
    X0129    C0249    -0.016000   C0255    0.440000
    X0129    C9999    0.340000
    X0135    C0045    -0.940000   C0075    1.000000
    X0135    C0143    1.000000
    X0141    C0063    -0.940000   C0075    1.000000
    X0141    C0144    1.000000
    X0147    C0069    -0.990000   C0075    1.000000
    X0147    C0159    0.250000
    X0153    C0045    1.000000   C0069    -0.990000
    X0153    C0159    0.250000   C0261    0.765000
    X0153    C0267    -0.120000   C0273    -0.325000
    X0153    C0279    -0.320000   C9999    0.680000
    X0159    C0045    1.000000   C0081    -1.000000
    X0159    C0153    0.100000   C0261    -0.235000
    X0159    C0267    0.880000   C0273    -0.325000
    X0159    C0279    -0.320000   C9999    0.680000
    X0165    C0045    1.000000   C0051    -0.990000
    X0165    C0159    0.250000   C0261    -0.235000
    X0165    C0267    -0.120000   C0273    0.675000
    X0165    C0279    -0.320000   C9999    0.680000
    X0171    C0045    1.000000   C0057    -0.990000
    X0171    C0159    0.250000   C0261    -0.235000
    X0171    C0267    -0.120000   C0273    -0.325000
    X0171    C0279    0.680000   C9999    0.680000
    X0177    C0063    1.000000   C0069    -0.990000
    X0177    C0159    0.250000   C0285    1.000000
    X0177    C0291    -0.120000   C0303    -0.880000
    X0177    C9999    1.360000
    X0183    C0063    1.000000   C0081    -1.000000
    X0183    C0153    0.100000   C0291    0.880000
    X0183    C0303    -0.880000   C9999    1.360000
    X0189    C0051    -0.990000   C0063    1.000000
    X0189    C0159    0.250000   C0291    -0.120000
    X0189    C0297    1.000000   C0303    -0.880000
    X0189    C9999    1.360000
    X0195    C0057    -0.990000   C0063    1.000000
    X0195    C0159    0.250000   C0291    -0.120000
    X0195    C0303    0.120000   C9999    1.360000
    X0201    C0069    1.000000   C0363    1.000000
    X0207    C0069    1.000000   C0087    -1.000000
    X0213    C0069    1.000000   C0093    -1.000000
    X0219    C0051    1.000000   C0099    -1.000000
    X0225    C0057    1.000000   C0105    -1.000000
    X0231    C0099    1.000000   C0111    -1.000000
    X0231    C9999    3.410000
    X0237    C0099    1.000000   C0117    -1.000000
    X0237    C9999    3.410000
    X0243    C0099    1.000000   C0123    -1.000000
    X0243    C9999    3.410000
    X0249    C0105    1.000000   C0129    -1.000000
    X0249    C9999    3.410000
    X0255    C0087    1.000000   C0357    1.000000
    X0255    C9999    1.710000
    X0261    C0093    1.000000   C0351    1.000000
    X0261    C9999    3.410000
    X0267    C0093    1.000000   C0345    1.000000
    X0267    C9999    3.410000
    X0273    C0081    1.000000   C0339    1.000000
    X0273    C9999    0.340000
    X0279    C0111    1.000000   C0333    1.000000
    X0279    C9999    3.410000
    X0285    C0117    1.000000   C0327    1.000000
    X0285    C9999    42.630000
    X0291    C0123    1.000000   C0321    1.000000
    X0291    C9999    19.270000
    X0297    C0129    1.000000   C0315    1.000000
    X0297    C9999    42.630000
    X0303    C0105    1.000000   C0309    1.000000
    X0303    C9999    3.410000
    X0310    C0153    -1.000000   C0154    -1.000000
    X0310    C3154    1.000000   C9999    101.710000
    X0316    C0159    -1.000000   C0160    -1.000000
    X0316    C3160    1.000000   C9999    37.680000
    X0322    C0144    -0.850000   C0146    -0.850000
    X0322    C9999    96.490000
    X0328    C0143    -0.850000   C0145    -0.850000
    X0328    C9999    62.030000
    X0334    C0135    -0.950000   C0136    -0.950000
    X0334    C1136    1.000000   C9999    18.760000
    X3308    C1153    -1.000000   C0154    -1.000000
    X3308    C1154    1.000000
    X3309    C2153    -1.000000   C0154    -1.000000
    X3309    C2154    1.000000
    X3314    C1159    -1.000000   C0160    -1.000000
    X3314    C2160    1.000000
    X3315    C2159    -1.000000   C0160    -1.000000
    X3315    C2160    1.000000
    X3320    C1144    -1.000000   C0146    -0.850000
    X3321    C2144    -1.000000   C0146    -0.850000
    X3326    C1143    -1.000000   C0145    -0.850000
    X3327    C2143    -1.000000   C0145    -0.850000
    X3332    C1135    -1.000000   C0136    -0.950000
    X3333    C2135    -1.000000   C0136    -0.950000
    X0004    C0004    1.000000   C0022    -0.940000
    X0004    C0136    1.000000   C9999    14.540000
    X0010    C0010    1.000000   C0022    -0.940000
    X0010    C0136    1.000000   C9999    72.040000
    X0016    C0016    1.000000   C0022    -0.940000
    X0016    C0136    1.000000
    X0022    C0028    -0.940000   C0136    1.000000
    X0022    C9999    185.420000
    X0028    C0034    -0.940000   C0136    1.000000
    X0028    C9999    176.260000
    X0034    C0040    -0.940000   C0136    1.000000
    X0034    C9999    167.300000
    X0040    C0022    1.000000   C0082    -1.000000
    X0040    C0154    0.100000   C0166    0.985000
    X0040    C0172    -0.400000   C0178    -0.105000
    X0040    C0184    -0.480000   C9999    0.320000
    X0046    C0022    1.000000   C0052    -0.990000
    X0046    C0160    0.250000   C0166    -0.015000
    X0046    C0172    0.600000   C0178    -0.105000
    X0046    C0184    -0.480000   C9999    0.320000
    X0052    C0022    1.000000   C0058    -0.990000
    X0052    C0160    0.250000   C0166    -0.015000
    X0052    C0172    -0.400000   C0178    0.895000
    X0052    C0184    -0.480000   C9999    0.320000
    X0058    C0022    1.000000   C0076    -1.000000
    X0058    C0166    -0.015000   C0172    -0.400000
    X0058    C0178    -0.105000   C0184    0.520000
    X0058    C9999    0.320000
    X0064    C0028    1.000000   C0082    -1.000000
    X0064    C0154    0.100000   C0190    0.980000
    X0064    C0196    -0.390000   C0202    -0.200000
    X0064    C0208    -0.390000   C9999    0.320000
    X0070    C0028    1.000000   C0052    -0.990000
    X0070    C0160    0.250000   C0190    -0.020000
    X0070    C0196    0.610000   C0202    -0.200000
    X0070    C0208    -0.390000   C9999    0.320000
    X0076    C0028    1.000000   C0058    -0.990000
    X0076    C0160    0.250000   C0190    -0.020000
    X0076    C0196    -0.390000   C0202    0.800000
    X0076    C0208    -0.390000   C9999    0.320000
    X0082    C0028    1.000000   C0076    -1.000000
    X0082    C0190    -0.020000   C0196    -0.390000
    X0082    C0202    -0.200000   C0208    0.610000
    X0082    C9999    0.320000
    X0088    C0034    1.000000   C0082    -1.000000
    X0088    C0154    0.100000   C0214    0.985000
    X0088    C0220    -0.350000   C0226    -0.175000
    X0088    C0232    -0.460000   C9999    0.320000
    X0094    C0034    1.000000   C0052    -0.990000
    X0094    C0160    0.250000   C0214    -0.015000
    X0094    C0220    0.650000   C0226    -0.175000
    X0094    C0232    -0.460000   C9999    0.320000
    X0100    C0034    1.000000   C0058    -0.990000
    X0100    C0160    0.250000   C0214    -0.015000
    X0100    C0220    -0.350000   C0226    0.825000
    X0100    C0232    -0.460000   C9999    0.320000
    X0106    C0034    1.000000   C0076    -1.000000
    X0106    C0214    -0.015000   C0220    -0.350000
    X0106    C0226    -0.175000   C0232    0.540000
    X0106    C9999    0.320000
    X0112    C0040    1.000000   C0082    -1.000000
    X0112    C0154    0.100000   C0238    0.990000
    X0112    C0244    -0.270000   C0250    -0.016000
    X0112    C0256    -0.560000   C9999    0.320000
    X0118    C0040    1.000000   C0052    -0.990000
    X0118    C0160    0.250000   C0238    -0.010000
    X0118    C0244    0.730000   C0250    -0.016000
    X0118    C0256    -0.560000   C9999    0.320000
    X0124    C0040    1.000000   C0058    -0.990000
    X0124    C0160    0.250000   C0238    -0.010000
    X0124    C0244    -0.270000   C0250    0.984000
    X0124    C0256    -0.560000   C9999    0.320000
    X0130    C0040    1.000000   C0076    -1.000000
    X0130    C0238    -0.010000   C0244    -0.270000
    X0130    C0250    -0.016000   C0256    0.440000
    X0130    C9999    0.320000
    X0136    C0046    -0.940000   C0076    1.000000
    X0136    C0145    1.000000
    X0142    C0064    -0.940000   C0076    1.000000
    X0142    C0146    1.000000
    X0148    C0070    -0.990000   C0076    1.000000
    X0148    C0160    0.250000
    X0154    C0046    1.000000   C0070    -0.990000
    X0154    C0160    0.250000   C0262    0.765000
    X0154    C0268    -0.120000   C0274    -0.325000
    X0154    C0280    -0.320000   C9999    0.640000
    X0160    C0046    1.000000   C0082    -1.000000
    X0160    C0154    0.100000   C0262    -0.235000
    X0160    C0268    0.880000   C0274    -0.325000
    X0160    C0280    -0.320000   C9999    0.640000
    X0166    C0046    1.000000   C0052    -0.990000
    X0166    C0160    0.250000   C0262    -0.235000
    X0166    C0268    -0.120000   C0274    0.675000
    X0166    C0280    -0.320000   C9999    0.640000
    X0172    C0046    1.000000   C0058    -0.990000
    X0172    C0160    0.250000   C0262    -0.235000
    X0172    C0268    -0.120000   C0274    -0.325000
    X0172    C0280    0.680000   C9999    0.640000
    X0178    C0064    1.000000   C0070    -0.990000
    X0178    C0160    0.250000   C0286    1.000000
    X0178    C0292    -0.120000   C0304    -0.880000
    X0178    C9999    1.280000
    X0184    C0064    1.000000   C0082    -1.000000
    X0184    C0154    0.100000   C0292    0.880000
    X0184    C0304    -0.880000   C9999    1.280000
    X0190    C0052    -0.990000   C0064    1.000000
    X0190    C0160    0.250000   C0292    -0.120000
    X0190    C0298    1.000000   C0304    -0.880000
    X0190    C9999    1.280000
    X0196    C0058    -0.990000   C0064    1.000000
    X0196    C0160    0.250000   C0292    -0.120000
    X0196    C0304    0.120000   C9999    1.280000
    X0202    C0070    1.000000   C0364    1.000000
    X0208    C0070    1.000000   C0088    -1.000000
    X0214    C0070    1.000000   C0094    -1.000000
    X0220    C0052    1.000000   C0100    -1.000000
    X0226    C0058    1.000000   C0106    -1.000000
    X0232    C0100    1.000000   C0112    -1.000000
    X0232    C9999    3.190000
    X0238    C0100    1.000000   C0118    -1.000000
    X0238    C9999    3.190000
    X0244    C0100    1.000000   C0124    -1.000000
    X0244    C9999    3.190000
    X0250    C0106    1.000000   C0130    -1.000000
    X0250    C9999    3.190000
    X0256    C0088    1.000000   C0358    1.000000
    X0256    C9999    1.600000
    X0262    C0094    1.000000   C0352    1.000000
    X0262    C9999    3.190000
    X0268    C0094    1.000000   C0346    1.000000
    X0268    C9999    3.190000
    X0274    C0082    1.000000   C0340    1.000000
    X0274    C9999    0.320000
    X0280    C0112    1.000000   C0334    1.000000
    X0280    C9999    3.190000
    X0286    C0118    1.000000   C0328    1.000000
    X0286    C9999    39.930000
    X0292    C0124    1.000000   C0322    1.000000
    X0292    C9999    18.050000
    X0298    C0130    1.000000   C0316    1.000000
    X0298    C9999    39.930000
    X0304    C0106    1.000000   C0310    1.000000
    X0304    C9999    3.190000
    X0311    C0154    -1.000000   C0155    -1.000000
    X0311    C9999    63.600000
    X0317    C0160    -1.000000   C0161    -1.000000
    X0317    C9999    23.560000
    X0323    C0146    -0.850000   C0148    -0.850000
    X0323    C9999    61.670000
    X0329    C0145    -0.850000   C0147    -0.850000
    X0329    C9999    39.650000
    X0335    C0136    -0.950000   C0137    -0.950000
    X0335    C9999    11.990000
    X4308    C1154    -1.000000   C0155    -1.000000
    X4309    C2154    -1.000000   C0155    -1.000000
    X4310    C3154    -1.000000   C0155    -1.000000
    X4314    C1160    -1.000000   C0161    -1.000000
    X4315    C2160    -1.000000   C0161    -1.000000
    X4316    C3160    -1.000000   C0161    -1.000000
    X4334    C1136    -1.000000   C0137    -0.950000
    X0005    C0005    1.000000   C0023    -0.940000
    X0005    C0137    1.000000   C9999    10.790000
    X0011    C0011    1.000000   C0023    -0.940000
    X0011    C0137    1.000000   C9999    53.480000
    X0017    C0017    1.000000   C0023    -0.940000
    X0017    C0137    1.000000
    X0023    C0029    -0.940000   C0137    1.000000
    X0023    C9999    159.510000
    X0029    C0035    -0.940000   C0137    1.000000
    X0029    C9999    151.620000
    X0035    C0041    -0.940000   C0137    1.000000
    X0035    C9999    143.960000
    X0041    C0023    1.000000   C0083    -1.000000
    X0041    C0155    0.100000   C0167    0.985000
    X0041    C0173    -0.400000   C0179    -0.105000
    X0041    C0185    -0.480000   C9999    0.240000
    X0047    C0023    1.000000   C0053    -0.990000
    X0047    C0161    0.250000   C0167    -0.015000
    X0047    C0173    0.600000   C0179    -0.105000
    X0047    C0185    -0.480000   C9999    0.240000
    X0053    C0023    1.000000   C0059    -0.990000
    X0053    C0161    0.250000   C0167    -0.015000
    X0053    C0173    -0.400000   C0179    0.895000
    X0053    C0185    -0.480000   C9999    0.240000
    X0059    C0023    1.000000   C0077    -1.000000
    X0059    C0167    -0.015000   C0173    -0.400000
    X0059    C0179    -0.105000   C0185    0.520000
    X0059    C9999    0.240000
    X0065    C0029    1.000000   C0083    -1.000000
    X0065    C0155    0.100000   C0191    0.980000
    X0065    C0197    -0.390000   C0203    -0.200000
    X0065    C0209    -0.390000   C9999    0.240000
    X0071    C0029    1.000000   C0053    -0.990000
    X0071    C0161    0.250000   C0191    -0.020000
    X0071    C0197    0.610000   C0203    -0.200000
    X0071    C0209    -0.390000   C9999    0.240000
    X0077    C0029    1.000000   C0059    -0.990000
    X0077    C0161    0.250000   C0191    -0.020000
    X0077    C0197    -0.390000   C0203    0.800000
    X0077    C0209    -0.390000   C9999    0.240000
    X0083    C0029    1.000000   C0077    -1.000000
    X0083    C0191    -0.020000   C0197    -0.390000
    X0083    C0203    -0.200000   C0209    0.610000
    X0083    C9999    0.240000
    X0089    C0035    1.000000   C0083    -1.000000
    X0089    C0155    0.100000   C0215    0.985000
    X0089    C0221    -0.350000   C0227    -0.175000
    X0089    C0233    -0.460000   C9999    0.240000
    X0095    C0035    1.000000   C0053    -0.990000
    X0095    C0161    0.250000   C0215    -0.015000
    X0095    C0221    0.650000   C0227    -0.175000
    X0095    C0233    -0.460000   C9999    0.240000
    X0101    C0035    1.000000   C0059    -0.990000
    X0101    C0161    0.250000   C0215    -0.015000
    X0101    C0221    -0.350000   C0227    0.825000
    X0101    C0233    -0.460000   C9999    0.240000
    X0107    C0035    1.000000   C0077    -1.000000
    X0107    C0215    -0.015000   C0221    -0.350000
    X0107    C0227    -0.175000   C0233    0.540000
    X0107    C9999    0.240000
    X0113    C0041    1.000000   C0083    -1.000000
    X0113    C0155    0.100000   C0239    0.990000
    X0113    C0245    -0.270000   C0251    -0.016000
    X0113    C0257    -0.560000   C9999    0.240000
    X0119    C0041    1.000000   C0053    -0.990000
    X0119    C0161    0.250000   C0239    -0.010000
    X0119    C0245    0.730000   C0251    -0.016000
    X0119    C0257    -0.560000   C9999    0.240000
    X0125    C0041    1.000000   C0059    -0.990000
    X0125    C0161    0.250000   C0239    -0.010000
    X0125    C0245    -0.270000   C0251    0.984000
    X0125    C0257    -0.560000   C9999    0.240000
    X0131    C0041    1.000000   C0077    -1.000000
    X0131    C0239    -0.010000   C0245    -0.270000
    X0131    C0251    -0.016000   C0257    0.440000
    X0131    C9999    0.240000
    X0137    C0047    -0.940000   C0077    1.000000
    X0137    C0147    1.000000
    X0143    C0065    -0.940000   C0077    1.000000
    X0143    C0148    1.000000
    X0149    C0071    -0.990000   C0077    1.000000
    X0149    C0161    0.250000
    X0155    C0047    1.000000   C0071    -0.990000
    X0155    C0161    0.250000   C0263    0.765000
    X0155    C0269    -0.120000   C0275    -0.325000
    X0155    C0281    -0.320000   C9999    0.470000
    X0161    C0047    1.000000   C0083    -1.000000
    X0161    C0155    0.100000   C0263    -0.235000
    X0161    C0269    0.880000   C0275    -0.325000
    X0161    C0281    -0.320000   C9999    0.470000
    X0167    C0047    1.000000   C0053    -0.990000
    X0167    C0161    0.250000   C0263    -0.235000
    X0167    C0269    -0.120000   C0275    0.675000
    X0167    C0281    -0.320000   C9999    0.470000
    X0173    C0047    1.000000   C0059    -0.990000
    X0173    C0161    0.250000   C0263    -0.235000
    X0173    C0269    -0.120000   C0275    -0.325000
    X0173    C0281    0.680000   C9999    0.470000
    X0179    C0065    1.000000   C0071    -0.990000
    X0179    C0161    0.250000   C0287    1.000000
    X0179    C0293    -0.120000   C0305    -0.880000
    X0179    C9999    0.950000
    X0185    C0065    1.000000   C0083    -1.000000
    X0185    C0155    0.100000   C0293    0.880000
    X0185    C0305    -0.880000   C9999    0.950000
    X0191    C0053    -0.990000   C0065    1.000000
    X0191    C0161    0.250000   C0293    -0.120000
    X0191    C0299    1.000000   C0305    -0.880000
    X0191    C9999    0.950000
    X0197    C0059    -0.990000   C0065    1.000000
    X0197    C0161    0.250000   C0293    -0.120000
    X0197    C0305    0.120000   C9999    0.950000
    X0203    C0071    1.000000   C0365    1.000000
    X0209    C0071    1.000000   C0089    -1.000000
    X0215    C0071    1.000000   C0095    -1.000000
    X0221    C0053    1.000000   C0101    -1.000000
    X0227    C0059    1.000000   C0107    -1.000000
    X0233    C0101    1.000000   C0113    -1.000000
    X0233    C9999    2.370000
    X0239    C0101    1.000000   C0119    -1.000000
    X0239    C9999    2.370000
    X0245    C0101    1.000000   C0125    -1.000000
    X0245    C9999    2.370000
    X0251    C0107    1.000000   C0131    -1.000000
    X0251    C9999    2.370000
    X0257    C0089    1.000000   C0359    1.000000
    X0257    C9999    1.190000
    X0263    C0095    1.000000   C0353    1.000000
    X0263    C9999    2.370000
    X0269    C0095    1.000000   C0347    1.000000
    X0269    C9999    2.370000
    X0275    C0083    1.000000   C0341    1.000000
    X0275    C9999    0.240000
    X0281    C0113    1.000000   C0335    1.000000
    X0281    C9999    2.370000
    X0287    C0119    1.000000   C0329    1.000000
    X0287    C9999    29.650000
    X0293    C0125    1.000000   C0323    1.000000
    X0293    C9999    13.400000
    X0299    C0131    1.000000   C0317    1.000000
    X0299    C9999    29.650000
    X0305    C0107    1.000000   C0311    1.000000
    X0305    C9999    2.370000
    X0312    C0155    -1.000000   C0156    -1.000000
    X0312    C9999    29.890000
    X0318    C0161    -1.000000   C0162    -1.000000
    X0318    C9999    11.070000
    X0324    C0148    -0.850000   C9999    29.990000
    X0330    C0147    -0.850000   C9999    19.280000
    X0336    C0137    -0.950000   C9999    5.830000
    X0006    C0006    1.000000   C0024    -0.940000
    X0006    C0138    1.000000   C9999    2.680000
    X0012    C0012    1.000000   C0024    -0.940000
    X0012    C0138    1.000000   C9999    13.300000
    X0018    C0018    1.000000   C0024    -0.940000
    X0018    C0138    1.000000
    X0024    C0030    -0.940000   C0138    1.000000
    X0024    C9999    45.390000
    X0030    C0036    -0.940000   C0138    1.000000
    X0030    C9999    43.140000
    X0036    C0042    -0.940000   C0138    1.000000
    X0036    C9999    40.980000
    X0042    C0024    1.000000   C0084    -1.000000
    X0042    C0156    0.100000   C0168    0.985000
    X0042    C0174    -0.400000   C0180    -0.105000
    X0042    C0186    -0.480000   C9999    0.060000
    X0048    C0024    1.000000   C0054    -0.990000
    X0048    C0162    0.250000   C0168    -0.015000
    X0048    C0174    0.600000   C0180    -0.105000
    X0048    C0186    -0.480000   C9999    0.060000
    X0054    C0024    1.000000   C0060    -0.990000
    X0054    C0162    0.250000   C0168    -0.015000
    X0054    C0174    -0.400000   C0180    0.895000
    X0054    C0186    -0.480000   C9999    0.060000
    X0060    C0024    1.000000   C0078    -1.000000
    X0060    C0168    -0.015000   C0174    -0.400000
    X0060    C0180    -0.105000   C0186    0.520000
    X0060    C9999    0.060000
    X0066    C0030    1.000000   C0084    -1.000000
    X0066    C0156    0.100000   C0192    0.980000
    X0066    C0198    -0.390000   C0204    -0.200000
    X0066    C0210    -0.390000   C9999    0.060000
    X0072    C0030    1.000000   C0054    -0.990000
    X0072    C0162    0.250000   C0192    -0.020000
    X0072    C0198    0.610000   C0204    -0.200000
    X0072    C0210    -0.390000   C9999    0.060000
    X0078    C0030    1.000000   C0060    -0.990000
    X0078    C0162    0.250000   C0192    -0.020000
    X0078    C0198    -0.390000   C0204    0.800000
    X0078    C0210    -0.390000   C9999    0.060000
    X0084    C0030    1.000000   C0078    -1.000000
    X0084    C0192    -0.020000   C0198    -0.390000
    X0084    C0204    -0.200000   C0210    0.610000
    X0084    C9999    0.060000
    X0090    C0036    1.000000   C0084    -1.000000
    X0090    C0156    0.100000   C0216    0.985000
    X0090    C0222    -0.350000   C0228    -0.175000
    X0090    C0234    -0.460000   C9999    0.060000
    X0096    C0036    1.000000   C0054    -0.990000
    X0096    C0162    0.250000   C0216    -0.015000
    X0096    C0222    0.650000   C0228    -0.175000
    X0096    C0234    -0.460000   C9999    0.060000
    X0102    C0036    1.000000   C0060    -0.990000
    X0102    C0162    0.250000   C0216    -0.015000
    X0102    C0222    -0.350000   C0228    0.825000
    X0102    C0234    -0.460000   C9999    0.060000
    X0108    C0036    1.000000   C0078    -1.000000
    X0108    C0216    -0.015000   C0222    -0.350000
    X0108    C0228    -0.175000   C0234    0.540000
    X0108    C9999    0.060000
    X0114    C0042    1.000000   C0084    -1.000000
    X0114    C0156    0.100000   C0240    0.990000
    X0114    C0246    -0.270000   C0252    -0.016000
    X0114    C0258    -0.560000   C9999    0.060000
    X0120    C0042    1.000000   C0054    -0.990000
    X0120    C0162    0.250000   C0240    -0.010000
    X0120    C0246    0.730000   C0252    -0.016000
    X0120    C0258    -0.560000   C9999    0.060000
    X0126    C0042    1.000000   C0060    -0.990000
    X0126    C0162    0.250000   C0240    -0.010000
    X0126    C0246    -0.270000   C0252    0.984000
    X0126    C0258    -0.560000   C9999    0.060000
    X0132    C0042    1.000000   C0078    -1.000000
    X0132    C0240    -0.010000   C0246    -0.270000
    X0132    C0252    -0.016000   C0258    0.440000
    X0132    C9999    0.060000
    X0138    C0048    -0.940000   C0078    1.000000
    X0138    C0149    1.000000
    X0144    C0066    -0.940000   C0078    1.000000
    X0144    C0150    1.000000
    X0150    C0072    -0.990000   C0078    1.000000
    X0150    C0162    0.250000
    X0156    C0048    1.000000   C0072    -0.990000
    X0156    C0162    0.250000   C0264    0.765000
    X0156    C0270    -0.120000   C0276    -0.325000
    X0156    C0282    -0.320000   C9999    0.120000
    X0162    C0048    1.000000   C0084    -1.000000
    X0162    C0156    0.100000   C0264    -0.235000
    X0162    C0270    0.880000   C0276    -0.325000
    X0162    C0282    -0.320000   C9999    0.120000
    X0168    C0048    1.000000   C0054    -0.990000
    X0168    C0162    0.250000   C0264    -0.235000
    X0168    C0270    -0.120000   C0276    0.675000
    X0168    C0282    -0.320000   C9999    0.120000
    X0174    C0048    1.000000   C0060    -0.990000
    X0174    C0162    0.250000   C0264    -0.235000
    X0174    C0270    -0.120000   C0276    -0.325000
    X0174    C0282    0.680000   C9999    0.120000
    X0180    C0066    1.000000   C0072    -0.990000
    X0180    C0162    0.250000   C0288    1.000000
    X0180    C0294    -0.120000   C0306    -0.880000
    X0180    C9999    0.240000
    X0186    C0066    1.000000   C0084    -1.000000
    X0186    C0156    0.100000   C0294    0.880000
    X0186    C0306    -0.880000   C9999    0.240000
    X0192    C0054    -0.990000   C0066    1.000000
    X0192    C0162    0.250000   C0294    -0.120000
    X0192    C0300    1.000000   C0306    -0.880000
    X0192    C9999    0.240000
    X0198    C0060    -0.990000   C0066    1.000000
    X0198    C0162    0.250000   C0294    -0.120000
    X0198    C0306    0.120000   C9999    0.240000
    X0204    C0072    1.000000   C0366    1.000000
    X0210    C0072    1.000000   C0090    -1.000000
    X0216    C0072    1.000000   C0096    -1.000000
    X0222    C0054    1.000000   C0102    -1.000000
    X0228    C0060    1.000000   C0108    -1.000000
    X0234    C0102    1.000000   C0114    -1.000000
    X0234    C9999    0.590000
    X0240    C0102    1.000000   C0120    -1.000000
    X0240    C9999    0.590000
    X0246    C0102    1.000000   C0126    -1.000000
    X0246    C9999    0.590000
    X0252    C0108    1.000000   C0132    -1.000000
    X0252    C9999    0.590000
    X0258    C0090    1.000000   C0360    1.000000
    X0258    C9999    0.290000
    X0264    C0096    1.000000   C0354    1.000000
    X0264    C9999    0.590000
    X0270    C0096    1.000000   C0348    1.000000
    X0270    C9999    0.590000
    X0276    C0084    1.000000   C0342    1.000000
    X0276    C9999    0.060000
    X0282    C0114    1.000000   C0336    1.000000
    X0282    C9999    0.590000
    X0288    C0120    1.000000   C0330    1.000000
    X0288    C9999    7.370000
    X0294    C0126    1.000000   C0324    1.000000
    X0294    C9999    3.330000
    X0300    C0132    1.000000   C0318    1.000000
    X0300    C9999    7.370000
    X0306    C0108    1.000000   C0312    1.000000
    X0306    C9999    0.590000
    X0313    C0156    -1.000000   C9999    7.040000
    X0319    C0162    -1.000000   C9999    2.610000
    X0325    C0150    -0.637500   C9999    7.520000
    X0331    C0149    -0.637500   C9999    4.830000
    X0337    C0138    -0.950000   C9999    1.460000
    SLACK48504 C0361    -1.000000
    SLACK48505 C0355    -1.000000
    SLACK48506 C0349    -1.000000
    SLACK48507 C0343    -1.000000
    SLACK48508 C0337    -1.000000
    SLACK48509 C0331    -1.000000
    SLACK48510 C0325    -1.000000
    SLACK48511 C0319    -1.000000
    SLACK48512 C0313    -1.000000
    SLACK48513 C0307    -1.000000
    SLACK48514 C0157    1.000000
    SLACK48515 C0151    1.000000
    SLACK48516 C0140    1.000000
    SLACK48517 C0139    1.000000
    SLACK48518 C0133    1.000000
    SLACK48519 C0013    1.000000
    SLACK48520 C0007    1.000000
    SLACK48521 C0001    1.000000
    SLACK48522 C0362    -1.000000
    SLACK48523 C0356    -1.000000
    SLACK48524 C0350    -1.000000
    SLACK48525 C0344    -1.000000
    SLACK48526 C0338    -1.000000
    SLACK48527 C0332    -1.000000
    SLACK48528 C0326    -1.000000
    SLACK48529 C0320    -1.000000
    SLACK48530 C0314    -1.000000
    SLACK48531 C0308    -1.000000
    SLACK48532 C0158    1.000000
    SLACK48533 C0152    1.000000
    SLACK48534 C0142    1.000000
    SLACK48535 C0141    1.000000
    SLACK48536 C0134    1.000000
    SLACK48537 C0014    1.000000
    SLACK48538 C0008    1.000000
    SLACK48539 C0002    1.000000
    SLACK48540 C0363    -1.000000
    SLACK48541 C0357    -1.000000
    SLACK48542 C0351    -1.000000
    SLACK48543 C0345    -1.000000
    SLACK48544 C0339    -1.000000
    SLACK48545 C0333    -1.000000
    SLACK48546 C0327    -1.000000
    SLACK48547 C0321    -1.000000
    SLACK48548 C0315    -1.000000
    SLACK48549 C0309    -1.000000
    SLACK48550 C0159    1.000000
    SLACK48551 C0153    1.000000
    SLACK48552 C0144    1.000000
    SLACK48553 C0143    1.000000
    SLACK48554 C0135    1.000000
    SLACK48555 C0015    1.000000
    SLACK48556 C0009    1.000000
    SLACK48557 C0003    1.000000
    SLACK48558 C0364    -1.000000
    SLACK48559 C0358    -1.000000
    SLACK48560 C0352    -1.000000
    SLACK48561 C0346    -1.000000
    SLACK48562 C0340    -1.000000
    SLACK48563 C0334    -1.000000
    SLACK48564 C0328    -1.000000
    SLACK48565 C0322    -1.000000
    SLACK48566 C0316    -1.000000
    SLACK48567 C0310    -1.000000
    SLACK48568 C0160    1.000000
    SLACK48569 C0154    1.000000
    SLACK48570 C0146    1.000000
    SLACK48571 C0145    1.000000
    SLACK48572 C0136    1.000000
    SLACK48573 C0016    1.000000
    SLACK48574 C0010    1.000000
    SLACK48575 C0004    1.000000
    SLACK48576 C0365    -1.000000
    SLACK48577 C0359    -1.000000
    SLACK48578 C0353    -1.000000
    SLACK48579 C0347    -1.000000
    SLACK48580 C0341    -1.000000
    SLACK48581 C0335    -1.000000
    SLACK48582 C0329    -1.000000
    SLACK48583 C0323    -1.000000
    SLACK48584 C0317    -1.000000
    SLACK48585 C0311    -1.000000
    SLACK48586 C0161    1.000000
    SLACK48587 C0155    1.000000
    SLACK48588 C0148    1.000000
    SLACK48589 C0147    1.000000
    SLACK48590 C0137    1.000000
    SLACK48591 C0017    1.000000
    SLACK48592 C0011    1.000000
    SLACK48593 C0005    1.000000
    SLACK48594 C0366    -1.000000
    SLACK48595 C0360    -1.000000
    SLACK48596 C0354    -1.000000
    SLACK48597 C0348    -1.000000
    SLACK48598 C0342    -1.000000
    SLACK48599 C0336    -1.000000
    SLACK48600 C0330    -1.000000
    SLACK48601 C0324    -1.000000
    SLACK48602 C0318    -1.000000
    SLACK48603 C0312    -1.000000
    SLACK48604 C0162    1.000000
    SLACK48605 C0156    1.000000
    SLACK48606 C0150    1.000000
    SLACK48607 C0149    1.000000
    SLACK48608 C0138    1.000000
    SLACK48609 C0018    1.000000
    SLACK48610 C0012    1.000000
    SLACK48611 C0006    1.000000
RHS
    SM       C0001    0.008500
    SM       C0002    0.007000
    SM       C0003    0.002000
    SM       C0007    0.002000
    SM       C0008    0.006000
    SM       C0009    0.018000
    SM       C0010    0.030000
    SM       C0011    0.010000
    SM       C0133    1.444000
    SM       C0134    1.235000
    SM       C0135    0.854999
    SM       C0136    0.095000
    SM       C0139    0.068000
    SM       C0140    0.003400
    SM       C0141    0.045900
    SM       C0142    0.003400
    SM       C0143    0.025500
    SM       C0144    0.003400
    SM       C0146    0.003400
    SM       C0157    0.520000
    SM       C0158    0.470000
    SM       C0159    0.390000
    SM       C0160    0.200000
    SM       C0307    0.062000
    SM       C0308    0.073000
    SM       C0309    0.087000
    SM       C0310    0.110000
    SM       C0311    0.150000
    SM       C0312    0.200000
    SM       C0313    0.250000
    SM       C0314    0.290000
    SM       C0315    0.330000
    SM       C0316    0.410000
    SM       C0317    0.500000
    SM       C0318    0.680000
    SM       C0319    0.400000
    SM       C0320    0.420000
    SM       C0321    0.450000
    SM       C0322    0.500000
    SM       C0323    0.550000
    SM       C0324    0.600000
    SM       C0325    0.120000
    SM       C0326    0.129000
    SM       C0327    0.146800
    SM       C0328    0.168000
    SM       C0329    0.245000
    SM       C0330    0.289000
    SM       C0331    0.070000
    SM       C0332    0.080000
    SM       C0333    0.090000
    SM       C0334    0.100000
    SM       C0335    0.110000
    SM       C0336    0.120000
    SM       C0337    0.040000
    SM       C0338    0.040000
    SM       C0339    0.050000
    SM       C0340    0.050000
    SM       C0341    0.060000
    SM       C0342    0.070000
    SM       C0343    0.050000
    SM       C0344    0.055000
    SM       C0345    0.060000
    SM       C0346    0.065000
    SM       C0347    0.070000
    SM       C0348    0.080000
    SM       C0349    0.150000
    SM       C0350    0.160000
    SM       C0351    0.180000
    SM       C0352    0.200000
    SM       C0353    0.200000
    SM       C0354    0.200000
    SM       C0355    0.130000
    SM       C0356    0.120000
    SM       C0357    0.050000
    SM       C0358    0.040000
    SM       C0359    0.040000
BOUNDS
ENDATA
