NAME          SCRS8
ROWS
 N  COST    
 E  CPCOAL00
 E  CPLWRX00
 E  CPFBRX00
 E  CPADVX00
 E  CPPETG00
 E  CPSYNF00
 E  CPHTRB00
 E  CPELHY00
 E  CPSWUX00
 E  DMELEC00
 E  DMNELE00
 E  SMCOAL00
 E  SMPETG00
 E  SMPLUT00
 E  SMNATU00
 E  DISWUX00
 E  DIBRGN00
 E  NCCOAL00
 E  CRQU0100
 E  CRQU0200
 E  CRQU0300
 E  CRQU0400
 E  CRQU0500
 E  CRQU0600
 E  CRQU0700
 E  CRQU0800
 E  CRQU0900
 E  CRQU1000
 E  CPCOAL05
 E  CPLWRX05
 E  CPFBRX05
 E  CPADVX05
 E  CPPETG05
 E  CPSYNF05
 E  CPHTRB05
 E  CPELHY05
 E  CPSWUX05
 E  DMELEC05
 E  DMNELE05
 E  SMCOAL05
 E  SMPETG05
 E  SMPLUT05
 E  SMNATU05
 E  DISWUX05
 E  DIBRGN05
 E  NCCOAL05
 E  CRQU0105
 E  CRQU0205
 E  CRQU0305
 E  CRQU0405
 E  CRQU0505
 E  CRQU0605
 E  CRQU0705
 E  CRQU0805
 E  CRQU0905
 E  CRQU1005
 E  WTELEC10
 E  WTNELE10
 E  INTSUM10
 E  CPCOAL10
 E  CPLWRX10
 E  CPFBRX10
 E  CPADVX10
 E  CPPETG10
 E  CPSYNF10
 E  CPHTRB10
 E  CPELHY10
 E  CPSWUX10
 E  DMELEC10
 E  DMNELE10
 E  SMCOAL10
 E  SMPETG10
 E  SMPLUT10
 E  SMNATU10
 E  DISWUX10
 E  DIBRGN10
 E  NCCOAL10
 E  CRQU0110
 E  CRQU0210
 E  CRQU0310
 E  CRQU0410
 E  CRQU0510
 E  CRQU0610
 E  CRQU0710
 E  CRQU0810
 E  CRQU0910
 E  CRQU1010
 E  WTELEC15
 E  WTNELE15
 E  INTSUM15
 E  CPCOAL15
 E  CPLWRX15
 E  CPFBRX15
 E  CPADVX15
 E  CPPETG15
 E  CPSYNF15
 E  CPHTRB15
 E  CPELHY15
 E  CPSWUX15
 E  DMELEC15
 E  DMNELE15
 E  SMCOAL15
 E  SMPETG15
 E  SMPLUT15
 E  SMNATU15
 E  DISWUX15
 E  DIBRGN15
 E  NCCOAL15
 E  CRQU0115
 E  CRQU0215
 E  CRQU0315
 E  CRQU0415
 E  CRQU0515
 E  CRQU0615
 E  CRQU0715
 E  CRQU0815
 E  CRQU0915
 E  CRQU1015
 E  WTELEC20
 E  WTNELE20
 E  INTSUM20
 E  CPCOAL20
 E  CPLWRX20
 E  CPFBRX20
 E  CPADVX20
 E  CPPETG20
 E  CPSYNF20
 E  CPHTRB20
 E  CPELHY20
 E  CPSWUX20
 E  DMELEC20
 E  DMNELE20
 E  SMCOAL20
 E  SMPETG20
 E  SMPLUT20
 E  SMNATU20
 E  DISWUX20
 E  DIBRGN20
 E  NCCOAL20
 E  CRQU0120
 E  CRQU0220
 E  CRQU0320
 E  CRQU0420
 E  CRQU0520
 E  CRQU0620
 E  CRQU0720
 E  CRQU0820
 E  CRQU0920
 E  CRQU1020
 E  WTELEC25
 E  WTNELE25
 E  INTSUM25
 E  CPCOAL25
 E  CPLWRX25
 E  CPFBRX25
 E  CPADVX25
 E  CPPETG25
 E  CPSYNF25
 E  CPHTRB25
 E  CPELHY25
 E  CPSWUX25
 E  DMELEC25
 E  DMNELE25
 E  SMCOAL25
 E  SMPETG25
 E  SMPLUT25
 E  SMNATU25
 E  DISWUX25
 E  DIBRGN25
 E  NCCOAL25
 E  NCFBRX25
 E  CRQU0125
 E  CRQU0225
 E  CRQU0325
 E  CRQU0425
 E  CRQU0525
 E  CRQU0625
 E  CRQU0725
 E  CRQU0825
 E  CRQU0925
 E  CRQU1025
 E  WTELEC30
 E  WTNELE30
 E  INTSUM30
 E  CPCOAL30
 E  CPLWRX30
 E  CPFBRX30
 E  CPADVX30
 E  CPPETG30
 E  CPSYNF30
 E  CPHTRB30
 E  CPELHY30
 E  CPSWUX30
 E  DMELEC30
 E  DMNELE30
 E  SMCOAL30
 E  SMPETG30
 E  SMPLUT30
 E  SMNATU30
 E  DISWUX30
 E  DIBRGN30
 E  NCCOAL30
 E  NCFBRX30
 E  CRQU0130
 E  CRQU0230
 E  CRQU0330
 E  CRQU0430
 E  CRQU0530
 E  CRQU0630
 E  CRQU0730
 E  CRQU0830
 E  CRQU0930
 E  CRQU1030
 E  WTELEC35
 E  WTNELE35
 E  INTSUM35
 E  CPCOAL35
 E  CPLWRX35
 E  CPFBRX35
 E  CPADVX35
 E  CPPETG35
 E  CPSYNF35
 E  CPHTRB35
 E  CPELHY35
 E  CPSWUX35
 E  DMELEC35
 E  DMNELE35
 E  SMCOAL35
 E  SMPETG35
 E  SMPLUT35
 E  SMNATU35
 E  DISWUX35
 E  DIBRGN35
 E  NCCOAL35
 E  NCFBRX35
 E  CRQU0135
 E  CRQU0235
 E  CRQU0335
 E  CRQU0435
 E  CRQU0535
 E  CRQU0635
 E  CRQU0735
 E  CRQU0835
 E  CRQU0935
 E  CRQU1035
 E  WTELEC40
 E  WTNELE40
 E  INTSUM40
 E  CPCOAL40
 E  CPLWRX40
 E  CPFBRX40
 E  CPADVX40
 E  CPPETG40
 E  CPSYNF40
 E  CPHTRB40
 E  CPELHY40
 E  CPSWUX40
 E  DMELEC40
 E  DMNELE40
 E  SMCOAL40
 E  SMPETG40
 E  SMPLUT40
 E  SMNATU40
 E  DISWUX40
 E  DIBRGN40
 E  NCCOAL40
 E  CRQU0140
 E  CRQU0240
 E  CRQU0340
 E  CRQU0440
 E  CRQU0540
 E  CRQU0640
 E  CRQU0740
 E  CRQU0840
 E  CRQU0940
 E  CRQU1040
 E  WTELEC45
 E  WTNELE45
 E  INTSUM45
 E  CPCOAL45
 E  CPLWRX45
 E  CPFBRX45
 E  CPADVX45
 E  CPPETG45
 E  CPSYNF45
 E  CPHTRB45
 E  CPELHY45
 E  CPSWUX45
 E  DMELEC45
 E  DMNELE45
 E  SMCOAL45
 E  SMPETG45
 E  SMPLUT45
 E  SMNATU45
 E  DISWUX45
 E  DIBRGN45
 E  NCADVX45
 E  CRQU0145
 E  CRQU0245
 E  CRQU0345
 E  CRQU0445
 E  CRQU0545
 E  CRQU0645
 E  CRQU0745
 E  CRQU0845
 E  CRQU0945
 E  CRQU1045
 E  WTELEC50
 E  WTNELE50
 E  INTSUM50
 E  CPCOAL50
 E  CPLWRX50
 E  CPFBRX50
 E  CPADVX50
 E  CPPETG50
 E  CPSYNF50
 E  CPHTRB50
 E  CPELHY50
 E  CPSWUX50
 E  DMELEC50
 E  DMNELE50
 E  SMCOAL50
 E  SMPETG50
 E  SMPLUT50
 E  SMNATU50
 E  DISWUX50
 E  DIBRGN50
 E  NCADVX50
 E  CRQU0150
 E  CRQU0250
 E  CRQU0350
 E  CRQU0450
 E  CRQU0550
 E  CRQU0650
 E  CRQU0750
 E  CRQU0850
 E  CRQU0950
 E  CRQU1050
 E  WTELEC55
 E  WTNELE55
 E  INTSUM55
 E  CPCOAL55
 E  CPLWRX55
 E  CPFBRX55
 E  CPADVX55
 E  CPPETG55
 E  CPSYNF55
 E  CPHTRB55
 E  CPELHY55
 E  CPSWUX55
 E  DMELEC55
 E  DMNELE55
 E  SMCOAL55
 E  SMPETG55
 E  SMPLUT55
 E  SMNATU55
 E  DISWUX55
 E  DIBRGN55
 E  NCADVX55
 E  CRQU0155
 E  CRQU0255
 E  CRQU0355
 E  CRQU0455
 E  CRQU0555
 E  CRQU0655
 E  CRQU0755
 E  CRQU0855
 E  CRQU0955
 E  CRQU1055
 E  WTELEC60
 E  WTNELE60
 E  INTSUM60
 E  CPCOAL60
 E  CPLWRX60
 E  CPFBRX60
 E  CPADVX60
 E  CPPETG60
 E  CPSYNF60
 E  CPHTRB60
 E  CPELHY60
 E  CPSWUX60
 E  DMELEC60
 E  DMNELE60
 E  SMCOAL60
 E  SMPETG60
 E  SMPLUT60
 E  SMNATU60
 E  DISWUX60
 E  DIBRGN60
 E  CRQU0160
 E  CRQU0260
 E  CRQU0360
 E  CRQU0460
 E  CRQU0560
 E  CRQU0660
 E  CRQU0760
 E  CRQU0860
 E  CRQU0960
 E  CRQU1060
 E  WTELEC65
 E  WTNELE65
 E  INTSUM65
 E  CPCOAL65
 E  CPLWRX65
 E  CPFBRX65
 E  CPADVX65
 E  CPPETG65
 E  CPSYNF65
 E  CPHTRB65
 E  CPELHY65
 E  CPSWUX65
 E  DMELEC65
 E  DMNELE65
 E  SMCOAL65
 E  SMPETG65
 E  SMPLUT65
 E  SMNATU65
 E  DISWUX65
 E  DIBRGN65
 E  CRQU0165
 E  CRQU0265
 E  CRQU0365
 E  CRQU0465
 E  CRQU0565
 E  CRQU0665
 E  CRQU0765
 E  CRQU0865
 E  CRQU0965
 E  CRQU1065
 E  WTELEC70
 E  WTNELE70
 E  INTSUM70
 E  CPCOAL70
 E  CPLWRX70
 E  CPFBRX70
 E  CPADVX70
 E  CPPETG70
 E  CPSYNF70
 E  CPHTRB70
 E  CPELHY70
 E  CPSWUX70
 E  DMELEC70
 E  DMNELE70
 E  SMCOAL70
 E  SMPETG70
 E  SMPLUT70
 E  SMNATU70
 E  DISWUX70
 E  DIBRGN70
 E  CRQU0170
 E  CRQU0270
 E  CRQU0370
 E  CRQU0470
 E  CRQU0570
 E  CRQU0670
 E  CRQU0770
 E  CRQU0870
 E  CRQU0970
 E  CRQU1070
 E  WTELEC75
 E  WTNELE75
 E  INTSUM75
 E  CPCOAL75
 E  CPLWRX75
 E  CPFBRX75
 E  CPADVX75
 E  CPPETG75
 E  CPSYNF75
 E  CPHTRB75
 E  CPELHY75
 E  CPSWUX75
 E  DMELEC75
 E  DMNELE75
 E  SMCOAL75
 E  SMPETG75
 E  SMPLUT75
 E  SMNATU75
 E  DISWUX75
 E  DIBRGN75
 E  CRQU0175
 E  CRQU0275
 E  CRQU0375
 E  CRQU0475
 E  CRQU0575
 E  CRQU0675
 E  CRQU0775
 E  CRQU0875
 E  CRQU0975
 E  CRQU1075
 E  CRPETG75
COLUMNS
    PCCOAL00 CPCOAL00 -1.000000   DMELEC00 1.000000
    PCCOAL00 SMCOAL00 0.065700   CPCOAL05 0.844000
    PCCOAL00 COST     634.540940
    PCLWRX00 CPLWRX00 -1.000000   DMELEC00 1.000000
    PCLWRX00 SMNATU00 0.160000   DISWUX00 0.110000
    PCLWRX00 CPLWRX05 0.844000   SMPLUT05 0.170000
    PCLWRX00 SMNATU05 -0.016000   DISWUX05 -0.007000
    PCLWRX00 COST     185.208650
    PCFBRX00 CPFBRX00 -1.000000   DMELEC00 1.000000
    PCFBRX00 CPFBRX05 0.844000   SMPLUT05 0.062000
    PCFBRX00 DIBRGN05 -1.000000   COST     185.208650
    PCADVX00 CPADVX00 -1.000000   DMELEC00 1.000000
    PCADVX00 CPADVX05 0.844000   COST     105.488400
    PCPETG00 CPPETG00 -1.000000   DMNELE00 1.000000
    PCPETG00 SMPETG00 0.001000   CPPETG05 0.844000
    PCPETG00 COST     12.078820
    PCSYNF00 CPSYNF00 -1.000000   DMNELE00 1.000000
    PCSYNF00 SMCOAL00 0.001330   CPSYNF05 0.844000
    PCSYNF00 COST     20.131370
    PCHTRB00 CPHTRB00 -1.000000   DMNELE00 22.500000
    PCHTRB00 DIBRGN00 0.300000   CPHTRB05 0.844000
    PCHTRB00 SMNATU05 -0.007000   DISWUX05 -0.005000
    PCHTRB00 COST     112.735700
    PCELHY00 CPELHY00 -1.000000   DMELEC00 -1.000000
    PCELHY00 DMNELE00 36.000000   CPELHY05 0.844000
    PCSWUX00 CPSWUX00 -1.000000   DISWUX00 -1.000000
    PCSWUX00 CPSWUX05 0.844000
    PCFBPL00 SMPLUT00 0.160000   DIBRGN00 1.000000
    DPCOAL00 CPCOAL00 5.000000   NCCOAL00 0.700000
    DPCOAL00 COST     5305.382300
    DPPETG00 CPPETG00 5.000000
    DPSYNF00 CPSYNF00 5.000000
    DPSWUX00 CPSWUX00 5.000000
    CSCOAL00 SMCOAL00 -0.200000   SMCOAL05 0.200000
    CSPETG00 SMPETG00 -0.200000   SMPETG05 0.200000
    CSPLUT00 SMPLUT00 -0.200000   SMPLUT05 0.200000
    CSNU0100 CRQU0100 -1.000000   CRQU0105 1.000000
    CSNU0200 CRQU0200 -1.000000   CRQU0205 1.000000
    CSNU0300 CRQU0300 -1.000000   CRQU0305 1.000000
    CSNU0400 CRQU0400 -1.000000   CRQU0405 1.000000
    CSNU0500 CRQU0500 -1.000000   CRQU0505 1.000000
    CSNU0600 CRQU0600 -1.000000   CRQU0605 1.000000
    CSNU0700 CRQU0700 -1.000000   CRQU0705 1.000000
    CSNU0800 CRQU0800 -1.000000   CRQU0805 1.000000
    CSNU0900 CRQU0900 -1.000000   CRQU0905 1.000000
    CSNU1000 CRQU1000 -1.000000   CRQU1005 1.000000
    NURQ0100 SMNATU00 -1.000000   CRQU0100 5.000000
    NURQ0100 COST     241.576500
    NURQ0200 SMNATU00 -1.000000   CRQU0200 5.000000
    NURQ0200 COST     483.153000
    NURQ0300 SMNATU00 -1.000000   CRQU0300 5.000000
    NURQ0300 COST     748.887150
    NURQ0400 SMNATU00 -1.000000   CRQU0400 5.000000
    NURQ0400 COST     990.463650
    NURQ0500 SMNATU00 -1.000000   CRQU0500 5.000000
    NURQ0500 COST     1215.935050
    NURQ0600 SMNATU00 -1.000000   CRQU0600 5.000000
    NURQ0600 COST     1425.301350
    NURQ0700 SMNATU00 -1.000000   CRQU0700 5.000000
    NURQ0700 COST     1610.510000
    NURQ0800 SMNATU00 -1.000000   CRQU0800 5.000000
    NURQ0800 COST     1779.613550
    NURQ0900 SMNATU00 -1.000000   CRQU0900 5.000000
    NURQ0900 COST     1924.559450
    NURQ1000 SMNATU00 -1.000000   CRQU1000 5.000000
    NURQ1000 COST     2053.400250
    PCCOAL05 CPCOAL05 -1.000000   DMELEC05 1.000000
    PCCOAL05 SMCOAL05 0.065700   CPCOAL10 0.844000
    PCCOAL05 COST     394.000000
    PCLWRX05 CPLWRX05 -1.000000   DMELEC05 1.000000
    PCLWRX05 SMNATU05 0.160000   DISWUX05 0.110000
    PCLWRX05 CPLWRX10 0.844000   SMPLUT10 0.170000
    PCLWRX05 SMNATU10 -0.016000   DISWUX10 -0.007000
    PCLWRX05 COST     115.000000
    PCFBRX05 CPFBRX05 -1.000000   DMELEC05 1.000000
    PCFBRX05 CPFBRX10 0.844000   SMPLUT10 0.062000
    PCFBRX05 DIBRGN10 -1.000000   COST     115.000000
    PCADVX05 CPADVX05 -1.000000   DMELEC05 1.000000
    PCADVX05 CPADVX10 0.844000   COST     65.500000
    PCPETG05 CPPETG05 -1.000000   DMNELE05 1.000000
    PCPETG05 SMPETG05 0.001000   CPPETG10 0.844000
    PCPETG05 COST     7.500000
    PCSYNF05 CPSYNF05 -1.000000   DMNELE05 1.000000
    PCSYNF05 SMCOAL05 0.001330   CPSYNF10 0.844000
    PCSYNF05 COST     12.500000
    PCHTRB05 CPHTRB05 -1.000000   DMNELE05 22.500000
    PCHTRB05 DIBRGN05 0.300000   CPHTRB10 0.844000
    PCHTRB05 SMNATU10 -0.007000   DISWUX10 -0.005000
    PCHTRB05 COST     70.000000
    PCELHY05 CPELHY05 -1.000000   DMELEC05 -1.000000
    PCELHY05 DMNELE05 36.000000   CPELHY10 0.844000
    PCSWUX05 CPSWUX05 -1.000000   DISWUX05 -1.000000
    PCSWUX05 CPSWUX10 0.844000
    PCFBPL05 SMPLUT05 0.160000   DIBRGN05 1.000000
    DPCOAL05 CPCOAL05 5.000000   NCCOAL05 0.700000
    DPCOAL05 COST     3294.225000
    DPLWRX05 CPLWRX05 5.000000   DISWUX05 0.230000
    DPLWRX05 SMNATU05 0.500000   NCCOAL05 -0.300000
    DPLWRX05 COST     4392.300000
    DPPETG05 CPPETG05 5.000000
    DPSYNF05 CPSYNF05 5.000000
    DPSWUX05 CPSWUX05 5.000000
    CSCOAL05 SMCOAL05 -0.200000   SMCOAL10 0.200000
    CSPETG05 SMPETG05 -0.200000   SMPETG10 0.200000
    CSPLUT05 SMPLUT05 -0.200000   SMPLUT10 0.200000
    CSNU0105 CRQU0105 -1.000000   CRQU0110 1.000000
    CSNU0205 CRQU0205 -1.000000   CRQU0210 1.000000
    CSNU0305 CRQU0305 -1.000000   CRQU0310 1.000000
    CSNU0405 CRQU0405 -1.000000   CRQU0410 1.000000
    CSNU0505 CRQU0505 -1.000000   CRQU0510 1.000000
    CSNU0605 CRQU0605 -1.000000   CRQU0610 1.000000
    CSNU0705 CRQU0705 -1.000000   CRQU0710 1.000000
    CSNU0805 CRQU0805 -1.000000   CRQU0810 1.000000
    CSNU0905 CRQU0905 -1.000000   CRQU0910 1.000000
    CSNU1005 CRQU1005 -1.000000   CRQU1010 1.000000
    NURQ0105 SMNATU05 -1.000000   CRQU0105 5.000000
    NURQ0105 COST     150.000000
    NURQ0205 SMNATU05 -1.000000   CRQU0205 5.000000
    NURQ0205 COST     300.000000
    NURQ0305 SMNATU05 -1.000000   CRQU0305 5.000000
    NURQ0305 COST     465.000000
    NURQ0405 SMNATU05 -1.000000   CRQU0405 5.000000
    NURQ0405 COST     615.000000
    NURQ0505 SMNATU05 -1.000000   CRQU0505 5.000000
    NURQ0505 COST     755.000000
    NURQ0605 SMNATU05 -1.000000   CRQU0605 5.000000
    NURQ0605 COST     885.000000
    NURQ0705 SMNATU05 -1.000000   CRQU0705 5.000000
    NURQ0705 COST     1000.000000
    NURQ0805 SMNATU05 -1.000000   CRQU0805 5.000000
    NURQ0805 COST     1105.000000
    NURQ0905 SMNATU05 -1.000000   CRQU0905 5.000000
    NURQ0905 COST     1195.000000
    NURQ1005 SMNATU05 -1.000000   CRQU1005 5.000000
    NURQ1005 COST     1275.000000
    PCCOAL10 CPCOAL10 -1.000000   CPCOAL15 0.844000
    PCCOAL10 DMELEC10 1.000000   SMCOAL10 0.065700
    PCCOAL10 COST     244.643000
    PCLWRX10 CPLWRX10 -1.000000   DMELEC10 1.000000
    PCLWRX10 SMNATU10 0.160000   DISWUX10 0.110000
    PCLWRX10 CPLWRX15 0.844000   SMPLUT15 0.170000
    PCLWRX10 SMNATU15 -0.016000   DISWUX15 -0.007000
    PCLWRX10 COST     71.405950
    PCFBRX10 CPFBRX10 -1.000000   DMELEC10 1.000000
    PCFBRX10 CPFBRX15 0.844000   SMPLUT15 0.062000
    PCFBRX10 DIBRGN15 -1.000000   COST     71.405950
    PCADVX10 CPADVX10 -1.000000   DMELEC10 1.000000
    PCADVX10 CPADVX15 0.844000   COST     40.670350
    PCPETG10 CPPETG10 -1.000000   DMNELE10 1.000000
    PCPETG10 SMPETG10 0.001000   CPPETG15 0.844000
    PCPETG10 COST     4.656910
    PCSYNF10 CPSYNF10 -1.000000   DMNELE10 1.000000
    PCSYNF10 SMCOAL10 0.001330   CPSYNF15 0.844000
    PCSYNF10 COST     7.761517
    PCHTRB10 CPHTRB10 -1.000000   DMNELE10 22.500000
    PCHTRB10 DIBRGN10 0.300000   CPHTRB15 0.844000
    PCHTRB10 SMNATU15 -0.007000   DISWUX15 -0.005000
    PCHTRB10 COST     43.464490
    PCELHY10 CPELHY10 -1.000000   DMELEC10 -1.000000
    PCELHY10 DMNELE10 36.000000   CPELHY15 0.844000
    PCSWUX10 CPSWUX10 -1.000000   DISWUX10 -1.000000
    PCSWUX10 CPSWUX15 0.844000
    PCFBPL10 SMPLUT10 0.160000   DIBRGN10 1.000000
    DPCOAL10 CPCOAL10 5.000000   NCCOAL10 0.700000
    DPCOAL10 COST     2045.454550
    DPLWRX10 CPLWRX10 5.000000   DISWUX10 0.230000
    DPLWRX10 SMNATU10 0.500000   NCCOAL10 -0.300000
    DPLWRX10 COST     2727.272730
    DPPETG10 CPPETG10 5.000000
    DPSYNF10 CPSYNF10 5.000000
    DPSWUX10 CPSWUX10 5.000000
    CSCOAL10 SMCOAL10 -0.200000   SMCOAL15 0.200000
    CSPETG10 SMPETG10 -0.200000   SMPETG15 0.200000
    CSPLUT10 SMPLUT10 -0.200000   SMPLUT15 0.200000
    CSNU0110 CRQU0110 -1.000000   CRQU0115 1.000000
    CSNU0210 CRQU0210 -1.000000   CRQU0215 1.000000
    CSNU0310 CRQU0310 -1.000000   CRQU0315 1.000000
    CSNU0410 CRQU0410 -1.000000   CRQU0415 1.000000
    CSNU0510 CRQU0510 -1.000000   CRQU0515 1.000000
    CSNU0610 CRQU0610 -1.000000   CRQU0615 1.000000
    CSNU0710 CRQU0710 -1.000000   CRQU0715 1.000000
    CSNU0810 CRQU0810 -1.000000   CRQU0815 1.000000
    CSNU0910 CRQU0910 -1.000000   CRQU0915 1.000000
    CSNU1010 CRQU1010 -1.000000   CRQU1015 1.000000
    NURQ0110 SMNATU10 -1.000000   CRQU0110 5.000000
    NURQ0110 COST     93.138200
    NURQ0210 SMNATU10 -1.000000   CRQU0210 5.000000
    NURQ0210 COST     186.276400
    NURQ0310 SMNATU10 -1.000000   CRQU0310 5.000000
    NURQ0310 COST     288.728420
    NURQ0410 SMNATU10 -1.000000   CRQU0410 5.000000
    NURQ0410 COST     381.866610
    NURQ0510 SMNATU10 -1.000000   CRQU0510 5.000000
    NURQ0510 COST     468.795600
    NURQ0610 SMNATU10 -1.000000   CRQU0610 5.000000
    NURQ0610 COST     549.515370
    NURQ0710 SMNATU10 -1.000000   CRQU0710 5.000000
    NURQ0710 COST     620.921320
    NURQ0810 SMNATU10 -1.000000   CRQU0810 5.000000
    NURQ0810 COST     686.118060
    NURQ0910 SMNATU10 -1.000000   CRQU0910 5.000000
    NURQ0910 COST     742.000980
    NURQ1010 SMNATU10 -1.000000   CRQU1010 5.000000
    NURQ1010 COST     791.674690
    ELECDM10 WTELEC10 -1.000000   DMELEC10 -1.000000
    NELEDM10 WTNELE10 -1.000000   DMNELE10 -1.000000
    WT251510 INTSUM10 1.000000   WTELEC10 0.386942
    WT251510 WTNELE10 52.894640   COST     20.267610
    WT251810 INTSUM10 1.000000   WTELEC10 0.386942
    WT251810 WTNELE10 53.680970   COST     16.079330
    WT252110 INTSUM10 1.000000   WTELEC10 0.386942
    WT252110 WTNELE10 54.476630   COST     12.024640
    WT252410 INTSUM10 1.000000   WTELEC10 0.386942
    WT252410 WTNELE10 55.281690   COST     8.098914
    WT252710 INTSUM10 1.000000   WTELEC10 0.386942
    WT252710 WTNELE10 56.096230   COST     4.297683
    WT253010 INTSUM10 1.000000   WTELEC10 0.386942
    WT253010 WTNELE10 56.920360   COST     0.616654
    WT281510 INTSUM10 1.000000   WTELEC10 0.392637
    WT281510 WTNELE10 52.894640   COST     18.178420
    WT281810 INTSUM10 1.000000   WTELEC10 0.392637
    WT281810 WTNELE10 53.680970   COST     14.050900
    WT282110 INTSUM10 1.000000   WTELEC10 0.392637
    WT282110 WTNELE10 54.476630   COST     10.055030
    WT282410 INTSUM10 1.000000   WTELEC10 0.392637
    WT282410 WTNELE10 55.281690   COST     6.186250
    WT282710 INTSUM10 1.000000   WTELEC10 0.392637
    WT282710 WTNELE10 56.096230   COST     2.440162
    WT283010 INTSUM10 1.000000   WTELEC10 0.392637
    WT283010 WTNELE10 56.920360   COST     -1.187468
    WT311510 INTSUM10 1.000000   WTELEC10 0.398400
    WT311510 WTNELE10 52.894640   COST     16.125490
    WT311810 INTSUM10 1.000000   WTELEC10 0.398400
    WT311810 WTNELE10 53.680970   COST     12.057670
    WT312110 INTSUM10 1.000000   WTELEC10 0.398400
    WT312110 WTNELE10 54.476630   COST     8.119604
    WT312410 INTSUM10 1.000000   WTELEC10 0.398400
    WT312410 WTNELE10 55.281690   COST     4.306785
    WT312710 INTSUM10 1.000000   WTELEC10 0.398400
    WT312710 WTNELE10 56.096230   COST     0.614882
    WT313010 INTSUM10 1.000000   WTELEC10 0.398400
    WT313010 WTNELE10 56.920360   COST     -2.960276
    WT341510 INTSUM10 1.000000   WTELEC10 0.404230
    WT341510 WTNELE10 52.894640   COST     14.108100
    WT341810 INTSUM10 1.000000   WTELEC10 0.404230
    WT341810 WTNELE10 53.680970   COST     10.098950
    WT342110 INTSUM10 1.000000   WTELEC10 0.404230
    WT342110 WTNELE10 54.476630   COST     6.217676
    WT342410 INTSUM10 1.000000   WTELEC10 0.404230
    WT342410 WTNELE10 55.281690   COST     2.459848
    WT342710 INTSUM10 1.000000   WTELEC10 0.404230
    WT342710 WTNELE10 56.096230   COST     -1.178807
    WT343010 INTSUM10 1.000000   WTELEC10 0.404230
    WT343010 WTNELE10 56.920360   COST     -4.702400
    WT371510 INTSUM10 1.000000   WTELEC10 0.410128
    WT371510 WTNELE10 52.894640   COST     12.125520
    WT371810 INTSUM10 1.000000   WTELEC10 0.410128
    WT371810 WTNELE10 53.680970   COST     8.174023
    WT372110 WTNELE10 54.476630   WTELEC10 0.410128
    WT372110 INTSUM10 1.000000   COST     4.348570
    WT372410 INTSUM10 1.000000   WTELEC10 0.410128
    WT372410 WTNELE10 55.281690   COST     0.644786
    WT372710 INTSUM10 1.000000   WTELEC10 0.410128
    WT372710 WTNELE10 56.096230   COST     -2.941541
    WT373010 INTSUM10 1.000000   WTELEC10 0.410128
    WT373010 WTNELE10 56.920360   COST     -6.414460
    WT401510 INTSUM10 1.000000   WTELEC10 0.416095
    WT401510 WTNELE10 52.894640   COST     10.177050
    WT401810 INTSUM10 1.000000   WTELEC10 0.416095
    WT401810 WTNELE10 53.680970   COST     6.282224
    WT402110 INTSUM10 1.000000   WTELEC10 0.416095
    WT402110 WTNELE10 54.476630   COST     2.511629
    WT402410 INTSUM10 1.000000   WTELEC10 0.416095
    WT402410 WTNELE10 55.281690   COST     -1.139043
    WT402710 INTSUM10 1.000000   WTELEC10 0.416095
    WT402710 WTNELE10 56.096230   COST     -4.673941
    WT403010 INTSUM10 1.000000   WTELEC10 0.416095
    WT403010 WTNELE10 56.920360   COST     -8.097059
    PCCOAL15 CPCOAL15 -1.000000   DMELEC15 1.000000
    PCCOAL15 SMCOAL15 0.065700   CPCOAL20 0.844000
    PCCOAL15 COST     151.904060
    PCLWRX15 CPLWRX15 -1.000000   DMELEC15 1.000000
    PCLWRX15 SMNATU15 0.160000   DISWUX15 0.110000
    PCLWRX15 CPLWRX20 0.844000   SMPLUT20 0.170000
    PCLWRX15 SMNATU20 -0.016000   DISWUX20 -0.007000
    PCLWRX15 COST     44.337480
    PCFBRX15 CPFBRX15 -1.000000   DMELEC15 1.000000
    PCFBRX15 CPFBRX20 0.844000   SMPLUT20 0.062000
    PCFBRX15 DIBRGN20 -1.000000   COST     44.337480
    PCADVX15 CPADVX15 -1.000000   DMELEC15 1.000000
    PCADVX15 CPADVX20 0.844000   COST     25.253090
    PCPETG15 CPPETG15 -1.000000   DMNELE15 1.000000
    PCPETG15 SMPETG15 0.001000   CPPETG20 0.844000
    PCPETG15 COST     2.891575
    PCSYNF15 CPSYNF15 -1.000000   DMNELE15 1.000000
    PCSYNF15 SMCOAL15 0.001330   CPSYNF20 0.844000
    PCSYNF15 COST     4.819291
    PCHTRB15 CPHTRB15 -1.000000   DMNELE15 22.500000
    PCHTRB15 DIBRGN15 0.300000   CPHTRB20 0.844000
    PCHTRB15 SMNATU20 -0.007000   DISWUX20 -0.005000
    PCHTRB15 COST     26.988030
    PCELHY15 CPELHY15 -1.000000   DMELEC15 -1.000000
    PCELHY15 DMNELE15 36.000000   CPELHY20 0.844000
    PCSWUX15 CPSWUX15 -1.000000   DISWUX15 -1.000000
    PCSWUX15 CPSWUX20 0.844000
    PCFBPL15 SMPLUT15 0.160000   DIBRGN15 1.000000
    DPCOAL15 CPCOAL15 5.000000   NCCOAL15 0.700000
    DPCOAL15 COST     1270.066340
    DPLWRX15 CPLWRX15 5.000000   DISWUX15 0.230000
    DPLWRX15 SMNATU15 0.500000   NCCOAL15 -0.300000
    DPLWRX15 COST     1693.421790
    DPPETG15 CPPETG15 5.000000
    DPSYNF15 CPSYNF15 5.000000
    DPSWUX15 CPSWUX15 5.000000
    CSCOAL15 SMCOAL15 -0.200000   SMCOAL20 0.200000
    CSPETG15 SMPETG15 -0.200000   SMPETG20 0.200000
    CSPLUT15 SMPLUT15 -0.200000   SMPLUT20 0.200000
    CSNU0115 CRQU0115 -1.000000   CRQU0120 1.000000
    CSNU0215 CRQU0215 -1.000000   CRQU0220 1.000000
    CSNU0315 CRQU0315 -1.000000   CRQU0320 1.000000
    CSNU0415 CRQU0415 -1.000000   CRQU0420 1.000000
    CSNU0515 CRQU0515 -1.000000   CRQU0520 1.000000
    CSNU0615 CRQU0615 -1.000000   CRQU0620 1.000000
    CSNU0715 CRQU0715 -1.000000   CRQU0720 1.000000
    CSNU0815 CRQU0815 -1.000000   CRQU0820 1.000000
    CSNU0915 CRQU0915 -1.000000   CRQU0920 1.000000
    CSNU1015 CRQU1015 -1.000000   CRQU1020 1.000000
    NURQ0115 SMNATU15 -1.000000   CRQU0115 5.000000
    NURQ0115 COST     57.831490
    NURQ0215 SMNATU15 -1.000000   CRQU0215 5.000000
    NURQ0215 COST     115.662990
    NURQ0315 SMNATU15 -1.000000   CRQU0315 5.000000
    NURQ0315 COST     179.277630
    NURQ0415 SMNATU15 -1.000000   CRQU0415 5.000000
    NURQ0415 COST     237.109120
    NURQ0515 SMNATU15 -1.000000   CRQU0515 5.000000
    NURQ0515 COST     291.085180
    NURQ0615 SMNATU15 -1.000000   CRQU0615 5.000000
    NURQ0615 COST     341.205810
    NURQ0715 SMNATU15 -1.000000   CRQU0715 5.000000
    NURQ0715 COST     385.543290
    NURQ0815 SMNATU15 -1.000000   CRQU0815 5.000000
    NURQ0815 COST     426.025330
    NURQ0915 SMNATU15 -1.000000   CRQU0915 5.000000
    NURQ0915 COST     460.724230
    NURQ1015 SMNATU15 -1.000000   CRQU1015 5.000000
    NURQ1015 COST     491.567690
    ELECDM15 WTELEC15 -1.000000   DMELEC15 -1.000000
    NELEDM15 WTNELE15 -1.000000   DMNELE15 -1.000000
    WT251515 INTSUM15 1.000000   WTELEC15 0.437789
    WT251515 WTNELE15 56.982550   COST     26.903580
    WT251815 INTSUM15 1.000000   WTELEC15 0.437789
    WT251815 WTNELE15 58.689350   COST     20.577200
    WT252115 INTSUM15 1.000000   WTELEC15 0.437789
    WT252115 WTNELE15 60.442010   COST     14.630470
    WT252415 INTSUM15 1.000000   WTELEC15 0.437789
    WT252415 WTNELE15 62.241640   COST     9.039589
    WT252715 INTSUM15 1.000000   WTELEC15 0.437789
    WT252715 WTNELE15 64.089360   COST     3.782319
    WT253015 INTSUM15 1.000000   WTELEC15 0.437789
    WT253015 WTNELE15 65.986290   COST     -1.162138
    WT281515 INTSUM15 1.000000   WTELEC15 0.450772
    WT281515 WTNELE15 56.982550   COST     23.724530
    WT281815 INTSUM15 1.000000   WTELEC15 0.450772
    WT281815 WTNELE15 58.689350   COST     17.580360
    WT282115 INTSUM15 1.000000   WTELEC15 0.450772
    WT282115 WTNELE15 60.442010   COST     11.804910
    WT282415 INTSUM15 1.000000   WTELEC15 0.450772
    WT282415 WTNELE15 62.241640   COST     6.375068
    WT282715 INTSUM15 1.000000   WTELEC15 0.450772
    WT282715 WTNELE15 64.089360   COST     1.269221
    WT283015 INTSUM15 1.000000   WTELEC15 0.450772
    WT283015 WTNELE15 65.986290   COST     -3.532823
    WT311515 INTSUM15 1.000000   WTELEC15 0.464101
    WT311515 WTNELE15 56.982550   COST     20.645910
    WT311815 INTSUM15 1.000000   WTELEC15 0.464101
    WT311815 WTNELE15 58.689350   COST     14.678200
    WT312115 INTSUM15 1.000000   WTELEC15 0.464101
    WT312115 WTNELE15 60.442010   COST     9.068625
    WT312415 INTSUM15 1.000000   WTELEC15 0.464101
    WT312415 WTNELE15 62.241640   COST     3.794724
    WT312715 INTSUM15 1.000000   WTELEC15 0.464101
    WT312715 WTNELE15 64.089360   COST     -1.164484
    WT313015 INTSUM15 1.000000   WTELEC15 0.464101
    WT313015 WTNELE15 65.986290   COST     -5.828614
    WT341515 INTSUM15 1.000000   WTELEC15 0.477784
    WT341515 WTNELE15 56.982550   COST     17.664270
    WT341815 INTSUM15 1.000000   WTELEC15 0.477784
    WT341815 WTNELE15 58.689350   COST     11.867470
    WT342115 INTSUM15 1.000000   WTELEC15 0.477784
    WT342115 WTNELE15 60.442010   COST     6.418533
    WT342415 INTSUM15 1.000000   WTELEC15 0.477784
    WT342415 WTNELE15 62.241640   COST     1.295663
    WT342715 INTSUM15 1.000000   WTELEC15 0.477784
    WT342715 WTNELE15 64.089360   COST     -3.521524
    WT343015 INTSUM15 1.000000   WTELEC15 0.477784
    WT343015 WTNELE15 65.986290   COST     -8.052084
    WT371515 INTSUM15 1.000000   WTELEC15 0.491828
    WT371515 WTNELE15 56.982550   COST     14.776290
    WT371815 INTSUM15 1.000000   WTELEC15 0.491828
    WT371815 WTNELE15 58.689350   COST     9.145018
    WT372115 COST     3.851683   WTNELE15 60.442010
    WT372115 WTELEC15 0.491828   INTSUM15 1.000000
    WT372415 INTSUM15 1.000000   WTELEC15 0.491828
    WT372415 WTNELE15 62.241640   COST     -1.124898
    WT372715 INTSUM15 1.000000   WTELEC15 0.491828
    WT372715 WTNELE15 64.089360   COST     -5.804527
    WT373015 INTSUM15 1.000000   WTELEC15 0.491828
    WT373015 WTNELE15 65.986290   COST     -10.205710
    WT401515 INTSUM15 1.000000   WTELEC15 0.506244
    WT401515 WTNELE15 56.982550   COST     11.978770
    WT401815 INTSUM15 1.000000   WTELEC15 0.506244
    WT401815 WTNELE15 58.689350   COST     6.507841
    WT402115 INTSUM15 1.000000   WTELEC15 0.506244
    WT402115 WTNELE15 60.442010   COST     1.365232
    WT402415 INTSUM15 1.000000   WTELEC15 0.506244
    WT402415 WTNELE15 62.241640   COST     -3.469644
    WT402715 INTSUM15 1.000000   WTELEC15 0.506244
    WT402715 WTNELE15 64.089360   COST     -8.016022
    WT403015 INTSUM15 1.000000   WTELEC15 0.506244
    WT403015 WTNELE15 65.986290   COST     -12.291890
    PCCOAL20 CPCOAL20 -1.000000   DMELEC20 1.000000
    PCCOAL20 SMCOAL20 0.065700   CPCOAL25 0.844000
    PCCOAL20 COST     94.320470
    PCLWRX20 CPLWRX20 -1.000000   DMELEC20 1.000000
    PCLWRX20 SMNATU20 0.160000   DISWUX20 0.110000
    PCLWRX20 CPLWRX25 0.844000   SMPLUT25 0.170000
    PCLWRX20 SMNATU25 -0.016000   DISWUX25 -0.007000
    PCLWRX20 COST     27.530090
    PCFBRX20 CPFBRX20 -1.000000   DMELEC20 1.000000
    PCFBRX20 CPFBRX25 0.844000   SMPLUT25 0.062000
    PCFBRX20 DIBRGN25 -1.000000   COST     27.530090
    PCADVX20 CPADVX20 -1.000000   DMELEC20 1.000000
    PCADVX20 CPADVX25 0.844000   COST     15.680180
    PCPETG20 CPPETG20 -1.000000   DMNELE20 1.000000
    PCPETG20 SMPETG20 0.001000   CPPETG25 0.844000
    PCPETG20 COST     1.795440
    PCSYNF20 CPSYNF20 -1.000000   DMNELE20 1.000000
    PCSYNF20 SMCOAL20 0.001330   CPSYNF25 0.844000
    PCSYNF20 COST     2.992401
    PCHTRB20 CPHTRB20 -1.000000   DMNELE20 22.500000
    PCHTRB20 DIBRGN20 0.300000   CPHTRB25 0.844000
    PCHTRB20 SMNATU25 -0.007000   DISWUX25 -0.005000
    PCHTRB20 COST     16.757440
    PCELHY20 CPELHY20 -1.000000   DMELEC20 -1.000000
    PCELHY20 DMNELE20 36.000000   CPELHY25 0.844000
    PCSWUX20 CPSWUX20 -1.000000   DISWUX20 -1.000000
    PCSWUX20 CPSWUX25 0.844000
    PCFBPL20 SMPLUT20 0.160000   DIBRGN20 1.000000
    DPCOAL20 CPCOAL20 5.000000   NCCOAL20 0.700000
    DPCOAL20 COST     788.611270
    DPLWRX20 CPLWRX20 5.000000   DISWUX20 0.230000
    DPLWRX20 SMNATU20 0.500000   NCCOAL20 -0.300000
    DPLWRX20 COST     1051.481700
    DPPETG20 CPPETG20 5.000000
    DPSYNF20 CPSYNF20 5.000000
    DPSWUX20 CPSWUX20 5.000000
    CSCOAL20 SMCOAL20 -0.200000   SMCOAL25 0.200000
    CSPETG20 SMPETG20 -0.200000   SMPETG25 0.200000
    CSPLUT20 SMPLUT20 -0.200000   SMPLUT25 0.200000
    CSNU0120 CRQU0120 -1.000000   CRQU0125 1.000000
    CSNU0220 CRQU0220 -1.000000   CRQU0225 1.000000
    CSNU0320 CRQU0320 -1.000000   CRQU0325 1.000000
    CSNU0420 CRQU0420 -1.000000   CRQU0425 1.000000
    CSNU0520 CRQU0520 -1.000000   CRQU0525 1.000000
    CSNU0620 CRQU0620 -1.000000   CRQU0625 1.000000
    CSNU0720 CRQU0720 -1.000000   CRQU0725 1.000000
    CSNU0820 CRQU0820 -1.000000   CRQU0825 1.000000
    CSNU0920 CRQU0920 -1.000000   CRQU0925 1.000000
    CSNU1020 CRQU1020 -1.000000   CRQU1025 1.000000
    NURQ0120 SMNATU20 -1.000000   CRQU0120 5.000000
    NURQ0120 COST     35.908810
    NURQ0220 SMNATU20 -1.000000   CRQU0220 5.000000
    NURQ0220 COST     71.817610
    NURQ0320 SMNATU20 -1.000000   CRQU0320 5.000000
    NURQ0320 COST     111.317300
    NURQ0420 SMNATU20 -1.000000   CRQU0420 5.000000
    NURQ0420 COST     147.226110
    NURQ0520 SMNATU20 -1.000000   CRQU0520 5.000000
    NURQ0520 COST     180.741000
    NURQ0620 SMNATU20 -1.000000   CRQU0620 5.000000
    NURQ0620 COST     211.861960
    NURQ0720 SMNATU20 -1.000000   CRQU0720 5.000000
    NURQ0720 COST     239.392050
    NURQ0820 SMNATU20 -1.000000   CRQU0820 5.000000
    NURQ0820 COST     264.528210
    NURQ0920 SMNATU20 -1.000000   CRQU0920 5.000000
    NURQ0920 COST     286.073500
    NURQ1020 SMNATU20 -1.000000   CRQU1020 5.000000
    NURQ1020 COST     305.224860
    ELECDM20 WTELEC20 -1.000000   DMELEC20 -1.000000
    NELEDM20 WTNELE20 -1.000000   DMNELE20 -1.000000
    WT251520 INTSUM20 1.000000   WTELEC20 0.495318
    WT251520 WTNELE20 61.386390   COST     27.062970
    WT251820 INTSUM20 1.000000   WTELEC20 0.495318
    WT251820 WTNELE20 64.164990   COST     19.982750
    WT252120 INTSUM20 1.000000   WTELEC20 0.495318
    WT252120 WTNELE20 67.060630   COST     13.520690
    WT252420 INTSUM20 1.000000   WTELEC20 0.495318
    WT252420 WTNELE20 70.077860   COST     7.621241
    WT252720 INTSUM20 1.000000   WTELEC20 0.495318
    WT252720 WTNELE20 73.221420   COST     2.233985
    WT253020 INTSUM20 1.000000   WTELEC20 0.495318
    WT253020 WTNELE20 76.496200   COST     -2.686853
    WT281520 INTSUM20 1.000000   WTELEC20 0.517515
    WT281520 WTNELE20 61.386390   COST     23.478990
    WT281820 INTSUM20 1.000000   WTELEC20 0.517515
    WT281820 WTNELE20 64.164990   COST     16.702450
    WT282120 INTSUM20 1.000000   WTELEC20 0.517515
    WT282120 WTNELE20 67.060630   COST     10.517560
    WT282420 INTSUM20 1.000000   WTELEC20 0.517515
    WT282420 WTNELE20 70.077860   COST     4.871146
    WT282720 INTSUM20 1.000000   WTELEC20 0.517515
    WT282720 WTNELE20 73.221420   COST     -0.285043
    WT283020 INTSUM20 1.000000   WTELEC20 0.517515
    WT283020 WTNELE20 76.496200   COST     -4.994821
    WT311520 INTSUM20 1.000000   WTELEC20 0.540637
    WT311520 WTNELE20 61.386390   COST     20.058520
    WT311820 INTSUM20 1.000000   WTELEC20 0.540637
    WT311820 WTNELE20 64.164990   COST     13.571800
    WT312120 INTSUM20 1.000000   WTELEC20 0.540637
    WT312120 WTNELE20 67.060630   COST     7.651431
    WT312420 INTSUM20 1.000000   WTELEC20 0.540637
    WT312420 WTNELE20 70.077860   COST     2.246510
    WT312720 INTSUM20 1.000000   WTELEC20 0.540637
    WT312720 WTNELE20 73.221420   COST     -2.689154
    WT313020 INTSUM20 1.000000   WTELEC20 0.540637
    WT313020 WTNELE20 76.496200   COST     -7.197498
    WT341520 INTSUM20 1.000000   WTELEC20 0.564721
    WT341520 WTNELE20 61.386390   COST     16.793640
    WT341820 INTSUM20 1.000000   WTELEC20 0.564721
    WT341820 WTNELE20 64.164990   COST     10.583570
    WT342120 INTSUM20 1.000000   WTELEC20 0.564721
    WT342120 WTNELE20 67.060630   COST     4.915684
    WT342420 INTSUM20 1.000000   WTELEC20 0.564721
    WT342420 WTNELE20 70.077860   COST     -0.258730
    WT342720 INTSUM20 1.000000   WTELEC20 0.564721
    WT342720 WTNELE20 73.221420   COST     -4.983901
    WT343020 INTSUM20 1.000000   WTELEC20 0.564721
    WT343020 WTNELE20 76.496200   COST     -9.299976
    WT371520 INTSUM20 1.000000   WTELEC20 0.589804
    WT371520 WTNELE20 61.386390   COST     13.676860
    WT371820 INTSUM20 1.000000   WTELEC20 0.589804
    WT371820 WTNELE20 64.164990   COST     7.730880
    WT372120 INTSUM20 1.000000   COST     2.304034
    WT372120 WTNELE20 67.060630   WTELEC20 0.589804
    WT372420 INTSUM20 1.000000   WTELEC20 0.589804
    WT372420 WTNELE20 70.077860   COST     -2.650330
    WT372720 INTSUM20 1.000000   WTELEC20 0.589804
    WT372720 WTNELE20 73.221420   COST     -7.174555
    WT373020 INTSUM20 1.000000   WTELEC20 0.589804
    WT373020 WTNELE20 76.496200   COST     -11.307080
    WT401520 INTSUM20 1.000000   WTELEC20 0.615923
    WT401520 WTNELE20 61.386390   COST     10.701070
    WT401820 INTSUM20 1.000000   WTELEC20 0.615923
    WT401820 WTNELE20 64.164990   COST     5.007230
    WT402120 INTSUM20 1.000000   WTELEC20 0.615923
    WT402120 WTNELE20 67.060630   COST     -0.189483
    WT402420 INTSUM20 1.000000   WTELEC20 0.615923
    WT402420 WTNELE20 70.077860   COST     -4.933751
    WT402720 INTSUM20 1.000000   WTELEC20 0.615923
    WT402720 WTNELE20 73.221420   COST     -9.266120
    WT403020 INTSUM20 1.000000   WTELEC20 0.615923
    WT403020 WTNELE20 76.496200   COST     -13.223400
    PCCOAL25 CPCOAL25 -1.000000   DMELEC25 1.000000
    PCCOAL25 SMCOAL25 0.065700   CPCOAL30 0.844000
    PCCOAL25 COST     58.565590
    PCLWRX25 CPLWRX25 -1.000000   DMELEC25 1.000000
    PCLWRX25 SMNATU25 0.160000   DISWUX25 0.110000
    PCLWRX25 CPLWRX30 0.844000   SMPLUT30 0.170000
    PCLWRX25 SMNATU30 -0.016000   DISWUX30 -0.007000
    PCLWRX25 COST     17.094020
    PCFBRX25 CPFBRX25 -1.000000   DMELEC25 1.000000
    PCFBRX25 CPFBRX30 0.844000   SMPLUT30 0.062000
    PCFBRX25 DIBRGN30 -1.000000   COST     17.094020
    PCADVX25 CPADVX25 -1.000000   DMELEC25 1.000000
    PCADVX25 CPADVX30 0.844000   COST     9.736158
    PCPETG25 CPPETG25 -1.000000   DMNELE25 1.000000
    PCPETG25 SMPETG25 0.001000   CPPETG30 0.844000
    PCPETG25 COST     1.114827
    PCSYNF25 CPSYNF25 -1.000000   DMNELE25 1.000000
    PCSYNF25 SMCOAL25 0.001330   CPSYNF30 0.844000
    PCSYNF25 COST     1.858045
    PCHTRB25 CPHTRB25 -1.000000   DMNELE25 22.500000
    PCHTRB25 DIBRGN25 0.300000   CPHTRB30 0.844000
    PCHTRB25 SMNATU30 -0.007000   DISWUX30 -0.005000
    PCHTRB25 COST     10.405050
    PCELHY25 CPELHY25 -1.000000   DMELEC25 -1.000000
    PCELHY25 DMNELE25 36.000000   CPELHY30 0.844000
    PCSWUX25 CPSWUX25 -1.000000   DISWUX25 -1.000000
    PCSWUX25 CPSWUX30 0.844000
    PCFBPL25 SMPLUT25 0.160000   DIBRGN25 1.000000
    DPCOAL25 CPCOAL25 5.000000   NCCOAL25 0.700000
    DPCOAL25 NCFBRX25 0.200000   COST     489.665560
    DPLWRX25 CPLWRX25 5.000000   DISWUX25 0.230000
    DPLWRX25 SMNATU25 0.500000   NCCOAL25 -0.300000
    DPLWRX25 NCFBRX25 0.200000   COST     652.887410
    DPFBRX25 CPFBRX25 5.000000   SMPLUT25 -2.000000
    DPFBRX25 NCCOAL25 -0.300000   NCFBRX25 -0.800000
    DPFBRX25 COST     707.294690
    DPPETG25 CPPETG25 5.000000
    DPSYNF25 CPSYNF25 5.000000
    DPHTRB25 CPHTRB25 5.000000   DISWUX25 0.175000
    DPHTRB25 SMNATU25 0.216000   COST     287.270460
    DPELHY25 CPELHY25 5.000000   NCCOAL25 0.300000
    DPELHY25 COST     65.288740
    DPSWUX25 CPSWUX25 5.000000
    CSCOAL25 SMCOAL25 -0.200000   SMCOAL30 0.200000
    CSPETG25 SMPETG25 -0.200000   SMPETG30 0.200000
    CSPLUT25 SMPLUT25 -0.200000   SMPLUT30 0.200000
    CSNU0125 CRQU0125 -1.000000   CRQU0130 1.000000
    CSNU0225 CRQU0225 -1.000000   CRQU0230 1.000000
    CSNU0325 CRQU0325 -1.000000   CRQU0330 1.000000
    CSNU0425 CRQU0425 -1.000000   CRQU0430 1.000000
    CSNU0525 CRQU0525 -1.000000   CRQU0530 1.000000
    CSNU0625 CRQU0625 -1.000000   CRQU0630 1.000000
    CSNU0725 CRQU0725 -1.000000   CRQU0730 1.000000
    CSNU0825 CRQU0825 -1.000000   CRQU0830 1.000000
    CSNU0925 CRQU0925 -1.000000   CRQU0930 1.000000
    CSNU1025 CRQU1025 -1.000000   CRQU1030 1.000000
    NURQ0125 SMNATU25 -1.000000   CRQU0125 5.000000
    NURQ0125 COST     22.296540
    NURQ0225 SMNATU25 -1.000000   CRQU0225 5.000000
    NURQ0225 COST     44.593090
    NURQ0325 SMNATU25 -1.000000   CRQU0325 5.000000
    NURQ0325 COST     69.119290
    NURQ0425 SMNATU25 -1.000000   CRQU0425 5.000000
    NURQ0425 COST     91.415830
    NURQ0525 SMNATU25 -1.000000   CRQU0525 5.000000
    NURQ0525 COST     112.225940
    NURQ0625 SMNATU25 -1.000000   CRQU0625 5.000000
    NURQ0625 COST     131.549610
    NURQ0725 SMNATU25 -1.000000   CRQU0725 5.000000
    NURQ0725 COST     148.643630
    NURQ0825 SMNATU25 -1.000000   CRQU0825 5.000000
    NURQ0825 COST     164.251210
    NURQ0925 SMNATU25 -1.000000   CRQU0925 5.000000
    NURQ0925 COST     177.629140
    NURQ1025 SMNATU25 -1.000000   CRQU1025 5.000000
    NURQ1025 COST     189.520630
    ELECDM25 WTELEC25 -1.000000   DMELEC25 -1.000000
    NELEDM25 WTNELE25 -1.000000   DMNELE25 -1.000000
    WT251525 INTSUM25 1.000000   WTELEC25 0.560407
    WT251525 WTNELE25 66.130580   COST     24.476980
    WT251825 INTSUM25 1.000000   WTELEC25 0.560407
    WT251825 WTNELE25 70.151510   COST     17.480340
    WT252125 INTSUM25 1.000000   WTELEC25 0.560407
    WT252125 WTNELE25 74.404010   COST     11.280020
    WT252425 INTSUM25 1.000000   WTELEC25 0.560407
    WT252425 WTNELE25 78.900660   COST     5.783433
    WT252725 INTSUM25 1.000000   WTELEC25 0.560407
    WT252725 WTNELE25 83.654700   COST     0.908986
    WT253025 INTSUM25 1.000000   WTELEC25 0.560407
    WT253025 WTNELE25 88.680060   COST     -3.415254
    WT281525 INTSUM25 1.000000   WTELEC25 0.594139
    WT281525 WTNELE25 66.130580   COST     20.909520
    WT281825 INTSUM25 1.000000   WTELEC25 0.594139
    WT281825 WTNELE25 70.151510   COST     14.310110
    WT282125 INTSUM25 1.000000   WTELEC25 0.594139
    WT282125 WTNELE25 74.404010   COST     8.461819
    WT282425 INTSUM25 1.000000   WTELEC25 0.594139
    WT282425 WTNELE25 78.900660   COST     3.277304
    WT282725 INTSUM25 1.000000   WTELEC25 0.594139
    WT282725 WTNELE25 83.654700   COST     -1.320392
    WT283025 INTSUM25 1.000000   WTELEC25 0.594139
    WT283025 WTNELE25 88.680060   COST     -5.399122
    WT311525 INTSUM25 1.000000   WTELEC25 0.629795
    WT311525 WTNELE25 66.130580   COST     17.554120
    WT311825 INTSUM25 1.000000   WTELEC25 0.629795
    WT311825 WTNELE25 70.151510   COST     11.328340
    WT312125 INTSUM25 1.000000   WTELEC25 0.629795
    WT312125 WTNELE25 74.404010   COST     5.811146
    WT312425 INTSUM25 1.000000   WTELEC25 0.629795
    WT312425 WTNELE25 78.900660   COST     0.920152
    WT312725 INTSUM25 1.000000   WTELEC25 0.629795
    WT312725 WTNELE25 83.654700   COST     -3.417246
    WT313025 INTSUM25 1.000000   WTELEC25 0.629795
    WT313025 WTNELE25 88.680060   COST     -7.265058
    WT341525 INTSUM25 1.000000   WTELEC25 0.667478
    WT341525 WTNELE25 66.130580   COST     14.397620
    WT341825 INTSUM25 1.000000   WTELEC25 0.667478
    WT341825 WTNELE25 70.151510   COST     8.523317
    WT342125 INTSUM25 1.000000   WTELEC25 0.667478
    WT342125 WTNELE25 74.404010   COST     3.317598
    WT342425 INTSUM25 1.000000   WTELEC25 0.667478
    WT342425 WTNELE25 78.900660   COST     -1.297274
    WT342725 INTSUM25 1.000000   WTELEC25 0.667478
    WT342725 WTNELE25 83.654700   COST     -5.389804
    WT343025 INTSUM25 1.000000   WTELEC25 0.667478
    WT343025 WTNELE25 88.680060   COST     -9.020387
    WT371525 INTSUM25 1.000000   WTELEC25 0.707296
    WT371525 WTNELE25 66.130580   COST     11.427700
    WT371825 INTSUM25 1.000000   WTELEC25 0.707296
    WT371825 WTNELE25 70.151510   COST     5.884101
    WT372125 INTSUM25 1.000000   WTELEC25 0.707296
    WT372125 WTNELE25 74.404010   COST     0.971444
    WT372425 INTSUM25 1.000000   WTELEC25 0.707296
    WT372425 WTNELE25 78.900660   COST     -3.383628
    WT372725 INTSUM25 1.000000   WTELEC25 0.707296
    WT372725 WTNELE25 83.654700   COST     -7.245763
    WT373025 INTSUM25 1.000000   WTELEC25 0.707296
    WT373025 WTNELE25 88.680060   COST     -10.671960
    WT401525 INTSUM25 1.000000   WTELEC25 0.749364
    WT401525 WTNELE25 66.130580   COST     8.632841
    WT401825 INTSUM25 1.000000   WTELEC25 0.749364
    WT401825 WTNELE25 70.151510   COST     3.400451
    WT402125 INTSUM25 1.000000   WTELEC25 0.749364
    WT402125 WTNELE25 74.404010   COST     -1.236418
    WT402425 INTSUM25 1.000000   WTELEC25 0.749364
    WT402425 WTNELE25 78.900660   COST     -5.347003
    WT402725 INTSUM25 1.000000   WTELEC25 0.749364
    WT402725 WTNELE25 83.654700   COST     -8.992324
    WT403025 WTNELE25 88.680060   COST     -12.226180
    WT403025 INTSUM25 1.000000   WTELEC25 0.749364
    PCCOAL30 CPCOAL30 -1.000000   DMELEC30 1.000000
    PCCOAL30 SMCOAL30 0.065700   CPCOAL35 0.844000
    PCCOAL30 COST     36.364620
    PCLWRX30 CPLWRX30 -1.000000   DMELEC30 1.000000
    PCLWRX30 SMNATU30 0.160000   DISWUX30 0.110000
    PCLWRX30 CPLWRX35 0.844000   SMPLUT35 0.170000
    PCLWRX30 SMNATU35 -0.016000   DISWUX35 -0.007000
    PCLWRX30 COST     10.614040
    PCFBRX30 CPFBRX30 -1.000000   DMELEC30 1.000000
    PCFBRX30 CPFBRX35 0.844000   SMPLUT35 0.062000
    PCFBRX30 DIBRGN35 -1.000000   COST     10.614040
    PCADVX30 CPADVX30 -1.000000   DMELEC30 1.000000
    PCADVX30 CPADVX35 0.844000   COST     6.045388
    PCPETG30 CPPETG30 -1.000000   DMNELE30 1.000000
    PCPETG30 SMPETG30 0.001000   CPPETG35 0.844000
    PCPETG30 COST     0.692220
    PCSYNF30 CPSYNF30 -1.000000   DMNELE30 1.000000
    PCSYNF30 SMCOAL30 0.001330   CPSYNF35 0.844000
    PCSYNF30 COST     1.153700
    PCHTRB30 CPHTRB30 -1.000000   DMNELE30 22.500000
    PCHTRB30 DIBRGN30 0.300000   CPHTRB35 0.844000
    PCHTRB30 SMNATU35 -0.007000   DISWUX35 -0.005000
    PCHTRB30 COST     6.460720
    PCELHY30 CPELHY30 -1.000000   DMELEC30 -1.000000
    PCELHY30 DMNELE30 36.000000   CPELHY35 0.844000
    PCSWUX30 CPSWUX30 -1.000000   DISWUX30 -1.000000
    PCSWUX30 CPSWUX35 0.844000
    PCFBPL30 SMPLUT30 0.160000   DIBRGN30 1.000000
    DPCOAL30 CPCOAL30 5.000000   NCCOAL30 0.700000
    DPCOAL30 NCFBRX30 0.400000   COST     304.043780
    DPLWRX30 CPLWRX30 5.000000   DISWUX30 0.230000
    DPLWRX30 SMNATU30 0.500000   NCCOAL30 -0.300000
    DPLWRX30 NCFBRX30 0.400000   COST     405.391710
    DPFBRX30 CPFBRX30 5.000000   SMPLUT30 -2.000000
    DPFBRX30 NCCOAL30 -0.300000   NCFBRX30 -0.600000
    DPFBRX30 COST     439.174360
    DPPETG30 CPPETG30 5.000000
    DPSYNF30 CPSYNF30 5.000000
    DPHTRB30 CPHTRB30 5.000000   DISWUX30 0.175000
    DPHTRB30 SMNATU30 0.216000   COST     178.372350
    DPELHY30 CPELHY30 5.000000   NCCOAL30 0.300000
    DPELHY30 COST     40.539170
    DPSWUX30 CPSWUX30 5.000000
    CSCOAL30 SMCOAL30 -0.200000   SMCOAL35 0.200000
    CSPETG30 SMPETG30 -0.200000   SMPETG35 0.200000
    CSPLUT30 SMPLUT30 -0.200000   SMPLUT35 0.200000
    CSNU0130 CRQU0130 -1.000000   CRQU0135 1.000000
    CSNU0230 CRQU0230 -1.000000   CRQU0235 1.000000
    CSNU0330 CRQU0330 -1.000000   CRQU0335 1.000000
    CSNU0430 CRQU0430 -1.000000   CRQU0435 1.000000
    CSNU0530 CRQU0530 -1.000000   CRQU0535 1.000000
    CSNU0630 CRQU0630 -1.000000   CRQU0635 1.000000
    CSNU0730 CRQU0730 -1.000000   CRQU0735 1.000000
    CSNU0830 CRQU0830 -1.000000   CRQU0835 1.000000
    CSNU0930 CRQU0930 -1.000000   CRQU0935 1.000000
    CSNU1030 CRQU1030 -1.000000   CRQU1035 1.000000
    NURQ0130 SMNATU30 -1.000000   CRQU0130 5.000000
    NURQ0130 COST     13.844400
    NURQ0230 SMNATU30 -1.000000   CRQU0230 5.000000
    NURQ0230 COST     27.688800
    NURQ0330 SMNATU30 -1.000000   CRQU0330 5.000000
    NURQ0330 COST     42.917640
    NURQ0430 SMNATU30 -1.000000   CRQU0430 5.000000
    NURQ0430 COST     56.762040
    NURQ0530 SMNATU30 -1.000000   CRQU0530 5.000000
    NURQ0530 COST     69.683480
    NURQ0630 SMNATU30 -1.000000   CRQU0630 5.000000
    NURQ0630 COST     81.681960
    NURQ0730 SMNATU30 -1.000000   CRQU0730 5.000000
    NURQ0730 COST     92.296000
    NURQ0830 SMNATU30 -1.000000   CRQU0830 5.000000
    NURQ0830 COST     101.987080
    NURQ0930 SMNATU30 -1.000000   CRQU0930 5.000000
    NURQ0930 COST     110.293720
    NURQ1030 SMNATU30 -1.000000   CRQU1030 5.000000
    NURQ1030 COST     117.677400
    ELECDM30 WTELEC30 -1.000000   DMELEC30 -1.000000
    NELEDM30 WTNELE30 -1.000000   DMNELE30 -1.000000
    WT251530 INTSUM30 1.000000   WTELEC30 0.634049
    WT251530 WTNELE30 71.241420   COST     20.945830
    WT251830 INTSUM30 1.000000   WTELEC30 0.634049
    WT251830 WTNELE30 76.696570   COST     14.488720
    WT252130 INTSUM30 1.000000   WTELEC30 0.634049
    WT252130 WTNELE30 82.551510   COST     8.932702
    WT252430 INTSUM30 1.000000   WTELEC30 0.634049
    WT252430 WTNELE30 88.834240   COST     4.149917
    WT252730 INTSUM30 1.000000   WTELEC30 0.634049
    WT252730 WTNELE30 95.574620   COST     0.030946
    WT253030 INTSUM30 1.000000   WTELEC30 0.634049
    WT253030 WTNELE30 102.804500   COST     -3.517891
    WT281530 INTSUM30 1.000000   WTELEC30 0.682109
    WT281530 WTNELE30 71.241420   COST     17.629660
    WT281830 INTSUM30 1.000000   WTELEC30 0.682109
    WT281830 WTNELE30 76.696570   COST     11.627510
    WT282130 INTSUM30 1.000000   WTELEC30 0.682109
    WT282130 WTNELE30 82.551510   COST     6.462957
    WT282430 INTSUM30 1.000000   WTELEC30 0.682109
    WT282430 WTNELE30 88.834240   COST     2.017159
    WT282730 INTSUM30 1.000000   WTELEC30 0.682109
    WT282730 WTNELE30 95.574620   COST     -1.811595
    WT283030 INTSUM30 1.000000   WTELEC30 0.682109
    WT283030 WTNELE30 102.804500   COST     -5.110386
    WT311530 INTSUM30 1.000000   WTELEC30 0.733656
    WT311530 WTNELE30 71.241420   COST     14.555800
    WT311830 INTSUM30 1.000000   WTELEC30 0.733656
    WT311830 WTNELE30 76.696570   COST     8.975360
    WT312130 INTSUM30 1.000000   WTELEC30 0.733656
    WT312130 WTNELE30 82.551510   COST     4.173675
    WT312430 INTSUM30 1.000000   WTELEC30 0.733656
    WT312430 WTNELE30 88.834240   COST     0.040242
    WT312730 INTSUM30 1.000000   WTELEC30 0.733656
    WT312730 WTNELE30 95.574620   COST     -3.519502
    WT313030 INTSUM30 1.000000   WTELEC30 0.733656
    WT313030 WTNELE30 102.804500   COST     -6.586518
    WT341530 INTSUM30 1.000000   WTELEC30 0.788932
    WT341530 WTNELE30 71.241420   COST     11.705920
    WT341830 INTSUM30 1.000000   WTELEC30 0.788932
    WT341830 WTNELE30 76.696570   COST     6.516463
    WT342130 INTSUM30 1.000000   WTELEC30 0.788932
    WT342130 WTNELE30 82.551510   COST     2.051202
    WT342430 INTSUM30 1.000000   WTELEC30 0.788932
    WT342430 WTNELE30 88.834240   COST     -1.792627
    WT342730 INTSUM30 1.000000   WTELEC30 0.788932
    WT342730 WTNELE30 95.574620   COST     -5.102962
    WT343030 INTSUM30 1.000000   WTELEC30 0.788932
    WT343030 WTNELE30 102.804500   COST     -7.955091
    WT371530 INTSUM30 1.000000   WTELEC30 0.848194
    WT371530 WTNELE30 71.241420   COST     9.063109
    WT371830 INTSUM30 1.000000   WTELEC30 0.848194
    WT371830 WTNELE30 76.696570   COST     4.236233
    WT372130 INTSUM30 1.000000   WTELEC30 0.848194
    WT372130 WTNELE30 82.551510   COST     0.082951
    WT372430 INTSUM30 1.000000   WTELEC30 0.848194
    WT372430 WTNELE30 88.834240   COST     -3.492317
    WT372730 INTSUM30 1.000000   WTELEC30 0.848194
    WT372730 WTNELE30 95.574620   COST     -6.571365
    WT373030 INTSUM30 1.000000   WTELEC30 0.848194
    WT373030 WTNELE30 102.804500   COST     -9.224222
    WT401530 INTSUM30 1.000000   WTELEC30 0.911716
    WT401530 WTNELE30 71.241420   COST     6.611797
    WT401830 INTSUM30 1.000000   WTELEC30 0.911716
    WT401830 WTNELE30 76.696570   COST     2.121227
    WT402130 INTSUM30 1.000000   WTELEC30 0.911716
    WT402130 WTNELE30 82.551510   COST     -1.742682
    WT402430 INTSUM30 1.000000   WTELEC30 0.911716
    WT402430 WTNELE30 88.834240   COST     -5.068849
    WT402730 INTSUM30 1.000000   WTELEC30 0.911716
    WT402730 WTNELE30 95.574620   COST     -7.933369
    WT403030 INTSUM30 1.000000   WTELEC30 0.911716
    WT403030 WTNELE30 102.804500   COST     -10.401390
    PCCOAL35 CPCOAL35 -1.000000   DMELEC35 1.000000
    PCCOAL35 SMCOAL35 0.065700   CPCOAL40 0.844000
    PCCOAL35 COST     22.579570
    PCLWRX35 CPLWRX35 -1.000000   DMELEC35 1.000000
    PCLWRX35 SMNATU35 0.160000   DISWUX35 0.110000
    PCLWRX35 CPLWRX40 0.844000   SMPLUT40 0.170000
    PCLWRX35 SMNATU40 -0.016000   DISWUX40 -0.007000
    PCLWRX35 COST     6.590484
    PCFBRX35 CPFBRX35 -1.000000   DMELEC35 1.000000
    PCFBRX35 CPFBRX40 0.844000   SMPLUT40 0.062000
    PCFBRX35 DIBRGN40 -1.000000   COST     6.590484
    PCADVX35 CPADVX35 -1.000000   DMELEC35 1.000000
    PCADVX35 CPADVX40 0.844000   COST     3.753710
    PCPETG35 CPPETG35 -1.000000   DMNELE35 1.000000
    PCPETG35 SMPETG35 0.001000   CPPETG40 0.844000
    PCPETG35 COST     0.429814
    PCSYNF35 DMNELE35 1.000000   SMCOAL35 0.001330
    PCSYNF35 CPSYNF40 0.844000   CPSYNF35 -1.000000
    PCSYNF35 COST     0.716357
    PCHTRB35 CPHTRB35 -1.000000   DMNELE35 22.500000
    PCHTRB35 DIBRGN35 0.300000   CPHTRB40 0.844000
    PCHTRB35 SMNATU40 -0.007000   DISWUX40 -0.005000
    PCHTRB35 COST     4.011599
    PCELHY35 CPELHY35 -1.000000   DMELEC35 -1.000000
    PCELHY35 DMNELE35 36.000000   CPELHY40 0.844000
    PCSWUX35 CPSWUX35 -1.000000   DISWUX35 -1.000000
    PCSWUX35 CPSWUX40 0.844000
    PCFBPL35 SMPLUT35 0.160000   DIBRGN35 1.000000
    DPCOAL35 CPCOAL35 5.000000   NCCOAL35 0.800000
    DPCOAL35 NCFBRX35 0.800000   COST     188.787270
    DPLWRX35 CPLWRX35 5.000000   DISWUX35 0.230000
    DPLWRX35 SMNATU35 0.500000   NCCOAL35 -0.200000
    DPLWRX35 NCFBRX35 0.800000   COST     251.716360
    DPFBRX35 CPFBRX35 5.000000   SMPLUT35 -2.000000
    DPFBRX35 NCCOAL35 -0.200000   NCFBRX35 -0.200000
    DPFBRX35 COST     272.692720
    DPPETG35 CPPETG35 5.000000
    DPSYNF35 CPSYNF35 5.000000
    DPHTRB35 CPHTRB35 5.000000   DISWUX35 0.175000
    DPHTRB35 SMNATU35 0.216000   COST     110.755200
    DPELHY35 CPELHY35 5.000000   NCCOAL35 0.200000
    DPELHY35 COST     25.171640
    DPSWUX35 CPSWUX35 5.000000
    CSCOAL35 SMCOAL35 -0.200000   SMCOAL40 0.200000
    CSPETG35 SMPETG35 -0.200000   SMPETG40 0.200000
    CSPLUT35 SMPLUT35 -0.200000   SMPLUT40 0.200000
    CSNU0135 CRQU0135 -1.000000   CRQU0140 1.000000
    CSNU0235 CRQU0235 -1.000000   CRQU0240 1.000000
    CSNU0335 CRQU0335 -1.000000   CRQU0340 1.000000
    CSNU0435 CRQU0435 -1.000000   CRQU0440 1.000000
    CSNU0535 CRQU0535 -1.000000   CRQU0540 1.000000
    CSNU0635 CRQU0635 -1.000000   CRQU0640 1.000000
    CSNU0735 CRQU0735 -1.000000   CRQU0740 1.000000
    CSNU0835 CRQU0835 -1.000000   CRQU0840 1.000000
    CSNU0935 CRQU0935 -1.000000   CRQU0940 1.000000
    CSNU1035 CRQU1035 -1.000000   CRQU1040 1.000000
    NURQ0135 SMNATU35 -1.000000   CRQU0135 5.000000
    NURQ0135 COST     8.596283
    NURQ0235 SMNATU35 -1.000000   CRQU0235 5.000000
    NURQ0235 COST     17.192570
    NURQ0335 SMNATU35 -1.000000   CRQU0335 5.000000
    NURQ0335 COST     26.648480
    NURQ0435 SMNATU35 -1.000000   CRQU0435 5.000000
    NURQ0435 COST     35.244760
    NURQ0535 SMNATU35 -1.000000   CRQU0535 5.000000
    NURQ0535 COST     43.267960
    NURQ0635 SMNATU35 -1.000000   CRQU0635 5.000000
    NURQ0635 COST     50.718070
    NURQ0735 SMNATU35 -1.000000   CRQU0735 5.000000
    NURQ0735 COST     57.308550
    NURQ0835 SMNATU35 -1.000000   CRQU0835 5.000000
    NURQ0835 COST     63.325950
    NURQ0935 SMNATU35 -1.000000   CRQU0935 5.000000
    NURQ0935 COST     68.483720
    NURQ1035 SMNATU35 -1.000000   CRQU1035 5.000000
    NURQ1035 COST     73.068410
    ELECDM35 WTELEC35 -1.000000   DMELEC35 -1.000000
    NELEDM35 WTNELE35 -1.000000   DMNELE35 -1.000000
    WT251535 INTSUM35 1.000000   WTELEC35 0.717368
    WT251535 WTNELE35 76.747240   COST     17.374810
    WT251835 INTSUM35 1.000000   WTELEC35 0.717368
    WT251835 WTNELE35 83.852270   COST     11.660850
    WT252135 INTSUM35 1.000000   WTELEC35 0.717368
    WT252135 WTNELE35 91.591200   COST     6.887063
    WT252435 INTSUM35 1.000000   WTELEC35 0.717368
    WT252435 WTNELE35 100.018470   COST     2.896647
    WT252735 INTSUM35 1.000000   WTELEC35 0.717368
    WT252735 WTNELE35 109.193000   COST     -0.440702
    WT253035 INTSUM35 1.000000   WTELEC35 0.717368
    WT253035 WTNELE35 119.178590   COST     -3.233321
    WT281535 INTSUM35 1.000000   WTELEC35 0.783104
    WT281535 WTNELE35 76.747240   COST     14.419240
    WT281835 INTSUM35 1.000000   WTELEC35 0.783104
    WT281835 WTNELE35 83.852270   COST     9.184930
    WT282135 INTSUM35 1.000000   WTELEC35 0.783104
    WT282135 WTNELE35 91.591200   COST     4.811869
    WT282435 INTSUM35 1.000000   WTELEC35 0.783104
    WT282435 WTNELE35 100.018470   COST     1.156420
    WT282735 INTSUM35 1.000000   WTELEC35 0.783104
    WT282735 WTNELE35 109.193000   COST     -1.900782
    WT283035 INTSUM35 1.000000   WTELEC35 0.783104
    WT283035 WTNELE35 119.178590   COST     -4.458980
    WT311535 INTSUM35 1.000000   WTELEC35 0.854646
    WT311535 WTNELE35 76.747240   COST     11.719330
    WT311835 INTSUM35 1.000000   WTELEC35 0.854646
    WT311835 WTNELE35 83.852270   COST     6.923170
    WT312135 INTSUM35 1.000000   WTELEC35 0.854646
    WT312135 WTNELE35 91.591200   COST     2.916173
    WT312435 INTSUM35 1.000000   WTELEC35 0.854646
    WT312435 WTNELE35 100.018470   COST     -0.433282
    WT312735 INTSUM35 1.000000   WTELEC35 0.854646
    WT312735 WTNELE35 109.193000   COST     -3.234569
    WT313035 INTSUM35 1.000000   WTELEC35 0.854646
    WT313035 WTNELE35 119.178590   COST     -5.578624
    WT341535 INTSUM35 1.000000   WTELEC35 0.932486
    WT341535 WTNELE35 76.747240   COST     9.252294
    WT341835 INTSUM35 1.000000   WTELEC35 0.932486
    WT341835 WTNELE35 83.852270   COST     4.856503
    WT342135 INTSUM35 1.000000   WTELEC35 0.932486
    WT342135 WTNELE35 91.591200   COST     1.183995
    WT342435 INTSUM35 1.000000   WTELEC35 0.932486
    WT342435 WTNELE35 100.018470   COST     -1.885862
    WT342735 INTSUM35 1.000000   WTELEC35 0.932486
    WT342735 WTNELE35 109.193000   COST     -4.453308
    WT343035 INTSUM35 1.000000   WTELEC35 0.932486
    WT343035 WTNELE35 119.178590   COST     -6.601690
    WT371535 INTSUM35 1.000000   WTELEC35 1.017159
    WT371535 WTNELE35 76.747240   COST     6.997471
    WT371835 INTSUM35 1.000000   WTELEC35 1.017159
    WT371835 WTNELE35 83.852270   COST     2.967606
    WT372135 INTSUM35 1.000000   WTELEC35 1.017159
    WT372135 WTNELE35 91.591200   COST     -0.399186
    WT372435 INTSUM35 1.000000   WTELEC35 1.017159
    WT372435 WTNELE35 100.018470   COST     -3.213493
    WT372735 INTSUM35 1.000000   WTELEC35 1.017159
    WT372735 WTNELE35 109.193000   COST     -5.567214
    WT373035 INTSUM35 1.000000   WTELEC35 1.017159
    WT373035 WTNELE35 119.178590   COST     -7.536754
    WT401535 INTSUM35 1.000000   WTELEC35 1.109242
    WT401535 WTNELE35 76.747240   COST     4.936066
    WT401835 INTSUM35 1.000000   WTELEC35 1.109242
    WT401835 WTNELE35 83.852270   COST     1.240738
    WT402135 INTSUM35 1.000000   WTELEC35 1.109242
    WT402135 WTNELE35 91.591200   COST     -1.846562
    WT402435 INTSUM35 1.000000   WTELEC35 1.109242
    WT402435 WTNELE35 100.018470   COST     -4.427241
    WT402735 INTSUM35 1.000000   WTELEC35 1.109242
    WT402735 WTNELE35 109.193000   COST     -6.585569
    WT403035 INTSUM35 1.000000   WTELEC35 1.109242
    WT403035 WTNELE35 119.178590   COST     -8.391609
    PCCOAL40 CPCOAL40 -1.000000   DMELEC40 1.000000
    PCCOAL40 SMCOAL40 0.065700   CPCOAL45 0.844000
    PCCOAL40 COST     14.020140
    PCLWRX40 CPLWRX40 -1.000000   DMELEC40 1.000000
    PCLWRX40 SMNATU40 0.160000   DISWUX40 0.110000
    PCLWRX40 CPLWRX45 0.844000   SMPLUT45 0.170000
    PCLWRX40 SMNATU45 -0.016000   DISWUX45 -0.007000
    PCLWRX40 COST     4.092172
    PCFBRX40 CPFBRX40 -1.000000   DMELEC40 1.000000
    PCFBRX40 CPFBRX45 0.844000   SMPLUT45 0.062000
    PCFBRX40 DIBRGN45 -1.000000   COST     4.092172
    PCADVX40 CPADVX40 -1.000000   DMELEC40 1.000000
    PCADVX40 CPADVX45 0.844000   COST     2.330759
    PCPETG40 CPPETG40 -1.000000   DMNELE40 1.000000
    PCPETG40 SMPETG40 0.001000   CPPETG45 0.844000
    PCPETG40 COST     0.266881
    PCSYNF40 CPSYNF40 -1.000000   DMNELE40 1.000000
    PCSYNF40 SMCOAL40 0.001330   CPSYNF45 0.844000
    PCSYNF40 COST     0.444801
    PCHTRB40 CPHTRB40 -1.000000   DMNELE40 22.500000
    PCHTRB40 DIBRGN40 0.300000   CPHTRB45 0.844000
    PCHTRB40 SMNATU45 -0.007000   DISWUX45 -0.005000
    PCHTRB40 COST     2.490887
    PCELHY40 CPELHY40 -1.000000   DMELEC40 -1.000000
    PCELHY40 DMNELE40 36.000000   CPELHY45 0.844000
    PCSWUX40 CPSWUX40 -1.000000   DISWUX40 -1.000000
    PCSWUX40 CPSWUX45 0.844000
    PCFBPL40 SMPLUT40 0.160000   DIBRGN40 1.000000
    DPCOAL40 CPCOAL40 5.000000   NCCOAL40 0.900000
    DPCOAL40 COST     117.222040
    DPLWRX40 CPLWRX40 5.000000   DISWUX40 0.230000
    DPLWRX40 SMNATU40 0.500000   NCCOAL40 -0.100000
    DPLWRX40 COST     156.296050
    DPFBRX40 CPFBRX40 5.000000   SMPLUT40 -2.000000
    DPFBRX40 NCCOAL40 -0.100000   COST     169.320730
    DPPETG40 CPPETG40 5.000000
    DPSYNF40 CPSYNF40 5.000000
    DPHTRB40 CPHTRB40 5.000000   DISWUX40 0.175000
    DPHTRB40 SMNATU40 0.216000   COST     68.770260
    DPELHY40 CPELHY40 5.000000   NCCOAL40 0.100000
    DPELHY40 COST     15.629610
    DPSWUX40 CPSWUX40 5.000000
    CSCOAL40 SMCOAL40 -0.200000   SMCOAL45 0.200000
    CSPETG40 SMPETG40 -0.200000   SMPETG45 0.200000
    CSPLUT40 SMPLUT40 -0.200000   SMPLUT45 0.200000
    CSNU0140 CRQU0140 -1.000000   CRQU0145 1.000000
    CSNU0240 CRQU0240 -1.000000   CRQU0245 1.000000
    CSNU0340 CRQU0340 -1.000000   CRQU0345 1.000000
    CSNU0440 CRQU0440 -1.000000   CRQU0445 1.000000
    CSNU0540 CRQU0540 -1.000000   CRQU0545 1.000000
    CSNU0640 CRQU0640 -1.000000   CRQU0645 1.000000
    CSNU0740 CRQU0740 -1.000000   CRQU0745 1.000000
    CSNU0840 CRQU0840 -1.000000   CRQU0845 1.000000
    CSNU0940 CRQU0940 -1.000000   CRQU0945 1.000000
    CSNU1040 CRQU1040 -1.000000   CRQU1045 1.000000
    NURQ0140 SMNATU40 -1.000000   CRQU0140 5.000000
    NURQ0140 COST     5.337615
    NURQ0240 SMNATU40 -1.000000   CRQU0240 5.000000
    NURQ0240 COST     10.675230
    NURQ0340 SMNATU40 -1.000000   CRQU0340 5.000000
    NURQ0340 COST     16.546610
    NURQ0440 SMNATU40 -1.000000   CRQU0440 5.000000
    NURQ0440 COST     21.884220
    NURQ0540 SMNATU40 -1.000000   CRQU0540 5.000000
    NURQ0540 COST     26.866000
    NURQ0640 SMNATU40 -1.000000   CRQU0640 5.000000
    NURQ0640 COST     31.491930
    NURQ0740 SMNATU40 -1.000000   CRQU0740 5.000000
    NURQ0740 COST     35.584100
    NURQ0840 SMNATU40 -1.000000   CRQU0840 5.000000
    NURQ0840 COST     39.320430
    NURQ0940 SMNATU40 -1.000000   CRQU0940 5.000000
    NURQ0940 COST     42.523000
    NURQ1040 SMNATU40 -1.000000   CRQU1040 5.000000
    NURQ1040 COST     45.369730
    ELECDM40 WTELEC40 -1.000000   DMELEC40 -1.000000
    NELEDM40 WTNELE40 -1.000000   DMNELE40 -1.000000
    WT251540 INTSUM40 1.000000   WTELEC40 0.811636
    WT251540 WTNELE40 82.678570   COST     14.130380
    WT251840 INTSUM40 1.000000   WTELEC40 0.811636
    WT251840 WTNELE40 91.675590   COST     9.213874
    WT252140 INTSUM40 1.000000   WTELEC40 0.811636
    WT252140 WTNELE40 101.620770   COST     5.225618
    WT252440 INTSUM40 1.000000   WTELEC40 0.811636
    WT252440 WTNELE40 112.610780   COST     1.988368
    WT252740 INTSUM40 1.000000   WTELEC40 0.811636
    WT252740 WTNELE40 124.751860   COST     -0.640900
    WT253040 INTSUM40 1.000000   WTELEC40 0.811636
    WT253040 WTNELE40 138.160650   COST     -2.777668
    WT281540 INTSUM40 1.000000   WTELEC40 0.899053
    WT281540 WTNELE40 82.678570   COST     11.569200
    WT281840 INTSUM40 1.000000   WTELEC40 0.899053
    WT281840 WTNELE40 91.675590   COST     7.130726
    WT282140 INTSUM40 1.000000   WTELEC40 0.899053
    WT282140 WTNELE40 101.620770   COST     3.530255
    WT282440 INTSUM40 1.000000   WTELEC40 0.899053
    WT282440 WTNELE40 112.610780   COST     0.607769
    WT282740 INTSUM40 1.000000   WTELEC40 0.899053
    WT282740 WTNELE40 124.751860   COST     -1.765850
    WT283040 INTSUM40 1.000000   WTELEC40 0.899053
    WT283040 WTNELE40 138.160650   COST     -3.694857
    WT311540 INTSUM40 1.000000   WTELEC40 0.995587
    WT311540 WTNELE40 82.678570   COST     9.263436
    WT311840 INTSUM40 1.000000   WTELEC40 0.995587
    WT311840 WTNELE40 91.675590   COST     5.255332
    WT312140 INTSUM40 1.000000   WTELEC40 0.995587
    WT312140 WTNELE40 101.620770   COST     2.003973
    WT312440 INTSUM40 1.000000   WTELEC40 0.995587
    WT312440 WTNELE40 112.610780   COST     -0.635142
    WT312740 INTSUM40 1.000000   WTELEC40 0.995587
    WT312740 WTNELE40 124.751860   COST     -2.778609
    WT313040 INTSUM40 1.000000   WTELEC40 0.995587
    WT313040 WTNELE40 138.160650   COST     -4.520574
    WT341540 INTSUM40 1.000000   WTELEC40 1.102161
    WT341540 WTNELE40 82.678570   COST     7.186996
    WT341840 INTSUM40 1.000000   WTELEC40 1.102161
    WT341840 WTNELE40 91.675590   COST     3.566456
    WT342140 INTSUM40 1.000000   WTELEC40 1.102161
    WT342140 WTNELE40 101.620770   COST     0.629487
    WT342440 INTSUM40 1.000000   WTELEC40 1.102161
    WT342440 WTNELE40 112.610780   COST     -1.754438
    WT342740 INTSUM40 1.000000   WTELEC40 1.102161
    WT342740 WTNELE40 124.751860   COST     -3.690643
    WT343040 INTSUM40 1.000000   WTELEC40 1.102161
    WT343040 WTNELE40 138.160650   COST     -5.264169
    WT371540 INTSUM40 1.000000   WTELEC40 1.219783
    WT371540 WTNELE40 82.678570   COST     5.316501
    WT371840 INTSUM40 1.000000   WTELEC40 1.219783
    WT371840 WTNELE40 91.675590   COST     2.045086
    WT372140 INTSUM40 1.000000   WTELEC40 1.219783
    WT372140 WTNELE40 101.620770   COST     -0.608675
    WT372440 INTSUM40 1.000000   WTELEC40 1.219783
    WT372440 WTNELE40 112.610780   COST     -2.762722
    WT372740 INTSUM40 1.000000   WTELEC40 1.219783
    WT372740 WTNELE40 124.751860   COST     -4.512220
    WT373040 INTSUM40 1.000000   WTELEC40 1.219783
    WT373040 WTNELE40 138.160650   COST     -5.934013
    WT401540 INTSUM40 1.000000   WTELEC40 1.349562
    WT401540 WTNELE40 82.678570   COST     3.631016
    WT401840 INTSUM40 1.000000   WTELEC40 1.349562
    WT401840 WTNELE40 91.675590   COST     0.674193
    WT402140 INTSUM40 1.000000   WTELEC40 1.349562
    WT402140 WTNELE40 101.620770   COST     -1.724372
    WT402440 INTSUM40 1.000000   WTELEC40 1.349562
    WT402440 WTNELE40 112.610780   COST     -3.671276
    WT402740 INTSUM40 1.000000   WTELEC40 1.349562
    WT402740 WTNELE40 124.751860   COST     -5.252536
    WT403040 INTSUM40 1.000000   WTELEC40 1.349562
    WT403040 WTNELE40 138.160650   COST     -6.537603
    PCCOAL45 CPCOAL45 -1.000000   DMELEC45 1.000000
    PCCOAL45 SMCOAL45 0.065700   CPCOAL50 0.844000
    PCCOAL45 COST     8.705402
    PCLWRX45 CPLWRX45 -1.000000   DMELEC45 1.000000
    PCLWRX45 SMNATU45 0.160000   DISWUX45 0.110000
    PCLWRX45 CPLWRX50 0.844000   SMPLUT50 0.170000
    PCLWRX45 SMNATU50 -0.016000   DISWUX50 -0.007000
    PCLWRX45 COST     2.540917
    PCFBRX45 CPFBRX45 -1.000000   DMELEC45 1.000000
    PCFBRX45 CPFBRX50 0.844000   SMPLUT50 0.062000
    PCFBRX45 DIBRGN50 -1.000000   COST     2.540917
    PCADVX45 CPADVX45 -1.000000   DMELEC45 1.000000
    PCADVX45 CPADVX50 0.844000   COST     1.447218
    PCPETG45 CPPETG45 -1.000000   DMNELE45 1.000000
    PCPETG45 SMPETG45 0.001000   CPPETG50 0.844000
    PCPETG45 COST     0.165712
    PCSYNF45 CPSYNF45 -1.000000   DMNELE45 1.000000
    PCSYNF45 SMCOAL45 0.001330   CPSYNF50 0.844000
    PCSYNF45 COST     0.276187
    PCHTRB45 CPHTRB45 -1.000000   DMNELE45 22.500000
    PCHTRB45 DIBRGN45 0.300000   CPHTRB50 0.844000
    PCHTRB45 SMNATU50 -0.007000   DISWUX50 -0.005000
    PCHTRB45 COST     1.546645
    PCELHY45 CPELHY45 -1.000000   DMELEC45 -1.000000
    PCELHY45 DMNELE45 36.000000   CPELHY50 0.844000
    PCSWUX45 CPSWUX45 -1.000000   DISWUX45 -1.000000
    PCSWUX45 CPSWUX50 0.844000
    PCFBPL45 SMPLUT45 0.160000   DIBRGN45 1.000000
    DPCOAL45 CPCOAL45 5.000000   NCADVX45 0.200000
    DPCOAL45 COST     72.785660
    DPLWRX45 CPLWRX45 5.000000   DISWUX45 0.230000
    DPLWRX45 SMNATU45 0.500000   NCADVX45 0.200000
    DPLWRX45 COST     97.047550
    DPFBRX45 CPFBRX45 5.000000   SMPLUT45 -2.000000
    DPFBRX45 NCADVX45 0.200000   COST     105.134850
    DPADVX45 CPADVX45 5.000000   NCADVX45 -0.800000
    DPADVX45 COST     97.047550
    DPPETG45 CPPETG45 5.000000
    DPSYNF45 CPSYNF45 5.000000
    DPHTRB45 CPHTRB45 5.000000   DISWUX45 0.175000
    DPHTRB45 SMNATU45 0.216000   COST     42.700920
    DPELHY45 CPELHY45 5.000000   COST     9.704755
    DPSWUX45 CPSWUX45 5.000000
    CSCOAL45 SMCOAL45 -0.200000   SMCOAL50 0.200000
    CSPETG45 SMPETG45 -0.200000   SMPETG50 0.200000
    CSPLUT45 SMPLUT45 -0.200000   SMPLUT50 0.200000
    CSNU0145 CRQU0145 -1.000000   CRQU0150 1.000000
    CSNU0245 CRQU0245 -1.000000   CRQU0250 1.000000
    CSNU0345 CRQU0345 -1.000000   CRQU0350 1.000000
    CSNU0445 CRQU0445 -1.000000   CRQU0450 1.000000
    CSNU0545 CRQU0545 -1.000000   CRQU0550 1.000000
    CSNU0645 CRQU0645 -1.000000   CRQU0650 1.000000
    CSNU0745 CRQU0745 -1.000000   CRQU0750 1.000000
    CSNU0845 CRQU0845 -1.000000   CRQU0850 1.000000
    CSNU0945 CRQU0945 -1.000000   CRQU0950 1.000000
    CSNU1045 CRQU1045 -1.000000   CRQU1050 1.000000
    NURQ0145 SMNATU45 -1.000000   CRQU0145 5.000000
    NURQ0145 COST     3.314239
    NURQ0245 SMNATU45 -1.000000   CRQU0245 5.000000
    NURQ0245 COST     6.628478
    NURQ0345 SMNATU45 -1.000000   CRQU0345 5.000000
    NURQ0345 COST     10.274140
    NURQ0445 SMNATU45 -1.000000   CRQU0445 5.000000
    NURQ0445 COST     13.588380
    NURQ0545 SMNATU45 -1.000000   CRQU0545 5.000000
    NURQ0545 COST     16.681670
    NURQ0645 SMNATU45 -1.000000   CRQU0645 5.000000
    NURQ0645 COST     19.554010
    NURQ0745 SMNATU45 -1.000000   CRQU0745 5.000000
    NURQ0745 COST     22.094930
    NURQ0845 SMNATU45 -1.000000   CRQU0845 5.000000
    NURQ0845 COST     24.414900
    NURQ0945 SMNATU45 -1.000000   CRQU0945 5.000000
    NURQ0945 COST     26.403440
    NURQ1045 SMNATU45 -1.000000   CRQU1045 5.000000
    NURQ1045 COST     28.171030
    ELECDM45 WTELEC45 -1.000000   DMELEC45 -1.000000
    NELEDM45 WTNELE45 -1.000000   DMNELE45 -1.000000
    WT251545 INTSUM45 1.000000   WTELEC45 0.918292
    WT251545 WTNELE45 89.068300   COST     11.334690
    WT251845 INTSUM45 1.000000   WTELEC45 0.918292
    WT251845 WTNELE45 100.228820   COST     7.188756
    WT252145 INTSUM45 1.000000   WTELEC45 0.918292
    WT252145 WTNELE45 112.748600   COST     3.923268
    WT252445 INTSUM45 1.000000   WTELEC45 0.918292
    WT252445 WTNELE45 126.788470   COST     1.349443
    WT252745 INTSUM45 1.000000   WTELEC45 0.918292
    WT252745 WTNELE45 142.527690   COST     -0.680636
    WT253045 INTSUM45 1.000000   WTELEC45 0.918292
    WT253045 WTNELE45 160.166060   COST     -2.282950
    WT281545 INTSUM45 1.000000   WTELEC45 1.032169
    WT281545 WTNELE45 89.068300   COST     9.159663
    WT281845 INTSUM45 1.000000   WTELEC45 1.032169
    WT281845 WTNELE45 100.228820   COST     5.471145
    WT282145 INTSUM45 1.000000   WTELEC45 1.032169
    WT282145 WTNELE45 112.748600   COST     2.565930
    WT282445 INTSUM45 1.000000   WTELEC45 1.032169
    WT282445 WTNELE45 126.788470   COST     0.276070
    WT282745 INTSUM45 1.000000   WTELEC45 1.032169
    WT282745 WTNELE45 142.527690   COST     -1.530034
    WT283045 INTSUM45 1.000000   WTELEC45 1.032169
    WT283045 WTNELE45 160.166060   COST     -2.955569
    WT311545 INTSUM45 1.000000   WTELEC45 1.159772
    WT311545 WTNELE45 89.068300   COST     7.229922
    WT311845 INTSUM45 1.000000   WTELEC45 1.159772
    WT311845 WTNELE45 100.228820   COST     3.947232
    WT312145 INTSUM45 1.000000   WTELEC45 1.159772
    WT312145 WTNELE45 112.748600   COST     1.361663
    WT312445 INTSUM45 1.000000   WTELEC45 1.159772
    WT312445 WTNELE45 126.788470   COST     -0.676256
    WT312745 INTSUM45 1.000000   WTELEC45 1.159772
    WT312745 WTNELE45 142.527690   COST     -2.283645
    WT313045 INTSUM45 1.000000   WTELEC45 1.159772
    WT313045 WTNELE45 160.166060   COST     -3.552335
    WT341545 INTSUM45 1.000000   WTELEC45 1.302710
    WT341545 WTNELE45 89.068300   COST     5.517206
    WT341845 INTSUM45 1.000000   WTELEC45 1.302710
    WT341845 WTNELE45 100.228820   COST     2.594704
    WT342145 INTSUM45 1.000000   WTELEC45 1.302710
    WT342145 WTNELE45 112.748600   COST     0.292831
    WT342445 INTSUM45 1.000000   WTELEC45 1.302710
    WT342445 WTNELE45 126.788470   COST     -1.521481
    WT342745 INTSUM45 1.000000   WTELEC45 1.302710
    WT342745 WTNELE45 142.527690   COST     -2.952501
    WT343045 INTSUM45 1.000000   WTELEC45 1.302710
    WT343045 WTNELE45 160.166060   COST     -4.081987
    WT371545 INTSUM45 1.000000   WTELEC45 1.462771
    WT371545 WTNELE45 89.068300   COST     3.996582
    WT371845 INTSUM45 1.000000   WTELEC45 1.462771
    WT371845 WTNELE45 100.228820   COST     1.393869
    WT372145 INTSUM45 1.000000   WTELEC45 1.462771
    WT372145 WTNELE45 112.748600   COST     -0.656124
    WT372445 INTSUM45 1.000000   WTELEC45 1.462771
    WT372445 WTNELE45 126.788470   COST     -2.271909
    WT372745 INTSUM45 1.000000   WTELEC45 1.462771
    WT372745 WTNELE45 142.527690   COST     -3.546342
    WT373045 INTSUM45 1.000000   WTELEC45 1.462771
    WT373045 WTNELE45 160.166060   COST     -4.552236
    WT401545 INTSUM45 1.000000   WTELEC45 1.641949
    WT401545 WTNELE45 89.068300   COST     2.646039
    WT401845 INTSUM45 1.000000   WTELEC45 1.641949
    WT401845 WTNELE45 100.228820   COST     0.327348
    WT402145 INTSUM45 1.000000   WTELEC45 1.641949
    WT402145 WTNELE45 112.748600   COST     -1.498939
    WT402445 INTSUM45 1.000000   WTELEC45 1.641949
    WT402445 WTNELE45 126.788470   COST     -2.938401
    WT402745 INTSUM45 1.000000   WTELEC45 1.641949
    WT402745 WTNELE45 142.527690   COST     -4.073762
    WT403045 INTSUM45 1.000000   WTELEC45 1.641949
    WT403045 WTNELE45 160.166060   COST     -4.969887
    PCCOAL50 CPCOAL50 -1.000000   DMELEC50 1.000000
    PCCOAL50 SMCOAL50 0.065700   CPCOAL55 0.844000
    PCCOAL50 COST     5.405370
    PCLWRX50 CPLWRX50 -1.000000   DMELEC50 1.000000
    PCLWRX50 SMNATU50 0.160000   DISWUX50 0.110000
    PCLWRX50 CPLWRX55 0.844000   SMPLUT55 0.170000
    PCLWRX50 SMNATU55 -0.016000   DISWUX55 -0.007000
    PCLWRX50 COST     1.577709
    PCFBRX50 CPFBRX50 -1.000000   DMELEC50 1.000000
    PCFBRX50 CPFBRX55 0.844000   SMPLUT55 0.062000
    PCFBRX50 DIBRGN55 -1.000000   COST     1.577709
    PCADVX50 CPADVX50 -1.000000   DMELEC50 1.000000
    PCADVX50 CPADVX55 0.844000   COST     0.898608
    PCPETG50 CPPETG50 -1.000000   DMNELE50 1.000000
    PCPETG50 SMPETG50 0.001000   CPPETG55 0.844000
    PCPETG50 COST     0.102894
    PCSYNF50 CPSYNF50 -1.000000   DMNELE50 1.000000
    PCSYNF50 SMCOAL50 0.001330   CPSYNF55 0.844000
    PCSYNF50 COST     0.171490
    PCHTRB50 CPHTRB50 -1.000000   DMNELE50 22.500000
    PCHTRB50 DIBRGN50 0.300000   CPHTRB55 0.844000
    PCHTRB50 SMNATU55 -0.007000   DISWUX55 -0.005000
    PCHTRB50 COST     0.960345
    PCELHY50 CPELHY50 -1.000000   DMELEC50 -1.000000
    PCELHY50 DMNELE50 36.000000   CPELHY55 0.844000
    PCSWUX50 CPSWUX50 -1.000000   DISWUX50 -1.000000
    PCSWUX50 CPSWUX55 0.844000
    PCFBPL50 SMPLUT50 0.160000   DIBRGN50 1.000000
    DPCOAL50 CPCOAL50 5.000000   NCADVX50 0.400000
    DPCOAL50 COST     45.194170
    DPLWRX50 CPLWRX50 5.000000   DISWUX50 0.230000
    DPLWRX50 SMNATU50 0.500000   NCADVX50 0.400000
    DPLWRX50 COST     60.258890
    DPFBRX50 CPFBRX50 5.000000   SMPLUT50 -2.000000
    DPFBRX50 NCADVX50 0.400000   COST     65.280470
    DPADVX50 CPADVX50 5.000000   NCADVX50 -0.600000
    DPADVX50 COST     60.258890
    DPPETG50 CPPETG50 5.000000
    DPSYNF50 CPSYNF50 5.000000
    DPHTRB50 CPHTRB50 5.000000   DISWUX50 0.175000
    DPHTRB50 SMNATU50 0.216000   COST     26.513910
    DPELHY50 CPELHY50 5.000000   COST     6.025889
    DPSWUX50 CPSWUX50 5.000000
    CSCOAL50 SMCOAL50 -0.200000   SMCOAL55 0.200000
    CSPETG50 SMPETG50 -0.200000   SMPETG55 0.200000
    CSPLUT50 SMPLUT50 -0.200000   SMPLUT55 0.200000
    CSNU0150 CRQU0150 -1.000000   CRQU0155 1.000000
    CSNU0250 CRQU0250 -1.000000   CRQU0255 1.000000
    CSNU0350 CRQU0350 -1.000000   CRQU0355 1.000000
    CSNU0450 CRQU0450 -1.000000   CRQU0455 1.000000
    CSNU0550 CRQU0550 -1.000000   CRQU0555 1.000000
    CSNU0650 CRQU0650 -1.000000   CRQU0655 1.000000
    CSNU0750 CRQU0750 -1.000000   CRQU0755 1.000000
    CSNU0850 CRQU0850 -1.000000   CRQU0855 1.000000
    CSNU0950 CRQU0950 -1.000000   CRQU0955 1.000000
    CSNU1050 CRQU1050 -1.000000   CRQU1055 1.000000
    NURQ0150 SMNATU50 -1.000000   CRQU0150 5.000000
    NURQ0150 COST     2.057882
    NURQ0250 SMNATU50 -1.000000   CRQU0250 5.000000
    NURQ0250 COST     4.115764
    NURQ0350 SMNATU50 -1.000000   CRQU0350 5.000000
    NURQ0350 COST     6.379434
    NURQ0450 SMNATU50 -1.000000   CRQU0450 5.000000
    NURQ0450 COST     8.437315
    NURQ0550 SMNATU50 -1.000000   CRQU0550 5.000000
    NURQ0550 COST     10.358010
    NURQ0650 SMNATU50 -1.000000   CRQU0650 5.000000
    NURQ0650 COST     12.141500
    NURQ0750 SMNATU50 -1.000000   CRQU0750 5.000000
    NURQ0750 COST     13.719210
    NURQ0850 SMNATU50 -1.000000   CRQU0850 5.000000
    NURQ0850 COST     15.159730
    NURQ0950 SMNATU50 -1.000000   CRQU0950 5.000000
    NURQ0950 COST     16.394460
    NURQ1050 SMNATU50 -1.000000   CRQU1050 5.000000
    NURQ1050 COST     17.492000
    ELECDM50 WTELEC50 -1.000000   DMELEC50 -1.000000
    NELEDM50 WTNELE50 -1.000000   DMNELE50 -1.000000
    WT251550 INTSUM50 1.000000   WTELEC50 1.038963
    WT251550 WTNELE50 95.951860   COST     9.030076
    WT251850 INTSUM50 1.000000   WTELEC50 1.038963
    WT251850 WTNELE50 109.580050   COST     5.579067
    WT252150 INTSUM50 1.000000   WTELEC50 1.038963
    WT252150 WTNELE50 125.094980   COST     2.939867
    WT252450 INTSUM50 1.000000   WTELEC50 1.038963
    WT252450 WTNELE50 142.751130   COST     0.919917
    WT252750 INTSUM50 1.000000   WTELEC50 1.038963
    WT252750 WTNELE50 162.836390   COST     -0.627294
    WT253050 INTSUM50 1.000000   WTELEC50 1.038963
    WT253050 WTNELE50 185.676360   COST     -1.813326
    WT281550 INTSUM50 1.000000   WTELEC50 1.184994
    WT281550 WTNELE50 95.951860   COST     7.206929
    WT281850 INTSUM50 1.000000   WTELEC50 1.184994
    WT281850 WTNELE50 109.580050   COST     4.181202
    WT282150 INTSUM50 1.000000   WTELEC50 1.184994
    WT282150 WTNELE50 125.094980   COST     1.867240
    WT282450 INTSUM50 1.000000   WTELEC50 1.184994
    WT282450 WTNELE50 142.751130   COST     0.096216
    WT282750 INTSUM50 1.000000   WTELEC50 1.184994
    WT282750 WTNELE50 162.836390   COST     -1.260326
    WT283050 INTSUM50 1.000000   WTELEC50 1.184994
    WT283050 WTNELE50 185.676360   COST     -2.300198
    WT311550 INTSUM50 1.000000   WTELEC50 1.351033
    WT311550 WTNELE50 95.951860   COST     5.612816
    WT311850 INTSUM50 1.000000   WTELEC50 1.351033
    WT311850 WTNELE50 109.580050   COST     2.958943
    WT312150 INTSUM50 1.000000   WTELEC50 1.351033
    WT312150 WTNELE50 125.094980   COST     0.929363
    WT312450 INTSUM50 1.000000   WTELEC50 1.351033
    WT312450 WTNELE50 142.751130   COST     -0.624007
    WT312750 INTSUM50 1.000000   WTELEC50 1.351033
    WT312750 WTNELE50 162.836390   COST     -1.813833
    WT313050 INTSUM50 1.000000   WTELEC50 1.351033
    WT313050 WTNELE50 185.676360   COST     -2.725907
    WT341550 INTSUM50 1.000000   WTELEC50 1.539750
    WT341550 WTNELE50 95.951860   COST     4.218418
    WT341850 INTSUM50 1.000000   WTELEC50 1.539750
    WT341850 WTNELE50 109.580050   COST     1.889813
    WT342150 INTSUM50 1.000000   WTELEC50 1.539750
    WT342150 WTNELE50 125.094980   COST     0.108985
    WT342450 INTSUM50 1.000000   WTELEC50 1.539750
    WT342450 WTNELE50 142.751130   COST     -1.253998
    WT342750 INTSUM50 1.000000   WTELEC50 1.539750
    WT342750 WTNELE50 162.836390   COST     -2.297995
    WT343050 INTSUM50 1.000000   WTELEC50 1.539750
    WT343050 WTNELE50 185.676360   COST     -3.098282
    WT371550 INTSUM50 1.000000   WTELEC50 1.754164
    WT371550 WTNELE50 95.951860   COST     2.998241
    WT371850 INTSUM50 1.000000   WTELEC50 1.754164
    WT371850 WTNELE50 109.580050   COST     0.954264
    WT372150 INTSUM50 1.000000   WTELEC50 1.754164
    WT372150 WTNELE50 125.094980   COST     -0.608892
    WT372450 INTSUM50 1.000000   WTELEC50 1.754164
    WT372450 WTNELE50 142.751130   COST     -1.805276
    WT372750 INTSUM50 1.000000   WTELEC50 1.754164
    WT372750 WTNELE50 162.836390   COST     -2.721664
    WT373050 INTSUM50 1.000000   WTELEC50 1.754164
    WT373050 WTNELE50 185.676360   COST     -3.424131
    WT401550 INTSUM50 1.000000   WTELEC50 1.997682
    WT401550 WTNELE50 95.951860   COST     1.930104
    WT401850 INTSUM50 1.000000   WTELEC50 1.997682
    WT401850 WTNELE50 109.580050   COST     0.135289
    WT402150 INTSUM50 1.000000   WTELEC50 1.997682
    WT402150 WTNELE50 125.094980   COST     -1.237317
    WT402450 INTSUM50 1.000000   WTELEC50 1.997682
    WT402450 WTNELE50 142.751130   COST     -2.287861
    WT402750 INTSUM50 1.000000   WTELEC50 1.997682
    WT402750 WTNELE50 162.836390   COST     -3.092541
    WT403050 INTSUM50 1.000000   WTELEC50 1.997682
    WT403050 WTNELE50 185.676360   COST     -3.709378
    PCCOAL55 CPCOAL55 -1.000000   DMELEC55 1.000000
    PCCOAL55 SMCOAL55 0.065700   CPCOAL60 0.844000
    PCCOAL55 COST     3.356309
    PCLWRX55 CPLWRX55 -1.000000   DMELEC55 1.000000
    PCLWRX55 SMNATU55 0.160000   DISWUX55 0.110000
    PCLWRX55 CPLWRX60 0.844000   SMPLUT60 0.170000
    PCLWRX55 SMNATU60 -0.016000   DISWUX60 -0.007000
    PCLWRX55 COST     0.979633
    PCFBRX55 CPFBRX55 -1.000000   DMELEC55 1.000000
    PCFBRX55 CPFBRX60 0.844000   SMPLUT60 0.062000
    PCFBRX55 DIBRGN60 -1.000000   COST     0.979633
    PCADVX55 CPADVX55 -1.000000   DMELEC55 1.000000
    PCADVX55 CPADVX60 0.844000   COST     0.557965
    PCPETG55 CPPETG55 -1.000000   DMNELE55 1.000000
    PCPETG55 SMPETG55 0.001000   CPPETG60 0.844000
    PCPETG55 COST     0.063889
    PCSYNF55 CPSYNF55 -1.000000   DMNELE55 1.000000
    PCSYNF55 SMCOAL55 0.001330   CPSYNF60 0.844000
    PCSYNF55 COST     0.106482
    PCHTRB55 CPHTRB55 -1.000000   DMNELE55 22.500000
    PCHTRB55 DIBRGN55 0.300000   CPHTRB60 0.844000
    PCHTRB55 SMNATU60 -0.007000   DISWUX60 -0.005000
    PCHTRB55 COST     0.596299
    PCELHY55 CPELHY55 -1.000000   DMELEC55 -1.000000
    PCELHY55 DMNELE55 36.000000   CPELHY60 0.844000
    PCSWUX55 CPSWUX55 -1.000000   DISWUX55 -1.000000
    PCSWUX55 CPSWUX60 0.844000
    PCFBPL55 SMPLUT55 0.160000   DIBRGN55 1.000000
    DPCOAL55 CPCOAL55 5.000000   NCADVX55 0.800000
    DPCOAL55 COST     28.062020
    DPLWRX55 CPLWRX55 5.000000   DISWUX55 0.230000
    DPLWRX55 SMNATU55 0.500000   NCADVX55 0.800000
    DPLWRX55 COST     37.416030
    DPFBRX55 CPFBRX55 5.000000   SMPLUT55 -2.000000
    DPFBRX55 NCADVX55 0.800000   COST     40.534040
    DPADVX55 CPADVX55 5.000000   NCADVX55 -0.200000
    DPADVX55 COST     37.416030
    DPPETG55 CPPETG55 5.000000
    DPSYNF55 CPSYNF55 5.000000
    DPHTRB55 CPHTRB55 5.000000   DISWUX55 0.175000
    DPHTRB55 SMNATU55 0.216000   COST     16.463050
    DPELHY55 CPELHY55 5.000000   COST     3.741603
    DPSWUX55 CPSWUX55 5.000000
    CSCOAL55 SMCOAL55 -0.200000   SMCOAL60 0.200000
    CSPETG55 SMPETG55 -0.200000   SMPETG60 0.200000
    CSPLUT55 SMPLUT55 -0.200000   SMPLUT60 0.200000
    CSNU0155 CRQU0155 -1.000000   CRQU0160 1.000000
    CSNU0255 CRQU0255 -1.000000   CRQU0260 1.000000
    CSNU0355 CRQU0355 -1.000000   CRQU0360 1.000000
    CSNU0455 CRQU0455 -1.000000   CRQU0460 1.000000
    CSNU0555 CRQU0555 -1.000000   CRQU0560 1.000000
    CSNU0655 CRQU0655 -1.000000   CRQU0660 1.000000
    CSNU0755 CRQU0755 -1.000000   CRQU0760 1.000000
    CSNU0855 CRQU0855 -1.000000   CRQU0860 1.000000
    CSNU0955 CRQU0955 -1.000000   CRQU0960 1.000000
    CSNU1055 CRQU1055 -1.000000   CRQU1060 1.000000
    NURQ0155 SMNATU55 -1.000000   CRQU0155 5.000000
    NURQ0155 COST     1.277783
    NURQ0255 SMNATU55 -1.000000   CRQU0255 5.000000
    NURQ0255 COST     2.555565
    NURQ0355 SMNATU55 -1.000000   CRQU0355 5.000000
    NURQ0355 COST     3.961126
    NURQ0455 SMNATU55 -1.000000   CRQU0455 5.000000
    NURQ0455 COST     5.238909
    NURQ0555 SMNATU55 -1.000000   CRQU0555 5.000000
    NURQ0555 COST     6.431506
    NURQ0655 SMNATU55 -1.000000   CRQU0655 5.000000
    NURQ0655 COST     7.538918
    NURQ0755 SMNATU55 -1.000000   CRQU0755 5.000000
    NURQ0755 COST     8.518551
    NURQ0855 SMNATU55 -1.000000   CRQU0855 5.000000
    NURQ0855 COST     9.412999
    NURQ0955 SMNATU55 -1.000000   CRQU0955 5.000000
    NURQ0955 COST     10.179670
    NURQ1055 SMNATU55 -1.000000   CRQU1055 5.000000
    NURQ1055 COST     10.861150
    ELECDM55 WTELEC55 -1.000000   DMELEC55 -1.000000
    NELEDM55 WTNELE55 -1.000000   DMNELE55 -1.000000
    WT251555 INTSUM55 1.000000   WTELEC55 1.175491
    WT251555 WTNELE55 103.367400   COST     7.143619
    WT251855 INTSUM55 1.000000   WTELEC55 1.175491
    WT251855 WTNELE55 119.803740   COST     4.302689
    WT252155 INTSUM55 1.000000   WTELEC55 1.175491
    WT252155 WTNELE55 138.793330   COST     2.193155
    WT252455 INTSUM55 1.000000   WTELEC55 1.175491
    WT252455 WTNELE55 160.723480   COST     0.625349
    WT252755 INTSUM55 1.000000   WTELEC55 1.175491
    WT252755 WTNELE55 186.038860   COST     -0.540858
    WT253055 INTSUM55 1.000000   WTELEC55 1.175491
    WT253055 WTNELE55 215.249790   COST     -1.409088
    WT281555 INTSUM55 1.000000   WTELEC55 1.360448
    WT281555 WTNELE55 103.367400   COST     5.632336
    WT281855 INTSUM55 1.000000   WTELEC55 1.360448
    WT281855 WTNELE55 119.803740   COST     3.177638
    WT282155 INTSUM55 1.000000   WTELEC55 1.360448
    WT282155 WTNELE55 138.793330   COST     1.354901
    WT282455 INTSUM55 1.000000   WTELEC55 1.360448
    WT282455 WTNELE55 160.723480   COST     0.000242
    WT282755 INTSUM55 1.000000   WTELEC55 1.360448
    WT282755 WTNELE55 186.038860   COST     -1.007416
    WT283055 INTSUM55 1.000000   WTELEC55 1.360448
    WT283055 WTNELE55 215.249790   COST     -1.757608
    WT311555 INTSUM55 1.000000   WTELEC55 1.573836
    WT311555 WTNELE55 103.367400   COST     4.330050
    WT311855 INTSUM55 1.000000   WTELEC55 1.573836
    WT311855 WTNELE55 119.803740   COST     2.208171
    WT312155 INTSUM55 1.000000   WTELEC55 1.573836
    WT312155 WTNELE55 138.793330   COST     0.632570
    WT312455 INTSUM55 1.000000   WTELEC55 1.573836
    WT312455 WTNELE55 160.723480   COST     -0.538418
    WT312755 INTSUM55 1.000000   WTELEC55 1.573836
    WT312755 WTNELE55 186.038860   COST     -1.409453
    WT313055 INTSUM55 1.000000   WTELEC55 1.573836
    WT313055 WTNELE55 215.249790   COST     -2.057930
    WT341555 INTSUM55 1.000000   WTELEC55 1.819923
    WT341555 WTNELE55 103.367400   COST     3.207374
    WT341855 INTSUM55 1.000000   WTELEC55 1.819923
    WT341855 WTNELE55 119.803740   COST     1.372412
    WT342155 INTSUM55 1.000000   WTELEC55 1.819923
    WT342155 WTNELE55 138.793330   COST     0.009861
    WT342455 INTSUM55 1.000000   WTELEC55 1.819923
    WT342455 WTNELE55 160.723480   COST     -1.002787
    WT342755 INTSUM55 1.000000   WTELEC55 1.819923
    WT342755 WTNELE55 186.038860   COST     -1.756042
    WT343055 INTSUM55 1.000000   WTELEC55 1.819923
    WT343055 WTNELE55 215.249790   COST     -2.316833
    WT371555 INTSUM55 1.000000   WTELEC55 2.103604
    WT371555 WTNELE55 103.367400   COST     2.239118
    WT371855 INTSUM55 1.000000   COST     0.651610
    WT371855 WTNELE55 119.803740   WTELEC55 2.103604
    WT372155 INTSUM55 1.000000   WTELEC55 2.103604
    WT372155 WTNELE55 138.793330   COST     -0.527195
    WT372455 INTSUM55 1.000000   WTELEC55 2.103604
    WT372455 WTNELE55 160.723480   COST     -1.403283
    WT372755 INTSUM55 1.000000   WTELEC55 2.103604
    WT372755 WTNELE55 186.038860   COST     -2.054958
    WT373055 INTSUM55 1.000000   WTELEC55 2.103604
    WT373055 WTNELE55 215.249790   COST     -2.540124
    WT401555 INTSUM55 1.000000   WTELEC55 2.430486
    WT401555 WTNELE55 103.367400   COST     1.403685
    WT401855 INTSUM55 1.000000   WTELEC55 2.430486
    WT401855 WTNELE55 119.803740   COST     0.029685
    WT402155 INTSUM55 1.000000   WTELEC55 2.430486
    WT402155 WTNELE55 138.793330   COST     -0.990580
    WT402455 INTSUM55 1.000000   WTELEC55 2.430486
    WT402455 WTNELE55 160.723480   COST     -1.748840
    WT402755 INTSUM55 1.000000   WTELEC55 2.430486
    WT402755 WTNELE55 186.038860   COST     -2.312870
    WT403055 INTSUM55 1.000000   WTELEC55 2.430486
    WT403055 WTNELE55 215.249790   COST     -2.732785
    PCCOAL60 CPCOAL60 -1.000000   DMELEC60 1.000000
    PCCOAL60 SMCOAL60 0.065700   CPCOAL65 0.844000
    PCCOAL60 COST     2.084004
    PCLWRX60 CPLWRX60 -1.000000   DMELEC60 1.000000
    PCLWRX60 SMNATU60 0.160000   DISWUX60 0.110000
    PCLWRX60 CPLWRX65 0.844000   SMPLUT65 0.170000
    PCLWRX60 SMNATU65 -0.016000   DISWUX65 -0.007000
    PCLWRX60 COST     0.608275
    PCFBRX60 CPFBRX60 -1.000000   DMELEC60 1.000000
    PCFBRX60 CPFBRX65 0.844000   SMPLUT65 0.062000
    PCFBRX60 DIBRGN65 -1.000000   COST     0.608275
    PCADVX60 CPADVX60 -1.000000   DMELEC60 1.000000
    PCADVX60 CPADVX65 0.844000   COST     0.346452
    PCPETG60 CPPETG60 -1.000000   DMNELE60 1.000000
    PCPETG60 SMPETG60 0.001000   CPPETG65 0.844000
    PCPETG60 COST     0.039670
    PCSYNF60 CPSYNF60 -1.000000   DMNELE60 1.000000
    PCSYNF60 SMCOAL60 0.001330   CPSYNF65 0.844000
    PCSYNF60 COST     0.066117
    PCHTRB60 CPHTRB60 -1.000000   DMNELE60 22.500000
    PCHTRB60 DIBRGN60 0.300000   CPHTRB65 0.844000
    PCHTRB60 SMNATU65 -0.007000   DISWUX65 -0.005000
    PCHTRB60 COST     0.370255
    PCELHY60 CPELHY60 -1.000000   DMELEC60 -1.000000
    PCELHY60 DMNELE60 36.000000   CPELHY65 0.844000
    PCSWUX60 CPSWUX60 -1.000000   DISWUX60 -1.000000
    PCSWUX60 CPSWUX65 0.844000
    PCFBPL60 SMPLUT60 0.160000   DIBRGN60 1.000000
    DPCOAL60 CPCOAL60 5.000000   COST     17.424310
    DPLWRX60 CPLWRX60 5.000000   DISWUX60 0.230000
    DPLWRX60 SMNATU60 0.500000   COST     23.232410
    DPFBRX60 CPFBRX60 5.000000   SMPLUT60 -2.000000
    DPFBRX60 COST     25.168450
    DPADVX60 CPADVX60 5.000000   COST     23.232410
    DPPETG60 CPPETG60 5.000000
    DPSYNF60 CPSYNF60 5.000000
    DPHTRB60 CPHTRB60 5.000000   DISWUX60 0.175000
    DPHTRB60 SMNATU60 0.216000   COST     10.222260
    DPELHY60 CPELHY60 5.000000   COST     2.323241
    DPSWUX60 CPSWUX60 5.000000
    CSCOAL60 SMCOAL60 -0.200000   SMCOAL65 0.200000
    CSPETG60 SMPETG60 -0.200000   SMPETG65 0.200000
    CSPLUT60 SMPLUT60 -0.200000   SMPLUT65 0.200000
    CSNU0160 CRQU0160 -1.000000   CRQU0165 1.000000
    CSNU0260 CRQU0260 -1.000000   CRQU0265 1.000000
    CSNU0360 CRQU0360 -1.000000   CRQU0365 1.000000
    CSNU0460 CRQU0460 -1.000000   CRQU0465 1.000000
    CSNU0560 CRQU0560 -1.000000   CRQU0565 1.000000
    CSNU0660 CRQU0660 -1.000000   CRQU0665 1.000000
    CSNU0760 CRQU0760 -1.000000   CRQU0765 1.000000
    CSNU0860 CRQU0860 -1.000000   CRQU0865 1.000000
    CSNU0960 CRQU0960 -1.000000   CRQU0965 1.000000
    CSNU1060 CRQU1060 -1.000000   CRQU1065 1.000000
    NURQ0160 SMNATU60 -1.000000   CRQU0160 5.000000
    NURQ0160 COST     0.793403
    NURQ0260 SMNATU60 -1.000000   CRQU0260 5.000000
    NURQ0260 COST     1.586805
    NURQ0360 SMNATU60 -1.000000   CRQU0360 5.000000
    NURQ0360 COST     2.459548
    NURQ0460 SMNATU60 -1.000000   CRQU0460 5.000000
    NURQ0460 COST     3.252950
    NURQ0560 SMNATU60 -1.000000   CRQU0560 5.000000
    NURQ0560 COST     3.993459
    NURQ0660 SMNATU60 -1.000000   CRQU0660 5.000000
    NURQ0660 COST     4.681075
    NURQ0760 SMNATU60 -1.000000   CRQU0760 5.000000
    NURQ0760 COST     5.289350
    NURQ0860 SMNATU60 -1.000000   CRQU0860 5.000000
    NURQ0860 COST     5.844732
    NURQ0960 SMNATU60 -1.000000   CRQU0960 5.000000
    NURQ0960 COST     6.320773
    NURQ1060 SMNATU60 -1.000000   CRQU1060 5.000000
    NURQ1060 COST     6.743921
    ELECDM60 WTELEC60 -1.000000   DMELEC60 -1.000000
    NELEDM60 WTNELE60 -1.000000   DMNELE60 -1.000000
    WT251560 INTSUM60 1.000000   WTELEC60 1.329960
    WT251560 WTNELE60 111.356050   COST     5.626852
    WT251860 INTSUM60 1.000000   WTELEC60 1.329960
    WT251860 WTNELE60 130.981300   COST     3.306733
    WT252160 INTSUM60 1.000000   WTELEC60 1.329960
    WT252160 WTNELE60 153.991700   COST     1.633966
    WT252460 INTSUM60 1.000000   WTELEC60 1.329960
    WT252460 WTNELE60 180.958550   COST     0.426767
    WT252760 INTSUM60 1.000000   WTELEC60 1.329960
    WT252760 WTNELE60 212.547450   COST     -0.445273
    WT253060 INTSUM60 1.000000   WTELEC60 1.329960
    WT253060 WTNELE60 249.533500   COST     -1.075806
    WT281560 INTSUM60 1.000000   WTELEC60 1.561879
    WT281560 WTNELE60 111.356050   COST     4.384108
    WT281860 INTSUM60 1.000000   WTELEC60 1.561879
    WT281860 WTNELE60 130.981300   COST     2.408497
    WT282160 INTSUM60 1.000000   WTELEC60 1.561879
    WT282160 WTNELE60 153.991700   COST     0.984113
    WT282460 INTSUM60 1.000000   WTELEC60 1.561879
    WT282460 WTNELE60 180.958550   COST     -0.043832
    WT282760 INTSUM60 1.000000   WTELEC60 1.561879
    WT282760 WTNELE60 212.547450   COST     -0.786386
    WT283060 INTSUM60 1.000000   WTELEC60 1.561879
    WT283060 WTNELE60 249.533500   COST     -1.323292
    WT311560 INTSUM60 1.000000   WTELEC60 1.833381
    WT311560 WTNELE60 111.356050   COST     3.328738
    WT311860 INTSUM60 1.000000   WTELEC60 1.833381
    WT311860 WTNELE60 130.981300   COST     1.645692
    WT312160 INTSUM60 1.000000   WTELEC60 1.833381
    WT312160 WTNELE60 153.991700   COST     0.432242
    WT312460 INTSUM60 1.000000   WTELEC60 1.833381
    WT312460 WTNELE60 180.958550   COST     -0.443477
    WT312760 INTSUM60 1.000000   WTELEC60 1.833381
    WT312760 WTNELE60 212.547450   COST     -1.076067
    WT313060 INTSUM60 1.000000   WTELEC60 1.833381
    WT313060 WTNELE60 249.533500   COST     -1.533464
    WT341560 INTSUM60 1.000000   WTELEC60 2.151076
    WT341560 WTNELE60 111.356050   COST     2.432066
    WT341860 INTSUM60 1.000000   WTELEC60 2.151076
    WT341860 WTNELE60 130.981300   COST     0.997590
    WT342160 INTSUM60 1.000000   WTELEC60 2.151076
    WT342160 WTNELE60 153.991700   COST     -0.036643
    WT342460 INTSUM60 1.000000   WTELEC60 2.151076
    WT342460 WTNELE60 180.958550   COST     -0.783026
    WT342760 INTSUM60 1.000000   WTELEC60 2.151076
    WT342760 WTNELE60 212.547450   COST     -1.322189
    WT343060 INTSUM60 1.000000   WTELEC60 2.151076
    WT343060 WTNELE60 249.533500   COST     -1.712032
    WT371560 INTSUM60 1.000000   WTELEC60 2.522654
    WT371560 WTNELE60 111.356050   COST     1.669866
    WT371860 INTSUM60 1.000000   COST     0.446684
    WT371860 WTELEC60 2.522654   WTNELE60 130.981300
    WT372160 INTSUM60 1.000000   WTELEC60 2.522654
    WT372160 WTNELE60 153.991700   COST     -0.435211
    WT372460 INTSUM60 1.000000   WTELEC60 2.522654
    WT372460 WTNELE60 180.958550   COST     -1.071654
    WT372760 INTSUM60 1.000000   WTELEC60 2.522654
    WT372760 WTNELE60 212.547450   COST     -1.531400
    WT373060 INTSUM60 1.000000   WTELEC60 2.522654
    WT373060 WTNELE60 249.533500   COST     -1.863821
    WT401560 INTSUM60 1.000000   WTELEC60 2.957057
    WT401560 WTNELE60 111.356050   COST     1.021668
    WT401860 INTSUM60 1.000000   WTELEC60 2.957057
    WT401860 WTNELE60 130.981300   COST     -0.021824
    WT402160 INTSUM60 1.000000   WTELEC60 2.957057
    WT402160 WTNELE60 153.991700   COST     -0.774165
    WT402460 INTSUM60 1.000000   WTELEC60 2.957057
    WT402460 WTNELE60 180.958550   COST     -1.317112
    WT402760 INTSUM60 1.000000   WTELEC60 2.957057
    WT402760 WTNELE60 212.547450   COST     -1.709319
    WT403060 INTSUM60 1.000000   WTELEC60 2.957057
    WT403060 WTNELE60 249.533500   COST     -1.992906
    PCCOAL65 CPCOAL65 -1.000000   DMELEC65 1.000000
    PCCOAL65 SMCOAL65 0.065700   CPCOAL70 0.844000
    PCCOAL65 COST     1.294002
    PCLWRX65 CPLWRX65 -1.000000   DMELEC65 1.000000
    PCLWRX65 SMNATU65 0.160000   DISWUX65 0.110000
    PCLWRX65 CPLWRX70 0.844000   SMPLUT70 0.170000
    PCLWRX65 SMNATU70 -0.016000   DISWUX70 -0.007000
    PCLWRX65 COST     0.377691
    PCFBRX65 CPFBRX65 -1.000000   DMELEC65 1.000000
    PCFBRX65 CPFBRX70 0.844000   SMPLUT70 0.062000
    PCFBRX65 DIBRGN70 -1.000000   COST     0.377691
    PCADVX65 CPADVX65 -1.000000   DMELEC65 1.000000
    PCADVX65 CPADVX70 0.844000   COST     0.215120
    PCPETG65 CPPETG65 -1.000000   DMNELE65 1.000000
    PCPETG65 SMPETG65 0.001000   CPPETG70 0.844000
    PCPETG65 COST     0.024632
    PCSYNF65 CPSYNF65 -1.000000   DMNELE65 1.000000
    PCSYNF65 SMCOAL65 0.001330   CPSYNF70 0.844000
    PCSYNF65 COST     0.041053
    PCHTRB65 CPHTRB65 -1.000000   DMNELE65 22.500000
    PCHTRB65 DIBRGN65 0.300000   CPHTRB70 0.844000
    PCHTRB65 SMNATU70 -0.007000   DISWUX70 -0.005000
    PCHTRB65 COST     0.229899
    PCELHY65 CPELHY65 -1.000000   DMELEC65 -1.000000
    PCELHY65 DMNELE65 36.000000   CPELHY70 0.844000
    PCSWUX65 CPSWUX65 -1.000000   DISWUX65 -1.000000
    PCSWUX65 CPSWUX70 0.844000
    PCFBPL65 SMPLUT65 0.160000   DIBRGN65 1.000000
    DPCOAL65 CPCOAL65 5.000000   COST     10.819130
    DPLWRX65 CPLWRX65 5.000000   DISWUX65 0.230000
    DPLWRX65 SMNATU65 0.500000   COST     14.425500
    DPFBRX65 CPFBRX65 5.000000   SMPLUT65 -2.000000
    DPFBRX65 COST     15.627630
    DPADVX65 CPADVX65 5.000000   COST     14.425500
    DPPETG65 CPPETG65 5.000000
    DPSYNF65 CPSYNF65 5.000000
    DPHTRB65 CPHTRB65 5.000000   DISWUX65 0.175000
    DPHTRB65 SMNATU65 0.216000   COST     6.347220
    DPELHY65 CPELHY65 5.000000   COST     1.442550
    DPSWUX65 CPSWUX65 5.000000
    CSCOAL65 SMCOAL65 -0.200000   SMCOAL70 0.200000
    CSPETG65 SMPETG65 -0.200000   SMPETG70 0.200000
    CSPLUT65 SMPLUT65 -0.200000   SMPLUT70 0.200000
    CSNU0165 CRQU0165 -1.000000   CRQU0170 1.000000
    CSNU0265 CRQU0265 -1.000000   CRQU0270 1.000000
    CSNU0365 CRQU0365 -1.000000   CRQU0370 1.000000
    CSNU0465 CRQU0465 -1.000000   CRQU0470 1.000000
    CSNU0565 CRQU0565 -1.000000   CRQU0570 1.000000
    CSNU0665 CRQU0665 -1.000000   CRQU0670 1.000000
    CSNU0765 CRQU0765 -1.000000   CRQU0770 1.000000
    CSNU0865 CRQU0865 -1.000000   CRQU0870 1.000000
    CSNU0965 CRQU0965 -1.000000   CRQU0970 1.000000
    CSNU1065 CRQU1065 -1.000000   CRQU1070 1.000000
    NURQ0165 SMNATU65 -1.000000   CRQU0165 5.000000
    NURQ0165 COST     0.492641
    NURQ0265 SMNATU65 -1.000000   CRQU0265 5.000000
    NURQ0265 COST     0.985281
    NURQ0365 SMNATU65 -1.000000   CRQU0365 5.000000
    NURQ0365 COST     1.527186
    NURQ0465 SMNATU65 -1.000000   CRQU0465 5.000000
    NURQ0465 COST     2.019826
    NURQ0565 SMNATU65 -1.000000   CRQU0565 5.000000
    NURQ0565 COST     2.479624
    NURQ0665 SMNATU65 -1.000000   CRQU0665 5.000000
    NURQ0665 COST     2.906579
    NURQ0765 SMNATU65 -1.000000   CRQU0765 5.000000
    NURQ0765 COST     3.284270
    NURQ0865 SMNATU65 -1.000000   CRQU0865 5.000000
    NURQ0865 COST     3.629119
    NURQ0965 SMNATU65 -1.000000   CRQU0965 5.000000
    NURQ0965 COST     3.924703
    NURQ1065 SMNATU65 -1.000000   CRQU1065 5.000000
    NURQ1065 COST     4.187445
    ELECDM65 WTELEC65 -1.000000   DMELEC65 -1.000000
    NELEDM65 WTNELE65 -1.000000   DMNELE65 -1.000000
    WT251565 INTSUM65 1.000000   WTELEC65 1.504728
    WT251565 WTNELE65 119.962090   COST     4.417131
    WT251865 INTSUM65 1.000000   WTELEC65 1.504728
    WT251865 WTNELE65 143.201700   COST     2.533646
    WT252165 INTSUM65 1.000000   WTELEC65 1.504728
    WT252165 WTNELE65 170.854340   COST     1.215125
    WT252465 INTSUM65 1.000000   WTELEC65 1.504728
    WT252465 WTNELE65 203.741210   COST     0.291136
    WT252765 INTSUM65 1.000000   WTELEC65 1.504728
    WT252765 WTNELE65 242.833230   COST     -0.357050
    WT253065 INTSUM65 1.000000   WTELEC65 1.504728
    WT253065 WTNELE65 289.277710   COST     -0.812229
    WT281565 INTSUM65 1.000000   WTELEC65 1.793135
    WT281565 WTNELE65 119.962090   COST     3.401359
    WT281865 INTSUM65 1.000000   WTELEC65 1.793135
    WT281865 WTNELE65 143.201700   COST     1.820813
    WT282165 INTSUM65 1.000000   WTELEC65 1.793135
    WT282165 WTNELE65 170.854340   COST     0.714362
    WT282465 INTSUM65 1.000000   WTELEC65 1.793135
    WT282465 WTNELE65 203.741210   COST     -0.061013
    WT282765 INTSUM65 1.000000   WTELEC65 1.793135
    WT282765 WTNELE65 242.833230   COST     -0.604945
    WT283065 INTSUM65 1.000000   WTELEC65 1.793135
    WT283065 WTNELE65 289.277710   COST     -0.986913
    WT311565 INTSUM65 1.000000   WTELEC65 2.135728
    WT311565 WTNELE65 119.962090   COST     2.551236
    WT311865 INTSUM65 1.000000   WTELEC65 2.135728
    WT311865 WTNELE65 143.201700   COST     1.224226
    WT312165 INTSUM65 1.000000   WTELEC65 2.135728
    WT312165 WTNELE65 170.854340   COST     0.295262
    WT312465 INTSUM65 1.000000   WTELEC65 2.135728
    WT312465 WTNELE65 203.741210   COST     -0.355735
    WT312765 INTSUM65 1.000000   WTELEC65 2.135728
    WT312765 WTNELE65 242.833230   COST     -0.812414
    WT313065 INTSUM65 1.000000   WTELEC65 2.135728
    WT313065 WTNELE65 289.277710   COST     -1.133111
    WT341565 INTSUM65 1.000000   WTELEC65 2.542485
    WT341565 WTNELE65 119.962090   COST     1.839380
    WT341865 INTSUM65 1.000000   WTELEC65 2.542485
    WT341865 WTNELE65 143.201700   COST     0.724671
    WT342165 INTSUM65 1.000000   WTELEC65 2.542485
    WT342165 WTNELE65 170.854340   COST     -0.055674
    WT342465 INTSUM65 1.000000   WTELEC65 2.542485
    WT342465 WTNELE65 203.741210   COST     -0.602522
    WT342765 INTSUM65 1.000000   WTELEC65 2.542485
    WT342765 WTNELE65 242.833230   COST     -0.986140
    WT343065 INTSUM65 1.000000   WTELEC65 2.542485
    WT343065 WTNELE65 289.277710   COST     -1.255530
    WT371565 INTSUM65 1.000000   WTELEC65 3.025182
    WT371565 WTNELE65 119.962090   COST     1.242997
    WT371865 COST     0.306150   WTNELE65 143.201700
    WT371865 WTELEC65 3.025182   INTSUM65 1.000000
    WT372165 INTSUM65 1.000000   WTELEC65 3.025182
    WT372165 WTNELE65 170.854340   COST     -0.349684
    WT372465 INTSUM65 1.000000   WTELEC65 3.025182
    WT372465 WTNELE65 203.741210   COST     -0.809277
    WT372765 INTSUM65 1.000000   WTELEC65 3.025182
    WT372765 WTNELE65 242.833230   COST     -1.131685
    WT373065 INTSUM65 1.000000   WTELEC65 3.025182
    WT373065 WTNELE65 289.277710   COST     -1.358091
    WT401565 INTSUM65 1.000000   WTELEC65 3.597713
    WT401565 WTNELE65 119.962090   COST     0.743097
    WT401865 INTSUM65 1.000000   WTELEC65 3.597713
    WT401865 WTNELE65 143.201700   COST     -0.044662
    WT402165 INTSUM65 1.000000   WTELEC65 3.597713
    WT402165 WTNELE65 170.854340   COST     -0.596128
    WT402465 INTSUM65 1.000000   WTELEC65 3.597713
    WT402465 WTNELE65 203.741210   COST     -0.982583
    WT402765 INTSUM65 1.000000   WTELEC65 3.597713
    WT402765 WTNELE65 242.833230   COST     -1.253684
    WT403065 INTSUM65 1.000000   WTELEC65 3.597713
    WT403065 WTNELE65 289.277710   COST     -1.444060
    PCCOAL70 CPCOAL70 -1.000000   DMELEC70 1.000000
    PCCOAL70 SMCOAL70 0.065700   CPCOAL75 0.844000
    PCCOAL70 COST     0.803474
    PCLWRX70 CPLWRX70 -1.000000   DMELEC70 1.000000
    PCLWRX70 SMNATU70 0.160000   DISWUX70 0.110000
    PCLWRX70 CPLWRX75 0.844000   SMPLUT75 0.170000
    PCLWRX70 SMNATU75 -0.016000   DISWUX75 -0.007000
    PCLWRX70 COST     0.234516
    PCFBRX70 CPFBRX70 -1.000000   DMELEC70 1.000000
    PCFBRX70 CPFBRX75 0.844000   SMPLUT75 0.062000
    PCFBRX70 DIBRGN75 -1.000000   COST     0.234516
    PCADVX70 CPADVX70 -1.000000   DMELEC70 1.000000
    PCADVX70 CPADVX75 0.844000   COST     0.133572
    PCPETG70 CPPETG70 -1.000000   DMNELE70 1.000000
    PCPETG70 SMPETG70 0.001000   CPPETG75 0.844000
    PCPETG70 COST     0.015295
    PCSYNF70 CPSYNF70 -1.000000   DMNELE70 1.000000
    PCSYNF70 SMCOAL70 0.001330   CPSYNF75 0.844000
    PCSYNF70 COST     0.025491
    PCHTRB70 CPHTRB70 -1.000000   DMNELE70 22.500000
    PCHTRB70 DIBRGN70 0.300000   CPHTRB75 0.844000
    PCHTRB70 SMNATU75 -0.007000   DISWUX75 -0.005000
    PCHTRB70 COST     0.142749
    PCELHY70 CPELHY70 -1.000000   DMELEC70 -1.000000
    PCELHY70 DMNELE70 36.000000   CPELHY75 0.844000
    PCSWUX70 CPSWUX70 -1.000000   DISWUX70 -1.000000
    PCSWUX70 CPSWUX75 0.844000
    PCFBPL70 SMPLUT70 0.160000   DIBRGN70 1.000000
    DPCOAL70 CPCOAL70 5.000000   COST     6.717826
    DPLWRX70 CPLWRX70 5.000000   DISWUX70 0.230000
    DPLWRX70 SMNATU70 0.500000   COST     8.957101
    DPFBRX70 CPFBRX70 5.000000   SMPLUT70 -2.000000
    DPFBRX70 COST     9.703526
    DPADVX70 CPADVX70 5.000000   COST     8.957101
    DPPETG70 CPPETG70 5.000000
    DPSYNF70 CPSYNF70 5.000000
    DPHTRB70 CPHTRB70 5.000000   DISWUX70 0.175000
    DPHTRB70 SMNATU70 0.216000   COST     3.941124
    DPELHY70 CPELHY70 5.000000   COST     0.895710
    DPSWUX70 CPSWUX70 5.000000
    CSCOAL70 SMCOAL70 -0.200000   SMCOAL75 0.200000
    CSPETG70 SMPETG70 -0.200000   SMPETG75 0.200000
    CSPLUT70 SMPLUT70 -0.200000   SMPLUT75 0.200000
    CSNU0170 CRQU0170 -1.000000   CRQU0175 1.000000
    CSNU0270 CRQU0270 -1.000000   CRQU0275 1.000000
    CSNU0370 CRQU0370 -1.000000   CRQU0375 1.000000
    CSNU0470 CRQU0470 -1.000000   CRQU0475 1.000000
    CSNU0570 CRQU0570 -1.000000   CRQU0575 1.000000
    CSNU0670 CRQU0670 -1.000000   CRQU0675 1.000000
    CSNU0770 CRQU0770 -1.000000   CRQU0775 1.000000
    CSNU0870 CRQU0870 -1.000000   CRQU0875 1.000000
    CSNU0970 CRQU0970 -1.000000   CRQU0975 1.000000
    CSNU1070 CRQU1070 -1.000000   CRQU1075 1.000000
    NURQ0170 SMNATU70 -1.000000   CRQU0170 5.000000
    NURQ0170 COST     0.305891
    NURQ0270 SMNATU70 -1.000000   CRQU0270 5.000000
    NURQ0270 COST     0.611782
    NURQ0370 SMNATU70 -1.000000   CRQU0370 5.000000
    NURQ0370 COST     0.948262
    NURQ0470 SMNATU70 -1.000000   CRQU0470 5.000000
    NURQ0470 COST     1.254153
    NURQ0570 SMNATU70 -1.000000   CRQU0570 5.000000
    NURQ0570 COST     1.539651
    NURQ0670 SMNATU70 -1.000000   CRQU0670 5.000000
    NURQ0670 COST     1.804757
    NURQ0770 SMNATU70 -1.000000   CRQU0770 5.000000
    NURQ0770 COST     2.039273
    NURQ0870 SMNATU70 -1.000000   CRQU0870 5.000000
    NURQ0870 COST     2.253397
    NURQ0970 SMNATU70 -1.000000   CRQU0970 5.000000
    NURQ0970 COST     2.436932
    NURQ1070 SMNATU70 -1.000000   CRQU1070 5.000000
    NURQ1070 COST     2.600074
    ELECDM70 WTELEC70 -1.000000   DMELEC70 -1.000000
    NELEDM70 WTNELE70 -1.000000   DMNELE70 -1.000000
    WT251570 INTSUM70 1.000000   WTELEC70 1.702462
    WT251570 WTNELE70 129.233240   COST     3.460606
    WT251870 INTSUM70 1.000000   WTELEC70 1.702462
    WT251870 WTNELE70 156.562250   COST     1.938784
    WT252170 INTSUM70 1.000000   WTELEC70 1.702462
    WT252170 WTNELE70 189.563500   COST     0.904386
    WT252470 INTSUM70 1.000000   WTELEC70 1.702462
    WT252470 WTNELE70 229.392210   COST     0.200496
    WT252770 INTSUM70 1.000000   WTELEC70 1.702462
    WT252770 WTNELE70 277.434410   COST     -0.279029
    WT253070 INTSUM70 1.000000   WTELEC70 1.702462
    WT253070 WTNELE70 335.352150   COST     -0.606072
    WT281570 INTSUM70 1.000000   WTELEC70 2.058631
    WT281570 WTNELE70 129.233240   COST     2.634308
    WT281870 INTSUM70 1.000000   WTELEC70 2.058631
    WT281870 WTNELE70 156.562250   COST     1.375781
    WT282170 INTSUM70 1.000000   WTELEC70 2.058631
    WT282170 WTNELE70 189.563500   COST     0.520346
    WT282470 INTSUM70 1.000000   WTELEC70 2.058631
    WT282470 WTNELE70 229.392210   COST     -0.061761
    WT282770 INTSUM70 1.000000   WTELEC70 2.058631
    WT282770 WTNELE70 277.434410   COST     -0.458323
    WT283070 INTSUM70 1.000000   WTELEC70 2.058631
    WT283070 WTNELE70 335.352150   COST     -0.728783
    WT311570 INTSUM70 1.000000   WTELEC70 2.487937
    WT311570 WTNELE70 129.233240   COST     1.952779
    WT311870 INTSUM70 1.000000   WTELEC70 2.487937
    WT311870 WTNELE70 156.562250   COST     0.911416
    WT312170 INTSUM70 1.000000   WTELEC70 2.487937
    WT312170 WTNELE70 189.563500   COST     0.203591
    WT312470 INTSUM70 1.000000   WTELEC70 2.487937
    WT312470 WTNELE70 229.392210   COST     -0.278071
    WT312770 INTSUM70 1.000000   WTELEC70 2.487937
    WT312770 WTNELE70 277.434410   COST     -0.606204
    WT313070 INTSUM70 1.000000   WTELEC70 2.487937
    WT313070 WTNELE70 335.352150   COST     -0.829995
    WT341570 INTSUM70 1.000000   WTELEC70 3.005115
    WT341570 WTNELE70 129.233240   COST     1.390339
    WT341870 INTSUM70 1.000000   WTELEC70 3.005115
    WT341870 WTNELE70 156.562250   COST     0.528194
    WT342170 INTSUM70 1.000000   WTELEC70 3.005115
    WT342170 WTNELE70 189.563500   COST     -0.057814
    WT342470 INTSUM70 1.000000   WTELEC70 3.005115
    WT342470 WTNELE70 229.392210   COST     -0.456583
    WT342770 INTSUM70 1.000000   WTELEC70 3.005115
    WT342770 WTNELE70 277.434410   COST     -0.728244
    WT343070 INTSUM70 1.000000   WTELEC70 3.005115
    WT343070 WTNELE70 335.352150   COST     -0.913521
    WT371570 INTSUM70 1.000000   WTELEC70 3.627816
    WT371570 WTNELE70 129.233240   COST     0.925921
    WT371870 INTSUM70 1.000000   WTNELE70 156.562250
    WT371870 WTELEC70 3.627816   COST     0.211760
    WT372170 INTSUM70 1.000000   WTELEC70 3.627816
    WT372170 WTNELE70 189.563500   COST     -0.273662
    WT372470 INTSUM70 1.000000   WTELEC70 3.627816
    WT372470 WTNELE70 229.392210   COST     -0.603984
    WT372770 INTSUM70 1.000000   WTELEC70 3.627816
    WT372770 WTNELE70 277.434410   COST     -0.829015
    WT373070 INTSUM70 1.000000   WTELEC70 3.627816
    WT373070 WTNELE70 335.352150   COST     -0.982490
    WT401570 INTSUM70 1.000000   WTELEC70 4.377167
    WT401570 WTNELE70 129.233240   COST     0.542229
    WT401870 INTSUM70 1.000000   WTELEC70 4.377167
    WT401870 WTNELE70 156.562250   COST     -0.049671
    WT402170 INTSUM70 1.000000   WTELEC70 4.377167
    WT402170 WTNELE70 189.563500   COST     -0.451991
    WT402470 INTSUM70 1.000000   WTELEC70 4.377167
    WT402470 WTNELE70 229.392210   COST     -0.725763
    WT402770 INTSUM70 1.000000   WTELEC70 4.377167
    WT402770 WTNELE70 277.434410   COST     -0.912270
    WT403070 INTSUM70 1.000000   WTELEC70 4.377167
    WT403070 WTNELE70 335.352150   COST     -1.039471
    PCCOAL75 CPCOAL75 -1.000000   DMELEC75 1.000000
    PCCOAL75 SMCOAL75 0.065700   COST     0.446604
    PCLWRX75 CPLWRX75 -1.000000   DMELEC75 1.000000
    PCLWRX75 SMNATU75 0.160000   DISWUX75 0.110000
    PCLWRX75 COST     0.130354
    PCFBRX75 CPFBRX75 -1.000000   DMELEC75 1.000000
    PCFBRX75 COST     0.130354
    PCADVX75 CPADVX75 -1.000000   DMELEC75 1.000000
    PCADVX75 COST     0.074245
    PCPETG75 CPPETG75 -1.000000   DMNELE75 1.000000
    PCPETG75 SMPETG75 0.001000   COST     0.008501
    PCSYNF75 CPSYNF75 -1.000000   DMNELE75 1.000000
    PCSYNF75 SMCOAL75 0.001330   COST     0.014169
    PCHTRB75 CPHTRB75 -1.000000   DMNELE75 22.500000
    PCHTRB75 DIBRGN75 0.300000   COST     0.079346
    PCELHY75 CPELHY75 -1.000000   DMELEC75 -1.000000
    PCELHY75 DMNELE75 36.000000
    PCSWUX75 CPSWUX75 -1.000000   DISWUX75 -1.000000
    PCFBPL75 SMPLUT75 0.160000   DIBRGN75 1.000000
    DPCOAL75 CPCOAL75 5.000000   COST     4.171241
    DPLWRX75 CPLWRX75 5.000000   DISWUX75 0.230000
    DPLWRX75 SMNATU75 0.500000   COST     5.561655
    DPFBRX75 CPFBRX75 5.000000   SMPLUT75 -2.000000
    DPFBRX75 COST     6.025126
    DPADVX75 CPADVX75 5.000000   COST     5.561655
    DPPETG75 CPPETG75 5.000000
    DPSYNF75 CPSYNF75 5.000000
    DPHTRB75 CPHTRB75 5.000000   DISWUX75 0.175000
    DPHTRB75 SMNATU75 0.216000   COST     2.447128
    DPELHY75 CPELHY75 5.000000   COST     0.556165
    DPSWUX75 CPSWUX75 5.000000
    CSCOAL75 SMCOAL75 -0.200000
    CSPETG75 SMPETG75 -0.200000   CRPETG75 1.000000
    CSPLUT75 SMPLUT75 -0.200000
    NURQ0175 SMNATU75 -1.000000   CRQU0175 5.000000
    NURQ0175 COST     0.189934
    NURQ0275 SMNATU75 -1.000000   CRQU0275 5.000000
    NURQ0275 COST     0.379869
    NURQ0375 SMNATU75 -1.000000   CRQU0375 5.000000
    NURQ0375 COST     0.588796
    NURQ0475 SMNATU75 -1.000000   CRQU0475 5.000000
    NURQ0475 COST     0.778730
    NURQ0575 SMNATU75 -1.000000   CRQU0575 5.000000
    NURQ0575 COST     0.956002
    NURQ0675 SMNATU75 -1.000000   CRQU0675 5.000000
    NURQ0675 COST     1.120612
    NURQ0775 SMNATU75 -1.000000   CRQU0775 5.000000
    NURQ0775 COST     1.266228
    NURQ0875 SMNATU75 -1.000000   CRQU0875 5.000000
    NURQ0875 COST     1.399182
    NURQ0975 SMNATU75 -1.000000   CRQU0975 5.000000
    NURQ0975 COST     1.513143
    NURQ1075 SMNATU75 -1.000000   CRQU1075 5.000000
    NURQ1075 COST     1.614441
    ELECDM75 WTELEC75 -1.000000   DMELEC75 -1.000000
    NELEDM75 WTNELE75 -1.000000   DMNELE75 -1.000000
    WT251575 INTSUM75 1.000000   WTELEC75 1.926179
    WT251575 WTNELE75 139.220900   COST     2.707044
    WT251875 INTSUM75 1.000000   WTELEC75 1.926179
    WT251875 WTNELE75 171.169330   COST     1.482040
    WT252175 INTSUM75 1.000000   WTELEC75 1.926179
    WT252175 WTNELE75 210.321390   COST     0.673576
    WT252475 INTSUM75 1.000000   WTELEC75 1.926179
    WT252475 WTNELE75 258.272670   COST     0.139363
    WT252775 INTSUM75 1.000000   WTELEC75 1.926179
    WT252775 WTNELE75 316.965900   COST     -0.214060
    WT253075 INTSUM75 1.000000   WTELEC75 1.926179
    WT253075 WTNELE75 388.765060   COST     -0.448159
    WT281575 INTSUM75 1.000000   WTELEC75 2.363438
    WT281575 WTNELE75 139.220900   COST     2.037427
    WT281875 INTSUM75 1.000000   WTELEC75 2.363438
    WT281875 WTNELE75 171.169330   COST     1.039061
    WT282175 INTSUM75 1.000000   WTELEC75 2.363438
    WT282175 WTNELE75 210.321390   COST     0.380170
    WT282475 INTSUM75 1.000000   WTELEC75 2.363438
    WT282475 WTNELE75 258.272670   COST     -0.055208
    WT282775 INTSUM75 1.000000   WTELEC75 2.363438
    WT282775 WTNELE75 316.965900   COST     -0.343244
    WT283075 INTSUM75 1.000000   WTELEC75 2.363438
    WT283075 WTNELE75 388.765060   COST     -0.534033
    WT311575 INTSUM75 1.000000   WTELEC75 2.898229
    WT311575 WTNELE75 139.220900   COST     1.493130
    WT311875 INTSUM75 1.000000   WTELEC75 2.898229
    WT311875 WTNELE75 171.169330   COST     0.678986
    WT312175 INTSUM75 1.000000   WTELEC75 2.898229
    WT312175 WTNELE75 210.321390   COST     0.141676
    WT312475 INTSUM75 1.000000   WTELEC75 2.898229
    WT312475 WTNELE75 258.272670   COST     -0.213365
    WT312775 INTSUM75 1.000000   WTELEC75 2.898229
    WT312775 WTNELE75 316.965900   COST     -0.448252
    WT313075 INTSUM75 1.000000   WTELEC75 2.898229
    WT313075 WTNELE75 388.765060   COST     -0.603835
    WT341575 INTSUM75 1.000000   WTELEC75 3.551925
    WT341575 WTNELE75 139.220900   COST     1.050432
    WT341875 INTSUM75 1.000000   WTELEC75 3.551925
    WT341875 WTNELE75 171.169330   COST     0.386122
    WT342175 INTSUM75 1.000000   WTELEC75 3.551925
    WT342175 WTNELE75 210.321390   COST     -0.052301
    WT342475 INTSUM75 1.000000   WTELEC75 3.551925
    WT342475 WTNELE75 258.272670   COST     -0.342000
    WT342775 INTSUM75 1.000000   WTELEC75 3.551925
    WT342775 WTNELE75 316.965900   COST     -0.533658
    WT343075 INTSUM75 1.000000   WTELEC75 3.551925
    WT343075 WTNELE75 388.765060   COST     -0.660608
    WT371575 INTSUM75 1.000000   WTELEC75 4.350499
    WT371575 WTNELE75 139.220900   COST     0.690151
    WT371875 WTELEC75 4.350499   COST     0.147782
    WT371875 WTNELE75 171.169330   INTSUM75 1.000000
    WT372175 INTSUM75 1.000000   WTELEC75 4.350499
    WT372175 WTNELE75 210.321390   COST     -0.210165
    WT372475 INTSUM75 1.000000   WTELEC75 4.350499
    WT372475 WTNELE75 258.272670   COST     -0.446687
    WT372775 INTSUM75 1.000000   WTELEC75 4.350499
    WT372775 WTNELE75 316.965900   COST     -0.603165
    WT373075 INTSUM75 1.000000   WTELEC75 4.350499
    WT373075 WTNELE75 388.765060   COST     -0.706812
    WT401575 INTSUM75 1.000000   WTELEC75 5.325493
    WT401575 WTNELE75 139.220900   COST     0.396770
    WT401875 INTSUM75 1.000000   WTELEC75 5.325493
    WT401875 WTNELE75 171.169330   COST     -0.046302
    WT402175 INTSUM75 1.000000   WTELEC75 5.325493
    WT402175 WTNELE75 210.321390   COST     -0.338715
    WT402475 INTSUM75 1.000000   WTELEC75 5.325493
    WT402475 WTNELE75 258.272670   COST     -0.531935
    WT402775 INTSUM75 1.000000   WTELEC75 5.325493
    WT402775 WTNELE75 316.965900   COST     -0.659765
    WT403075 INTSUM75 1.000000   WTELEC75 5.325493
    WT403075 WTNELE75 388.765060   COST     -0.744436
    SLACK6372 DMELEC00 -1.000000
    SLACK6373 DMNELE00 -1.000000
    SLACK6374 SMNATU00 1.000000
    SLACK6375 DISWUX00 1.000000
    SLACK6376 DIBRGN00 1.000000
    SLACK6377 NCCOAL00 -1.000000
    SLACK6378 DMELEC05 -1.000000
    SLACK6379 DMNELE05 -1.000000
    SLACK6380 SMNATU05 1.000000
    SLACK6381 DISWUX05 1.000000
    SLACK6382 DIBRGN05 1.000000
    SLACK6383 NCCOAL05 -1.000000
    SLACK6384 DMELEC10 -1.000000
    SLACK6385 DMNELE10 -1.000000
    SLACK6386 SMNATU10 1.000000
    SLACK6387 DISWUX10 1.000000
    SLACK6388 DIBRGN10 1.000000
    SLACK6389 NCCOAL10 -1.000000
    SLACK6390 DMELEC15 -1.000000
    SLACK6391 DMNELE15 -1.000000
    SLACK6392 SMNATU15 1.000000
    SLACK6393 DISWUX15 1.000000
    SLACK6394 DIBRGN15 1.000000
    SLACK6395 NCCOAL15 -1.000000
    SLACK6396 DMELEC20 -1.000000
    SLACK6397 DMNELE20 -1.000000
    SLACK6398 SMNATU20 1.000000
    SLACK6399 DISWUX20 1.000000
    SLACK6400 DIBRGN20 1.000000
    SLACK6401 NCCOAL20 -1.000000
    SLACK6402 DMELEC25 -1.000000
    SLACK6403 DMNELE25 -1.000000
    SLACK6404 SMNATU25 1.000000
    SLACK6405 DISWUX25 1.000000
    SLACK6406 DIBRGN25 1.000000
    SLACK6407 NCCOAL25 -1.000000
    SLACK6408 NCFBRX25 -1.000000
    SLACK6409 DMELEC30 -1.000000
    SLACK6410 DMNELE30 -1.000000
    SLACK6411 SMNATU30 1.000000
    SLACK6412 DISWUX30 1.000000
    SLACK6413 DIBRGN30 1.000000
    SLACK6414 NCCOAL30 -1.000000
    SLACK6415 NCFBRX30 -1.000000
    SLACK6416 DMELEC35 -1.000000
    SLACK6417 DMNELE35 -1.000000
    SLACK6418 SMNATU35 1.000000
    SLACK6419 DISWUX35 1.000000
    SLACK6420 DIBRGN35 1.000000
    SLACK6421 NCCOAL35 -1.000000
    SLACK6422 NCFBRX35 -1.000000
    SLACK6423 DMELEC40 -1.000000
    SLACK6424 DMNELE40 -1.000000
    SLACK6425 SMNATU40 1.000000
    SLACK6426 DISWUX40 1.000000
    SLACK6427 DIBRGN40 1.000000
    SLACK6428 NCCOAL40 -1.000000
    SLACK6429 DMELEC45 -1.000000
    SLACK6430 DMNELE45 -1.000000
    SLACK6431 SMNATU45 1.000000
    SLACK6432 DISWUX45 1.000000
    SLACK6433 DIBRGN45 1.000000
    SLACK6434 NCADVX45 -1.000000
    SLACK6435 DMELEC50 -1.000000
    SLACK6436 DMNELE50 -1.000000
    SLACK6437 SMNATU50 1.000000
    SLACK6438 DISWUX50 1.000000
    SLACK6439 DIBRGN50 1.000000
    SLACK6440 NCADVX50 -1.000000
    SLACK6441 DMELEC55 -1.000000
    SLACK6442 DMNELE55 -1.000000
    SLACK6443 SMNATU55 1.000000
    SLACK6444 DISWUX55 1.000000
    SLACK6445 DIBRGN55 1.000000
    SLACK6446 NCADVX55 -1.000000
    SLACK6447 DMELEC60 -1.000000
    SLACK6448 DMNELE60 -1.000000
    SLACK6449 SMNATU60 1.000000
    SLACK6450 DISWUX60 1.000000
    SLACK6451 DIBRGN60 1.000000
    SLACK6452 DMELEC65 -1.000000
    SLACK6453 DMNELE65 -1.000000
    SLACK6454 SMNATU65 1.000000
    SLACK6455 DISWUX65 1.000000
    SLACK6456 DIBRGN65 1.000000
    SLACK6457 DMELEC70 -1.000000
    SLACK6458 DMNELE70 -1.000000
    SLACK6459 SMNATU70 1.000000
    SLACK6460 DISWUX70 1.000000
    SLACK6461 DIBRGN70 1.000000
    SLACK6462 DMELEC75 -1.000000
    SLACK6463 DMNELE75 -1.000000
    SLACK6464 SMNATU75 1.000000
    SLACK6465 DISWUX75 1.000000
    SLACK6466 DIBRGN75 1.000000
    SLACK6467 CRQU0175 1.000000
    SLACK6468 CRQU0275 1.000000
    SLACK6469 CRQU0375 1.000000
    SLACK6470 CRQU0475 1.000000
    SLACK6471 CRQU0575 1.000000
    SLACK6472 CRQU0675 1.000000
    SLACK6473 CRQU0775 1.000000
    SLACK6474 CRQU0875 1.000000
    SLACK6475 CRQU0975 1.000000
    SLACK6476 CRQU1075 1.000000
    SLACK6477 CRPETG75 1.000000
RHS
    RHS      DMELEC05 0.101835
    RHS      DMELEC10 -0.225654
    RHS      DMELEC15 -0.204548
    RHS      DMELEC20 -0.174152
    RHS      DMELEC25 -0.130688
    RHS      DMELEC30 -0.053914
    RHS      DMELEC35 -0.056664
    RHS      DMELEC40 -0.059555
    RHS      DMELEC45 -0.062592
    RHS      DMELEC50 -0.065785
    RHS      DMELEC55 -0.069141
    RHS      DMELEC60 -0.072668
    RHS      DMELEC65 -0.076375
    RHS      DMELEC70 -0.080271
    RHS      DMELEC75 -0.084365
    RHS      DMNELE05 1.191100
    RHS      DMNELE10 -43.234000
    RHS      DMNELE15 -37.637300
    RHS      DMNELE20 -32.956400
    RHS      DMNELE25 -27.007600
    RHS      DMNELE30 -20.000000
    RHS      DMNELE35 -22.000000
    RHS      DMNELE40 -24.000000
    RHS      DMNELE45 -26.000000
    RHS      DMNELE50 -28.000000
    RHS      DMNELE55 -30.000000
    RHS      DMNELE60 -32.000000
    RHS      DMNELE65 -34.000000
    RHS      DMNELE70 -36.000000
    RHS      DMNELE75 -38.000000
    RHS      INTSUM10 1.000000
    RHS      INTSUM15 1.000000
    RHS      INTSUM20 1.000000
    RHS      INTSUM25 1.000000
    RHS      INTSUM30 1.000000
    RHS      INTSUM35 1.000000
    RHS      INTSUM40 1.000000
    RHS      INTSUM45 1.000000
    RHS      INTSUM50 1.000000
    RHS      INTSUM55 1.000000
    RHS      INTSUM60 1.000000
    RHS      INTSUM65 1.000000
    RHS      INTSUM70 1.000000
    RHS      INTSUM75 1.000000
    RHS      SMCOAL00 -0.012980
    RHS      SMCOAL05 -0.013410
    RHS      SMCOAL10 -0.013810
    RHS      SMCOAL15 -0.014120
    RHS      SMCOAL20 -0.014270
    RHS      SMCOAL25 -0.014180
    RHS      SMCOAL30 -0.013107
    RHS      SMCOAL35 -0.015195
    RHS      SMCOAL40 -0.017615
    RHS      SMCOAL45 -0.020421
    RHS      SMCOAL50 -0.023673
    RHS      SMCOAL55 -0.027444
    RHS      SMCOAL60 -0.031815
    RHS      SMCOAL65 -0.036882
    RHS      SMCOAL70 -0.042756
    RHS      SMCOAL75 -0.049566
    RHS      SMPETG00 -0.044000
    RHS      SMPETG05 -0.039750
    RHS      SMPETG10 -0.034590
    RHS      SMPETG15 -0.028300
    RHS      SMPETG20 -0.020650
    RHS      SMPETG25 -0.011350
    RHS      CRQU0275 1.000000
    RHS      CRQU0375 1.000000
    RHS      CRQU0475 1.000000
    RHS      CRQU0575 1.000000
    RHS      CRQU0675 1.000000
    RHS      CRQU0775 1.000000
    RHS      CRQU0875 1.000000
    RHS      CRQU0975 1.000000
    RHS      CRQU1075 1.000000
    RHS      CRQU0175 1.500000
    RHS      CRPETG75 2.000000
BOUNDS
ENDATA
