NAME          SCSD1
ROWS
 N  50000000
 E  10000001
 E  20000001
 E  10000002
 E  20000002
 E  10000003
 E  20000003
 E  10000004
 E  20000004
 E  10000005
 E  20000005
 E  10000006
 E  20000006
 E  10000007
 E  20000007
 E  10000008
 E  20000008
 E  10000009
 E  20000009
 E  10000010
 E  20000010
 E  10000011
 E  20000011
 E  10000012
 E  20000012
 E  10000013
 E  20000013
 E  10000014
 E  20000014
 E  10000015
 E  20000015
 E  10000016
 E  20000016
 E  10000017
 E  20000017
 E  10000018
 E  20000018
 E  10000019
 E  20000019
 E  10000020
 E  20000020
 E  10000021
 E  20000021
 E  10000022
 E  20000022
 E  10000023
 E  20000023
 E  10000024
 E  20000024
 E  10000025
 E  20000025
 E  10000026
 E  20000026
 E  10000027
 E  20000027
 E  10000028
 E  20000028
 E  10000029
 E  20000029
 E  10000030
 E  20000030
 E  10000031
 E  20000031
 E  10000032
 E  20000032
 E  10000033
 E  20000033
 E  10000034
 E  20000034
 E  10000035
 E  20000035
 E  10000037
 E  20000037
 E  10000038
 E  20000038
 E  10000039
 E  20000039
 E  10000040
COLUMNS
    30001002 50000000 1.000000   10000001 -1.000000
    30001002 10000002 1.000000
    40001002 50000000 1.000000   10000001 1.000000
    40001002 10000002 -1.000000
    30001003 50000000 2.000000   10000001 -1.000000
    30001003 10000003 1.000000
    40001003 50000000 2.000000   10000001 1.000000
    40001003 10000003 -1.000000
    30001004 50000000 3.000000   10000001 -1.000000
    30001004 10000004 1.000000
    40001004 50000000 3.000000   10000001 1.000000
    40001004 10000004 -1.000000
    30001005 50000000 4.000000   10000001 -1.000000
    30001005 10000005 1.000000
    40001005 50000000 4.000000   10000001 1.000000
    40001005 10000005 -1.000000
    30001006 50000000 1.000000   20000001 1.000000
    30001006 20000006 -1.000000
    40001006 50000000 1.000000   20000001 -1.000000
    40001006 20000006 1.000000
    30001007 50000000 1.414214   10000001 -0.707107
    30001007 20000001 0.707107   10000007 0.707107
    30001007 20000007 -0.707107
    40001007 50000000 1.414214   10000001 0.707107
    40001007 20000001 -0.707107   10000007 -0.707107
    40001007 20000007 0.707107
    30001008 50000000 2.236068   10000001 -0.894427
    30001008 20000001 0.447214   10000008 0.894427
    30001008 20000008 -0.447214
    40001008 50000000 2.236068   10000001 0.894427
    40001008 20000001 -0.447214   10000008 -0.894427
    40001008 20000008 0.447214
    30001009 50000000 3.162278   10000001 -0.948683
    30001009 20000001 0.316228   10000009 0.948683
    30001009 20000009 -0.316228
    40001009 50000000 3.162278   10000001 0.948683
    40001009 20000001 -0.316228   10000009 -0.948683
    40001009 20000009 0.316228
    30001010 50000000 4.123106   10000001 -0.970143
    30001010 20000001 0.242536   10000010 0.970143
    30001010 20000010 -0.242536
    40001010 50000000 4.123106   10000001 0.970143
    40001010 20000001 -0.242536   10000010 -0.970143
    40001010 20000010 0.242536
    30001011 50000000 2.000000   20000001 1.000000
    30001011 20000011 -1.000000
    40001011 50000000 2.000000   20000001 -1.000000
    40001011 20000011 1.000000
    30001012 50000000 2.236068   10000001 -0.447214
    30001012 20000001 0.894427   10000012 0.447214
    30001012 20000012 -0.894427
    40001012 50000000 2.236068   10000001 0.447214
    40001012 20000001 -0.894427   10000012 -0.447214
    40001012 20000012 0.894427
    30001013 50000000 2.828427   10000001 -0.707107
    30001013 20000001 0.707107   10000013 0.707107
    30001013 20000013 -0.707107
    40001013 50000000 2.828427   10000001 0.707107
    40001013 20000001 -0.707107   10000013 -0.707107
    40001013 20000013 0.707107
    30001014 50000000 3.605551   10000001 -0.832050
    30001014 20000001 0.554700   10000014 0.832050
    30001014 20000014 -0.554700
    40001014 50000000 3.605551   10000001 0.832050
    40001014 20000001 -0.554700   10000014 -0.832050
    40001014 20000014 0.554700
    30001015 50000000 4.472136   10000001 -0.894427
    30001015 20000001 0.447214   10000015 0.894427
    30001015 20000015 -0.447214
    40001015 50000000 4.472136   10000001 0.894427
    40001015 20000001 -0.447214   10000015 -0.894427
    40001015 20000015 0.447214
    30002003 50000000 1.000000   10000002 -1.000000
    30002003 10000003 1.000000
    40002003 50000000 1.000000   10000002 1.000000
    40002003 10000003 -1.000000
    30002004 50000000 2.000000   10000002 -1.000000
    30002004 10000004 1.000000
    40002004 50000000 2.000000   10000002 1.000000
    40002004 10000004 -1.000000
    30002005 50000000 3.000000   10000002 -1.000000
    30002005 10000005 1.000000
    40002005 50000000 3.000000   10000002 1.000000
    40002005 10000005 -1.000000
    30002006 50000000 1.414214   10000002 0.707107
    30002006 20000002 0.707107   10000006 -0.707107
    30002006 20000006 -0.707107
    40002006 50000000 1.414214   10000002 -0.707107
    40002006 20000002 -0.707107   10000006 0.707107
    40002006 20000006 0.707107
    30002007 50000000 1.000000   20000002 1.000000
    30002007 20000007 -1.000000
    40002007 50000000 1.000000   20000002 -1.000000
    40002007 20000007 1.000000
    30002008 50000000 1.414214   10000002 -0.707107
    30002008 20000002 0.707107   10000008 0.707107
    30002008 20000008 -0.707107
    40002008 50000000 1.414214   10000002 0.707107
    40002008 20000002 -0.707107   10000008 -0.707107
    40002008 20000008 0.707107
    30002009 50000000 2.236068   10000002 -0.894427
    30002009 20000002 0.447214   10000009 0.894427
    30002009 20000009 -0.447214
    40002009 50000000 2.236068   10000002 0.894427
    40002009 20000002 -0.447214   10000009 -0.894427
    40002009 20000009 0.447214
    30002010 50000000 3.162278   10000002 -0.948683
    30002010 20000002 0.316228   10000010 0.948683
    30002010 20000010 -0.316228
    40002010 50000000 3.162278   10000002 0.948683
    40002010 20000002 -0.316228   10000010 -0.948683
    40002010 20000010 0.316228
    30002011 50000000 2.236068   10000002 0.447214
    30002011 20000002 0.894427   10000011 -0.447214
    30002011 20000011 -0.894427
    40002011 50000000 2.236068   10000002 -0.447214
    40002011 20000002 -0.894427   10000011 0.447214
    40002011 20000011 0.894427
    30002012 50000000 2.000000   20000002 1.000000
    30002012 20000012 -1.000000
    40002012 50000000 2.000000   20000002 -1.000000
    40002012 20000012 1.000000
    30002013 50000000 2.236068   10000002 -0.447214
    30002013 20000002 0.894427   10000013 0.447214
    30002013 20000013 -0.894427
    40002013 50000000 2.236068   10000002 0.447214
    40002013 20000002 -0.894427   10000013 -0.447214
    40002013 20000013 0.894427
    30002014 50000000 2.828427   10000002 -0.707107
    30002014 20000002 0.707107   10000014 0.707107
    30002014 20000014 -0.707107
    40002014 50000000 2.828427   10000002 0.707107
    40002014 20000002 -0.707107   10000014 -0.707107
    40002014 20000014 0.707107
    30002015 50000000 3.605551   10000002 -0.832050
    30002015 20000002 0.554700   10000015 0.832050
    30002015 20000015 -0.554700
    40002015 50000000 3.605551   10000002 0.832050
    40002015 20000002 -0.554700   10000015 -0.832050
    40002015 20000015 0.554700
    30003004 50000000 1.000000   10000003 -1.000000
    30003004 10000004 1.000000
    40003004 50000000 1.000000   10000003 1.000000
    40003004 10000004 -1.000000
    30003005 50000000 2.000000   10000003 -1.000000
    30003005 10000005 1.000000
    40003005 50000000 2.000000   10000003 1.000000
    40003005 10000005 -1.000000
    30003006 50000000 2.236068   10000003 0.894427
    30003006 20000003 0.447214   10000006 -0.894427
    30003006 20000006 -0.447214
    40003006 50000000 2.236068   10000003 -0.894427
    40003006 20000003 -0.447214   10000006 0.894427
    40003006 20000006 0.447214
    30003007 50000000 1.414214   10000003 0.707107
    30003007 20000003 0.707107   10000007 -0.707107
    30003007 20000007 -0.707107
    40003007 50000000 1.414214   10000003 -0.707107
    40003007 20000003 -0.707107   10000007 0.707107
    40003007 20000007 0.707107
    30003008 50000000 1.000000   20000003 1.000000
    30003008 20000008 -1.000000
    40003008 50000000 1.000000   20000003 -1.000000
    40003008 20000008 1.000000
    30003009 50000000 1.414214   10000003 -0.707107
    30003009 20000003 0.707107   10000009 0.707107
    30003009 20000009 -0.707107
    40003009 50000000 1.414214   10000003 0.707107
    40003009 20000003 -0.707107   10000009 -0.707107
    40003009 20000009 0.707107
    30003010 50000000 2.236068   10000003 -0.894427
    30003010 20000003 0.447214   10000010 0.894427
    30003010 20000010 -0.447214
    40003010 50000000 2.236068   10000003 0.894427
    40003010 20000003 -0.447214   10000010 -0.894427
    40003010 20000010 0.447214
    30003011 50000000 2.828427   10000003 0.707107
    30003011 20000003 0.707107   10000011 -0.707107
    30003011 20000011 -0.707107
    40003011 50000000 2.828427   10000003 -0.707107
    40003011 20000003 -0.707107   10000011 0.707107
    40003011 20000011 0.707107
    30003012 50000000 2.236068   10000003 0.447214
    30003012 20000003 0.894427   10000012 -0.447214
    30003012 20000012 -0.894427
    40003012 50000000 2.236068   10000003 -0.447214
    40003012 20000003 -0.894427   10000012 0.447214
    40003012 20000012 0.894427
    30003013 50000000 2.000000   20000003 1.000000
    30003013 20000013 -1.000000
    40003013 50000000 2.000000   20000003 -1.000000
    40003013 20000013 1.000000
    30003014 50000000 2.236068   10000003 -0.447214
    30003014 20000003 0.894427   10000014 0.447214
    30003014 20000014 -0.894427
    40003014 50000000 2.236068   10000003 0.447214
    40003014 20000003 -0.894427   10000014 -0.447214
    40003014 20000014 0.894427
    30003015 50000000 2.828427   10000003 -0.707107
    30003015 20000003 0.707107   10000015 0.707107
    30003015 20000015 -0.707107
    40003015 50000000 2.828427   10000003 0.707107
    40003015 20000003 -0.707107   10000015 -0.707107
    40003015 20000015 0.707107
    30004005 50000000 1.000000   10000004 -1.000000
    30004005 10000005 1.000000
    40004005 50000000 1.000000   10000004 1.000000
    40004005 10000005 -1.000000
    30004006 50000000 3.162278   10000004 0.948683
    30004006 20000004 0.316228   10000006 -0.948683
    30004006 20000006 -0.316228
    40004006 50000000 3.162278   10000004 -0.948683
    40004006 20000004 -0.316228   10000006 0.948683
    40004006 20000006 0.316228
    30004007 50000000 2.236068   10000004 0.894427
    30004007 20000004 0.447214   10000007 -0.894427
    30004007 20000007 -0.447214
    40004007 50000000 2.236068   10000004 -0.894427
    40004007 20000004 -0.447214   10000007 0.894427
    40004007 20000007 0.447214
    30004008 50000000 1.414214   10000004 0.707107
    30004008 20000004 0.707107   10000008 -0.707107
    30004008 20000008 -0.707107
    40004008 50000000 1.414214   10000004 -0.707107
    40004008 20000004 -0.707107   10000008 0.707107
    40004008 20000008 0.707107
    30004009 50000000 1.000000   20000004 1.000000
    30004009 20000009 -1.000000
    40004009 50000000 1.000000   20000004 -1.000000
    40004009 20000009 1.000000
    30004010 50000000 1.414214   10000004 -0.707107
    30004010 20000004 0.707107   10000010 0.707107
    30004010 20000010 -0.707107
    40004010 50000000 1.414214   10000004 0.707107
    40004010 20000004 -0.707107   10000010 -0.707107
    40004010 20000010 0.707107
    30004011 50000000 3.605551   10000004 0.832050
    30004011 20000004 0.554700   10000011 -0.832050
    30004011 20000011 -0.554700
    40004011 50000000 3.605551   10000004 -0.832050
    40004011 20000004 -0.554700   10000011 0.832050
    40004011 20000011 0.554700
    30004012 50000000 2.828427   10000004 0.707107
    30004012 20000004 0.707107   10000012 -0.707107
    30004012 20000012 -0.707107
    40004012 50000000 2.828427   10000004 -0.707107
    40004012 20000004 -0.707107   10000012 0.707107
    40004012 20000012 0.707107
    30004013 50000000 2.236068   10000004 0.447214
    30004013 20000004 0.894427   10000013 -0.447214
    30004013 20000013 -0.894427
    40004013 50000000 2.236068   10000004 -0.447214
    40004013 20000004 -0.894427   10000013 0.447214
    40004013 20000013 0.894427
    30004014 50000000 2.000000   20000004 1.000000
    30004014 20000014 -1.000000
    40004014 50000000 2.000000   20000004 -1.000000
    40004014 20000014 1.000000
    30004015 50000000 2.236068   10000004 -0.447214
    30004015 20000004 0.894427   10000015 0.447214
    30004015 20000015 -0.894427
    40004015 50000000 2.236068   10000004 0.447214
    40004015 20000004 -0.894427   10000015 -0.447214
    40004015 20000015 0.894427
    30005006 50000000 4.123106   10000005 0.970143
    30005006 20000005 0.242536   10000006 -0.970143
    30005006 20000006 -0.242536
    40005006 50000000 4.123106   10000005 -0.970143
    40005006 20000005 -0.242536   10000006 0.970143
    40005006 20000006 0.242536
    30005007 50000000 3.162278   10000005 0.948683
    30005007 20000005 0.316228   10000007 -0.948683
    30005007 20000007 -0.316228
    40005007 50000000 3.162278   10000005 -0.948683
    40005007 20000005 -0.316228   10000007 0.948683
    40005007 20000007 0.316228
    30005008 50000000 2.236068   10000005 0.894427
    30005008 20000005 0.447214   10000008 -0.894427
    30005008 20000008 -0.447214
    40005008 50000000 2.236068   10000005 -0.894427
    40005008 20000005 -0.447214   10000008 0.894427
    40005008 20000008 0.447214
    30005009 50000000 1.414214   10000005 0.707107
    30005009 20000005 0.707107   10000009 -0.707107
    30005009 20000009 -0.707107
    40005009 50000000 1.414214   10000005 -0.707107
    40005009 20000005 -0.707107   10000009 0.707107
    40005009 20000009 0.707107
    30005010 50000000 1.000000   20000005 1.000000
    30005010 20000010 -1.000000
    40005010 50000000 1.000000   20000005 -1.000000
    40005010 20000010 1.000000
    30005011 50000000 4.472136   10000005 0.894427
    30005011 20000005 0.447214   10000011 -0.894427
    30005011 20000011 -0.447214
    40005011 50000000 4.472136   10000005 -0.894427
    40005011 20000005 -0.447214   10000011 0.894427
    40005011 20000011 0.447214
    30005012 50000000 3.605551   10000005 0.832050
    30005012 20000005 0.554700   10000012 -0.832050
    30005012 20000012 -0.554700
    40005012 50000000 3.605551   10000005 -0.832050
    40005012 20000005 -0.554700   10000012 0.832050
    40005012 20000012 0.554700
    30005013 50000000 2.828427   10000005 0.707107
    30005013 20000005 0.707107   10000013 -0.707107
    30005013 20000013 -0.707107
    40005013 50000000 2.828427   10000005 -0.707107
    40005013 20000005 -0.707107   10000013 0.707107
    40005013 20000013 0.707107
    30005014 50000000 2.236068   10000005 0.447214
    30005014 20000005 0.894427   10000014 -0.447214
    30005014 20000014 -0.894427
    40005014 50000000 2.236068   10000005 -0.447214
    40005014 20000005 -0.894427   10000014 0.447214
    40005014 20000014 0.894427
    30005015 50000000 2.000000   20000005 1.000000
    30005015 20000015 -1.000000
    40005015 50000000 2.000000   20000005 -1.000000
    40005015 20000015 1.000000
    30006007 50000000 1.000000   10000006 -1.000000
    30006007 10000007 1.000000
    40006007 50000000 1.000000   10000006 1.000000
    40006007 10000007 -1.000000
    30006008 50000000 2.000000   10000006 -1.000000
    30006008 10000008 1.000000
    40006008 50000000 2.000000   10000006 1.000000
    40006008 10000008 -1.000000
    30006009 50000000 3.000000   10000006 -1.000000
    30006009 10000009 1.000000
    40006009 50000000 3.000000   10000006 1.000000
    40006009 10000009 -1.000000
    30006010 50000000 4.000000   10000006 -1.000000
    30006010 10000010 1.000000
    40006010 50000000 4.000000   10000006 1.000000
    40006010 10000010 -1.000000
    30006011 50000000 1.000000   20000006 1.000000
    30006011 20000011 -1.000000
    40006011 50000000 1.000000   20000006 -1.000000
    40006011 20000011 1.000000
    30006012 50000000 1.414214   10000006 -0.707107
    30006012 20000006 0.707107   10000012 0.707107
    30006012 20000012 -0.707107
    40006012 50000000 1.414214   10000006 0.707107
    40006012 20000006 -0.707107   10000012 -0.707107
    40006012 20000012 0.707107
    30006013 50000000 2.236068   10000006 -0.894427
    30006013 20000006 0.447214   10000013 0.894427
    30006013 20000013 -0.447214
    40006013 50000000 2.236068   10000006 0.894427
    40006013 20000006 -0.447214   10000013 -0.894427
    40006013 20000013 0.447214
    30006014 50000000 3.162278   10000006 -0.948683
    30006014 20000006 0.316228   10000014 0.948683
    30006014 20000014 -0.316228
    40006014 50000000 3.162278   10000006 0.948683
    40006014 20000006 -0.316228   10000014 -0.948683
    40006014 20000014 0.316228
    30006015 50000000 4.123106   10000006 -0.970143
    30006015 20000006 0.242536   10000015 0.970143
    30006015 20000015 -0.242536
    40006015 50000000 4.123106   10000006 0.970143
    40006015 20000006 -0.242536   10000015 -0.970143
    40006015 20000015 0.242536
    30007008 50000000 1.000000   10000007 -1.000000
    30007008 10000008 1.000000
    40007008 50000000 1.000000   10000007 1.000000
    40007008 10000008 -1.000000
    30007009 50000000 2.000000   10000007 -1.000000
    30007009 10000009 1.000000
    40007009 50000000 2.000000   10000007 1.000000
    40007009 10000009 -1.000000
    30007010 50000000 3.000000   10000007 -1.000000
    30007010 10000010 1.000000
    40007010 50000000 3.000000   10000007 1.000000
    40007010 10000010 -1.000000
    30007011 50000000 1.414214   10000007 0.707107
    30007011 20000007 0.707107   10000011 -0.707107
    30007011 20000011 -0.707107
    40007011 50000000 1.414214   10000007 -0.707107
    40007011 20000007 -0.707107   10000011 0.707107
    40007011 20000011 0.707107
    30007012 50000000 1.000000   20000007 1.000000
    30007012 20000012 -1.000000
    40007012 50000000 1.000000   20000007 -1.000000
    40007012 20000012 1.000000
    30007013 50000000 1.414214   10000007 -0.707107
    30007013 20000007 0.707107   10000013 0.707107
    30007013 20000013 -0.707107
    40007013 50000000 1.414214   10000007 0.707107
    40007013 20000007 -0.707107   10000013 -0.707107
    40007013 20000013 0.707107
    30007014 50000000 2.236068   10000007 -0.894427
    30007014 20000007 0.447214   10000014 0.894427
    30007014 20000014 -0.447214
    40007014 50000000 2.236068   10000007 0.894427
    40007014 20000007 -0.447214   10000014 -0.894427
    40007014 20000014 0.447214
    30007015 50000000 3.162278   10000007 -0.948683
    30007015 20000007 0.316228   10000015 0.948683
    30007015 20000015 -0.316228
    40007015 50000000 3.162278   10000007 0.948683
    40007015 20000007 -0.316228   10000015 -0.948683
    40007015 20000015 0.316228
    30008009 50000000 1.000000   10000008 -1.000000
    30008009 10000009 1.000000
    40008009 50000000 1.000000   10000008 1.000000
    40008009 10000009 -1.000000
    30008010 50000000 2.000000   10000008 -1.000000
    30008010 10000010 1.000000
    40008010 50000000 2.000000   10000008 1.000000
    40008010 10000010 -1.000000
    30008011 50000000 2.236068   10000008 0.894427
    30008011 20000008 0.447214   10000011 -0.894427
    30008011 20000011 -0.447214
    40008011 50000000 2.236068   10000008 -0.894427
    40008011 20000008 -0.447214   10000011 0.894427
    40008011 20000011 0.447214
    30008012 50000000 1.414214   10000008 0.707107
    30008012 20000008 0.707107   10000012 -0.707107
    30008012 20000012 -0.707107
    40008012 50000000 1.414214   10000008 -0.707107
    40008012 20000008 -0.707107   10000012 0.707107
    40008012 20000012 0.707107
    30008013 50000000 1.000000   20000008 1.000000
    30008013 20000013 -1.000000
    40008013 50000000 1.000000   20000008 -1.000000
    40008013 20000013 1.000000
    30008014 50000000 1.414214   10000008 -0.707107
    30008014 20000008 0.707107   10000014 0.707107
    30008014 20000014 -0.707107
    40008014 50000000 1.414214   10000008 0.707107
    40008014 20000008 -0.707107   10000014 -0.707107
    40008014 20000014 0.707107
    30008015 50000000 2.236068   10000008 -0.894427
    30008015 20000008 0.447214   10000015 0.894427
    30008015 20000015 -0.447214
    40008015 50000000 2.236068   10000008 0.894427
    40008015 20000008 -0.447214   10000015 -0.894427
    40008015 20000015 0.447214
    30009010 50000000 1.000000   10000009 -1.000000
    30009010 10000010 1.000000
    40009010 50000000 1.000000   10000009 1.000000
    40009010 10000010 -1.000000
    30009011 50000000 3.162278   10000009 0.948683
    30009011 20000009 0.316228   10000011 -0.948683
    30009011 20000011 -0.316228
    40009011 50000000 3.162278   10000009 -0.948683
    40009011 20000009 -0.316228   10000011 0.948683
    40009011 20000011 0.316228
    30009012 50000000 2.236068   10000009 0.894427
    30009012 20000009 0.447214   10000012 -0.894427
    30009012 20000012 -0.447214
    40009012 50000000 2.236068   10000009 -0.894427
    40009012 20000009 -0.447214   10000012 0.894427
    40009012 20000012 0.447214
    30009013 50000000 1.414214   10000009 0.707107
    30009013 20000009 0.707107   10000013 -0.707107
    30009013 20000013 -0.707107
    40009013 50000000 1.414214   10000009 -0.707107
    40009013 20000009 -0.707107   10000013 0.707107
    40009013 20000013 0.707107
    30009014 50000000 1.000000   20000009 1.000000
    30009014 20000014 -1.000000
    40009014 50000000 1.000000   20000009 -1.000000
    40009014 20000014 1.000000
    30009015 50000000 1.414214   10000009 -0.707107
    30009015 20000009 0.707107   10000015 0.707107
    30009015 20000015 -0.707107
    40009015 50000000 1.414214   10000009 0.707107
    40009015 20000009 -0.707107   10000015 -0.707107
    40009015 20000015 0.707107
    30010011 50000000 4.123106   10000010 0.970143
    30010011 20000010 0.242536   10000011 -0.970143
    30010011 20000011 -0.242536
    40010011 50000000 4.123106   10000010 -0.970143
    40010011 20000010 -0.242536   10000011 0.970143
    40010011 20000011 0.242536
    30010012 50000000 3.162278   10000010 0.948683
    30010012 20000010 0.316228   10000012 -0.948683
    30010012 20000012 -0.316228
    40010012 50000000 3.162278   10000010 -0.948683
    40010012 20000010 -0.316228   10000012 0.948683
    40010012 20000012 0.316228
    30010013 50000000 2.236068   10000010 0.894427
    30010013 20000010 0.447214   10000013 -0.894427
    30010013 20000013 -0.447214
    40010013 50000000 2.236068   10000010 -0.894427
    40010013 20000010 -0.447214   10000013 0.894427
    40010013 20000013 0.447214
    30010014 50000000 1.414214   10000010 0.707107
    30010014 20000010 0.707107   10000014 -0.707107
    30010014 20000014 -0.707107
    40010014 50000000 1.414214   10000010 -0.707107
    40010014 20000010 -0.707107   10000014 0.707107
    40010014 20000014 0.707107
    30010015 50000000 1.000000   20000010 1.000000
    30010015 20000015 -1.000000
    40010015 50000000 1.000000   20000010 -1.000000
    40010015 20000015 1.000000
    30011012 50000000 1.000000   10000011 -1.000000
    30011012 10000012 1.000000
    40011012 50000000 1.000000   10000011 1.000000
    40011012 10000012 -1.000000
    30011013 50000000 2.000000   10000011 -1.000000
    30011013 10000013 1.000000
    40011013 50000000 2.000000   10000011 1.000000
    40011013 10000013 -1.000000
    30011014 50000000 3.000000   10000011 -1.000000
    30011014 10000014 1.000000
    40011014 50000000 3.000000   10000011 1.000000
    40011014 10000014 -1.000000
    30011015 50000000 4.000000   10000011 -1.000000
    30011015 10000015 1.000000
    40011015 50000000 4.000000   10000011 1.000000
    40011015 10000015 -1.000000
    30011016 50000000 1.000000   20000011 1.000000
    30011016 20000016 -1.000000
    40011016 50000000 1.000000   20000011 -1.000000
    40011016 20000016 1.000000
    30011017 50000000 1.414214   10000011 -0.707107
    30011017 20000011 0.707107   10000017 0.707107
    30011017 20000017 -0.707107
    40011017 50000000 1.414214   10000011 0.707107
    40011017 20000011 -0.707107   10000017 -0.707107
    40011017 20000017 0.707107
    30011018 50000000 2.236068   10000011 -0.894427
    30011018 20000011 0.447214   10000018 0.894427
    30011018 20000018 -0.447214
    40011018 50000000 2.236068   10000011 0.894427
    40011018 20000011 -0.447214   10000018 -0.894427
    40011018 20000018 0.447214
    30011019 50000000 3.162278   10000011 -0.948683
    30011019 20000011 0.316228   10000019 0.948683
    30011019 20000019 -0.316228
    40011019 50000000 3.162278   10000011 0.948683
    40011019 20000011 -0.316228   10000019 -0.948683
    40011019 20000019 0.316228
    30011020 50000000 4.123106   10000011 -0.970143
    30011020 20000011 0.242536   10000020 0.970143
    30011020 20000020 -0.242536
    40011020 50000000 4.123106   10000011 0.970143
    40011020 20000011 -0.242536   10000020 -0.970143
    40011020 20000020 0.242536
    30011021 50000000 2.000000   20000011 1.000000
    30011021 20000021 -1.000000
    40011021 50000000 2.000000   20000011 -1.000000
    40011021 20000021 1.000000
    30011022 50000000 2.236068   10000011 -0.447214
    30011022 20000011 0.894427   10000022 0.447214
    30011022 20000022 -0.894427
    40011022 50000000 2.236068   10000011 0.447214
    40011022 20000011 -0.894427   10000022 -0.447214
    40011022 20000022 0.894427
    30011023 50000000 2.828427   10000011 -0.707107
    30011023 20000011 0.707107   10000023 0.707107
    30011023 20000023 -0.707107
    40011023 50000000 2.828427   10000011 0.707107
    40011023 20000011 -0.707107   10000023 -0.707107
    40011023 20000023 0.707107
    30011024 50000000 3.605551   10000011 -0.832050
    30011024 20000011 0.554700   10000024 0.832050
    30011024 20000024 -0.554700
    40011024 50000000 3.605551   10000011 0.832050
    40011024 20000011 -0.554700   10000024 -0.832050
    40011024 20000024 0.554700
    30011025 50000000 4.472136   10000011 -0.894427
    30011025 20000011 0.447214   10000025 0.894427
    30011025 20000025 -0.447214
    40011025 50000000 4.472136   10000011 0.894427
    40011025 20000011 -0.447214   10000025 -0.894427
    40011025 20000025 0.447214
    30012013 50000000 1.000000   10000012 -1.000000
    30012013 10000013 1.000000
    40012013 50000000 1.000000   10000012 1.000000
    40012013 10000013 -1.000000
    30012014 50000000 2.000000   10000012 -1.000000
    30012014 10000014 1.000000
    40012014 50000000 2.000000   10000012 1.000000
    40012014 10000014 -1.000000
    30012015 50000000 3.000000   10000012 -1.000000
    30012015 10000015 1.000000
    40012015 50000000 3.000000   10000012 1.000000
    40012015 10000015 -1.000000
    30012016 50000000 1.414214   10000012 0.707107
    30012016 20000012 0.707107   10000016 -0.707107
    30012016 20000016 -0.707107
    40012016 50000000 1.414214   10000012 -0.707107
    40012016 20000012 -0.707107   10000016 0.707107
    40012016 20000016 0.707107
    30012017 50000000 1.000000   20000012 1.000000
    30012017 20000017 -1.000000
    40012017 50000000 1.000000   20000012 -1.000000
    40012017 20000017 1.000000
    30012018 50000000 1.414214   10000012 -0.707107
    30012018 20000012 0.707107   10000018 0.707107
    30012018 20000018 -0.707107
    40012018 50000000 1.414214   10000012 0.707107
    40012018 20000012 -0.707107   10000018 -0.707107
    40012018 20000018 0.707107
    30012019 50000000 2.236068   10000012 -0.894427
    30012019 20000012 0.447214   10000019 0.894427
    30012019 20000019 -0.447214
    40012019 50000000 2.236068   10000012 0.894427
    40012019 20000012 -0.447214   10000019 -0.894427
    40012019 20000019 0.447214
    30012020 50000000 3.162278   10000012 -0.948683
    30012020 20000012 0.316228   10000020 0.948683
    30012020 20000020 -0.316228
    40012020 50000000 3.162278   10000012 0.948683
    40012020 20000012 -0.316228   10000020 -0.948683
    40012020 20000020 0.316228
    30012021 50000000 2.236068   10000012 0.447214
    30012021 20000012 0.894427   10000021 -0.447214
    30012021 20000021 -0.894427
    40012021 50000000 2.236068   10000012 -0.447214
    40012021 20000012 -0.894427   10000021 0.447214
    40012021 20000021 0.894427
    30012022 50000000 2.000000   20000012 1.000000
    30012022 20000022 -1.000000
    40012022 50000000 2.000000   20000012 -1.000000
    40012022 20000022 1.000000
    30012023 50000000 2.236068   10000012 -0.447214
    30012023 20000012 0.894427   10000023 0.447214
    30012023 20000023 -0.894427
    40012023 50000000 2.236068   10000012 0.447214
    40012023 20000012 -0.894427   10000023 -0.447214
    40012023 20000023 0.894427
    30012024 50000000 2.828427   10000012 -0.707107
    30012024 20000012 0.707107   10000024 0.707107
    30012024 20000024 -0.707107
    40012024 50000000 2.828427   10000012 0.707107
    40012024 20000012 -0.707107   10000024 -0.707107
    40012024 20000024 0.707107
    30012025 50000000 3.605551   10000012 -0.832050
    30012025 20000012 0.554700   10000025 0.832050
    30012025 20000025 -0.554700
    40012025 50000000 3.605551   10000012 0.832050
    40012025 20000012 -0.554700   10000025 -0.832050
    40012025 20000025 0.554700
    30013014 50000000 1.000000   10000013 -1.000000
    30013014 10000014 1.000000
    40013014 50000000 1.000000   10000013 1.000000
    40013014 10000014 -1.000000
    30013015 50000000 2.000000   10000013 -1.000000
    30013015 10000015 1.000000
    40013015 50000000 2.000000   10000013 1.000000
    40013015 10000015 -1.000000
    30013016 50000000 2.236068   10000013 0.894427
    30013016 20000013 0.447214   10000016 -0.894427
    30013016 20000016 -0.447214
    40013016 50000000 2.236068   10000013 -0.894427
    40013016 20000013 -0.447214   10000016 0.894427
    40013016 20000016 0.447214
    30013017 50000000 1.414214   10000013 0.707107
    30013017 20000013 0.707107   10000017 -0.707107
    30013017 20000017 -0.707107
    40013017 50000000 1.414214   10000013 -0.707107
    40013017 20000013 -0.707107   10000017 0.707107
    40013017 20000017 0.707107
    30013018 50000000 1.000000   20000013 1.000000
    30013018 20000018 -1.000000
    40013018 50000000 1.000000   20000013 -1.000000
    40013018 20000018 1.000000
    30013019 50000000 1.414214   10000013 -0.707107
    30013019 20000013 0.707107   10000019 0.707107
    30013019 20000019 -0.707107
    40013019 50000000 1.414214   10000013 0.707107
    40013019 20000013 -0.707107   10000019 -0.707107
    40013019 20000019 0.707107
    30013020 50000000 2.236068   10000013 -0.894427
    30013020 20000013 0.447214   10000020 0.894427
    30013020 20000020 -0.447214
    40013020 50000000 2.236068   10000013 0.894427
    40013020 20000013 -0.447214   10000020 -0.894427
    40013020 20000020 0.447214
    30013021 50000000 2.828427   10000013 0.707107
    30013021 20000013 0.707107   10000021 -0.707107
    30013021 20000021 -0.707107
    40013021 50000000 2.828427   10000013 -0.707107
    40013021 20000013 -0.707107   10000021 0.707107
    40013021 20000021 0.707107
    30013022 50000000 2.236068   10000013 0.447214
    30013022 20000013 0.894427   10000022 -0.447214
    30013022 20000022 -0.894427
    40013022 50000000 2.236068   10000013 -0.447214
    40013022 20000013 -0.894427   10000022 0.447214
    40013022 20000022 0.894427
    30013023 50000000 2.000000   20000013 1.000000
    30013023 20000023 -1.000000
    40013023 50000000 2.000000   20000013 -1.000000
    40013023 20000023 1.000000
    30013024 50000000 2.236068   10000013 -0.447214
    30013024 20000013 0.894427   10000024 0.447214
    30013024 20000024 -0.894427
    40013024 50000000 2.236068   10000013 0.447214
    40013024 20000013 -0.894427   10000024 -0.447214
    40013024 20000024 0.894427
    30013025 50000000 2.828427   10000013 -0.707107
    30013025 20000013 0.707107   10000025 0.707107
    30013025 20000025 -0.707107
    40013025 50000000 2.828427   10000013 0.707107
    40013025 20000013 -0.707107   10000025 -0.707107
    40013025 20000025 0.707107
    30014015 50000000 1.000000   10000014 -1.000000
    30014015 10000015 1.000000
    40014015 50000000 1.000000   10000014 1.000000
    40014015 10000015 -1.000000
    30014016 50000000 3.162278   10000014 0.948683
    30014016 20000014 0.316228   10000016 -0.948683
    30014016 20000016 -0.316228
    40014016 50000000 3.162278   10000014 -0.948683
    40014016 20000014 -0.316228   10000016 0.948683
    40014016 20000016 0.316228
    30014017 50000000 2.236068   10000014 0.894427
    30014017 20000014 0.447214   10000017 -0.894427
    30014017 20000017 -0.447214
    40014017 50000000 2.236068   10000014 -0.894427
    40014017 20000014 -0.447214   10000017 0.894427
    40014017 20000017 0.447214
    30014018 50000000 1.414214   10000014 0.707107
    30014018 20000014 0.707107   10000018 -0.707107
    30014018 20000018 -0.707107
    40014018 50000000 1.414214   10000014 -0.707107
    40014018 20000014 -0.707107   10000018 0.707107
    40014018 20000018 0.707107
    30014019 50000000 1.000000   20000014 1.000000
    30014019 20000019 -1.000000
    40014019 50000000 1.000000   20000014 -1.000000
    40014019 20000019 1.000000
    30014020 50000000 1.414214   10000014 -0.707107
    30014020 20000014 0.707107   10000020 0.707107
    30014020 20000020 -0.707107
    40014020 50000000 1.414214   10000014 0.707107
    40014020 20000014 -0.707107   10000020 -0.707107
    40014020 20000020 0.707107
    30014021 50000000 3.605551   10000014 0.832050
    30014021 20000014 0.554700   10000021 -0.832050
    30014021 20000021 -0.554700
    40014021 50000000 3.605551   10000014 -0.832050
    40014021 20000014 -0.554700   10000021 0.832050
    40014021 20000021 0.554700
    30014022 50000000 2.828427   10000014 0.707107
    30014022 20000014 0.707107   10000022 -0.707107
    30014022 20000022 -0.707107
    40014022 50000000 2.828427   10000014 -0.707107
    40014022 20000014 -0.707107   10000022 0.707107
    40014022 20000022 0.707107
    30014023 50000000 2.236068   10000014 0.447214
    30014023 20000014 0.894427   10000023 -0.447214
    30014023 20000023 -0.894427
    40014023 50000000 2.236068   10000014 -0.447214
    40014023 20000014 -0.894427   10000023 0.447214
    40014023 20000023 0.894427
    30014024 50000000 2.000000   20000014 1.000000
    30014024 20000024 -1.000000
    40014024 50000000 2.000000   20000014 -1.000000
    40014024 20000024 1.000000
    30014025 50000000 2.236068   10000014 -0.447214
    30014025 20000014 0.894427   10000025 0.447214
    30014025 20000025 -0.894427
    40014025 50000000 2.236068   10000014 0.447214
    40014025 20000014 -0.894427   10000025 -0.447214
    40014025 20000025 0.894427
    30015016 50000000 4.123106   10000015 0.970143
    30015016 20000015 0.242536   10000016 -0.970143
    30015016 20000016 -0.242536
    40015016 50000000 4.123106   10000015 -0.970143
    40015016 20000015 -0.242536   10000016 0.970143
    40015016 20000016 0.242536
    30015017 50000000 3.162278   10000015 0.948683
    30015017 20000015 0.316228   10000017 -0.948683
    30015017 20000017 -0.316228
    40015017 50000000 3.162278   10000015 -0.948683
    40015017 20000015 -0.316228   10000017 0.948683
    40015017 20000017 0.316228
    30015018 50000000 2.236068   10000015 0.894427
    30015018 20000015 0.447214   10000018 -0.894427
    30015018 20000018 -0.447214
    40015018 50000000 2.236068   10000015 -0.894427
    40015018 20000015 -0.447214   10000018 0.894427
    40015018 20000018 0.447214
    30015019 50000000 1.414214   10000015 0.707107
    30015019 20000015 0.707107   10000019 -0.707107
    30015019 20000019 -0.707107
    40015019 50000000 1.414214   10000015 -0.707107
    40015019 20000015 -0.707107   10000019 0.707107
    40015019 20000019 0.707107
    30015020 50000000 1.000000   20000015 1.000000
    30015020 20000020 -1.000000
    40015020 50000000 1.000000   20000015 -1.000000
    40015020 20000020 1.000000
    30015021 50000000 4.472136   10000015 0.894427
    30015021 20000015 0.447214   10000021 -0.894427
    30015021 20000021 -0.447214
    40015021 50000000 4.472136   10000015 -0.894427
    40015021 20000015 -0.447214   10000021 0.894427
    40015021 20000021 0.447214
    30015022 50000000 3.605551   10000015 0.832050
    30015022 20000015 0.554700   10000022 -0.832050
    30015022 20000022 -0.554700
    40015022 50000000 3.605551   10000015 -0.832050
    40015022 20000015 -0.554700   10000022 0.832050
    40015022 20000022 0.554700
    30015023 50000000 2.828427   10000015 0.707107
    30015023 20000015 0.707107   10000023 -0.707107
    30015023 20000023 -0.707107
    40015023 50000000 2.828427   10000015 -0.707107
    40015023 20000015 -0.707107   10000023 0.707107
    40015023 20000023 0.707107
    30015024 50000000 2.236068   10000015 0.447214
    30015024 20000015 0.894427   10000024 -0.447214
    30015024 20000024 -0.894427
    40015024 50000000 2.236068   10000015 -0.447214
    40015024 20000015 -0.894427   10000024 0.447214
    40015024 20000024 0.894427
    30015025 50000000 2.000000   20000015 1.000000
    30015025 20000025 -1.000000
    40015025 50000000 2.000000   20000015 -1.000000
    40015025 20000025 1.000000
    30016017 50000000 1.000000   10000016 -1.000000
    30016017 10000017 1.000000
    40016017 50000000 1.000000   10000016 1.000000
    40016017 10000017 -1.000000
    30016018 50000000 2.000000   10000016 -1.000000
    30016018 10000018 1.000000
    40016018 50000000 2.000000   10000016 1.000000
    40016018 10000018 -1.000000
    30016019 50000000 3.000000   10000016 -1.000000
    30016019 10000019 1.000000
    40016019 50000000 3.000000   10000016 1.000000
    40016019 10000019 -1.000000
    30016020 50000000 4.000000   10000016 -1.000000
    30016020 10000020 1.000000
    40016020 50000000 4.000000   10000016 1.000000
    40016020 10000020 -1.000000
    30016021 50000000 1.000000   20000016 1.000000
    30016021 20000021 -1.000000
    40016021 50000000 1.000000   20000016 -1.000000
    40016021 20000021 1.000000
    30016022 50000000 1.414214   10000016 -0.707107
    30016022 20000016 0.707107   10000022 0.707107
    30016022 20000022 -0.707107
    40016022 50000000 1.414214   10000016 0.707107
    40016022 20000016 -0.707107   10000022 -0.707107
    40016022 20000022 0.707107
    30016023 50000000 2.236068   10000016 -0.894427
    30016023 20000016 0.447214   10000023 0.894427
    30016023 20000023 -0.447214
    40016023 50000000 2.236068   10000016 0.894427
    40016023 20000016 -0.447214   10000023 -0.894427
    40016023 20000023 0.447214
    30016024 50000000 3.162278   10000016 -0.948683
    30016024 20000016 0.316228   10000024 0.948683
    30016024 20000024 -0.316228
    40016024 50000000 3.162278   10000016 0.948683
    40016024 20000016 -0.316228   10000024 -0.948683
    40016024 20000024 0.316228
    30016025 50000000 4.123106   10000016 -0.970143
    30016025 20000016 0.242536   10000025 0.970143
    30016025 20000025 -0.242536
    40016025 50000000 4.123106   10000016 0.970143
    40016025 20000016 -0.242536   10000025 -0.970143
    40016025 20000025 0.242536
    30017018 50000000 1.000000   10000017 -1.000000
    30017018 10000018 1.000000
    40017018 50000000 1.000000   10000017 1.000000
    40017018 10000018 -1.000000
    30017019 50000000 2.000000   10000017 -1.000000
    30017019 10000019 1.000000
    40017019 50000000 2.000000   10000017 1.000000
    40017019 10000019 -1.000000
    30017020 50000000 3.000000   10000017 -1.000000
    30017020 10000020 1.000000
    40017020 50000000 3.000000   10000017 1.000000
    40017020 10000020 -1.000000
    30017021 50000000 1.414214   10000017 0.707107
    30017021 20000017 0.707107   10000021 -0.707107
    30017021 20000021 -0.707107
    40017021 50000000 1.414214   10000017 -0.707107
    40017021 20000017 -0.707107   10000021 0.707107
    40017021 20000021 0.707107
    30017022 50000000 1.000000   20000017 1.000000
    30017022 20000022 -1.000000
    40017022 50000000 1.000000   20000017 -1.000000
    40017022 20000022 1.000000
    30017023 50000000 1.414214   10000017 -0.707107
    30017023 20000017 0.707107   10000023 0.707107
    30017023 20000023 -0.707107
    40017023 50000000 1.414214   10000017 0.707107
    40017023 20000017 -0.707107   10000023 -0.707107
    40017023 20000023 0.707107
    30017024 50000000 2.236068   10000017 -0.894427
    30017024 20000017 0.447214   10000024 0.894427
    30017024 20000024 -0.447214
    40017024 50000000 2.236068   10000017 0.894427
    40017024 20000017 -0.447214   10000024 -0.894427
    40017024 20000024 0.447214
    30017025 50000000 3.162278   10000017 -0.948683
    30017025 20000017 0.316228   10000025 0.948683
    30017025 20000025 -0.316228
    40017025 50000000 3.162278   10000017 0.948683
    40017025 20000017 -0.316228   10000025 -0.948683
    40017025 20000025 0.316228
    30018019 50000000 1.000000   10000018 -1.000000
    30018019 10000019 1.000000
    40018019 50000000 1.000000   10000018 1.000000
    40018019 10000019 -1.000000
    30018020 50000000 2.000000   10000018 -1.000000
    30018020 10000020 1.000000
    40018020 50000000 2.000000   10000018 1.000000
    40018020 10000020 -1.000000
    30018021 50000000 2.236068   10000018 0.894427
    30018021 20000018 0.447214   10000021 -0.894427
    30018021 20000021 -0.447214
    40018021 50000000 2.236068   10000018 -0.894427
    40018021 20000018 -0.447214   10000021 0.894427
    40018021 20000021 0.447214
    30018022 50000000 1.414214   10000018 0.707107
    30018022 20000018 0.707107   10000022 -0.707107
    30018022 20000022 -0.707107
    40018022 50000000 1.414214   10000018 -0.707107
    40018022 20000018 -0.707107   10000022 0.707107
    40018022 20000022 0.707107
    30018023 50000000 1.000000   20000018 1.000000
    30018023 20000023 -1.000000
    40018023 50000000 1.000000   20000018 -1.000000
    40018023 20000023 1.000000
    30018024 50000000 1.414214   10000018 -0.707107
    30018024 20000018 0.707107   10000024 0.707107
    30018024 20000024 -0.707107
    40018024 50000000 1.414214   10000018 0.707107
    40018024 20000018 -0.707107   10000024 -0.707107
    40018024 20000024 0.707107
    30018025 50000000 2.236068   10000018 -0.894427
    30018025 20000018 0.447214   10000025 0.894427
    30018025 20000025 -0.447214
    40018025 50000000 2.236068   10000018 0.894427
    40018025 20000018 -0.447214   10000025 -0.894427
    40018025 20000025 0.447214
    30019020 50000000 1.000000   10000019 -1.000000
    30019020 10000020 1.000000
    40019020 50000000 1.000000   10000019 1.000000
    40019020 10000020 -1.000000
    30019021 50000000 3.162278   10000019 0.948683
    30019021 20000019 0.316228   10000021 -0.948683
    30019021 20000021 -0.316228
    40019021 50000000 3.162278   10000019 -0.948683
    40019021 20000019 -0.316228   10000021 0.948683
    40019021 20000021 0.316228
    30019022 50000000 2.236068   10000019 0.894427
    30019022 20000019 0.447214   10000022 -0.894427
    30019022 20000022 -0.447214
    40019022 50000000 2.236068   10000019 -0.894427
    40019022 20000019 -0.447214   10000022 0.894427
    40019022 20000022 0.447214
    30019023 50000000 1.414214   10000019 0.707107
    30019023 20000019 0.707107   10000023 -0.707107
    30019023 20000023 -0.707107
    40019023 50000000 1.414214   10000019 -0.707107
    40019023 20000019 -0.707107   10000023 0.707107
    40019023 20000023 0.707107
    30019024 50000000 1.000000   20000019 1.000000
    30019024 20000024 -1.000000
    40019024 50000000 1.000000   20000019 -1.000000
    40019024 20000024 1.000000
    30019025 50000000 1.414214   10000019 -0.707107
    30019025 20000019 0.707107   10000025 0.707107
    30019025 20000025 -0.707107
    40019025 50000000 1.414214   10000019 0.707107
    40019025 20000019 -0.707107   10000025 -0.707107
    40019025 20000025 0.707107
    30020021 50000000 4.123106   10000020 0.970143
    30020021 20000020 0.242536   10000021 -0.970143
    30020021 20000021 -0.242536
    40020021 50000000 4.123106   10000020 -0.970143
    40020021 20000020 -0.242536   10000021 0.970143
    40020021 20000021 0.242536
    30020022 50000000 3.162278   10000020 0.948683
    30020022 20000020 0.316228   10000022 -0.948683
    30020022 20000022 -0.316228
    40020022 50000000 3.162278   10000020 -0.948683
    40020022 20000020 -0.316228   10000022 0.948683
    40020022 20000022 0.316228
    30020023 50000000 2.236068   10000020 0.894427
    30020023 20000020 0.447214   10000023 -0.894427
    30020023 20000023 -0.447214
    40020023 50000000 2.236068   10000020 -0.894427
    40020023 20000020 -0.447214   10000023 0.894427
    40020023 20000023 0.447214
    30020024 50000000 1.414214   10000020 0.707107
    30020024 20000020 0.707107   10000024 -0.707107
    30020024 20000024 -0.707107
    40020024 50000000 1.414214   10000020 -0.707107
    40020024 20000020 -0.707107   10000024 0.707107
    40020024 20000024 0.707107
    30020025 50000000 1.000000   20000020 1.000000
    30020025 20000025 -1.000000
    40020025 50000000 1.000000   20000020 -1.000000
    40020025 20000025 1.000000
    30021022 50000000 1.000000   10000021 -1.000000
    30021022 10000022 1.000000
    40021022 50000000 1.000000   10000021 1.000000
    40021022 10000022 -1.000000
    30021023 50000000 2.000000   10000021 -1.000000
    30021023 10000023 1.000000
    40021023 50000000 2.000000   10000021 1.000000
    40021023 10000023 -1.000000
    30021024 50000000 3.000000   10000021 -1.000000
    30021024 10000024 1.000000
    40021024 50000000 3.000000   10000021 1.000000
    40021024 10000024 -1.000000
    30021025 50000000 4.000000   10000021 -1.000000
    30021025 10000025 1.000000
    40021025 50000000 4.000000   10000021 1.000000
    40021025 10000025 -1.000000
    30021026 50000000 1.000000   20000021 1.000000
    30021026 20000026 -1.000000
    40021026 50000000 1.000000   20000021 -1.000000
    40021026 20000026 1.000000
    30021027 50000000 1.414214   10000021 -0.707107
    30021027 20000021 0.707107   10000027 0.707107
    30021027 20000027 -0.707107
    40021027 50000000 1.414214   10000021 0.707107
    40021027 20000021 -0.707107   10000027 -0.707107
    40021027 20000027 0.707107
    30021028 50000000 2.236068   10000021 -0.894427
    30021028 20000021 0.447214   10000028 0.894427
    30021028 20000028 -0.447214
    40021028 50000000 2.236068   10000021 0.894427
    40021028 20000021 -0.447214   10000028 -0.894427
    40021028 20000028 0.447214
    30021029 50000000 3.162278   10000021 -0.948683
    30021029 20000021 0.316228   10000029 0.948683
    30021029 20000029 -0.316228
    40021029 50000000 3.162278   10000021 0.948683
    40021029 20000021 -0.316228   10000029 -0.948683
    40021029 20000029 0.316228
    30021030 50000000 4.123106   10000021 -0.970143
    30021030 20000021 0.242536   10000030 0.970143
    30021030 20000030 -0.242536
    40021030 50000000 4.123106   10000021 0.970143
    40021030 20000021 -0.242536   10000030 -0.970143
    40021030 20000030 0.242536
    30021031 50000000 2.000000   20000021 1.000000
    30021031 20000031 -1.000000
    40021031 50000000 2.000000   20000021 -1.000000
    40021031 20000031 1.000000
    30021032 50000000 2.236068   10000021 -0.447214
    30021032 20000021 0.894427   10000032 0.447214
    30021032 20000032 -0.894427
    40021032 50000000 2.236068   10000021 0.447214
    40021032 20000021 -0.894427   10000032 -0.447214
    40021032 20000032 0.894427
    30021033 50000000 2.828427   10000021 -0.707107
    30021033 20000021 0.707107   10000033 0.707107
    30021033 20000033 -0.707107
    40021033 50000000 2.828427   10000021 0.707107
    40021033 20000021 -0.707107   10000033 -0.707107
    40021033 20000033 0.707107
    30021034 50000000 3.605551   10000021 -0.832050
    30021034 20000021 0.554700   10000034 0.832050
    30021034 20000034 -0.554700
    40021034 50000000 3.605551   10000021 0.832050
    40021034 20000021 -0.554700   10000034 -0.832050
    40021034 20000034 0.554700
    30021035 50000000 4.472136   10000021 -0.894427
    30021035 20000021 0.447214   10000035 0.894427
    30021035 20000035 -0.447214
    40021035 50000000 4.472136   10000021 0.894427
    40021035 20000021 -0.447214   10000035 -0.894427
    40021035 20000035 0.447214
    30021036 50000000 3.000000   20000021 1.000000
    40021036 50000000 3.000000   20000021 -1.000000
    30021037 50000000 3.162278   10000021 -0.316228
    30021037 20000021 0.948683   10000037 0.316228
    30021037 20000037 -0.948683
    40021037 50000000 3.162278   10000021 0.316228
    40021037 20000021 -0.948683   10000037 -0.316228
    40021037 20000037 0.948683
    30021038 50000000 3.605551   10000021 -0.554700
    30021038 20000021 0.832050   10000038 0.554700
    30021038 20000038 -0.832050
    40021038 50000000 3.605551   10000021 0.554700
    40021038 20000021 -0.832050   10000038 -0.554700
    40021038 20000038 0.832050
    30021039 50000000 4.242641   10000021 -0.707107
    30021039 20000021 0.707107   10000039 0.707107
    30021039 20000039 -0.707107
    40021039 50000000 4.242641   10000021 0.707107
    40021039 20000021 -0.707107   10000039 -0.707107
    40021039 20000039 0.707107
    30021040 50000000 5.000000   10000021 -0.800000
    30021040 20000021 0.600000   10000040 0.800000
    40021040 50000000 5.000000   10000021 0.800000
    40021040 20000021 -0.600000   10000040 -0.800000
    30022023 50000000 1.000000   10000022 -1.000000
    30022023 10000023 1.000000
    40022023 50000000 1.000000   10000022 1.000000
    40022023 10000023 -1.000000
    30022024 50000000 2.000000   10000022 -1.000000
    30022024 10000024 1.000000
    40022024 50000000 2.000000   10000022 1.000000
    40022024 10000024 -1.000000
    30022025 50000000 3.000000   10000022 -1.000000
    30022025 10000025 1.000000
    40022025 50000000 3.000000   10000022 1.000000
    40022025 10000025 -1.000000
    30022026 50000000 1.414214   10000022 0.707107
    30022026 20000022 0.707107   10000026 -0.707107
    30022026 20000026 -0.707107
    40022026 50000000 1.414214   10000022 -0.707107
    40022026 20000022 -0.707107   10000026 0.707107
    40022026 20000026 0.707107
    30022027 50000000 1.000000   20000022 1.000000
    30022027 20000027 -1.000000
    40022027 50000000 1.000000   20000022 -1.000000
    40022027 20000027 1.000000
    30022028 50000000 1.414214   10000022 -0.707107
    30022028 20000022 0.707107   10000028 0.707107
    30022028 20000028 -0.707107
    40022028 50000000 1.414214   10000022 0.707107
    40022028 20000022 -0.707107   10000028 -0.707107
    40022028 20000028 0.707107
    30022029 50000000 2.236068   10000022 -0.894427
    30022029 20000022 0.447214   10000029 0.894427
    30022029 20000029 -0.447214
    40022029 50000000 2.236068   10000022 0.894427
    40022029 20000022 -0.447214   10000029 -0.894427
    40022029 20000029 0.447214
    30022030 50000000 3.162278   10000022 -0.948683
    30022030 20000022 0.316228   10000030 0.948683
    30022030 20000030 -0.316228
    40022030 50000000 3.162278   10000022 0.948683
    40022030 20000022 -0.316228   10000030 -0.948683
    40022030 20000030 0.316228
    30022031 50000000 2.236068   10000022 0.447214
    30022031 20000022 0.894427   10000031 -0.447214
    30022031 20000031 -0.894427
    40022031 50000000 2.236068   10000022 -0.447214
    40022031 20000022 -0.894427   10000031 0.447214
    40022031 20000031 0.894427
    30022032 50000000 2.000000   20000022 1.000000
    30022032 20000032 -1.000000
    40022032 50000000 2.000000   20000022 -1.000000
    40022032 20000032 1.000000
    30022033 50000000 2.236068   10000022 -0.447214
    30022033 20000022 0.894427   10000033 0.447214
    30022033 20000033 -0.894427
    40022033 50000000 2.236068   10000022 0.447214
    40022033 20000022 -0.894427   10000033 -0.447214
    40022033 20000033 0.894427
    30022034 50000000 2.828427   10000022 -0.707107
    30022034 20000022 0.707107   10000034 0.707107
    30022034 20000034 -0.707107
    40022034 50000000 2.828427   10000022 0.707107
    40022034 20000022 -0.707107   10000034 -0.707107
    40022034 20000034 0.707107
    30022035 50000000 3.605551   10000022 -0.832050
    30022035 20000022 0.554700   10000035 0.832050
    30022035 20000035 -0.554700
    40022035 50000000 3.605551   10000022 0.832050
    40022035 20000022 -0.554700   10000035 -0.832050
    40022035 20000035 0.554700
    30022036 50000000 3.162278   10000022 0.316228
    30022036 20000022 0.948683
    40022036 50000000 3.162278   10000022 -0.316228
    40022036 20000022 -0.948683
    30022037 50000000 3.000000   20000022 1.000000
    30022037 20000037 -1.000000
    40022037 50000000 3.000000   20000022 -1.000000
    40022037 20000037 1.000000
    30022038 50000000 3.162278   10000022 -0.316228
    30022038 20000022 0.948683   10000038 0.316228
    30022038 20000038 -0.948683
    40022038 50000000 3.162278   10000022 0.316228
    40022038 20000022 -0.948683   10000038 -0.316228
    40022038 20000038 0.948683
    30022039 50000000 3.605551   10000022 -0.554700
    30022039 20000022 0.832050   10000039 0.554700
    30022039 20000039 -0.832050
    40022039 50000000 3.605551   10000022 0.554700
    40022039 20000022 -0.832050   10000039 -0.554700
    40022039 20000039 0.832050
    30022040 50000000 4.242641   10000022 -0.707107
    30022040 20000022 0.707107   10000040 0.707107
    40022040 50000000 4.242641   10000022 0.707107
    40022040 20000022 -0.707107   10000040 -0.707107
    30023024 50000000 1.000000   10000023 -1.000000
    30023024 10000024 1.000000
    40023024 50000000 1.000000   10000023 1.000000
    40023024 10000024 -1.000000
    30023025 50000000 2.000000   10000023 -1.000000
    30023025 10000025 1.000000
    40023025 50000000 2.000000   10000023 1.000000
    40023025 10000025 -1.000000
    30023026 50000000 2.236068   10000023 0.894427
    30023026 20000023 0.447214   10000026 -0.894427
    30023026 20000026 -0.447214
    40023026 50000000 2.236068   10000023 -0.894427
    40023026 20000023 -0.447214   10000026 0.894427
    40023026 20000026 0.447214
    30023027 50000000 1.414214   10000023 0.707107
    30023027 20000023 0.707107   10000027 -0.707107
    30023027 20000027 -0.707107
    40023027 50000000 1.414214   10000023 -0.707107
    40023027 20000023 -0.707107   10000027 0.707107
    40023027 20000027 0.707107
    30023028 50000000 1.000000   20000023 1.000000
    30023028 20000028 -1.000000
    40023028 50000000 1.000000   20000023 -1.000000
    40023028 20000028 1.000000
    30023029 50000000 1.414214   10000023 -0.707107
    30023029 20000023 0.707107   10000029 0.707107
    30023029 20000029 -0.707107
    40023029 50000000 1.414214   10000023 0.707107
    40023029 20000023 -0.707107   10000029 -0.707107
    40023029 20000029 0.707107
    30023030 50000000 2.236068   10000023 -0.894427
    30023030 20000023 0.447214   10000030 0.894427
    30023030 20000030 -0.447214
    40023030 50000000 2.236068   10000023 0.894427
    40023030 20000023 -0.447214   10000030 -0.894427
    40023030 20000030 0.447214
    30023031 50000000 2.828427   10000023 0.707107
    30023031 20000023 0.707107   10000031 -0.707107
    30023031 20000031 -0.707107
    40023031 50000000 2.828427   10000023 -0.707107
    40023031 20000023 -0.707107   10000031 0.707107
    40023031 20000031 0.707107
    30023032 50000000 2.236068   10000023 0.447214
    30023032 20000023 0.894427   10000032 -0.447214
    30023032 20000032 -0.894427
    40023032 50000000 2.236068   10000023 -0.447214
    40023032 20000023 -0.894427   10000032 0.447214
    40023032 20000032 0.894427
    30023033 50000000 2.000000   20000023 1.000000
    30023033 20000033 -1.000000
    40023033 50000000 2.000000   20000023 -1.000000
    40023033 20000033 1.000000
    30023034 50000000 2.236068   10000023 -0.447214
    30023034 20000023 0.894427   10000034 0.447214
    30023034 20000034 -0.894427
    40023034 50000000 2.236068   10000023 0.447214
    40023034 20000023 -0.894427   10000034 -0.447214
    40023034 20000034 0.894427
    30023035 50000000 2.828427   10000023 -0.707107
    30023035 20000023 0.707107   10000035 0.707107
    30023035 20000035 -0.707107
    40023035 50000000 2.828427   10000023 0.707107
    40023035 20000023 -0.707107   10000035 -0.707107
    40023035 20000035 0.707107
    30023036 50000000 3.605551   10000023 0.554700
    30023036 20000023 0.832050
    40023036 50000000 3.605551   10000023 -0.554700
    40023036 20000023 -0.832050
    30023037 50000000 3.162278   10000023 0.316228
    30023037 20000023 0.948683   10000037 -0.316228
    30023037 20000037 -0.948683
    40023037 50000000 3.162278   10000023 -0.316228
    40023037 20000023 -0.948683   10000037 0.316228
    40023037 20000037 0.948683
    30023038 50000000 3.000000   20000023 1.000000
    30023038 20000038 -1.000000
    40023038 50000000 3.000000   20000023 -1.000000
    40023038 20000038 1.000000
    30023039 50000000 3.162278   10000023 -0.316228
    30023039 20000023 0.948683   10000039 0.316228
    30023039 20000039 -0.948683
    40023039 50000000 3.162278   10000023 0.316228
    40023039 20000023 -0.948683   10000039 -0.316228
    40023039 20000039 0.948683
    30023040 50000000 3.605551   10000023 -0.554700
    30023040 20000023 0.832050   10000040 0.554700
    40023040 50000000 3.605551   10000023 0.554700
    40023040 20000023 -0.832050   10000040 -0.554700
    30024025 50000000 1.000000   10000024 -1.000000
    30024025 10000025 1.000000
    40024025 50000000 1.000000   10000024 1.000000
    40024025 10000025 -1.000000
    30024026 50000000 3.162278   10000024 0.948683
    30024026 20000024 0.316228   10000026 -0.948683
    30024026 20000026 -0.316228
    40024026 50000000 3.162278   10000024 -0.948683
    40024026 20000024 -0.316228   10000026 0.948683
    40024026 20000026 0.316228
    30024027 50000000 2.236068   10000024 0.894427
    30024027 20000024 0.447214   10000027 -0.894427
    30024027 20000027 -0.447214
    40024027 50000000 2.236068   10000024 -0.894427
    40024027 20000024 -0.447214   10000027 0.894427
    40024027 20000027 0.447214
    30024028 50000000 1.414214   10000024 0.707107
    30024028 20000024 0.707107   10000028 -0.707107
    30024028 20000028 -0.707107
    40024028 50000000 1.414214   10000024 -0.707107
    40024028 20000024 -0.707107   10000028 0.707107
    40024028 20000028 0.707107
    30024029 50000000 1.000000   20000024 1.000000
    30024029 20000029 -1.000000
    40024029 50000000 1.000000   20000024 -1.000000
    40024029 20000029 1.000000
    30024030 50000000 1.414214   10000024 -0.707107
    30024030 20000024 0.707107   10000030 0.707107
    30024030 20000030 -0.707107
    40024030 50000000 1.414214   10000024 0.707107
    40024030 20000024 -0.707107   10000030 -0.707107
    40024030 20000030 0.707107
    30024031 50000000 3.605551   10000024 0.832050
    30024031 20000024 0.554700   10000031 -0.832050
    30024031 20000031 -0.554700
    40024031 50000000 3.605551   10000024 -0.832050
    40024031 20000024 -0.554700   10000031 0.832050
    40024031 20000031 0.554700
    30024032 50000000 2.828427   10000024 0.707107
    30024032 20000024 0.707107   10000032 -0.707107
    30024032 20000032 -0.707107
    40024032 50000000 2.828427   10000024 -0.707107
    40024032 20000024 -0.707107   10000032 0.707107
    40024032 20000032 0.707107
    30024033 50000000 2.236068   10000024 0.447214
    30024033 20000024 0.894427   10000033 -0.447214
    30024033 20000033 -0.894427
    40024033 50000000 2.236068   10000024 -0.447214
    40024033 20000024 -0.894427   10000033 0.447214
    40024033 20000033 0.894427
    30024034 50000000 2.000000   20000024 1.000000
    30024034 20000034 -1.000000
    40024034 50000000 2.000000   20000024 -1.000000
    40024034 20000034 1.000000
    30024035 50000000 2.236068   10000024 -0.447214
    30024035 20000024 0.894427   10000035 0.447214
    30024035 20000035 -0.894427
    40024035 50000000 2.236068   10000024 0.447214
    40024035 20000024 -0.894427   10000035 -0.447214
    40024035 20000035 0.894427
    30024036 50000000 4.242641   10000024 0.707107
    30024036 20000024 0.707107
    40024036 50000000 4.242641   10000024 -0.707107
    40024036 20000024 -0.707107
    30024037 50000000 3.605551   10000024 0.554700
    30024037 20000024 0.832050   10000037 -0.554700
    30024037 20000037 -0.832050
    40024037 50000000 3.605551   10000024 -0.554700
    40024037 20000024 -0.832050   10000037 0.554700
    40024037 20000037 0.832050
    30024038 50000000 3.162278   10000024 0.316228
    30024038 20000024 0.948683   10000038 -0.316228
    30024038 20000038 -0.948683
    40024038 50000000 3.162278   10000024 -0.316228
    40024038 20000024 -0.948683   10000038 0.316228
    40024038 20000038 0.948683
    30024039 50000000 3.000000   20000024 1.000000
    30024039 20000039 -1.000000
    40024039 50000000 3.000000   20000024 -1.000000
    40024039 20000039 1.000000
    30024040 50000000 3.162278   10000024 -0.316228
    30024040 20000024 0.948683   10000040 0.316228
    40024040 50000000 3.162278   10000024 0.316228
    40024040 20000024 -0.948683   10000040 -0.316228
    30025026 50000000 4.123106   10000025 0.970143
    30025026 20000025 0.242536   10000026 -0.970143
    30025026 20000026 -0.242536
    40025026 50000000 4.123106   10000025 -0.970143
    40025026 20000025 -0.242536   10000026 0.970143
    40025026 20000026 0.242536
    30025027 50000000 3.162278   10000025 0.948683
    30025027 20000025 0.316228   10000027 -0.948683
    30025027 20000027 -0.316228
    40025027 50000000 3.162278   10000025 -0.948683
    40025027 20000025 -0.316228   10000027 0.948683
    40025027 20000027 0.316228
    30025028 50000000 2.236068   10000025 0.894427
    30025028 20000025 0.447214   10000028 -0.894427
    30025028 20000028 -0.447214
    40025028 50000000 2.236068   10000025 -0.894427
    40025028 20000025 -0.447214   10000028 0.894427
    40025028 20000028 0.447214
    30025029 50000000 1.414214   10000025 0.707107
    30025029 20000025 0.707107   10000029 -0.707107
    30025029 20000029 -0.707107
    40025029 50000000 1.414214   10000025 -0.707107
    40025029 20000025 -0.707107   10000029 0.707107
    40025029 20000029 0.707107
    30025030 50000000 1.000000   20000025 1.000000
    30025030 20000030 -1.000000
    40025030 50000000 1.000000   20000025 -1.000000
    40025030 20000030 1.000000
    30025031 50000000 4.472136   10000025 0.894427
    30025031 20000025 0.447214   10000031 -0.894427
    30025031 20000031 -0.447214
    40025031 50000000 4.472136   10000025 -0.894427
    40025031 20000025 -0.447214   10000031 0.894427
    40025031 20000031 0.447214
    30025032 50000000 3.605551   10000025 0.832050
    30025032 20000025 0.554700   10000032 -0.832050
    30025032 20000032 -0.554700
    40025032 50000000 3.605551   10000025 -0.832050
    40025032 20000025 -0.554700   10000032 0.832050
    40025032 20000032 0.554700
    30025033 50000000 2.828427   10000025 0.707107
    30025033 20000025 0.707107   10000033 -0.707107
    30025033 20000033 -0.707107
    40025033 50000000 2.828427   10000025 -0.707107
    40025033 20000025 -0.707107   10000033 0.707107
    40025033 20000033 0.707107
    30025034 50000000 2.236068   10000025 0.447214
    30025034 20000025 0.894427   10000034 -0.447214
    30025034 20000034 -0.894427
    40025034 50000000 2.236068   10000025 -0.447214
    40025034 20000025 -0.894427   10000034 0.447214
    40025034 20000034 0.894427
    30025035 50000000 2.000000   20000025 1.000000
    30025035 20000035 -1.000000
    40025035 50000000 2.000000   20000025 -1.000000
    40025035 20000035 1.000000
    30025036 50000000 5.000000   10000025 0.800000
    30025036 20000025 0.600000
    40025036 50000000 5.000000   10000025 -0.800000
    40025036 20000025 -0.600000
    30025037 50000000 4.242641   10000025 0.707107
    30025037 20000025 0.707107   10000037 -0.707107
    30025037 20000037 -0.707107
    40025037 50000000 4.242641   10000025 -0.707107
    40025037 20000025 -0.707107   10000037 0.707107
    40025037 20000037 0.707107
    30025038 50000000 3.605551   10000025 0.554700
    30025038 20000025 0.832050   10000038 -0.554700
    30025038 20000038 -0.832050
    40025038 50000000 3.605551   10000025 -0.554700
    40025038 20000025 -0.832050   10000038 0.554700
    40025038 20000038 0.832050
    30025039 50000000 3.162278   10000025 0.316228
    30025039 20000025 0.948683   10000039 -0.316228
    30025039 20000039 -0.948683
    40025039 50000000 3.162278   10000025 -0.316228
    40025039 20000025 -0.948683   10000039 0.316228
    40025039 20000039 0.948683
    30025040 50000000 3.000000   20000025 1.000000
    40025040 50000000 3.000000   20000025 -1.000000
    30026027 50000000 1.000000   10000026 -1.000000
    30026027 10000027 1.000000
    40026027 50000000 1.000000   10000026 1.000000
    40026027 10000027 -1.000000
    30026028 50000000 2.000000   10000026 -1.000000
    30026028 10000028 1.000000
    40026028 50000000 2.000000   10000026 1.000000
    40026028 10000028 -1.000000
    30026029 50000000 3.000000   10000026 -1.000000
    30026029 10000029 1.000000
    40026029 50000000 3.000000   10000026 1.000000
    40026029 10000029 -1.000000
    30026030 50000000 4.000000   10000026 -1.000000
    30026030 10000030 1.000000
    40026030 50000000 4.000000   10000026 1.000000
    40026030 10000030 -1.000000
    30026031 50000000 1.000000   20000026 1.000000
    30026031 20000031 -1.000000
    40026031 50000000 1.000000   20000026 -1.000000
    40026031 20000031 1.000000
    30026032 50000000 1.414214   10000026 -0.707107
    30026032 20000026 0.707107   10000032 0.707107
    30026032 20000032 -0.707107
    40026032 50000000 1.414214   10000026 0.707107
    40026032 20000026 -0.707107   10000032 -0.707107
    40026032 20000032 0.707107
    30026033 50000000 2.236068   10000026 -0.894427
    30026033 20000026 0.447214   10000033 0.894427
    30026033 20000033 -0.447214
    40026033 50000000 2.236068   10000026 0.894427
    40026033 20000026 -0.447214   10000033 -0.894427
    40026033 20000033 0.447214
    30026034 50000000 3.162278   10000026 -0.948683
    30026034 20000026 0.316228   10000034 0.948683
    30026034 20000034 -0.316228
    40026034 50000000 3.162278   10000026 0.948683
    40026034 20000026 -0.316228   10000034 -0.948683
    40026034 20000034 0.316228
    30026035 50000000 4.123106   10000026 -0.970143
    30026035 20000026 0.242536   10000035 0.970143
    30026035 20000035 -0.242536
    40026035 50000000 4.123106   10000026 0.970143
    40026035 20000026 -0.242536   10000035 -0.970143
    40026035 20000035 0.242536
    30026036 50000000 2.000000   20000026 1.000000
    40026036 50000000 2.000000   20000026 -1.000000
    30026037 50000000 2.236068   10000026 -0.447214
    30026037 20000026 0.894427   10000037 0.447214
    30026037 20000037 -0.894427
    40026037 50000000 2.236068   10000026 0.447214
    40026037 20000026 -0.894427   10000037 -0.447214
    40026037 20000037 0.894427
    30026038 50000000 2.828427   10000026 -0.707107
    30026038 20000026 0.707107   10000038 0.707107
    30026038 20000038 -0.707107
    40026038 50000000 2.828427   10000026 0.707107
    40026038 20000026 -0.707107   10000038 -0.707107
    40026038 20000038 0.707107
    30026039 50000000 3.605551   10000026 -0.832050
    30026039 20000026 0.554700   10000039 0.832050
    30026039 20000039 -0.554700
    40026039 50000000 3.605551   10000026 0.832050
    40026039 20000026 -0.554700   10000039 -0.832050
    40026039 20000039 0.554700
    30026040 50000000 4.472136   10000026 -0.894427
    30026040 20000026 0.447214   10000040 0.894427
    40026040 50000000 4.472136   10000026 0.894427
    40026040 20000026 -0.447214   10000040 -0.894427
    30027028 50000000 1.000000   10000027 -1.000000
    30027028 10000028 1.000000
    40027028 50000000 1.000000   10000027 1.000000
    40027028 10000028 -1.000000
    30027029 50000000 2.000000   10000027 -1.000000
    30027029 10000029 1.000000
    40027029 50000000 2.000000   10000027 1.000000
    40027029 10000029 -1.000000
    30027030 50000000 3.000000   10000027 -1.000000
    30027030 10000030 1.000000
    40027030 50000000 3.000000   10000027 1.000000
    40027030 10000030 -1.000000
    30027031 50000000 1.414214   10000027 0.707107
    30027031 20000027 0.707107   10000031 -0.707107
    30027031 20000031 -0.707107
    40027031 50000000 1.414214   10000027 -0.707107
    40027031 20000027 -0.707107   10000031 0.707107
    40027031 20000031 0.707107
    30027032 50000000 1.000000   20000027 1.000000
    30027032 20000032 -1.000000
    40027032 50000000 1.000000   20000027 -1.000000
    40027032 20000032 1.000000
    30027033 50000000 1.414214   10000027 -0.707107
    30027033 20000027 0.707107   10000033 0.707107
    30027033 20000033 -0.707107
    40027033 50000000 1.414214   10000027 0.707107
    40027033 20000027 -0.707107   10000033 -0.707107
    40027033 20000033 0.707107
    30027034 50000000 2.236068   10000027 -0.894427
    30027034 20000027 0.447214   10000034 0.894427
    30027034 20000034 -0.447214
    40027034 50000000 2.236068   10000027 0.894427
    40027034 20000027 -0.447214   10000034 -0.894427
    40027034 20000034 0.447214
    30027035 50000000 3.162278   10000027 -0.948683
    30027035 20000027 0.316228   10000035 0.948683
    30027035 20000035 -0.316228
    40027035 50000000 3.162278   10000027 0.948683
    40027035 20000027 -0.316228   10000035 -0.948683
    40027035 20000035 0.316228
    30027036 50000000 2.236068   10000027 0.447214
    30027036 20000027 0.894427
    40027036 50000000 2.236068   10000027 -0.447214
    40027036 20000027 -0.894427
    30027037 50000000 2.000000   20000027 1.000000
    30027037 20000037 -1.000000
    40027037 50000000 2.000000   20000027 -1.000000
    40027037 20000037 1.000000
    30027038 50000000 2.236068   10000027 -0.447214
    30027038 20000027 0.894427   10000038 0.447214
    30027038 20000038 -0.894427
    40027038 50000000 2.236068   10000027 0.447214
    40027038 20000027 -0.894427   10000038 -0.447214
    40027038 20000038 0.894427
    30027039 50000000 2.828427   10000027 -0.707107
    30027039 20000027 0.707107   10000039 0.707107
    30027039 20000039 -0.707107
    40027039 50000000 2.828427   10000027 0.707107
    40027039 20000027 -0.707107   10000039 -0.707107
    40027039 20000039 0.707107
    30027040 50000000 3.605551   10000027 -0.832050
    30027040 20000027 0.554700   10000040 0.832050
    40027040 50000000 3.605551   10000027 0.832050
    40027040 20000027 -0.554700   10000040 -0.832050
    30028029 50000000 1.000000   10000028 -1.000000
    30028029 10000029 1.000000
    40028029 50000000 1.000000   10000028 1.000000
    40028029 10000029 -1.000000
    30028030 50000000 2.000000   10000028 -1.000000
    30028030 10000030 1.000000
    40028030 50000000 2.000000   10000028 1.000000
    40028030 10000030 -1.000000
    30028031 50000000 2.236068   10000028 0.894427
    30028031 20000028 0.447214   10000031 -0.894427
    30028031 20000031 -0.447214
    40028031 50000000 2.236068   10000028 -0.894427
    40028031 20000028 -0.447214   10000031 0.894427
    40028031 20000031 0.447214
    30028032 50000000 1.414214   10000028 0.707107
    30028032 20000028 0.707107   10000032 -0.707107
    30028032 20000032 -0.707107
    40028032 50000000 1.414214   10000028 -0.707107
    40028032 20000028 -0.707107   10000032 0.707107
    40028032 20000032 0.707107
    30028033 50000000 1.000000   20000028 1.000000
    30028033 20000033 -1.000000
    40028033 50000000 1.000000   20000028 -1.000000
    40028033 20000033 1.000000
    30028034 50000000 1.414214   10000028 -0.707107
    30028034 20000028 0.707107   10000034 0.707107
    30028034 20000034 -0.707107
    40028034 50000000 1.414214   10000028 0.707107
    40028034 20000028 -0.707107   10000034 -0.707107
    40028034 20000034 0.707107
    30028035 50000000 2.236068   10000028 -0.894427
    30028035 20000028 0.447214   10000035 0.894427
    30028035 20000035 -0.447214
    40028035 50000000 2.236068   10000028 0.894427
    40028035 20000028 -0.447214   10000035 -0.894427
    40028035 20000035 0.447214
    30028036 50000000 2.828427   10000028 0.707107
    30028036 20000028 0.707107
    40028036 50000000 2.828427   10000028 -0.707107
    40028036 20000028 -0.707107
    30028037 50000000 2.236068   10000028 0.447214
    30028037 20000028 0.894427   10000037 -0.447214
    30028037 20000037 -0.894427
    40028037 50000000 2.236068   10000028 -0.447214
    40028037 20000028 -0.894427   10000037 0.447214
    40028037 20000037 0.894427
    30028038 50000000 2.000000   20000028 1.000000
    30028038 20000038 -1.000000
    40028038 50000000 2.000000   20000028 -1.000000
    40028038 20000038 1.000000
    30028039 50000000 2.236068   10000028 -0.447214
    30028039 20000028 0.894427   10000039 0.447214
    30028039 20000039 -0.894427
    40028039 50000000 2.236068   10000028 0.447214
    40028039 20000028 -0.894427   10000039 -0.447214
    40028039 20000039 0.894427
    30028040 50000000 2.828427   10000028 -0.707107
    30028040 20000028 0.707107   10000040 0.707107
    40028040 50000000 2.828427   10000028 0.707107
    40028040 20000028 -0.707107   10000040 -0.707107
    30029030 50000000 1.000000   10000029 -1.000000
    30029030 10000030 1.000000
    40029030 50000000 1.000000   10000029 1.000000
    40029030 10000030 -1.000000
    30029031 50000000 3.162278   10000029 0.948683
    30029031 20000029 0.316228   10000031 -0.948683
    30029031 20000031 -0.316228
    40029031 50000000 3.162278   10000029 -0.948683
    40029031 20000029 -0.316228   10000031 0.948683
    40029031 20000031 0.316228
    30029032 50000000 2.236068   10000029 0.894427
    30029032 20000029 0.447214   10000032 -0.894427
    30029032 20000032 -0.447214
    40029032 50000000 2.236068   10000029 -0.894427
    40029032 20000029 -0.447214   10000032 0.894427
    40029032 20000032 0.447214
    30029033 50000000 1.414214   10000029 0.707107
    30029033 20000029 0.707107   10000033 -0.707107
    30029033 20000033 -0.707107
    40029033 50000000 1.414214   10000029 -0.707107
    40029033 20000029 -0.707107   10000033 0.707107
    40029033 20000033 0.707107
    30029034 50000000 1.000000   20000029 1.000000
    30029034 20000034 -1.000000
    40029034 50000000 1.000000   20000029 -1.000000
    40029034 20000034 1.000000
    30029035 50000000 1.414214   10000029 -0.707107
    30029035 20000029 0.707107   10000035 0.707107
    30029035 20000035 -0.707107
    40029035 50000000 1.414214   10000029 0.707107
    40029035 20000029 -0.707107   10000035 -0.707107
    40029035 20000035 0.707107
    30029036 50000000 3.605551   10000029 0.832050
    30029036 20000029 0.554700
    40029036 50000000 3.605551   10000029 -0.832050
    40029036 20000029 -0.554700
    30029037 50000000 2.828427   10000029 0.707107
    30029037 20000029 0.707107   10000037 -0.707107
    30029037 20000037 -0.707107
    40029037 50000000 2.828427   10000029 -0.707107
    40029037 20000029 -0.707107   10000037 0.707107
    40029037 20000037 0.707107
    30029038 50000000 2.236068   10000029 0.447214
    30029038 20000029 0.894427   10000038 -0.447214
    30029038 20000038 -0.894427
    40029038 50000000 2.236068   10000029 -0.447214
    40029038 20000029 -0.894427   10000038 0.447214
    40029038 20000038 0.894427
    30029039 50000000 2.000000   20000029 1.000000
    30029039 20000039 -1.000000
    40029039 50000000 2.000000   20000029 -1.000000
    40029039 20000039 1.000000
    30029040 50000000 2.236068   10000029 -0.447214
    30029040 20000029 0.894427   10000040 0.447214
    40029040 50000000 2.236068   10000029 0.447214
    40029040 20000029 -0.894427   10000040 -0.447214
    30030031 50000000 4.123106   10000030 0.970143
    30030031 20000030 0.242536   10000031 -0.970143
    30030031 20000031 -0.242536
    40030031 50000000 4.123106   10000030 -0.970143
    40030031 20000030 -0.242536   10000031 0.970143
    40030031 20000031 0.242536
    30030032 50000000 3.162278   10000030 0.948683
    30030032 20000030 0.316228   10000032 -0.948683
    30030032 20000032 -0.316228
    40030032 50000000 3.162278   10000030 -0.948683
    40030032 20000030 -0.316228   10000032 0.948683
    40030032 20000032 0.316228
    30030033 50000000 2.236068   10000030 0.894427
    30030033 20000030 0.447214   10000033 -0.894427
    30030033 20000033 -0.447214
    40030033 50000000 2.236068   10000030 -0.894427
    40030033 20000030 -0.447214   10000033 0.894427
    40030033 20000033 0.447214
    30030034 50000000 1.414214   10000030 0.707107
    30030034 20000030 0.707107   10000034 -0.707107
    30030034 20000034 -0.707107
    40030034 50000000 1.414214   10000030 -0.707107
    40030034 20000030 -0.707107   10000034 0.707107
    40030034 20000034 0.707107
    30030035 50000000 1.000000   20000030 1.000000
    30030035 20000035 -1.000000
    40030035 50000000 1.000000   20000030 -1.000000
    40030035 20000035 1.000000
    30030036 50000000 4.472136   10000030 0.894427
    30030036 20000030 0.447214
    40030036 50000000 4.472136   10000030 -0.894427
    40030036 20000030 -0.447214
    30030037 50000000 3.605551   10000030 0.832050
    30030037 20000030 0.554700   10000037 -0.832050
    30030037 20000037 -0.554700
    40030037 50000000 3.605551   10000030 -0.832050
    40030037 20000030 -0.554700   10000037 0.832050
    40030037 20000037 0.554700
    30030038 50000000 2.828427   10000030 0.707107
    30030038 20000030 0.707107   10000038 -0.707107
    30030038 20000038 -0.707107
    40030038 50000000 2.828427   10000030 -0.707107
    40030038 20000030 -0.707107   10000038 0.707107
    40030038 20000038 0.707107
    30030039 50000000 2.236068   10000030 0.447214
    30030039 20000030 0.894427   10000039 -0.447214
    30030039 20000039 -0.894427
    40030039 50000000 2.236068   10000030 -0.447214
    40030039 20000030 -0.894427   10000039 0.447214
    40030039 20000039 0.894427
    30030040 50000000 2.000000   20000030 1.000000
    40030040 50000000 2.000000   20000030 -1.000000
    30031032 50000000 1.000000   10000031 -1.000000
    30031032 10000032 1.000000
    40031032 50000000 1.000000   10000031 1.000000
    40031032 10000032 -1.000000
    30031033 50000000 2.000000   10000031 -1.000000
    30031033 10000033 1.000000
    40031033 50000000 2.000000   10000031 1.000000
    40031033 10000033 -1.000000
    30031034 50000000 3.000000   10000031 -1.000000
    30031034 10000034 1.000000
    40031034 50000000 3.000000   10000031 1.000000
    40031034 10000034 -1.000000
    30031035 50000000 4.000000   10000031 -1.000000
    30031035 10000035 1.000000
    40031035 50000000 4.000000   10000031 1.000000
    40031035 10000035 -1.000000
    30031036 50000000 1.000000   20000031 1.000000
    40031036 50000000 1.000000   20000031 -1.000000
    30031037 50000000 1.414214   10000031 -0.707107
    30031037 20000031 0.707107   10000037 0.707107
    30031037 20000037 -0.707107
    40031037 50000000 1.414214   10000031 0.707107
    40031037 20000031 -0.707107   10000037 -0.707107
    40031037 20000037 0.707107
    30031038 50000000 2.236068   10000031 -0.894427
    30031038 20000031 0.447214   10000038 0.894427
    30031038 20000038 -0.447214
    40031038 50000000 2.236068   10000031 0.894427
    40031038 20000031 -0.447214   10000038 -0.894427
    40031038 20000038 0.447214
    30031039 50000000 3.162278   10000031 -0.948683
    30031039 20000031 0.316228   10000039 0.948683
    30031039 20000039 -0.316228
    40031039 50000000 3.162278   10000031 0.948683
    40031039 20000031 -0.316228   10000039 -0.948683
    40031039 20000039 0.316228
    30031040 50000000 4.123106   10000031 -0.970143
    30031040 20000031 0.242536   10000040 0.970143
    40031040 50000000 4.123106   10000031 0.970143
    40031040 20000031 -0.242536   10000040 -0.970143
    30032033 50000000 1.000000   10000032 -1.000000
    30032033 10000033 1.000000
    40032033 50000000 1.000000   10000032 1.000000
    40032033 10000033 -1.000000
    30032034 50000000 2.000000   10000032 -1.000000
    30032034 10000034 1.000000
    40032034 50000000 2.000000   10000032 1.000000
    40032034 10000034 -1.000000
    30032035 50000000 3.000000   10000032 -1.000000
    30032035 10000035 1.000000
    40032035 50000000 3.000000   10000032 1.000000
    40032035 10000035 -1.000000
    30032036 50000000 1.414214   10000032 0.707107
    30032036 20000032 0.707107
    40032036 50000000 1.414214   10000032 -0.707107
    40032036 20000032 -0.707107
    30032037 50000000 1.000000   20000032 1.000000
    30032037 20000037 -1.000000
    40032037 50000000 1.000000   20000032 -1.000000
    40032037 20000037 1.000000
    30032038 50000000 1.414214   10000032 -0.707107
    30032038 20000032 0.707107   10000038 0.707107
    30032038 20000038 -0.707107
    40032038 50000000 1.414214   10000032 0.707107
    40032038 20000032 -0.707107   10000038 -0.707107
    40032038 20000038 0.707107
    30032039 50000000 2.236068   10000032 -0.894427
    30032039 20000032 0.447214   10000039 0.894427
    30032039 20000039 -0.447214
    40032039 50000000 2.236068   10000032 0.894427
    40032039 20000032 -0.447214   10000039 -0.894427
    40032039 20000039 0.447214
    30032040 50000000 3.162278   10000032 -0.948683
    30032040 20000032 0.316228   10000040 0.948683
    40032040 50000000 3.162278   10000032 0.948683
    40032040 20000032 -0.316228   10000040 -0.948683
    30033034 50000000 1.000000   10000033 -1.000000
    30033034 10000034 1.000000
    40033034 50000000 1.000000   10000033 1.000000
    40033034 10000034 -1.000000
    30033035 50000000 2.000000   10000033 -1.000000
    30033035 10000035 1.000000
    40033035 50000000 2.000000   10000033 1.000000
    40033035 10000035 -1.000000
    30033036 50000000 2.236068   10000033 0.894427
    30033036 20000033 0.447214
    40033036 50000000 2.236068   10000033 -0.894427
    40033036 20000033 -0.447214
    30033037 50000000 1.414214   10000033 0.707107
    30033037 20000033 0.707107   10000037 -0.707107
    30033037 20000037 -0.707107
    40033037 50000000 1.414214   10000033 -0.707107
    40033037 20000033 -0.707107   10000037 0.707107
    40033037 20000037 0.707107
    30033038 50000000 1.000000   20000033 1.000000
    30033038 20000038 -1.000000
    40033038 50000000 1.000000   20000033 -1.000000
    40033038 20000038 1.000000
    30033039 50000000 1.414214   10000033 -0.707107
    30033039 20000033 0.707107   10000039 0.707107
    30033039 20000039 -0.707107
    40033039 50000000 1.414214   10000033 0.707107
    40033039 20000033 -0.707107   10000039 -0.707107
    40033039 20000039 0.707107
    30033040 50000000 2.236068   10000033 -0.894427
    30033040 20000033 0.447214   10000040 0.894427
    40033040 50000000 2.236068   10000033 0.894427
    40033040 20000033 -0.447214   10000040 -0.894427
    30034035 50000000 1.000000   10000034 -1.000000
    30034035 10000035 1.000000
    40034035 50000000 1.000000   10000034 1.000000
    40034035 10000035 -1.000000
    30034036 50000000 3.162278   10000034 0.948683
    30034036 20000034 0.316228
    40034036 50000000 3.162278   10000034 -0.948683
    40034036 20000034 -0.316228
    30034037 50000000 2.236068   10000034 0.894427
    30034037 20000034 0.447214   10000037 -0.894427
    30034037 20000037 -0.447214
    40034037 50000000 2.236068   10000034 -0.894427
    40034037 20000034 -0.447214   10000037 0.894427
    40034037 20000037 0.447214
    30034038 50000000 1.414214   10000034 0.707107
    30034038 20000034 0.707107   10000038 -0.707107
    30034038 20000038 -0.707107
    40034038 50000000 1.414214   10000034 -0.707107
    40034038 20000034 -0.707107   10000038 0.707107
    40034038 20000038 0.707107
    30034039 50000000 1.000000   20000034 1.000000
    30034039 20000039 -1.000000
    40034039 50000000 1.000000   20000034 -1.000000
    40034039 20000039 1.000000
    30034040 50000000 1.414214   10000034 -0.707107
    30034040 20000034 0.707107   10000040 0.707107
    40034040 50000000 1.414214   10000034 0.707107
    40034040 20000034 -0.707107   10000040 -0.707107
    30035036 50000000 4.123106   10000035 0.970143
    30035036 20000035 0.242536
    40035036 50000000 4.123106   10000035 -0.970143
    40035036 20000035 -0.242536
    30035037 50000000 3.162278   10000035 0.948683
    30035037 20000035 0.316228   10000037 -0.948683
    30035037 20000037 -0.316228
    40035037 50000000 3.162278   10000035 -0.948683
    40035037 20000035 -0.316228   10000037 0.948683
    40035037 20000037 0.316228
    30035038 50000000 2.236068   10000035 0.894427
    30035038 20000035 0.447214   10000038 -0.894427
    30035038 20000038 -0.447214
    40035038 50000000 2.236068   10000035 -0.894427
    40035038 20000035 -0.447214   10000038 0.894427
    40035038 20000038 0.447214
    30035039 50000000 1.414214   10000035 0.707107
    30035039 20000035 0.707107   10000039 -0.707107
    30035039 20000039 -0.707107
    40035039 50000000 1.414214   10000035 -0.707107
    40035039 20000035 -0.707107   10000039 0.707107
    40035039 20000039 0.707107
    30035040 50000000 1.000000   20000035 1.000000
    40035040 50000000 1.000000   20000035 -1.000000
    30036037 50000000 1.000000   10000037 1.000000
    40036037 50000000 1.000000   10000037 -1.000000
    30036038 50000000 2.000000   10000038 1.000000
    40036038 50000000 2.000000   10000038 -1.000000
    30036039 50000000 3.000000   10000039 1.000000
    40036039 50000000 3.000000   10000039 -1.000000
    30036040 50000000 4.000000   10000040 1.000000
    40036040 50000000 4.000000   10000040 -1.000000
    30037038 50000000 1.000000   10000037 -1.000000
    30037038 10000038 1.000000
    40037038 50000000 1.000000   10000037 1.000000
    40037038 10000038 -1.000000
    30037039 50000000 2.000000   10000037 -1.000000
    30037039 10000039 1.000000
    40037039 50000000 2.000000   10000037 1.000000
    40037039 10000039 -1.000000
    30037040 50000000 3.000000   10000037 -1.000000
    30037040 10000040 1.000000
    40037040 50000000 3.000000   10000037 1.000000
    40037040 10000040 -1.000000
    30038039 50000000 1.000000   10000038 -1.000000
    30038039 10000039 1.000000
    40038039 50000000 1.000000   10000038 1.000000
    40038039 10000039 -1.000000
    30038040 50000000 2.000000   10000038 -1.000000
    30038040 10000040 1.000000
    40038040 50000000 2.000000   10000038 1.000000
    40038040 10000040 -1.000000
    30039040 50000000 1.000000   10000039 -1.000000
    30039040 10000040 1.000000
    40039040 50000000 1.000000   10000039 1.000000
    40039040 10000040 -1.000000
RHS
    RHS      20000003 -1.000000
BOUNDS
ENDATA
