NAME          SCTAP2
ROWS
 N  OBJZZZZZ
 E  NCZZ1ZZ1
 E  NCZZ2ZZ1
 E  NCZZ3ZZ1
 E  NCZZ4ZZ1
 E  NCZZ5ZZ1
 E  NCZZ6ZZ1
 E  NCZZ7ZZ1
 E  NCZZ8ZZ1
 E  NCZZ9ZZ1
 E  NCZ10ZZ1
 E  NCZ11ZZ1
 E  NCZ12ZZ1
 E  NCZ13ZZ1
 E  NCZ14ZZ1
 E  NCZ15ZZ1
 E  ACZZ1ZZ1
 E  ACZZ2ZZ1
 E  ACZZ3ZZ1
 E  ACZZ4ZZ1
 E  ACZZ5ZZ1
 E  ACZZ6ZZ1
 E  ACZZ7ZZ1
 E  ACZZ8ZZ1
 E  ACZZ9ZZ1
 E  ACZ10ZZ1
 E  ACZ11ZZ1
 E  ACZ12ZZ1
 E  ACZ13ZZ1
 E  ACZ14ZZ1
 E  ACZ15ZZ1
 E  ACZ16ZZ1
 E  ACZ17ZZ1
 E  ACZ18ZZ1
 E  ACZ19ZZ1
 E  ACZ20ZZ1
 E  ACZ21ZZ1
 E  ACZ22ZZ1
 E  ACZ23ZZ1
 E  ACZ24ZZ1
 E  ACZ25ZZ1
 E  ACZ26ZZ1
 E  ACZ27ZZ1
 E  ACZ28ZZ1
 E  ACZ29ZZ1
 E  ACZ30ZZ1
 E  ACZ31ZZ1
 E  ACZ32ZZ1
 E  ACZ33ZZ1
 E  ACZ34ZZ1
 E  ACZ35ZZ1
 E  ACZ36ZZ1
 E  ACZ37ZZ1
 E  ACZ38ZZ1
 E  ACZ39ZZ1
 E  ACZ40ZZ1
 E  ACZ41ZZ1
 E  ACZ42ZZ1
 E  ACZ43ZZ1
 E  ACZ44ZZ1
 E  ACZ45ZZ1
 E  ACZ46ZZ1
 E  ACZ47ZZ1
 E  CCZZ1ZZ1
 E  CCZZ2ZZ1
 E  CCZZ3ZZ1
 E  CCZZ4ZZ1
 E  CCZZ5ZZ1
 E  CCZZ6ZZ1
 E  CCZZ7ZZ1
 E  CCZZ8ZZ1
 E  CCZZ9ZZ1
 E  CCZ10ZZ1
 E  CCZ11ZZ1
 E  CCZ12ZZ1
 E  CCZ13ZZ1
 E  CCZ14ZZ1
 E  CCZ15ZZ1
 E  CCZ16ZZ1
 E  CCZ17ZZ1
 E  CCZ18ZZ1
 E  CCZ19ZZ1
 E  CCZ20ZZ1
 E  CCZ21ZZ1
 E  CCZ22ZZ1
 E  CCZ23ZZ1
 E  CCZ24ZZ1
 E  CCZ25ZZ1
 E  CCZ26ZZ1
 E  CCZ27ZZ1
 E  CCZ28ZZ1
 E  CCZ29ZZ1
 E  CCZ30ZZ1
 E  CCZ31ZZ1
 E  CCZ32ZZ1
 E  CCZ33ZZ1
 E  CCZ34ZZ1
 E  CCZ35ZZ1
 E  CCZ36ZZ1
 E  CCZ37ZZ1
 E  CCZ38ZZ1
 E  CCZ39ZZ1
 E  CCZ40ZZ1
 E  CCZ41ZZ1
 E  CCZ42ZZ1
 E  CCZ43ZZ1
 E  CCZ44ZZ1
 E  CCZ45ZZ1
 E  CCZ46ZZ1
 E  CCZ47ZZ1
 E  NCZZ1ZZ2
 E  NCZZ2ZZ2
 E  NCZZ3ZZ2
 E  NCZZ4ZZ2
 E  NCZZ5ZZ2
 E  NCZZ6ZZ2
 E  NCZZ7ZZ2
 E  NCZZ8ZZ2
 E  NCZZ9ZZ2
 E  NCZ10ZZ2
 E  NCZ11ZZ2
 E  NCZ12ZZ2
 E  NCZ13ZZ2
 E  NCZ14ZZ2
 E  NCZ15ZZ2
 E  ACZZ1ZZ2
 E  ACZZ2ZZ2
 E  ACZZ3ZZ2
 E  ACZZ4ZZ2
 E  ACZZ5ZZ2
 E  ACZZ6ZZ2
 E  ACZZ7ZZ2
 E  ACZZ8ZZ2
 E  ACZZ9ZZ2
 E  ACZ10ZZ2
 E  ACZ11ZZ2
 E  ACZ12ZZ2
 E  ACZ13ZZ2
 E  ACZ14ZZ2
 E  ACZ15ZZ2
 E  ACZ16ZZ2
 E  ACZ17ZZ2
 E  ACZ18ZZ2
 E  ACZ19ZZ2
 E  ACZ20ZZ2
 E  ACZ21ZZ2
 E  ACZ22ZZ2
 E  ACZ23ZZ2
 E  ACZ24ZZ2
 E  ACZ25ZZ2
 E  ACZ26ZZ2
 E  ACZ27ZZ2
 E  ACZ28ZZ2
 E  ACZ29ZZ2
 E  ACZ30ZZ2
 E  ACZ31ZZ2
 E  ACZ32ZZ2
 E  ACZ33ZZ2
 E  ACZ34ZZ2
 E  ACZ35ZZ2
 E  ACZ36ZZ2
 E  ACZ37ZZ2
 E  ACZ38ZZ2
 E  ACZ39ZZ2
 E  ACZ40ZZ2
 E  ACZ41ZZ2
 E  ACZ42ZZ2
 E  ACZ43ZZ2
 E  ACZ44ZZ2
 E  ACZ45ZZ2
 E  ACZ46ZZ2
 E  ACZ47ZZ2
 E  CCZZ1ZZ2
 E  CCZZ2ZZ2
 E  CCZZ3ZZ2
 E  CCZZ4ZZ2
 E  CCZZ5ZZ2
 E  CCZZ6ZZ2
 E  CCZZ7ZZ2
 E  CCZZ8ZZ2
 E  CCZZ9ZZ2
 E  CCZ10ZZ2
 E  CCZ11ZZ2
 E  CCZ12ZZ2
 E  CCZ13ZZ2
 E  CCZ14ZZ2
 E  CCZ15ZZ2
 E  CCZ16ZZ2
 E  CCZ17ZZ2
 E  CCZ18ZZ2
 E  CCZ19ZZ2
 E  CCZ20ZZ2
 E  CCZ21ZZ2
 E  CCZ22ZZ2
 E  CCZ23ZZ2
 E  CCZ24ZZ2
 E  CCZ25ZZ2
 E  CCZ26ZZ2
 E  CCZ27ZZ2
 E  CCZ28ZZ2
 E  CCZ29ZZ2
 E  CCZ30ZZ2
 E  CCZ31ZZ2
 E  CCZ32ZZ2
 E  CCZ33ZZ2
 E  CCZ34ZZ2
 E  CCZ35ZZ2
 E  CCZ36ZZ2
 E  CCZ37ZZ2
 E  CCZ38ZZ2
 E  CCZ39ZZ2
 E  CCZ40ZZ2
 E  CCZ41ZZ2
 E  CCZ42ZZ2
 E  CCZ43ZZ2
 E  CCZ44ZZ2
 E  CCZ45ZZ2
 E  CCZ46ZZ2
 E  CCZ47ZZ2
 E  NCZZ1ZZ3
 E  NCZZ2ZZ3
 E  NCZZ3ZZ3
 E  NCZZ4ZZ3
 E  NCZZ5ZZ3
 E  NCZZ6ZZ3
 E  NCZZ7ZZ3
 E  NCZZ8ZZ3
 E  NCZZ9ZZ3
 E  NCZ10ZZ3
 E  NCZ11ZZ3
 E  NCZ12ZZ3
 E  NCZ13ZZ3
 E  NCZ14ZZ3
 E  NCZ15ZZ3
 E  ACZZ1ZZ3
 E  ACZZ2ZZ3
 E  ACZZ3ZZ3
 E  ACZZ4ZZ3
 E  ACZZ5ZZ3
 E  ACZZ6ZZ3
 E  ACZZ7ZZ3
 E  ACZZ8ZZ3
 E  ACZZ9ZZ3
 E  ACZ10ZZ3
 E  ACZ11ZZ3
 E  ACZ12ZZ3
 E  ACZ13ZZ3
 E  ACZ14ZZ3
 E  ACZ15ZZ3
 E  ACZ16ZZ3
 E  ACZ17ZZ3
 E  ACZ18ZZ3
 E  ACZ19ZZ3
 E  ACZ20ZZ3
 E  ACZ21ZZ3
 E  ACZ22ZZ3
 E  ACZ23ZZ3
 E  ACZ24ZZ3
 E  ACZ25ZZ3
 E  ACZ26ZZ3
 E  ACZ27ZZ3
 E  ACZ28ZZ3
 E  ACZ29ZZ3
 E  ACZ30ZZ3
 E  ACZ31ZZ3
 E  ACZ32ZZ3
 E  ACZ33ZZ3
 E  ACZ34ZZ3
 E  ACZ35ZZ3
 E  ACZ36ZZ3
 E  ACZ37ZZ3
 E  ACZ38ZZ3
 E  ACZ39ZZ3
 E  ACZ40ZZ3
 E  ACZ41ZZ3
 E  ACZ42ZZ3
 E  ACZ43ZZ3
 E  ACZ44ZZ3
 E  ACZ45ZZ3
 E  ACZ46ZZ3
 E  ACZ47ZZ3
 E  CCZZ1ZZ3
 E  CCZZ2ZZ3
 E  CCZZ3ZZ3
 E  CCZZ4ZZ3
 E  CCZZ5ZZ3
 E  CCZZ6ZZ3
 E  CCZZ7ZZ3
 E  CCZZ8ZZ3
 E  CCZZ9ZZ3
 E  CCZ10ZZ3
 E  CCZ11ZZ3
 E  CCZ12ZZ3
 E  CCZ13ZZ3
 E  CCZ14ZZ3
 E  CCZ15ZZ3
 E  CCZ16ZZ3
 E  CCZ17ZZ3
 E  CCZ18ZZ3
 E  CCZ19ZZ3
 E  CCZ20ZZ3
 E  CCZ21ZZ3
 E  CCZ22ZZ3
 E  CCZ23ZZ3
 E  CCZ24ZZ3
 E  CCZ25ZZ3
 E  CCZ26ZZ3
 E  CCZ27ZZ3
 E  CCZ28ZZ3
 E  CCZ29ZZ3
 E  CCZ30ZZ3
 E  CCZ31ZZ3
 E  CCZ32ZZ3
 E  CCZ33ZZ3
 E  CCZ34ZZ3
 E  CCZ35ZZ3
 E  CCZ36ZZ3
 E  CCZ37ZZ3
 E  CCZ38ZZ3
 E  CCZ39ZZ3
 E  CCZ40ZZ3
 E  CCZ41ZZ3
 E  CCZ42ZZ3
 E  CCZ43ZZ3
 E  CCZ44ZZ3
 E  CCZ45ZZ3
 E  CCZ46ZZ3
 E  CCZ47ZZ3
 E  NCZZ1ZZ4
 E  NCZZ2ZZ4
 E  NCZZ3ZZ4
 E  NCZZ4ZZ4
 E  NCZZ5ZZ4
 E  NCZZ6ZZ4
 E  NCZZ7ZZ4
 E  NCZZ8ZZ4
 E  NCZZ9ZZ4
 E  NCZ10ZZ4
 E  NCZ11ZZ4
 E  NCZ12ZZ4
 E  NCZ13ZZ4
 E  NCZ14ZZ4
 E  NCZ15ZZ4
 E  ACZZ1ZZ4
 E  ACZZ2ZZ4
 E  ACZZ3ZZ4
 E  ACZZ4ZZ4
 E  ACZZ5ZZ4
 E  ACZZ6ZZ4
 E  ACZZ7ZZ4
 E  ACZZ8ZZ4
 E  ACZZ9ZZ4
 E  ACZ10ZZ4
 E  ACZ11ZZ4
 E  ACZ12ZZ4
 E  ACZ13ZZ4
 E  ACZ14ZZ4
 E  ACZ15ZZ4
 E  ACZ16ZZ4
 E  ACZ17ZZ4
 E  ACZ18ZZ4
 E  ACZ19ZZ4
 E  ACZ20ZZ4
 E  ACZ21ZZ4
 E  ACZ22ZZ4
 E  ACZ23ZZ4
 E  ACZ24ZZ4
 E  ACZ25ZZ4
 E  ACZ26ZZ4
 E  ACZ27ZZ4
 E  ACZ28ZZ4
 E  ACZ29ZZ4
 E  ACZ30ZZ4
 E  ACZ31ZZ4
 E  ACZ32ZZ4
 E  ACZ33ZZ4
 E  ACZ34ZZ4
 E  ACZ35ZZ4
 E  ACZ36ZZ4
 E  ACZ37ZZ4
 E  ACZ38ZZ4
 E  ACZ39ZZ4
 E  ACZ40ZZ4
 E  ACZ41ZZ4
 E  ACZ42ZZ4
 E  ACZ43ZZ4
 E  ACZ44ZZ4
 E  ACZ45ZZ4
 E  ACZ46ZZ4
 E  ACZ47ZZ4
 E  CCZZ1ZZ4
 E  CCZZ2ZZ4
 E  CCZZ3ZZ4
 E  CCZZ4ZZ4
 E  CCZZ5ZZ4
 E  CCZZ6ZZ4
 E  CCZZ7ZZ4
 E  CCZZ8ZZ4
 E  CCZZ9ZZ4
 E  CCZ10ZZ4
 E  CCZ11ZZ4
 E  CCZ12ZZ4
 E  CCZ13ZZ4
 E  CCZ14ZZ4
 E  CCZ15ZZ4
 E  CCZ16ZZ4
 E  CCZ17ZZ4
 E  CCZ18ZZ4
 E  CCZ19ZZ4
 E  CCZ20ZZ4
 E  CCZ21ZZ4
 E  CCZ22ZZ4
 E  CCZ23ZZ4
 E  CCZ24ZZ4
 E  CCZ25ZZ4
 E  CCZ26ZZ4
 E  CCZ27ZZ4
 E  CCZ28ZZ4
 E  CCZ29ZZ4
 E  CCZ30ZZ4
 E  CCZ31ZZ4
 E  CCZ32ZZ4
 E  CCZ33ZZ4
 E  CCZ34ZZ4
 E  CCZ35ZZ4
 E  CCZ36ZZ4
 E  CCZ37ZZ4
 E  CCZ38ZZ4
 E  CCZ39ZZ4
 E  CCZ40ZZ4
 E  CCZ41ZZ4
 E  CCZ42ZZ4
 E  CCZ43ZZ4
 E  CCZ44ZZ4
 E  CCZ45ZZ4
 E  CCZ46ZZ4
 E  CCZ47ZZ4
 E  NCZZ1ZZ5
 E  NCZZ2ZZ5
 E  NCZZ3ZZ5
 E  NCZZ4ZZ5
 E  NCZZ5ZZ5
 E  NCZZ6ZZ5
 E  NCZZ7ZZ5
 E  NCZZ8ZZ5
 E  NCZZ9ZZ5
 E  NCZ10ZZ5
 E  NCZ11ZZ5
 E  NCZ12ZZ5
 E  NCZ13ZZ5
 E  NCZ14ZZ5
 E  NCZ15ZZ5
 E  ACZZ1ZZ5
 E  ACZZ2ZZ5
 E  ACZZ3ZZ5
 E  ACZZ4ZZ5
 E  ACZZ5ZZ5
 E  ACZZ6ZZ5
 E  ACZZ7ZZ5
 E  ACZZ8ZZ5
 E  ACZZ9ZZ5
 E  ACZ10ZZ5
 E  ACZ11ZZ5
 E  ACZ12ZZ5
 E  ACZ13ZZ5
 E  ACZ14ZZ5
 E  ACZ15ZZ5
 E  ACZ16ZZ5
 E  ACZ17ZZ5
 E  ACZ18ZZ5
 E  ACZ19ZZ5
 E  ACZ20ZZ5
 E  ACZ21ZZ5
 E  ACZ22ZZ5
 E  ACZ23ZZ5
 E  ACZ24ZZ5
 E  ACZ25ZZ5
 E  ACZ26ZZ5
 E  ACZ27ZZ5
 E  ACZ28ZZ5
 E  ACZ29ZZ5
 E  ACZ30ZZ5
 E  ACZ31ZZ5
 E  ACZ32ZZ5
 E  ACZ33ZZ5
 E  ACZ34ZZ5
 E  ACZ35ZZ5
 E  ACZ36ZZ5
 E  ACZ37ZZ5
 E  ACZ38ZZ5
 E  ACZ39ZZ5
 E  ACZ40ZZ5
 E  ACZ41ZZ5
 E  ACZ42ZZ5
 E  ACZ43ZZ5
 E  ACZ44ZZ5
 E  ACZ45ZZ5
 E  ACZ46ZZ5
 E  ACZ47ZZ5
 E  CCZZ1ZZ5
 E  CCZZ2ZZ5
 E  CCZZ3ZZ5
 E  CCZZ4ZZ5
 E  CCZZ5ZZ5
 E  CCZZ6ZZ5
 E  CCZZ7ZZ5
 E  CCZZ8ZZ5
 E  CCZZ9ZZ5
 E  CCZ10ZZ5
 E  CCZ11ZZ5
 E  CCZ12ZZ5
 E  CCZ13ZZ5
 E  CCZ14ZZ5
 E  CCZ15ZZ5
 E  CCZ16ZZ5
 E  CCZ17ZZ5
 E  CCZ18ZZ5
 E  CCZ19ZZ5
 E  CCZ20ZZ5
 E  CCZ21ZZ5
 E  CCZ22ZZ5
 E  CCZ23ZZ5
 E  CCZ24ZZ5
 E  CCZ25ZZ5
 E  CCZ26ZZ5
 E  CCZ27ZZ5
 E  CCZ28ZZ5
 E  CCZ29ZZ5
 E  CCZ30ZZ5
 E  CCZ31ZZ5
 E  CCZ32ZZ5
 E  CCZ33ZZ5
 E  CCZ34ZZ5
 E  CCZ35ZZ5
 E  CCZ36ZZ5
 E  CCZ37ZZ5
 E  CCZ38ZZ5
 E  CCZ39ZZ5
 E  CCZ40ZZ5
 E  CCZ41ZZ5
 E  CCZ42ZZ5
 E  CCZ43ZZ5
 E  CCZ44ZZ5
 E  CCZ45ZZ5
 E  CCZ46ZZ5
 E  CCZ47ZZ5
 E  NCZZ1ZZ6
 E  NCZZ2ZZ6
 E  NCZZ3ZZ6
 E  NCZZ4ZZ6
 E  NCZZ5ZZ6
 E  NCZZ6ZZ6
 E  NCZZ7ZZ6
 E  NCZZ8ZZ6
 E  NCZZ9ZZ6
 E  NCZ10ZZ6
 E  NCZ11ZZ6
 E  NCZ12ZZ6
 E  NCZ13ZZ6
 E  NCZ14ZZ6
 E  NCZ15ZZ6
 E  ACZZ1ZZ6
 E  ACZZ2ZZ6
 E  ACZZ3ZZ6
 E  ACZZ4ZZ6
 E  ACZZ5ZZ6
 E  ACZZ6ZZ6
 E  ACZZ7ZZ6
 E  ACZZ8ZZ6
 E  ACZZ9ZZ6
 E  ACZ10ZZ6
 E  ACZ11ZZ6
 E  ACZ12ZZ6
 E  ACZ13ZZ6
 E  ACZ14ZZ6
 E  ACZ15ZZ6
 E  ACZ16ZZ6
 E  ACZ17ZZ6
 E  ACZ18ZZ6
 E  ACZ19ZZ6
 E  ACZ20ZZ6
 E  ACZ21ZZ6
 E  ACZ22ZZ6
 E  ACZ23ZZ6
 E  ACZ24ZZ6
 E  ACZ25ZZ6
 E  ACZ26ZZ6
 E  ACZ27ZZ6
 E  ACZ28ZZ6
 E  ACZ29ZZ6
 E  ACZ30ZZ6
 E  ACZ31ZZ6
 E  ACZ32ZZ6
 E  ACZ33ZZ6
 E  ACZ34ZZ6
 E  ACZ35ZZ6
 E  ACZ36ZZ6
 E  ACZ37ZZ6
 E  ACZ38ZZ6
 E  ACZ39ZZ6
 E  ACZ40ZZ6
 E  ACZ41ZZ6
 E  ACZ42ZZ6
 E  ACZ43ZZ6
 E  ACZ44ZZ6
 E  ACZ45ZZ6
 E  ACZ46ZZ6
 E  ACZ47ZZ6
 E  CCZZ1ZZ6
 E  CCZZ2ZZ6
 E  CCZZ3ZZ6
 E  CCZZ4ZZ6
 E  CCZZ5ZZ6
 E  CCZZ6ZZ6
 E  CCZZ7ZZ6
 E  CCZZ8ZZ6
 E  CCZZ9ZZ6
 E  CCZ10ZZ6
 E  CCZ11ZZ6
 E  CCZ12ZZ6
 E  CCZ13ZZ6
 E  CCZ14ZZ6
 E  CCZ15ZZ6
 E  CCZ16ZZ6
 E  CCZ17ZZ6
 E  CCZ18ZZ6
 E  CCZ19ZZ6
 E  CCZ20ZZ6
 E  CCZ21ZZ6
 E  CCZ22ZZ6
 E  CCZ23ZZ6
 E  CCZ24ZZ6
 E  CCZ25ZZ6
 E  CCZ26ZZ6
 E  CCZ27ZZ6
 E  CCZ28ZZ6
 E  CCZ29ZZ6
 E  CCZ30ZZ6
 E  CCZ31ZZ6
 E  CCZ32ZZ6
 E  CCZ33ZZ6
 E  CCZ34ZZ6
 E  CCZ35ZZ6
 E  CCZ36ZZ6
 E  CCZ37ZZ6
 E  CCZ38ZZ6
 E  CCZ39ZZ6
 E  CCZ40ZZ6
 E  CCZ41ZZ6
 E  CCZ42ZZ6
 E  CCZ43ZZ6
 E  CCZ44ZZ6
 E  CCZ45ZZ6
 E  CCZ46ZZ6
 E  CCZ47ZZ6
 E  NCZZ1ZZ7
 E  NCZZ2ZZ7
 E  NCZZ3ZZ7
 E  NCZZ4ZZ7
 E  NCZZ5ZZ7
 E  NCZZ6ZZ7
 E  NCZZ7ZZ7
 E  NCZZ8ZZ7
 E  NCZZ9ZZ7
 E  NCZ10ZZ7
 E  NCZ11ZZ7
 E  NCZ12ZZ7
 E  NCZ13ZZ7
 E  NCZ14ZZ7
 E  NCZ15ZZ7
 E  ACZZ1ZZ7
 E  ACZZ2ZZ7
 E  ACZZ3ZZ7
 E  ACZZ4ZZ7
 E  ACZZ5ZZ7
 E  ACZZ6ZZ7
 E  ACZZ7ZZ7
 E  ACZZ8ZZ7
 E  ACZZ9ZZ7
 E  ACZ10ZZ7
 E  ACZ11ZZ7
 E  ACZ12ZZ7
 E  ACZ13ZZ7
 E  ACZ14ZZ7
 E  ACZ15ZZ7
 E  ACZ16ZZ7
 E  ACZ17ZZ7
 E  ACZ18ZZ7
 E  ACZ19ZZ7
 E  ACZ20ZZ7
 E  ACZ21ZZ7
 E  ACZ22ZZ7
 E  ACZ23ZZ7
 E  ACZ24ZZ7
 E  ACZ25ZZ7
 E  ACZ26ZZ7
 E  ACZ27ZZ7
 E  ACZ28ZZ7
 E  ACZ29ZZ7
 E  ACZ30ZZ7
 E  ACZ31ZZ7
 E  ACZ32ZZ7
 E  ACZ33ZZ7
 E  ACZ34ZZ7
 E  ACZ35ZZ7
 E  ACZ36ZZ7
 E  ACZ37ZZ7
 E  ACZ38ZZ7
 E  ACZ39ZZ7
 E  ACZ40ZZ7
 E  ACZ41ZZ7
 E  ACZ42ZZ7
 E  ACZ43ZZ7
 E  ACZ44ZZ7
 E  ACZ45ZZ7
 E  ACZ46ZZ7
 E  ACZ47ZZ7
 E  CCZZ1ZZ7
 E  CCZZ2ZZ7
 E  CCZZ3ZZ7
 E  CCZZ4ZZ7
 E  CCZZ5ZZ7
 E  CCZZ6ZZ7
 E  CCZZ7ZZ7
 E  CCZZ8ZZ7
 E  CCZZ9ZZ7
 E  CCZ10ZZ7
 E  CCZ11ZZ7
 E  CCZ12ZZ7
 E  CCZ13ZZ7
 E  CCZ14ZZ7
 E  CCZ15ZZ7
 E  CCZ16ZZ7
 E  CCZ17ZZ7
 E  CCZ18ZZ7
 E  CCZ19ZZ7
 E  CCZ20ZZ7
 E  CCZ21ZZ7
 E  CCZ22ZZ7
 E  CCZ23ZZ7
 E  CCZ24ZZ7
 E  CCZ25ZZ7
 E  CCZ26ZZ7
 E  CCZ27ZZ7
 E  CCZ28ZZ7
 E  CCZ29ZZ7
 E  CCZ30ZZ7
 E  CCZ31ZZ7
 E  CCZ32ZZ7
 E  CCZ33ZZ7
 E  CCZ34ZZ7
 E  CCZ35ZZ7
 E  CCZ36ZZ7
 E  CCZ37ZZ7
 E  CCZ38ZZ7
 E  CCZ39ZZ7
 E  CCZ40ZZ7
 E  CCZ41ZZ7
 E  CCZ42ZZ7
 E  CCZ43ZZ7
 E  CCZ44ZZ7
 E  CCZ45ZZ7
 E  CCZ46ZZ7
 E  CCZ47ZZ7
 E  NCZZ1ZZ8
 E  NCZZ2ZZ8
 E  NCZZ3ZZ8
 E  NCZZ4ZZ8
 E  NCZZ5ZZ8
 E  NCZZ6ZZ8
 E  NCZZ7ZZ8
 E  NCZZ8ZZ8
 E  NCZZ9ZZ8
 E  NCZ10ZZ8
 E  NCZ11ZZ8
 E  NCZ12ZZ8
 E  NCZ13ZZ8
 E  NCZ14ZZ8
 E  NCZ15ZZ8
 E  ACZZ1ZZ8
 E  ACZZ2ZZ8
 E  ACZZ3ZZ8
 E  ACZZ4ZZ8
 E  ACZZ5ZZ8
 E  ACZZ6ZZ8
 E  ACZZ7ZZ8
 E  ACZZ8ZZ8
 E  ACZZ9ZZ8
 E  ACZ10ZZ8
 E  ACZ11ZZ8
 E  ACZ12ZZ8
 E  ACZ13ZZ8
 E  ACZ14ZZ8
 E  ACZ15ZZ8
 E  ACZ16ZZ8
 E  ACZ17ZZ8
 E  ACZ18ZZ8
 E  ACZ19ZZ8
 E  ACZ20ZZ8
 E  ACZ21ZZ8
 E  ACZ22ZZ8
 E  ACZ23ZZ8
 E  ACZ24ZZ8
 E  ACZ25ZZ8
 E  ACZ26ZZ8
 E  ACZ27ZZ8
 E  ACZ28ZZ8
 E  ACZ29ZZ8
 E  ACZ30ZZ8
 E  ACZ31ZZ8
 E  ACZ32ZZ8
 E  ACZ33ZZ8
 E  ACZ34ZZ8
 E  ACZ35ZZ8
 E  ACZ36ZZ8
 E  ACZ37ZZ8
 E  ACZ38ZZ8
 E  ACZ39ZZ8
 E  ACZ40ZZ8
 E  ACZ41ZZ8
 E  ACZ42ZZ8
 E  ACZ43ZZ8
 E  ACZ44ZZ8
 E  ACZ45ZZ8
 E  ACZ46ZZ8
 E  ACZ47ZZ8
 E  CCZZ1ZZ8
 E  CCZZ2ZZ8
 E  CCZZ3ZZ8
 E  CCZZ4ZZ8
 E  CCZZ5ZZ8
 E  CCZZ6ZZ8
 E  CCZZ7ZZ8
 E  CCZZ8ZZ8
 E  CCZZ9ZZ8
 E  CCZ10ZZ8
 E  CCZ11ZZ8
 E  CCZ12ZZ8
 E  CCZ13ZZ8
 E  CCZ14ZZ8
 E  CCZ15ZZ8
 E  CCZ16ZZ8
 E  CCZ17ZZ8
 E  CCZ18ZZ8
 E  CCZ19ZZ8
 E  CCZ20ZZ8
 E  CCZ21ZZ8
 E  CCZ22ZZ8
 E  CCZ23ZZ8
 E  CCZ24ZZ8
 E  CCZ25ZZ8
 E  CCZ26ZZ8
 E  CCZ27ZZ8
 E  CCZ28ZZ8
 E  CCZ29ZZ8
 E  CCZ30ZZ8
 E  CCZ31ZZ8
 E  CCZ32ZZ8
 E  CCZ33ZZ8
 E  CCZ34ZZ8
 E  CCZ35ZZ8
 E  CCZ36ZZ8
 E  CCZ37ZZ8
 E  CCZ38ZZ8
 E  CCZ39ZZ8
 E  CCZ40ZZ8
 E  CCZ41ZZ8
 E  CCZ42ZZ8
 E  CCZ43ZZ8
 E  CCZ44ZZ8
 E  CCZ45ZZ8
 E  CCZ46ZZ8
 E  CCZ47ZZ8
 E  NCZZ1ZZ9
 E  NCZZ2ZZ9
 E  NCZZ3ZZ9
 E  NCZZ4ZZ9
 E  NCZZ5ZZ9
 E  NCZZ6ZZ9
 E  NCZZ7ZZ9
 E  NCZZ8ZZ9
 E  NCZZ9ZZ9
 E  NCZ10ZZ9
 E  NCZ11ZZ9
 E  NCZ12ZZ9
 E  NCZ13ZZ9
 E  NCZ14ZZ9
 E  NCZ15ZZ9
 E  ACZZ1ZZ9
 E  ACZZ2ZZ9
 E  ACZZ3ZZ9
 E  ACZZ4ZZ9
 E  ACZZ5ZZ9
 E  ACZZ6ZZ9
 E  ACZZ7ZZ9
 E  ACZZ8ZZ9
 E  ACZZ9ZZ9
 E  ACZ10ZZ9
 E  ACZ11ZZ9
 E  ACZ12ZZ9
 E  ACZ13ZZ9
 E  ACZ14ZZ9
 E  ACZ15ZZ9
 E  ACZ16ZZ9
 E  ACZ17ZZ9
 E  ACZ18ZZ9
 E  ACZ19ZZ9
 E  ACZ20ZZ9
 E  ACZ21ZZ9
 E  ACZ22ZZ9
 E  ACZ23ZZ9
 E  ACZ24ZZ9
 E  ACZ25ZZ9
 E  ACZ26ZZ9
 E  ACZ27ZZ9
 E  ACZ28ZZ9
 E  ACZ29ZZ9
 E  ACZ30ZZ9
 E  ACZ31ZZ9
 E  ACZ32ZZ9
 E  ACZ33ZZ9
 E  ACZ34ZZ9
 E  ACZ35ZZ9
 E  ACZ36ZZ9
 E  ACZ37ZZ9
 E  ACZ38ZZ9
 E  ACZ39ZZ9
 E  ACZ40ZZ9
 E  ACZ41ZZ9
 E  ACZ42ZZ9
 E  ACZ43ZZ9
 E  ACZ44ZZ9
 E  ACZ45ZZ9
 E  ACZ46ZZ9
 E  ACZ47ZZ9
 E  CCZZ1ZZ9
 E  CCZZ2ZZ9
 E  CCZZ3ZZ9
 E  CCZZ4ZZ9
 E  CCZZ5ZZ9
 E  CCZZ6ZZ9
 E  CCZZ7ZZ9
 E  CCZZ8ZZ9
 E  CCZZ9ZZ9
 E  CCZ10ZZ9
 E  CCZ11ZZ9
 E  CCZ12ZZ9
 E  CCZ13ZZ9
 E  CCZ14ZZ9
 E  CCZ15ZZ9
 E  CCZ16ZZ9
 E  CCZ17ZZ9
 E  CCZ18ZZ9
 E  CCZ19ZZ9
 E  CCZ20ZZ9
 E  CCZ21ZZ9
 E  CCZ22ZZ9
 E  CCZ23ZZ9
 E  CCZ24ZZ9
 E  CCZ25ZZ9
 E  CCZ26ZZ9
 E  CCZ27ZZ9
 E  CCZ28ZZ9
 E  CCZ29ZZ9
 E  CCZ30ZZ9
 E  CCZ31ZZ9
 E  CCZ32ZZ9
 E  CCZ33ZZ9
 E  CCZ34ZZ9
 E  CCZ35ZZ9
 E  CCZ36ZZ9
 E  CCZ37ZZ9
 E  CCZ38ZZ9
 E  CCZ39ZZ9
 E  CCZ40ZZ9
 E  CCZ41ZZ9
 E  CCZ42ZZ9
 E  CCZ43ZZ9
 E  CCZ44ZZ9
 E  CCZ45ZZ9
 E  CCZ46ZZ9
 E  CCZ47ZZ9
 E  NCZZ1Z10
 E  NCZZ2Z10
 E  NCZZ3Z10
 E  NCZZ4Z10
 E  NCZZ5Z10
 E  NCZZ6Z10
 E  NCZZ7Z10
 E  NCZZ8Z10
 E  NCZZ9Z10
 E  NCZ10Z10
 E  NCZ11Z10
 E  NCZ12Z10
 E  NCZ13Z10
 E  NCZ14Z10
 E  NCZ15Z10
 E  ACZZ1Z10
 E  ACZZ2Z10
 E  ACZZ3Z10
 E  ACZZ4Z10
 E  ACZZ5Z10
 E  ACZZ6Z10
 E  ACZZ7Z10
 E  ACZZ8Z10
 E  ACZZ9Z10
 E  ACZ10Z10
 E  ACZ11Z10
 E  ACZ12Z10
 E  ACZ13Z10
 E  ACZ14Z10
 E  ACZ15Z10
 E  ACZ16Z10
 E  ACZ17Z10
 E  ACZ18Z10
 E  ACZ19Z10
 E  ACZ20Z10
 E  ACZ21Z10
 E  ACZ22Z10
 E  ACZ23Z10
 E  ACZ24Z10
 E  ACZ25Z10
 E  ACZ26Z10
 E  ACZ27Z10
 E  ACZ28Z10
 E  ACZ29Z10
 E  ACZ30Z10
 E  ACZ31Z10
 E  ACZ32Z10
 E  ACZ33Z10
 E  ACZ34Z10
 E  ACZ35Z10
 E  ACZ36Z10
 E  ACZ37Z10
 E  ACZ38Z10
 E  ACZ39Z10
 E  ACZ40Z10
 E  ACZ41Z10
 E  ACZ42Z10
 E  ACZ43Z10
 E  ACZ44Z10
 E  ACZ45Z10
 E  ACZ46Z10
 E  ACZ47Z10
 E  CCZZ1Z10
 E  CCZZ2Z10
 E  CCZZ3Z10
 E  CCZZ4Z10
 E  CCZZ5Z10
 E  CCZZ6Z10
 E  CCZZ7Z10
 E  CCZZ8Z10
 E  CCZZ9Z10
 E  CCZ10Z10
 E  CCZ11Z10
 E  CCZ12Z10
 E  CCZ13Z10
 E  CCZ14Z10
 E  CCZ15Z10
 E  CCZ16Z10
 E  CCZ17Z10
 E  CCZ18Z10
 E  CCZ19Z10
 E  CCZ20Z10
 E  CCZ21Z10
 E  CCZ22Z10
 E  CCZ23Z10
 E  CCZ24Z10
 E  CCZ25Z10
 E  CCZ26Z10
 E  CCZ27Z10
 E  CCZ28Z10
 E  CCZ29Z10
 E  CCZ30Z10
 E  CCZ31Z10
 E  CCZ32Z10
 E  CCZ33Z10
 E  CCZ34Z10
 E  CCZ35Z10
 E  CCZ36Z10
 E  CCZ37Z10
 E  CCZ38Z10
 E  CCZ39Z10
 E  CCZ40Z10
 E  CCZ41Z10
 E  CCZ42Z10
 E  CCZ43Z10
 E  CCZ44Z10
 E  CCZ45Z10
 E  CCZ46Z10
 E  CCZ47Z10
COLUMNS
    Z1ZZ1ZZ1 CCZZ1ZZ1 1.000000
    Z2ZZ1ZZ1 OBJZZZZZ 10.000000   NCZZ3ZZ1 10.000000
    Z2ZZ1ZZ1 ACZZ1ZZ1 10.000000   CCZZ1ZZ1 1.000000
    Z2ZZ1ZZ1 NCZZ1ZZ2 -10.000000
    Z3ZZ1ZZ1 OBJZZZZZ 20.000000   NCZZ3ZZ1 20.000000
    Z3ZZ1ZZ1 ACZZ1ZZ1 20.000000   CCZZ1ZZ1 1.000000
    Z3ZZ1ZZ1 NCZZ3ZZ2 -5.000000   ACZZ1ZZ2 -5.000000
    Z3ZZ1ZZ1 NCZZ1ZZ2 -15.000000
    Z4ZZ1ZZ1 OBJZZZZZ 1.000000   NCZZ3ZZ1 1.000000
    Z4ZZ1ZZ1 ACZZ1ZZ1 1.000000   NCZZ3ZZ2 -1.000000
    Z4ZZ1ZZ1 ACZZ1ZZ2 -1.000000
    Z1ZZ2ZZ1 CCZZ2ZZ1 1.000000
    Z2ZZ2ZZ1 OBJZZZZZ 10.000000   NCZZ1ZZ1 10.000000
    Z2ZZ2ZZ1 ACZZ2ZZ1 10.000000   CCZZ2ZZ1 1.000000
    Z2ZZ2ZZ1 NCZZ3ZZ2 -10.000000
    Z3ZZ2ZZ1 OBJZZZZZ 20.000000   NCZZ1ZZ1 20.000000
    Z3ZZ2ZZ1 ACZZ2ZZ1 20.000000   CCZZ2ZZ1 1.000000
    Z3ZZ2ZZ1 NCZZ1ZZ2 -5.000000   ACZZ2ZZ2 -5.000000
    Z3ZZ2ZZ1 NCZZ3ZZ2 -15.000000
    Z4ZZ2ZZ1 OBJZZZZZ 1.000000   NCZZ1ZZ1 1.000000
    Z4ZZ2ZZ1 ACZZ2ZZ1 1.000000   NCZZ1ZZ2 -1.000000
    Z4ZZ2ZZ1 ACZZ2ZZ2 -1.000000
    Z1ZZ3ZZ1 CCZZ3ZZ1 1.000000
    Z2ZZ3ZZ1 OBJZZZZZ 10.000000   NCZZ9ZZ1 10.000000
    Z2ZZ3ZZ1 ACZZ3ZZ1 10.000000   CCZZ3ZZ1 1.000000
    Z2ZZ3ZZ1 NCZZ3ZZ2 -10.000000
    Z3ZZ3ZZ1 OBJZZZZZ 20.000000   NCZZ9ZZ1 20.000000
    Z3ZZ3ZZ1 ACZZ3ZZ1 20.000000   CCZZ3ZZ1 1.000000
    Z3ZZ3ZZ1 NCZZ9ZZ2 -5.000000   ACZZ3ZZ2 -5.000000
    Z3ZZ3ZZ1 NCZZ3ZZ2 -15.000000
    Z4ZZ3ZZ1 OBJZZZZZ 1.000000   NCZZ9ZZ1 1.000000
    Z4ZZ3ZZ1 ACZZ3ZZ1 1.000000   NCZZ9ZZ2 -1.000000
    Z4ZZ3ZZ1 ACZZ3ZZ2 -1.000000
    Z1ZZ4ZZ1 CCZZ4ZZ1 1.000000
    Z2ZZ4ZZ1 OBJZZZZZ 10.000000   NCZZ3ZZ1 10.000000
    Z2ZZ4ZZ1 ACZZ4ZZ1 10.000000   CCZZ4ZZ1 1.000000
    Z2ZZ4ZZ1 NCZZ9ZZ2 -10.000000
    Z3ZZ4ZZ1 OBJZZZZZ 20.000000   NCZZ3ZZ1 20.000000
    Z3ZZ4ZZ1 ACZZ4ZZ1 20.000000   CCZZ4ZZ1 1.000000
    Z3ZZ4ZZ1 NCZZ3ZZ2 -5.000000   ACZZ4ZZ2 -5.000000
    Z3ZZ4ZZ1 NCZZ9ZZ2 -15.000000
    Z4ZZ4ZZ1 OBJZZZZZ 1.000000   NCZZ3ZZ1 1.000000
    Z4ZZ4ZZ1 ACZZ4ZZ1 1.000000   NCZZ3ZZ2 -1.000000
    Z4ZZ4ZZ1 ACZZ4ZZ2 -1.000000
    Z1ZZ5ZZ1 CCZZ5ZZ1 1.000000
    Z2ZZ5ZZ1 OBJZZZZZ 10.000000   NCZZ9ZZ1 10.000000
    Z2ZZ5ZZ1 ACZZ5ZZ1 10.000000   CCZZ5ZZ1 1.000000
    Z2ZZ5ZZ1 NCZ14ZZ2 -10.000000
    Z3ZZ5ZZ1 OBJZZZZZ 20.000000   NCZZ9ZZ1 20.000000
    Z3ZZ5ZZ1 ACZZ5ZZ1 20.000000   CCZZ5ZZ1 1.000000
    Z3ZZ5ZZ1 NCZZ9ZZ2 -5.000000   ACZZ5ZZ2 -5.000000
    Z3ZZ5ZZ1 NCZ14ZZ2 -15.000000
    Z4ZZ5ZZ1 OBJZZZZZ 1.000000   NCZZ9ZZ1 1.000000
    Z4ZZ5ZZ1 ACZZ5ZZ1 1.000000   NCZZ9ZZ2 -1.000000
    Z4ZZ5ZZ1 ACZZ5ZZ2 -1.000000
    Z1ZZ6ZZ1 CCZZ6ZZ1 1.000000
    Z2ZZ6ZZ1 OBJZZZZZ 10.000000   NCZ14ZZ1 10.000000
    Z2ZZ6ZZ1 ACZZ6ZZ1 10.000000   CCZZ6ZZ1 1.000000
    Z2ZZ6ZZ1 NCZZ9ZZ2 -10.000000
    Z3ZZ6ZZ1 OBJZZZZZ 20.000000   NCZ14ZZ1 20.000000
    Z3ZZ6ZZ1 ACZZ6ZZ1 20.000000   CCZZ6ZZ1 1.000000
    Z3ZZ6ZZ1 NCZ14ZZ2 -5.000000   ACZZ6ZZ2 -5.000000
    Z3ZZ6ZZ1 NCZZ9ZZ2 -15.000000
    Z4ZZ6ZZ1 OBJZZZZZ 1.000000   NCZ14ZZ1 1.000000
    Z4ZZ6ZZ1 ACZZ6ZZ1 1.000000   NCZ14ZZ2 -1.000000
    Z4ZZ6ZZ1 ACZZ6ZZ2 -1.000000
    Z1ZZ7ZZ1 CCZZ7ZZ1 1.000000
    Z2ZZ7ZZ1 OBJZZZZZ 10.000000   NCZ15ZZ1 10.000000
    Z2ZZ7ZZ1 ACZZ7ZZ1 10.000000   CCZZ7ZZ1 1.000000
    Z2ZZ7ZZ1 NCZ14ZZ2 -10.000000
    Z3ZZ7ZZ1 OBJZZZZZ 20.000000   NCZ15ZZ1 20.000000
    Z3ZZ7ZZ1 ACZZ7ZZ1 20.000000   CCZZ7ZZ1 1.000000
    Z3ZZ7ZZ1 NCZ15ZZ2 -5.000000   ACZZ7ZZ2 -5.000000
    Z3ZZ7ZZ1 NCZ14ZZ2 -15.000000
    Z4ZZ7ZZ1 OBJZZZZZ 1.000000   NCZ15ZZ1 1.000000
    Z4ZZ7ZZ1 ACZZ7ZZ1 1.000000   NCZ15ZZ2 -1.000000
    Z4ZZ7ZZ1 ACZZ7ZZ2 -1.000000
    Z1ZZ8ZZ1 CCZZ8ZZ1 1.000000
    Z2ZZ8ZZ1 OBJZZZZZ 10.000000   NCZ14ZZ1 10.000000
    Z2ZZ8ZZ1 ACZZ8ZZ1 10.000000   CCZZ8ZZ1 1.000000
    Z2ZZ8ZZ1 NCZ15ZZ2 -10.000000
    Z3ZZ8ZZ1 OBJZZZZZ 20.000000   NCZ14ZZ1 20.000000
    Z3ZZ8ZZ1 ACZZ8ZZ1 20.000000   CCZZ8ZZ1 1.000000
    Z3ZZ8ZZ1 NCZ14ZZ2 -5.000000   ACZZ8ZZ2 -5.000000
    Z3ZZ8ZZ1 NCZ15ZZ2 -15.000000
    Z4ZZ8ZZ1 OBJZZZZZ 1.000000   NCZ14ZZ1 1.000000
    Z4ZZ8ZZ1 ACZZ8ZZ1 1.000000   NCZ14ZZ2 -1.000000
    Z4ZZ8ZZ1 ACZZ8ZZ2 -1.000000
    Z1ZZ9ZZ1 CCZZ9ZZ1 1.000000
    Z2ZZ9ZZ1 OBJZZZZZ 10.000000   NCZ15ZZ1 10.000000
    Z2ZZ9ZZ1 ACZZ9ZZ1 10.000000   CCZZ9ZZ1 1.000000
    Z2ZZ9ZZ1 NCZ13ZZ2 -10.000000
    Z3ZZ9ZZ1 OBJZZZZZ 20.000000   NCZ15ZZ1 20.000000
    Z3ZZ9ZZ1 ACZZ9ZZ1 20.000000   CCZZ9ZZ1 1.000000
    Z3ZZ9ZZ1 NCZ15ZZ2 -5.000000   ACZZ9ZZ2 -5.000000
    Z3ZZ9ZZ1 NCZ13ZZ2 -15.000000
    Z4ZZ9ZZ1 OBJZZZZZ 1.000000   NCZ15ZZ1 1.000000
    Z4ZZ9ZZ1 ACZZ9ZZ1 1.000000   NCZ15ZZ2 -1.000000
    Z4ZZ9ZZ1 ACZZ9ZZ2 -1.000000
    Z1Z10ZZ1 CCZ10ZZ1 1.000000
    Z2Z10ZZ1 OBJZZZZZ 10.000000   NCZ13ZZ1 10.000000
    Z2Z10ZZ1 ACZ10ZZ1 10.000000   CCZ10ZZ1 1.000000
    Z2Z10ZZ1 NCZ15ZZ2 -10.000000
    Z3Z10ZZ1 OBJZZZZZ 20.000000   NCZ13ZZ1 20.000000
    Z3Z10ZZ1 ACZ10ZZ1 20.000000   CCZ10ZZ1 1.000000
    Z3Z10ZZ1 NCZ13ZZ2 -5.000000   ACZ10ZZ2 -5.000000
    Z3Z10ZZ1 NCZ15ZZ2 -15.000000
    Z4Z10ZZ1 OBJZZZZZ 1.000000   NCZ13ZZ1 1.000000
    Z4Z10ZZ1 ACZ10ZZ1 1.000000   NCZ13ZZ2 -1.000000
    Z4Z10ZZ1 ACZ10ZZ2 -1.000000
    Z1Z11ZZ1 CCZ11ZZ1 1.000000
    Z2Z11ZZ1 OBJZZZZZ 10.000000   NCZ13ZZ1 10.000000
    Z2Z11ZZ1 ACZ11ZZ1 10.000000   CCZ11ZZ1 1.000000
    Z2Z11ZZ1 NCZZ6ZZ2 -10.000000
    Z3Z11ZZ1 OBJZZZZZ 20.000000   NCZ13ZZ1 20.000000
    Z3Z11ZZ1 ACZ11ZZ1 20.000000   CCZ11ZZ1 1.000000
    Z3Z11ZZ1 NCZ13ZZ2 -5.000000   ACZ11ZZ2 -5.000000
    Z3Z11ZZ1 NCZZ6ZZ2 -15.000000
    Z4Z11ZZ1 OBJZZZZZ 1.000000   NCZ13ZZ1 1.000000
    Z4Z11ZZ1 ACZ11ZZ1 1.000000   NCZ13ZZ2 -1.000000
    Z4Z11ZZ1 ACZ11ZZ2 -1.000000
    Z1Z12ZZ1 CCZ12ZZ1 1.000000
    Z2Z12ZZ1 OBJZZZZZ 10.000000   NCZZ6ZZ1 10.000000
    Z2Z12ZZ1 ACZ12ZZ1 10.000000   CCZ12ZZ1 1.000000
    Z2Z12ZZ1 NCZ13ZZ2 -10.000000
    Z3Z12ZZ1 OBJZZZZZ 20.000000   NCZZ6ZZ1 20.000000
    Z3Z12ZZ1 ACZ12ZZ1 20.000000   CCZ12ZZ1 1.000000
    Z3Z12ZZ1 NCZZ6ZZ2 -5.000000   ACZ12ZZ2 -5.000000
    Z3Z12ZZ1 NCZ13ZZ2 -15.000000
    Z4Z12ZZ1 OBJZZZZZ 1.000000   NCZZ6ZZ1 1.000000
    Z4Z12ZZ1 ACZ12ZZ1 1.000000   NCZZ6ZZ2 -1.000000
    Z4Z12ZZ1 ACZ12ZZ2 -1.000000
    Z1Z13ZZ1 CCZ13ZZ1 1.000000
    Z2Z13ZZ1 OBJZZZZZ 10.000000   NCZZ6ZZ1 10.000000
    Z2Z13ZZ1 ACZ13ZZ1 10.000000   CCZ13ZZ1 1.000000
    Z2Z13ZZ1 NCZZ2ZZ2 -10.000000
    Z3Z13ZZ1 OBJZZZZZ 20.000000   NCZZ6ZZ1 20.000000
    Z3Z13ZZ1 ACZ13ZZ1 20.000000   CCZ13ZZ1 1.000000
    Z3Z13ZZ1 NCZZ6ZZ2 -5.000000   ACZ13ZZ2 -5.000000
    Z3Z13ZZ1 NCZZ2ZZ2 -15.000000
    Z4Z13ZZ1 OBJZZZZZ 1.000000   NCZZ6ZZ1 1.000000
    Z4Z13ZZ1 ACZ13ZZ1 1.000000   NCZZ6ZZ2 -1.000000
    Z4Z13ZZ1 ACZ13ZZ2 -1.000000
    Z1Z14ZZ1 CCZ14ZZ1 1.000000
    Z2Z14ZZ1 OBJZZZZZ 10.000000   NCZZ2ZZ1 10.000000
    Z2Z14ZZ1 ACZ14ZZ1 10.000000   CCZ14ZZ1 1.000000
    Z2Z14ZZ1 NCZZ6ZZ2 -10.000000
    Z3Z14ZZ1 OBJZZZZZ 20.000000   NCZZ2ZZ1 20.000000
    Z3Z14ZZ1 ACZ14ZZ1 20.000000   CCZ14ZZ1 1.000000
    Z3Z14ZZ1 NCZZ2ZZ2 -5.000000   ACZ14ZZ2 -5.000000
    Z3Z14ZZ1 NCZZ6ZZ2 -15.000000
    Z4Z14ZZ1 OBJZZZZZ 1.000000   NCZZ2ZZ1 1.000000
    Z4Z14ZZ1 ACZ14ZZ1 1.000000   NCZZ2ZZ2 -1.000000
    Z4Z14ZZ1 ACZ14ZZ2 -1.000000
    Z1Z15ZZ1 CCZ15ZZ1 1.000000
    Z2Z15ZZ1 OBJZZZZZ 10.000000   NCZZ2ZZ1 10.000000
    Z2Z15ZZ1 ACZ15ZZ1 10.000000   CCZ15ZZ1 1.000000
    Z2Z15ZZ1 NCZZ1ZZ2 -10.000000
    Z3Z15ZZ1 OBJZZZZZ 20.000000   NCZZ2ZZ1 20.000000
    Z3Z15ZZ1 ACZ15ZZ1 20.000000   CCZ15ZZ1 1.000000
    Z3Z15ZZ1 NCZZ2ZZ2 -5.000000   ACZ15ZZ2 -5.000000
    Z3Z15ZZ1 NCZZ1ZZ2 -15.000000
    Z4Z15ZZ1 OBJZZZZZ 1.000000   NCZZ2ZZ1 1.000000
    Z4Z15ZZ1 ACZ15ZZ1 1.000000   NCZZ2ZZ2 -1.000000
    Z4Z15ZZ1 ACZ15ZZ2 -1.000000
    Z1Z16ZZ1 CCZ16ZZ1 1.000000
    Z2Z16ZZ1 OBJZZZZZ 10.000000   NCZZ1ZZ1 10.000000
    Z2Z16ZZ1 ACZ16ZZ1 10.000000   CCZ16ZZ1 1.000000
    Z2Z16ZZ1 NCZZ2ZZ2 -10.000000
    Z3Z16ZZ1 OBJZZZZZ 20.000000   NCZZ1ZZ1 20.000000
    Z3Z16ZZ1 ACZ16ZZ1 20.000000   CCZ16ZZ1 1.000000
    Z3Z16ZZ1 NCZZ1ZZ2 -5.000000   ACZ16ZZ2 -5.000000
    Z3Z16ZZ1 NCZZ2ZZ2 -15.000000
    Z4Z16ZZ1 OBJZZZZZ 1.000000   NCZZ1ZZ1 1.000000
    Z4Z16ZZ1 ACZ16ZZ1 1.000000   NCZZ1ZZ2 -1.000000
    Z4Z16ZZ1 ACZ16ZZ2 -1.000000
    Z1Z17ZZ1 CCZ17ZZ1 1.000000
    Z2Z17ZZ1 OBJZZZZZ 15.000000   NCZZ3ZZ1 15.000000
    Z2Z17ZZ1 ACZ17ZZ1 15.000000   CCZ17ZZ1 1.000000
    Z2Z17ZZ1 NCZZ7ZZ2 -15.000000
    Z3Z17ZZ1 OBJZZZZZ 25.000000   NCZZ3ZZ1 25.000000
    Z3Z17ZZ1 ACZ17ZZ1 25.000000   CCZ17ZZ1 1.000000
    Z3Z17ZZ1 NCZZ3ZZ2 -7.000000   ACZ17ZZ2 -7.000000
    Z3Z17ZZ1 NCZZ7ZZ2 -18.000000
    Z4Z17ZZ1 OBJZZZZZ 1.000000   NCZZ3ZZ1 1.000000
    Z4Z17ZZ1 ACZ17ZZ1 1.000000   NCZZ3ZZ2 -1.000000
    Z4Z17ZZ1 ACZ17ZZ2 -1.000000
    Z1Z18ZZ1 CCZ18ZZ1 1.000000
    Z2Z18ZZ1 OBJZZZZZ 15.000000   NCZZ9ZZ1 15.000000
    Z2Z18ZZ1 ACZ18ZZ1 15.000000   CCZ18ZZ1 1.000000
    Z2Z18ZZ1 NCZZ7ZZ2 -15.000000
    Z3Z18ZZ1 OBJZZZZZ 25.000000   NCZZ9ZZ1 25.000000
    Z3Z18ZZ1 ACZ18ZZ1 25.000000   CCZ18ZZ1 1.000000
    Z3Z18ZZ1 NCZZ9ZZ2 -7.000000   ACZ18ZZ2 -7.000000
    Z3Z18ZZ1 NCZZ7ZZ2 -18.000000
    Z4Z18ZZ1 OBJZZZZZ 1.000000   NCZZ9ZZ1 1.000000
    Z4Z18ZZ1 ACZ18ZZ1 1.000000   NCZZ9ZZ2 -1.000000
    Z4Z18ZZ1 ACZ18ZZ2 -1.000000
    Z1Z19ZZ1 CCZ19ZZ1 1.000000
    Z2Z19ZZ1 OBJZZZZZ 15.000000   NCZZ9ZZ1 15.000000
    Z2Z19ZZ1 ACZ19ZZ1 15.000000   CCZ19ZZ1 1.000000
    Z2Z19ZZ1 NCZ10ZZ2 -15.000000
    Z3Z19ZZ1 OBJZZZZZ 25.000000   NCZZ9ZZ1 25.000000
    Z3Z19ZZ1 ACZ19ZZ1 25.000000   CCZ19ZZ1 1.000000
    Z3Z19ZZ1 NCZZ9ZZ2 -7.000000   ACZ19ZZ2 -7.000000
    Z3Z19ZZ1 NCZ10ZZ2 -18.000000
    Z4Z19ZZ1 OBJZZZZZ 1.000000   NCZZ9ZZ1 1.000000
    Z4Z19ZZ1 ACZ19ZZ1 1.000000   NCZZ9ZZ2 -1.000000
    Z4Z19ZZ1 ACZ19ZZ2 -1.000000
    Z1Z20ZZ1 CCZ20ZZ1 1.000000
    Z2Z20ZZ1 OBJZZZZZ 15.000000   NCZ14ZZ1 15.000000
    Z2Z20ZZ1 ACZ20ZZ1 15.000000   CCZ20ZZ1 1.000000
    Z2Z20ZZ1 NCZ10ZZ2 -15.000000
    Z3Z20ZZ1 OBJZZZZZ 25.000000   NCZ14ZZ1 25.000000
    Z3Z20ZZ1 ACZ20ZZ1 25.000000   CCZ20ZZ1 1.000000
    Z3Z20ZZ1 NCZ14ZZ2 -7.000000   ACZ20ZZ2 -7.000000
    Z3Z20ZZ1 NCZ10ZZ2 -18.000000
    Z4Z20ZZ1 OBJZZZZZ 1.000000   NCZ14ZZ1 1.000000
    Z4Z20ZZ1 ACZ20ZZ1 1.000000   NCZ14ZZ2 -1.000000
    Z4Z20ZZ1 ACZ20ZZ2 -1.000000
    Z1Z21ZZ1 CCZ21ZZ1 1.000000
    Z2Z21ZZ1 OBJZZZZZ 15.000000   NCZ14ZZ1 15.000000
    Z2Z21ZZ1 ACZ21ZZ1 15.000000   CCZ21ZZ1 1.000000
    Z2Z21ZZ1 NCZ11ZZ2 -15.000000
    Z3Z21ZZ1 OBJZZZZZ 25.000000   NCZ14ZZ1 25.000000
    Z3Z21ZZ1 ACZ21ZZ1 25.000000   CCZ21ZZ1 1.000000
    Z3Z21ZZ1 NCZ14ZZ2 -7.000000   ACZ21ZZ2 -7.000000
    Z3Z21ZZ1 NCZ11ZZ2 -18.000000
    Z4Z21ZZ1 OBJZZZZZ 1.000000   NCZ14ZZ1 1.000000
    Z4Z21ZZ1 ACZ21ZZ1 1.000000   NCZ14ZZ2 -1.000000
    Z4Z21ZZ1 ACZ21ZZ2 -1.000000
    Z1Z22ZZ1 CCZ22ZZ1 1.000000
    Z2Z22ZZ1 OBJZZZZZ 15.000000   NCZ15ZZ1 15.000000
    Z2Z22ZZ1 ACZ22ZZ1 15.000000   CCZ22ZZ1 1.000000
    Z2Z22ZZ1 NCZ11ZZ2 -15.000000
    Z3Z22ZZ1 OBJZZZZZ 25.000000   NCZ15ZZ1 25.000000
    Z3Z22ZZ1 ACZ22ZZ1 25.000000   CCZ22ZZ1 1.000000
    Z3Z22ZZ1 NCZ15ZZ2 -7.000000   ACZ22ZZ2 -7.000000
    Z3Z22ZZ1 NCZ11ZZ2 -18.000000
    Z4Z22ZZ1 OBJZZZZZ 1.000000   NCZ15ZZ1 1.000000
    Z4Z22ZZ1 ACZ22ZZ1 1.000000   NCZ15ZZ2 -1.000000
    Z4Z22ZZ1 ACZ22ZZ2 -1.000000
    Z1Z23ZZ1 CCZ23ZZ1 1.000000
    Z2Z23ZZ1 OBJZZZZZ 15.000000   NCZ15ZZ1 15.000000
    Z2Z23ZZ1 ACZ23ZZ1 15.000000   CCZ23ZZ1 1.000000
    Z2Z23ZZ1 NCZ12ZZ2 -15.000000
    Z3Z23ZZ1 OBJZZZZZ 25.000000   NCZ15ZZ1 25.000000
    Z3Z23ZZ1 ACZ23ZZ1 25.000000   CCZ23ZZ1 1.000000
    Z3Z23ZZ1 NCZ15ZZ2 -7.000000   ACZ23ZZ2 -7.000000
    Z3Z23ZZ1 NCZ12ZZ2 -18.000000
    Z4Z23ZZ1 OBJZZZZZ 1.000000   NCZ15ZZ1 1.000000
    Z4Z23ZZ1 ACZ23ZZ1 1.000000   NCZ15ZZ2 -1.000000
    Z4Z23ZZ1 ACZ23ZZ2 -1.000000
    Z1Z24ZZ1 CCZ24ZZ1 1.000000
    Z2Z24ZZ1 OBJZZZZZ 15.000000   NCZ13ZZ1 15.000000
    Z2Z24ZZ1 ACZ24ZZ1 15.000000   CCZ24ZZ1 1.000000
    Z2Z24ZZ1 NCZ12ZZ2 -15.000000
    Z3Z24ZZ1 OBJZZZZZ 25.000000   NCZ13ZZ1 25.000000
    Z3Z24ZZ1 ACZ24ZZ1 25.000000   CCZ24ZZ1 1.000000
    Z3Z24ZZ1 NCZ13ZZ2 -7.000000   ACZ24ZZ2 -7.000000
    Z3Z24ZZ1 NCZ12ZZ2 -18.000000
    Z4Z24ZZ1 OBJZZZZZ 1.000000   NCZ13ZZ1 1.000000
    Z4Z24ZZ1 ACZ24ZZ1 1.000000   NCZ13ZZ2 -1.000000
    Z4Z24ZZ1 ACZ24ZZ2 -1.000000
    Z1Z25ZZ1 CCZ25ZZ1 1.000000
    Z2Z25ZZ1 OBJZZZZZ 15.000000   NCZ13ZZ1 15.000000
    Z2Z25ZZ1 ACZ25ZZ1 15.000000   CCZ25ZZ1 1.000000
    Z2Z25ZZ1 NCZZ8ZZ2 -15.000000
    Z3Z25ZZ1 OBJZZZZZ 25.000000   NCZ13ZZ1 25.000000
    Z3Z25ZZ1 ACZ25ZZ1 25.000000   CCZ25ZZ1 1.000000
    Z3Z25ZZ1 NCZ13ZZ2 -7.000000   ACZ25ZZ2 -7.000000
    Z3Z25ZZ1 NCZZ8ZZ2 -18.000000
    Z4Z25ZZ1 OBJZZZZZ 1.000000   NCZ13ZZ1 1.000000
    Z4Z25ZZ1 ACZ25ZZ1 1.000000   NCZ13ZZ2 -1.000000
    Z4Z25ZZ1 ACZ25ZZ2 -1.000000
    Z1Z26ZZ1 CCZ26ZZ1 1.000000
    Z2Z26ZZ1 OBJZZZZZ 15.000000   NCZZ6ZZ1 15.000000
    Z2Z26ZZ1 ACZ26ZZ1 15.000000   CCZ26ZZ1 1.000000
    Z2Z26ZZ1 NCZZ8ZZ2 -15.000000
    Z3Z26ZZ1 OBJZZZZZ 25.000000   NCZZ6ZZ1 25.000000
    Z3Z26ZZ1 ACZ26ZZ1 25.000000   CCZ26ZZ1 1.000000
    Z3Z26ZZ1 NCZZ6ZZ2 -7.000000   ACZ26ZZ2 -7.000000
    Z3Z26ZZ1 NCZZ8ZZ2 -18.000000
    Z4Z26ZZ1 OBJZZZZZ 1.000000   NCZZ6ZZ1 1.000000
    Z4Z26ZZ1 ACZ26ZZ1 1.000000   NCZZ6ZZ2 -1.000000
    Z4Z26ZZ1 ACZ26ZZ2 -1.000000
    Z1Z27ZZ1 CCZ27ZZ1 1.000000
    Z2Z27ZZ1 OBJZZZZZ 15.000000   NCZZ6ZZ1 15.000000
    Z2Z27ZZ1 ACZ27ZZ1 15.000000   CCZ27ZZ1 1.000000
    Z2Z27ZZ1 NCZZ5ZZ2 -15.000000
    Z3Z27ZZ1 OBJZZZZZ 25.000000   NCZZ6ZZ1 25.000000
    Z3Z27ZZ1 ACZ27ZZ1 25.000000   CCZ27ZZ1 1.000000
    Z3Z27ZZ1 NCZZ6ZZ2 -7.000000   ACZ27ZZ2 -7.000000
    Z3Z27ZZ1 NCZZ5ZZ2 -18.000000
    Z4Z27ZZ1 OBJZZZZZ 1.000000   NCZZ6ZZ1 1.000000
    Z4Z27ZZ1 ACZ27ZZ1 1.000000   NCZZ6ZZ2 -1.000000
    Z4Z27ZZ1 ACZ27ZZ2 -1.000000
    Z1Z28ZZ1 CCZ28ZZ1 1.000000
    Z2Z28ZZ1 OBJZZZZZ 15.000000   NCZZ2ZZ1 15.000000
    Z2Z28ZZ1 ACZ28ZZ1 15.000000   CCZ28ZZ1 1.000000
    Z2Z28ZZ1 NCZZ5ZZ2 -15.000000
    Z3Z28ZZ1 OBJZZZZZ 25.000000   NCZZ2ZZ1 25.000000
    Z3Z28ZZ1 ACZ28ZZ1 25.000000   CCZ28ZZ1 1.000000
    Z3Z28ZZ1 NCZZ2ZZ2 -7.000000   ACZ28ZZ2 -7.000000
    Z3Z28ZZ1 NCZZ5ZZ2 -18.000000
    Z4Z28ZZ1 OBJZZZZZ 1.000000   NCZZ2ZZ1 1.000000
    Z4Z28ZZ1 ACZ28ZZ1 1.000000   NCZZ2ZZ2 -1.000000
    Z4Z28ZZ1 ACZ28ZZ2 -1.000000
    Z1Z29ZZ1 CCZ29ZZ1 1.000000
    Z2Z29ZZ1 OBJZZZZZ 15.000000   NCZZ2ZZ1 15.000000
    Z2Z29ZZ1 ACZ29ZZ1 15.000000   CCZ29ZZ1 1.000000
    Z2Z29ZZ1 NCZZ4ZZ2 -15.000000
    Z3Z29ZZ1 OBJZZZZZ 25.000000   NCZZ2ZZ1 25.000000
    Z3Z29ZZ1 ACZ29ZZ1 25.000000   CCZ29ZZ1 1.000000
    Z3Z29ZZ1 NCZZ2ZZ2 -7.000000   ACZ29ZZ2 -7.000000
    Z3Z29ZZ1 NCZZ4ZZ2 -18.000000
    Z4Z29ZZ1 OBJZZZZZ 1.000000   NCZZ2ZZ1 1.000000
    Z4Z29ZZ1 ACZ29ZZ1 1.000000   NCZZ2ZZ2 -1.000000
    Z4Z29ZZ1 ACZ29ZZ2 -1.000000
    Z1Z30ZZ1 CCZ30ZZ1 1.000000
    Z2Z30ZZ1 OBJZZZZZ 15.000000   NCZZ1ZZ1 15.000000
    Z2Z30ZZ1 ACZ30ZZ1 15.000000   CCZ30ZZ1 1.000000
    Z2Z30ZZ1 NCZZ4ZZ2 -15.000000
    Z3Z30ZZ1 OBJZZZZZ 25.000000   NCZZ1ZZ1 25.000000
    Z3Z30ZZ1 ACZ30ZZ1 25.000000   CCZ30ZZ1 1.000000
    Z3Z30ZZ1 NCZZ1ZZ2 -7.000000   ACZ30ZZ2 -7.000000
    Z3Z30ZZ1 NCZZ4ZZ2 -18.000000
    Z4Z30ZZ1 OBJZZZZZ 1.000000   NCZZ1ZZ1 1.000000
    Z4Z30ZZ1 ACZ30ZZ1 1.000000   NCZZ1ZZ2 -1.000000
    Z4Z30ZZ1 ACZ30ZZ2 -1.000000
    Z1Z31ZZ1 CCZ31ZZ1 1.000000
    Z2Z31ZZ1 OBJZZZZZ 30.000000   NCZZ7ZZ1 30.000000
    Z2Z31ZZ1 ACZ31ZZ1 30.000000   CCZ31ZZ1 1.000000
    Z2Z31ZZ1 NCZZ4ZZ2 -30.000000
    Z3Z31ZZ1 OBJZZZZZ 40.000000   NCZZ7ZZ1 40.000000
    Z3Z31ZZ1 ACZ31ZZ1 40.000000   CCZ31ZZ1 1.000000
    Z3Z31ZZ1 NCZZ7ZZ2 -7.000000   ACZ31ZZ2 -7.000000
    Z3Z31ZZ1 NCZZ4ZZ2 -33.000000
    Z4Z31ZZ1 OBJZZZZZ 1.000000   NCZZ7ZZ1 1.000000
    Z4Z31ZZ1 ACZ31ZZ1 1.000000   NCZZ7ZZ2 -1.000000
    Z4Z31ZZ1 ACZ31ZZ2 -1.000000
    Z1Z32ZZ1 CCZ32ZZ1 1.000000
    Z2Z32ZZ1 OBJZZZZZ 30.000000   NCZZ4ZZ1 30.000000
    Z2Z32ZZ1 ACZ32ZZ1 30.000000   CCZ32ZZ1 1.000000
    Z2Z32ZZ1 NCZZ7ZZ2 -30.000000
    Z3Z32ZZ1 OBJZZZZZ 40.000000   NCZZ4ZZ1 40.000000
    Z3Z32ZZ1 ACZ32ZZ1 40.000000   CCZ32ZZ1 1.000000
    Z3Z32ZZ1 NCZZ4ZZ2 -7.000000   ACZ32ZZ2 -7.000000
    Z3Z32ZZ1 NCZZ7ZZ2 -33.000000
    Z4Z32ZZ1 OBJZZZZZ 1.000000   NCZZ4ZZ1 1.000000
    Z4Z32ZZ1 ACZ32ZZ1 1.000000   NCZZ4ZZ2 -1.000000
    Z4Z32ZZ1 ACZ32ZZ2 -1.000000
    Z1Z33ZZ1 CCZ33ZZ1 1.000000
    Z2Z33ZZ1 OBJZZZZZ 30.000000   NCZZ7ZZ1 30.000000
    Z2Z33ZZ1 ACZ33ZZ1 30.000000   CCZ33ZZ1 1.000000
    Z2Z33ZZ1 NCZ10ZZ2 -30.000000
    Z3Z33ZZ1 OBJZZZZZ 40.000000   NCZZ7ZZ1 40.000000
    Z3Z33ZZ1 ACZ33ZZ1 40.000000   CCZ33ZZ1 1.000000
    Z3Z33ZZ1 NCZZ7ZZ2 -7.000000   ACZ33ZZ2 -7.000000
    Z3Z33ZZ1 NCZ10ZZ2 -33.000000
    Z4Z33ZZ1 OBJZZZZZ 1.000000   NCZZ7ZZ1 1.000000
    Z4Z33ZZ1 ACZ33ZZ1 1.000000   NCZZ7ZZ2 -1.000000
    Z4Z33ZZ1 ACZ33ZZ2 -1.000000
    Z1Z34ZZ1 CCZ34ZZ1 1.000000
    Z2Z34ZZ1 OBJZZZZZ 30.000000   NCZ10ZZ1 30.000000
    Z2Z34ZZ1 ACZ34ZZ1 30.000000   CCZ34ZZ1 1.000000
    Z2Z34ZZ1 NCZZ7ZZ2 -30.000000
    Z3Z34ZZ1 OBJZZZZZ 40.000000   NCZ10ZZ1 40.000000
    Z3Z34ZZ1 ACZ34ZZ1 40.000000   CCZ34ZZ1 1.000000
    Z3Z34ZZ1 NCZ10ZZ2 -7.000000   ACZ34ZZ2 -7.000000
    Z3Z34ZZ1 NCZZ7ZZ2 -33.000000
    Z4Z34ZZ1 OBJZZZZZ 1.000000   NCZ10ZZ1 1.000000
    Z4Z34ZZ1 ACZ34ZZ1 1.000000   NCZ10ZZ2 -1.000000
    Z4Z34ZZ1 ACZ34ZZ2 -1.000000
    Z1Z35ZZ1 CCZ35ZZ1 1.000000
    Z2Z35ZZ1 OBJZZZZZ 30.000000   NCZ10ZZ1 30.000000
    Z2Z35ZZ1 ACZ35ZZ1 30.000000   CCZ35ZZ1 1.000000
    Z2Z35ZZ1 NCZ11ZZ2 -30.000000
    Z3Z35ZZ1 OBJZZZZZ 40.000000   NCZ10ZZ1 40.000000
    Z3Z35ZZ1 ACZ35ZZ1 40.000000   CCZ35ZZ1 1.000000
    Z3Z35ZZ1 NCZ10ZZ2 -7.000000   ACZ35ZZ2 -7.000000
    Z3Z35ZZ1 NCZ11ZZ2 -33.000000
    Z4Z35ZZ1 OBJZZZZZ 1.000000   NCZ10ZZ1 1.000000
    Z4Z35ZZ1 ACZ35ZZ1 1.000000   NCZ10ZZ2 -1.000000
    Z4Z35ZZ1 ACZ35ZZ2 -1.000000
    Z1Z36ZZ1 CCZ36ZZ1 1.000000
    Z2Z36ZZ1 OBJZZZZZ 30.000000   NCZ11ZZ1 30.000000
    Z2Z36ZZ1 ACZ36ZZ1 30.000000   CCZ36ZZ1 1.000000
    Z2Z36ZZ1 NCZ10ZZ2 -30.000000
    Z3Z36ZZ1 OBJZZZZZ 40.000000   NCZ11ZZ1 40.000000
    Z3Z36ZZ1 ACZ36ZZ1 40.000000   CCZ36ZZ1 1.000000
    Z3Z36ZZ1 NCZ11ZZ2 -7.000000   ACZ36ZZ2 -7.000000
    Z3Z36ZZ1 NCZ10ZZ2 -33.000000
    Z4Z36ZZ1 OBJZZZZZ 1.000000   NCZ11ZZ1 1.000000
    Z4Z36ZZ1 ACZ36ZZ1 1.000000   NCZ11ZZ2 -1.000000
    Z4Z36ZZ1 ACZ36ZZ2 -1.000000
    Z1Z37ZZ1 CCZ37ZZ1 1.000000
    Z2Z37ZZ1 OBJZZZZZ 30.000000   NCZ11ZZ1 30.000000
    Z2Z37ZZ1 ACZ37ZZ1 30.000000   CCZ37ZZ1 1.000000
    Z2Z37ZZ1 NCZ12ZZ2 -30.000000
    Z3Z37ZZ1 OBJZZZZZ 40.000000   NCZ11ZZ1 40.000000
    Z3Z37ZZ1 ACZ37ZZ1 40.000000   CCZ37ZZ1 1.000000
    Z3Z37ZZ1 NCZ11ZZ2 -7.000000   ACZ37ZZ2 -7.000000
    Z3Z37ZZ1 NCZ12ZZ2 -33.000000
    Z4Z37ZZ1 OBJZZZZZ 1.000000   NCZ11ZZ1 1.000000
    Z4Z37ZZ1 ACZ37ZZ1 1.000000   NCZ11ZZ2 -1.000000
    Z4Z37ZZ1 ACZ37ZZ2 -1.000000
    Z1Z38ZZ1 CCZ38ZZ1 1.000000
    Z2Z38ZZ1 OBJZZZZZ 30.000000   NCZ12ZZ1 30.000000
    Z2Z38ZZ1 ACZ38ZZ1 30.000000   CCZ38ZZ1 1.000000
    Z2Z38ZZ1 NCZ11ZZ2 -30.000000
    Z3Z38ZZ1 OBJZZZZZ 40.000000   NCZ12ZZ1 40.000000
    Z3Z38ZZ1 ACZ38ZZ1 40.000000   CCZ38ZZ1 1.000000
    Z3Z38ZZ1 NCZ12ZZ2 -7.000000   ACZ38ZZ2 -7.000000
    Z3Z38ZZ1 NCZ11ZZ2 -33.000000
    Z4Z38ZZ1 OBJZZZZZ 1.000000   NCZ12ZZ1 1.000000
    Z4Z38ZZ1 ACZ38ZZ1 1.000000   NCZ12ZZ2 -1.000000
    Z4Z38ZZ1 ACZ38ZZ2 -1.000000
    Z1Z39ZZ1 CCZ39ZZ1 1.000000
    Z2Z39ZZ1 OBJZZZZZ 30.000000   NCZ12ZZ1 30.000000
    Z2Z39ZZ1 ACZ39ZZ1 30.000000   CCZ39ZZ1 1.000000
    Z2Z39ZZ1 NCZZ8ZZ2 -30.000000
    Z3Z39ZZ1 OBJZZZZZ 40.000000   NCZ12ZZ1 40.000000
    Z3Z39ZZ1 ACZ39ZZ1 40.000000   CCZ39ZZ1 1.000000
    Z3Z39ZZ1 NCZ12ZZ2 -7.000000   ACZ39ZZ2 -7.000000
    Z3Z39ZZ1 NCZZ8ZZ2 -33.000000
    Z4Z39ZZ1 OBJZZZZZ 1.000000   NCZ12ZZ1 1.000000
    Z4Z39ZZ1 ACZ39ZZ1 1.000000   NCZ12ZZ2 -1.000000
    Z4Z39ZZ1 ACZ39ZZ2 -1.000000
    Z1Z40ZZ1 CCZ40ZZ1 1.000000
    Z2Z40ZZ1 OBJZZZZZ 30.000000   NCZZ8ZZ1 30.000000
    Z2Z40ZZ1 ACZ40ZZ1 30.000000   CCZ40ZZ1 1.000000
    Z2Z40ZZ1 NCZ12ZZ2 -30.000000
    Z3Z40ZZ1 OBJZZZZZ 40.000000   NCZZ8ZZ1 40.000000
    Z3Z40ZZ1 ACZ40ZZ1 40.000000   CCZ40ZZ1 1.000000
    Z3Z40ZZ1 NCZZ8ZZ2 -7.000000   ACZ40ZZ2 -7.000000
    Z3Z40ZZ1 NCZ12ZZ2 -33.000000
    Z4Z40ZZ1 OBJZZZZZ 1.000000   NCZZ8ZZ1 1.000000
    Z4Z40ZZ1 ACZ40ZZ1 1.000000   NCZZ8ZZ2 -1.000000
    Z4Z40ZZ1 ACZ40ZZ2 -1.000000
    Z1Z41ZZ1 CCZ41ZZ1 1.000000
    Z2Z41ZZ1 OBJZZZZZ 30.000000   NCZZ5ZZ1 30.000000
    Z2Z41ZZ1 ACZ41ZZ1 30.000000   CCZ41ZZ1 1.000000
    Z2Z41ZZ1 NCZZ8ZZ2 -30.000000
    Z3Z41ZZ1 OBJZZZZZ 40.000000   NCZZ5ZZ1 40.000000
    Z3Z41ZZ1 ACZ41ZZ1 40.000000   CCZ41ZZ1 1.000000
    Z3Z41ZZ1 NCZZ5ZZ2 -7.000000   ACZ41ZZ2 -7.000000
    Z3Z41ZZ1 NCZZ8ZZ2 -33.000000
    Z4Z41ZZ1 OBJZZZZZ 1.000000   NCZZ5ZZ1 1.000000
    Z4Z41ZZ1 ACZ41ZZ1 1.000000   NCZZ5ZZ2 -1.000000
    Z4Z41ZZ1 ACZ41ZZ2 -1.000000
    Z1Z42ZZ1 CCZ42ZZ1 1.000000
    Z2Z42ZZ1 OBJZZZZZ 30.000000   NCZZ8ZZ1 30.000000
    Z2Z42ZZ1 ACZ42ZZ1 30.000000   CCZ42ZZ1 1.000000
    Z2Z42ZZ1 NCZZ5ZZ2 -30.000000
    Z3Z42ZZ1 OBJZZZZZ 40.000000   NCZZ8ZZ1 40.000000
    Z3Z42ZZ1 ACZ42ZZ1 40.000000   CCZ42ZZ1 1.000000
    Z3Z42ZZ1 NCZZ8ZZ2 -7.000000   ACZ42ZZ2 -7.000000
    Z3Z42ZZ1 NCZZ5ZZ2 -33.000000
    Z4Z42ZZ1 OBJZZZZZ 1.000000   NCZZ8ZZ1 1.000000
    Z4Z42ZZ1 ACZ42ZZ1 1.000000   NCZZ8ZZ2 -1.000000
    Z4Z42ZZ1 ACZ42ZZ2 -1.000000
    Z1Z43ZZ1 CCZ43ZZ1 1.000000
    Z2Z43ZZ1 OBJZZZZZ 30.000000   NCZZ5ZZ1 30.000000
    Z2Z43ZZ1 ACZ43ZZ1 30.000000   CCZ43ZZ1 1.000000
    Z2Z43ZZ1 NCZZ4ZZ2 -30.000000
    Z3Z43ZZ1 OBJZZZZZ 40.000000   NCZZ5ZZ1 40.000000
    Z3Z43ZZ1 ACZ43ZZ1 40.000000   CCZ43ZZ1 1.000000
    Z3Z43ZZ1 NCZZ5ZZ2 -7.000000   ACZ43ZZ2 -7.000000
    Z3Z43ZZ1 NCZZ4ZZ2 -33.000000
    Z4Z43ZZ1 OBJZZZZZ 1.000000   NCZZ5ZZ1 1.000000
    Z4Z43ZZ1 ACZ43ZZ1 1.000000   NCZZ5ZZ2 -1.000000
    Z4Z43ZZ1 ACZ43ZZ2 -1.000000
    Z1Z44ZZ1 CCZ44ZZ1 1.000000
    Z2Z44ZZ1 OBJZZZZZ 30.000000   NCZZ4ZZ1 30.000000
    Z2Z44ZZ1 ACZ44ZZ1 30.000000   CCZ44ZZ1 1.000000
    Z2Z44ZZ1 NCZZ5ZZ2 -30.000000
    Z3Z44ZZ1 OBJZZZZZ 40.000000   NCZZ4ZZ1 40.000000
    Z3Z44ZZ1 ACZ44ZZ1 40.000000   CCZ44ZZ1 1.000000
    Z3Z44ZZ1 NCZZ4ZZ2 -7.000000   ACZ44ZZ2 -7.000000
    Z3Z44ZZ1 NCZZ5ZZ2 -33.000000
    Z4Z44ZZ1 OBJZZZZZ 1.000000   NCZZ4ZZ1 1.000000
    Z4Z44ZZ1 ACZ44ZZ1 1.000000   NCZZ4ZZ2 -1.000000
    Z4Z44ZZ1 ACZ44ZZ2 -1.000000
    Z1Z45ZZ1 CCZ45ZZ1 1.000000
    Z2Z45ZZ1 OBJZZZZZ 50.000000   NCZZ4ZZ1 50.000000
    Z2Z45ZZ1 ACZ45ZZ1 50.000000   CCZ45ZZ1 1.000000
    Z3Z45ZZ1 OBJZZZZZ 80.000000   NCZZ4ZZ1 80.000000
    Z3Z45ZZ1 ACZ45ZZ1 80.000000   CCZ45ZZ1 1.000000
    Z3Z45ZZ1 NCZZ4ZZ2 -15.000000   ACZ45ZZ2 -15.000000
    Z4Z45ZZ1 OBJZZZZZ 1.000000   NCZZ4ZZ1 1.000000
    Z4Z45ZZ1 ACZ45ZZ1 1.000000   NCZZ4ZZ2 -1.000000
    Z4Z45ZZ1 ACZ45ZZ2 -1.000000
    Z1Z46ZZ1 CCZ46ZZ1 1.000000
    Z2Z46ZZ1 OBJZZZZZ 50.000000   NCZ10ZZ1 50.000000
    Z2Z46ZZ1 ACZ46ZZ1 50.000000   CCZ46ZZ1 1.000000
    Z3Z46ZZ1 OBJZZZZZ 80.000000   NCZ10ZZ1 80.000000
    Z3Z46ZZ1 ACZ46ZZ1 80.000000   CCZ46ZZ1 1.000000
    Z3Z46ZZ1 NCZ10ZZ2 -15.000000   ACZ46ZZ2 -15.000000
    Z4Z46ZZ1 OBJZZZZZ 1.000000   NCZ10ZZ1 1.000000
    Z4Z46ZZ1 ACZ46ZZ1 1.000000   NCZ10ZZ2 -1.000000
    Z4Z46ZZ1 ACZ46ZZ2 -1.000000
    Z1Z47ZZ1 CCZ47ZZ1 1.000000
    Z2Z47ZZ1 OBJZZZZZ 50.000000   NCZ12ZZ1 50.000000
    Z2Z47ZZ1 ACZ47ZZ1 50.000000   CCZ47ZZ1 1.000000
    Z3Z47ZZ1 OBJZZZZZ 80.000000   NCZ12ZZ1 80.000000
    Z3Z47ZZ1 ACZ47ZZ1 80.000000   CCZ47ZZ1 1.000000
    Z3Z47ZZ1 NCZ12ZZ2 -15.000000   ACZ47ZZ2 -15.000000
    Z4Z47ZZ1 OBJZZZZZ 1.000000   NCZ12ZZ1 1.000000
    Z4Z47ZZ1 ACZ47ZZ1 1.000000   NCZ12ZZ2 -1.000000
    Z4Z47ZZ1 ACZ47ZZ2 -1.000000
    Z1ZZ1ZZ2 CCZZ1ZZ2 1.000000
    Z2ZZ1ZZ2 OBJZZZZZ 10.000000   NCZZ3ZZ2 10.000000
    Z2ZZ1ZZ2 ACZZ1ZZ2 10.000000   CCZZ1ZZ2 1.000000
    Z2ZZ1ZZ2 NCZZ1ZZ3 -10.000000
    Z3ZZ1ZZ2 OBJZZZZZ 20.000000   NCZZ3ZZ2 20.000000
    Z3ZZ1ZZ2 ACZZ1ZZ2 20.000000   CCZZ1ZZ2 1.000000
    Z3ZZ1ZZ2 NCZZ3ZZ3 -5.000000   ACZZ1ZZ3 -5.000000
    Z3ZZ1ZZ2 NCZZ1ZZ3 -15.000000
    Z4ZZ1ZZ2 OBJZZZZZ 1.000000   NCZZ3ZZ2 1.000000
    Z4ZZ1ZZ2 ACZZ1ZZ2 1.000000   NCZZ3ZZ3 -1.000000
    Z4ZZ1ZZ2 ACZZ1ZZ3 -1.000000
    Z1ZZ2ZZ2 CCZZ2ZZ2 1.000000
    Z2ZZ2ZZ2 OBJZZZZZ 10.000000   NCZZ1ZZ2 10.000000
    Z2ZZ2ZZ2 ACZZ2ZZ2 10.000000   CCZZ2ZZ2 1.000000
    Z2ZZ2ZZ2 NCZZ3ZZ3 -10.000000
    Z3ZZ2ZZ2 OBJZZZZZ 20.000000   NCZZ1ZZ2 20.000000
    Z3ZZ2ZZ2 ACZZ2ZZ2 20.000000   CCZZ2ZZ2 1.000000
    Z3ZZ2ZZ2 NCZZ1ZZ3 -5.000000   ACZZ2ZZ3 -5.000000
    Z3ZZ2ZZ2 NCZZ3ZZ3 -15.000000
    Z4ZZ2ZZ2 OBJZZZZZ 1.000000   NCZZ1ZZ2 1.000000
    Z4ZZ2ZZ2 ACZZ2ZZ2 1.000000   NCZZ1ZZ3 -1.000000
    Z4ZZ2ZZ2 ACZZ2ZZ3 -1.000000
    Z1ZZ3ZZ2 CCZZ3ZZ2 1.000000
    Z2ZZ3ZZ2 OBJZZZZZ 10.000000   NCZZ9ZZ2 10.000000
    Z2ZZ3ZZ2 ACZZ3ZZ2 10.000000   CCZZ3ZZ2 1.000000
    Z2ZZ3ZZ2 NCZZ3ZZ3 -10.000000
    Z3ZZ3ZZ2 OBJZZZZZ 20.000000   NCZZ9ZZ2 20.000000
    Z3ZZ3ZZ2 ACZZ3ZZ2 20.000000   CCZZ3ZZ2 1.000000
    Z3ZZ3ZZ2 NCZZ9ZZ3 -5.000000   ACZZ3ZZ3 -5.000000
    Z3ZZ3ZZ2 NCZZ3ZZ3 -15.000000
    Z4ZZ3ZZ2 OBJZZZZZ 1.000000   NCZZ9ZZ2 1.000000
    Z4ZZ3ZZ2 ACZZ3ZZ2 1.000000   NCZZ9ZZ3 -1.000000
    Z4ZZ3ZZ2 ACZZ3ZZ3 -1.000000
    Z1ZZ4ZZ2 CCZZ4ZZ2 1.000000
    Z2ZZ4ZZ2 OBJZZZZZ 10.000000   NCZZ3ZZ2 10.000000
    Z2ZZ4ZZ2 ACZZ4ZZ2 10.000000   CCZZ4ZZ2 1.000000
    Z2ZZ4ZZ2 NCZZ9ZZ3 -10.000000
    Z3ZZ4ZZ2 OBJZZZZZ 20.000000   NCZZ3ZZ2 20.000000
    Z3ZZ4ZZ2 ACZZ4ZZ2 20.000000   CCZZ4ZZ2 1.000000
    Z3ZZ4ZZ2 NCZZ3ZZ3 -5.000000   ACZZ4ZZ3 -5.000000
    Z3ZZ4ZZ2 NCZZ9ZZ3 -15.000000
    Z4ZZ4ZZ2 OBJZZZZZ 1.000000   NCZZ3ZZ2 1.000000
    Z4ZZ4ZZ2 ACZZ4ZZ2 1.000000   NCZZ3ZZ3 -1.000000
    Z4ZZ4ZZ2 ACZZ4ZZ3 -1.000000
    Z1ZZ5ZZ2 CCZZ5ZZ2 1.000000
    Z2ZZ5ZZ2 OBJZZZZZ 10.000000   NCZZ9ZZ2 10.000000
    Z2ZZ5ZZ2 ACZZ5ZZ2 10.000000   CCZZ5ZZ2 1.000000
    Z2ZZ5ZZ2 NCZ14ZZ3 -10.000000
    Z3ZZ5ZZ2 OBJZZZZZ 20.000000   NCZZ9ZZ2 20.000000
    Z3ZZ5ZZ2 ACZZ5ZZ2 20.000000   CCZZ5ZZ2 1.000000
    Z3ZZ5ZZ2 NCZZ9ZZ3 -5.000000   ACZZ5ZZ3 -5.000000
    Z3ZZ5ZZ2 NCZ14ZZ3 -15.000000
    Z4ZZ5ZZ2 OBJZZZZZ 1.000000   NCZZ9ZZ2 1.000000
    Z4ZZ5ZZ2 ACZZ5ZZ2 1.000000   NCZZ9ZZ3 -1.000000
    Z4ZZ5ZZ2 ACZZ5ZZ3 -1.000000
    Z1ZZ6ZZ2 CCZZ6ZZ2 1.000000
    Z2ZZ6ZZ2 OBJZZZZZ 10.000000   NCZ14ZZ2 10.000000
    Z2ZZ6ZZ2 ACZZ6ZZ2 10.000000   CCZZ6ZZ2 1.000000
    Z2ZZ6ZZ2 NCZZ9ZZ3 -10.000000
    Z3ZZ6ZZ2 OBJZZZZZ 20.000000   NCZ14ZZ2 20.000000
    Z3ZZ6ZZ2 ACZZ6ZZ2 20.000000   CCZZ6ZZ2 1.000000
    Z3ZZ6ZZ2 NCZ14ZZ3 -5.000000   ACZZ6ZZ3 -5.000000
    Z3ZZ6ZZ2 NCZZ9ZZ3 -15.000000
    Z4ZZ6ZZ2 OBJZZZZZ 1.000000   NCZ14ZZ2 1.000000
    Z4ZZ6ZZ2 ACZZ6ZZ2 1.000000   NCZ14ZZ3 -1.000000
    Z4ZZ6ZZ2 ACZZ6ZZ3 -1.000000
    Z1ZZ7ZZ2 CCZZ7ZZ2 1.000000
    Z2ZZ7ZZ2 OBJZZZZZ 10.000000   NCZ15ZZ2 10.000000
    Z2ZZ7ZZ2 ACZZ7ZZ2 10.000000   CCZZ7ZZ2 1.000000
    Z2ZZ7ZZ2 NCZ14ZZ3 -10.000000
    Z3ZZ7ZZ2 OBJZZZZZ 20.000000   NCZ15ZZ2 20.000000
    Z3ZZ7ZZ2 ACZZ7ZZ2 20.000000   CCZZ7ZZ2 1.000000
    Z3ZZ7ZZ2 NCZ15ZZ3 -5.000000   ACZZ7ZZ3 -5.000000
    Z3ZZ7ZZ2 NCZ14ZZ3 -15.000000
    Z4ZZ7ZZ2 OBJZZZZZ 1.000000   NCZ15ZZ2 1.000000
    Z4ZZ7ZZ2 ACZZ7ZZ2 1.000000   NCZ15ZZ3 -1.000000
    Z4ZZ7ZZ2 ACZZ7ZZ3 -1.000000
    Z1ZZ8ZZ2 CCZZ8ZZ2 1.000000
    Z2ZZ8ZZ2 OBJZZZZZ 10.000000   NCZ14ZZ2 10.000000
    Z2ZZ8ZZ2 ACZZ8ZZ2 10.000000   CCZZ8ZZ2 1.000000
    Z2ZZ8ZZ2 NCZ15ZZ3 -10.000000
    Z3ZZ8ZZ2 OBJZZZZZ 20.000000   NCZ14ZZ2 20.000000
    Z3ZZ8ZZ2 ACZZ8ZZ2 20.000000   CCZZ8ZZ2 1.000000
    Z3ZZ8ZZ2 NCZ14ZZ3 -5.000000   ACZZ8ZZ3 -5.000000
    Z3ZZ8ZZ2 NCZ15ZZ3 -15.000000
    Z4ZZ8ZZ2 OBJZZZZZ 1.000000   NCZ14ZZ2 1.000000
    Z4ZZ8ZZ2 ACZZ8ZZ2 1.000000   NCZ14ZZ3 -1.000000
    Z4ZZ8ZZ2 ACZZ8ZZ3 -1.000000
    Z1ZZ9ZZ2 CCZZ9ZZ2 1.000000
    Z2ZZ9ZZ2 OBJZZZZZ 10.000000   NCZ15ZZ2 10.000000
    Z2ZZ9ZZ2 ACZZ9ZZ2 10.000000   CCZZ9ZZ2 1.000000
    Z2ZZ9ZZ2 NCZ13ZZ3 -10.000000
    Z3ZZ9ZZ2 OBJZZZZZ 20.000000   NCZ15ZZ2 20.000000
    Z3ZZ9ZZ2 ACZZ9ZZ2 20.000000   CCZZ9ZZ2 1.000000
    Z3ZZ9ZZ2 NCZ15ZZ3 -5.000000   ACZZ9ZZ3 -5.000000
    Z3ZZ9ZZ2 NCZ13ZZ3 -15.000000
    Z4ZZ9ZZ2 OBJZZZZZ 1.000000   NCZ15ZZ2 1.000000
    Z4ZZ9ZZ2 ACZZ9ZZ2 1.000000   NCZ15ZZ3 -1.000000
    Z4ZZ9ZZ2 ACZZ9ZZ3 -1.000000
    Z1Z10ZZ2 CCZ10ZZ2 1.000000
    Z2Z10ZZ2 OBJZZZZZ 10.000000   NCZ13ZZ2 10.000000
    Z2Z10ZZ2 ACZ10ZZ2 10.000000   CCZ10ZZ2 1.000000
    Z2Z10ZZ2 NCZ15ZZ3 -10.000000
    Z3Z10ZZ2 OBJZZZZZ 20.000000   NCZ13ZZ2 20.000000
    Z3Z10ZZ2 ACZ10ZZ2 20.000000   CCZ10ZZ2 1.000000
    Z3Z10ZZ2 NCZ13ZZ3 -5.000000   ACZ10ZZ3 -5.000000
    Z3Z10ZZ2 NCZ15ZZ3 -15.000000
    Z4Z10ZZ2 OBJZZZZZ 1.000000   NCZ13ZZ2 1.000000
    Z4Z10ZZ2 ACZ10ZZ2 1.000000   NCZ13ZZ3 -1.000000
    Z4Z10ZZ2 ACZ10ZZ3 -1.000000
    Z1Z11ZZ2 CCZ11ZZ2 1.000000
    Z2Z11ZZ2 OBJZZZZZ 10.000000   NCZ13ZZ2 10.000000
    Z2Z11ZZ2 ACZ11ZZ2 10.000000   CCZ11ZZ2 1.000000
    Z2Z11ZZ2 NCZZ6ZZ3 -10.000000
    Z3Z11ZZ2 OBJZZZZZ 20.000000   NCZ13ZZ2 20.000000
    Z3Z11ZZ2 ACZ11ZZ2 20.000000   CCZ11ZZ2 1.000000
    Z3Z11ZZ2 NCZ13ZZ3 -5.000000   ACZ11ZZ3 -5.000000
    Z3Z11ZZ2 NCZZ6ZZ3 -15.000000
    Z4Z11ZZ2 OBJZZZZZ 1.000000   NCZ13ZZ2 1.000000
    Z4Z11ZZ2 ACZ11ZZ2 1.000000   NCZ13ZZ3 -1.000000
    Z4Z11ZZ2 ACZ11ZZ3 -1.000000
    Z1Z12ZZ2 CCZ12ZZ2 1.000000
    Z2Z12ZZ2 OBJZZZZZ 10.000000   NCZZ6ZZ2 10.000000
    Z2Z12ZZ2 ACZ12ZZ2 10.000000   CCZ12ZZ2 1.000000
    Z2Z12ZZ2 NCZ13ZZ3 -10.000000
    Z3Z12ZZ2 OBJZZZZZ 20.000000   NCZZ6ZZ2 20.000000
    Z3Z12ZZ2 ACZ12ZZ2 20.000000   CCZ12ZZ2 1.000000
    Z3Z12ZZ2 NCZZ6ZZ3 -5.000000   ACZ12ZZ3 -5.000000
    Z3Z12ZZ2 NCZ13ZZ3 -15.000000
    Z4Z12ZZ2 OBJZZZZZ 1.000000   NCZZ6ZZ2 1.000000
    Z4Z12ZZ2 ACZ12ZZ2 1.000000   NCZZ6ZZ3 -1.000000
    Z4Z12ZZ2 ACZ12ZZ3 -1.000000
    Z1Z13ZZ2 CCZ13ZZ2 1.000000
    Z2Z13ZZ2 OBJZZZZZ 10.000000   NCZZ6ZZ2 10.000000
    Z2Z13ZZ2 ACZ13ZZ2 10.000000   CCZ13ZZ2 1.000000
    Z2Z13ZZ2 NCZZ2ZZ3 -10.000000
    Z3Z13ZZ2 OBJZZZZZ 20.000000   NCZZ6ZZ2 20.000000
    Z3Z13ZZ2 ACZ13ZZ2 20.000000   CCZ13ZZ2 1.000000
    Z3Z13ZZ2 NCZZ6ZZ3 -5.000000   ACZ13ZZ3 -5.000000
    Z3Z13ZZ2 NCZZ2ZZ3 -15.000000
    Z4Z13ZZ2 OBJZZZZZ 1.000000   NCZZ6ZZ2 1.000000
    Z4Z13ZZ2 ACZ13ZZ2 1.000000   NCZZ6ZZ3 -1.000000
    Z4Z13ZZ2 ACZ13ZZ3 -1.000000
    Z1Z14ZZ2 CCZ14ZZ2 1.000000
    Z2Z14ZZ2 OBJZZZZZ 10.000000   NCZZ2ZZ2 10.000000
    Z2Z14ZZ2 ACZ14ZZ2 10.000000   CCZ14ZZ2 1.000000
    Z2Z14ZZ2 NCZZ6ZZ3 -10.000000
    Z3Z14ZZ2 OBJZZZZZ 20.000000   NCZZ2ZZ2 20.000000
    Z3Z14ZZ2 ACZ14ZZ2 20.000000   CCZ14ZZ2 1.000000
    Z3Z14ZZ2 NCZZ2ZZ3 -5.000000   ACZ14ZZ3 -5.000000
    Z3Z14ZZ2 NCZZ6ZZ3 -15.000000
    Z4Z14ZZ2 OBJZZZZZ 1.000000   NCZZ2ZZ2 1.000000
    Z4Z14ZZ2 ACZ14ZZ2 1.000000   NCZZ2ZZ3 -1.000000
    Z4Z14ZZ2 ACZ14ZZ3 -1.000000
    Z1Z15ZZ2 CCZ15ZZ2 1.000000
    Z2Z15ZZ2 OBJZZZZZ 10.000000   NCZZ2ZZ2 10.000000
    Z2Z15ZZ2 ACZ15ZZ2 10.000000   CCZ15ZZ2 1.000000
    Z2Z15ZZ2 NCZZ1ZZ3 -10.000000
    Z3Z15ZZ2 OBJZZZZZ 20.000000   NCZZ2ZZ2 20.000000
    Z3Z15ZZ2 ACZ15ZZ2 20.000000   CCZ15ZZ2 1.000000
    Z3Z15ZZ2 NCZZ2ZZ3 -5.000000   ACZ15ZZ3 -5.000000
    Z3Z15ZZ2 NCZZ1ZZ3 -15.000000
    Z4Z15ZZ2 OBJZZZZZ 1.000000   NCZZ2ZZ2 1.000000
    Z4Z15ZZ2 ACZ15ZZ2 1.000000   NCZZ2ZZ3 -1.000000
    Z4Z15ZZ2 ACZ15ZZ3 -1.000000
    Z1Z16ZZ2 CCZ16ZZ2 1.000000
    Z2Z16ZZ2 OBJZZZZZ 10.000000   NCZZ1ZZ2 10.000000
    Z2Z16ZZ2 ACZ16ZZ2 10.000000   CCZ16ZZ2 1.000000
    Z2Z16ZZ2 NCZZ2ZZ3 -10.000000
    Z3Z16ZZ2 OBJZZZZZ 20.000000   NCZZ1ZZ2 20.000000
    Z3Z16ZZ2 ACZ16ZZ2 20.000000   CCZ16ZZ2 1.000000
    Z3Z16ZZ2 NCZZ1ZZ3 -5.000000   ACZ16ZZ3 -5.000000
    Z3Z16ZZ2 NCZZ2ZZ3 -15.000000
    Z4Z16ZZ2 OBJZZZZZ 1.000000   NCZZ1ZZ2 1.000000
    Z4Z16ZZ2 ACZ16ZZ2 1.000000   NCZZ1ZZ3 -1.000000
    Z4Z16ZZ2 ACZ16ZZ3 -1.000000
    Z1Z17ZZ2 CCZ17ZZ2 1.000000
    Z2Z17ZZ2 OBJZZZZZ 15.000000   NCZZ3ZZ2 15.000000
    Z2Z17ZZ2 ACZ17ZZ2 15.000000   CCZ17ZZ2 1.000000
    Z2Z17ZZ2 NCZZ7ZZ3 -15.000000
    Z3Z17ZZ2 OBJZZZZZ 25.000000   NCZZ3ZZ2 25.000000
    Z3Z17ZZ2 ACZ17ZZ2 25.000000   CCZ17ZZ2 1.000000
    Z3Z17ZZ2 NCZZ3ZZ3 -7.000000   ACZ17ZZ3 -7.000000
    Z3Z17ZZ2 NCZZ7ZZ3 -18.000000
    Z4Z17ZZ2 OBJZZZZZ 1.000000   NCZZ3ZZ2 1.000000
    Z4Z17ZZ2 ACZ17ZZ2 1.000000   NCZZ3ZZ3 -1.000000
    Z4Z17ZZ2 ACZ17ZZ3 -1.000000
    Z1Z18ZZ2 CCZ18ZZ2 1.000000
    Z2Z18ZZ2 OBJZZZZZ 15.000000   NCZZ9ZZ2 15.000000
    Z2Z18ZZ2 ACZ18ZZ2 15.000000   CCZ18ZZ2 1.000000
    Z2Z18ZZ2 NCZZ7ZZ3 -15.000000
    Z3Z18ZZ2 OBJZZZZZ 25.000000   NCZZ9ZZ2 25.000000
    Z3Z18ZZ2 ACZ18ZZ2 25.000000   CCZ18ZZ2 1.000000
    Z3Z18ZZ2 NCZZ9ZZ3 -7.000000   ACZ18ZZ3 -7.000000
    Z3Z18ZZ2 NCZZ7ZZ3 -18.000000
    Z4Z18ZZ2 OBJZZZZZ 1.000000   NCZZ9ZZ2 1.000000
    Z4Z18ZZ2 ACZ18ZZ2 1.000000   NCZZ9ZZ3 -1.000000
    Z4Z18ZZ2 ACZ18ZZ3 -1.000000
    Z1Z19ZZ2 CCZ19ZZ2 1.000000
    Z2Z19ZZ2 OBJZZZZZ 15.000000   NCZZ9ZZ2 15.000000
    Z2Z19ZZ2 ACZ19ZZ2 15.000000   CCZ19ZZ2 1.000000
    Z2Z19ZZ2 NCZ10ZZ3 -15.000000
    Z3Z19ZZ2 OBJZZZZZ 25.000000   NCZZ9ZZ2 25.000000
    Z3Z19ZZ2 ACZ19ZZ2 25.000000   CCZ19ZZ2 1.000000
    Z3Z19ZZ2 NCZZ9ZZ3 -7.000000   ACZ19ZZ3 -7.000000
    Z3Z19ZZ2 NCZ10ZZ3 -18.000000
    Z4Z19ZZ2 OBJZZZZZ 1.000000   NCZZ9ZZ2 1.000000
    Z4Z19ZZ2 ACZ19ZZ2 1.000000   NCZZ9ZZ3 -1.000000
    Z4Z19ZZ2 ACZ19ZZ3 -1.000000
    Z1Z20ZZ2 CCZ20ZZ2 1.000000
    Z2Z20ZZ2 OBJZZZZZ 15.000000   NCZ14ZZ2 15.000000
    Z2Z20ZZ2 ACZ20ZZ2 15.000000   CCZ20ZZ2 1.000000
    Z2Z20ZZ2 NCZ10ZZ3 -15.000000
    Z3Z20ZZ2 OBJZZZZZ 25.000000   NCZ14ZZ2 25.000000
    Z3Z20ZZ2 ACZ20ZZ2 25.000000   CCZ20ZZ2 1.000000
    Z3Z20ZZ2 NCZ14ZZ3 -7.000000   ACZ20ZZ3 -7.000000
    Z3Z20ZZ2 NCZ10ZZ3 -18.000000
    Z4Z20ZZ2 OBJZZZZZ 1.000000   NCZ14ZZ2 1.000000
    Z4Z20ZZ2 ACZ20ZZ2 1.000000   NCZ14ZZ3 -1.000000
    Z4Z20ZZ2 ACZ20ZZ3 -1.000000
    Z1Z21ZZ2 CCZ21ZZ2 1.000000
    Z2Z21ZZ2 OBJZZZZZ 15.000000   NCZ14ZZ2 15.000000
    Z2Z21ZZ2 ACZ21ZZ2 15.000000   CCZ21ZZ2 1.000000
    Z2Z21ZZ2 NCZ11ZZ3 -15.000000
    Z3Z21ZZ2 OBJZZZZZ 25.000000   NCZ14ZZ2 25.000000
    Z3Z21ZZ2 ACZ21ZZ2 25.000000   CCZ21ZZ2 1.000000
    Z3Z21ZZ2 NCZ14ZZ3 -7.000000   ACZ21ZZ3 -7.000000
    Z3Z21ZZ2 NCZ11ZZ3 -18.000000
    Z4Z21ZZ2 OBJZZZZZ 1.000000   NCZ14ZZ2 1.000000
    Z4Z21ZZ2 ACZ21ZZ2 1.000000   NCZ14ZZ3 -1.000000
    Z4Z21ZZ2 ACZ21ZZ3 -1.000000
    Z1Z22ZZ2 CCZ22ZZ2 1.000000
    Z2Z22ZZ2 OBJZZZZZ 15.000000   NCZ15ZZ2 15.000000
    Z2Z22ZZ2 ACZ22ZZ2 15.000000   CCZ22ZZ2 1.000000
    Z2Z22ZZ2 NCZ11ZZ3 -15.000000
    Z3Z22ZZ2 OBJZZZZZ 25.000000   NCZ15ZZ2 25.000000
    Z3Z22ZZ2 ACZ22ZZ2 25.000000   CCZ22ZZ2 1.000000
    Z3Z22ZZ2 NCZ15ZZ3 -7.000000   ACZ22ZZ3 -7.000000
    Z3Z22ZZ2 NCZ11ZZ3 -18.000000
    Z4Z22ZZ2 OBJZZZZZ 1.000000   NCZ15ZZ2 1.000000
    Z4Z22ZZ2 ACZ22ZZ2 1.000000   NCZ15ZZ3 -1.000000
    Z4Z22ZZ2 ACZ22ZZ3 -1.000000
    Z1Z23ZZ2 CCZ23ZZ2 1.000000
    Z2Z23ZZ2 OBJZZZZZ 15.000000   NCZ15ZZ2 15.000000
    Z2Z23ZZ2 ACZ23ZZ2 15.000000   CCZ23ZZ2 1.000000
    Z2Z23ZZ2 NCZ12ZZ3 -15.000000
    Z3Z23ZZ2 OBJZZZZZ 25.000000   NCZ15ZZ2 25.000000
    Z3Z23ZZ2 ACZ23ZZ2 25.000000   CCZ23ZZ2 1.000000
    Z3Z23ZZ2 NCZ15ZZ3 -7.000000   ACZ23ZZ3 -7.000000
    Z3Z23ZZ2 NCZ12ZZ3 -18.000000
    Z4Z23ZZ2 OBJZZZZZ 1.000000   NCZ15ZZ2 1.000000
    Z4Z23ZZ2 ACZ23ZZ2 1.000000   NCZ15ZZ3 -1.000000
    Z4Z23ZZ2 ACZ23ZZ3 -1.000000
    Z1Z24ZZ2 CCZ24ZZ2 1.000000
    Z2Z24ZZ2 OBJZZZZZ 15.000000   NCZ13ZZ2 15.000000
    Z2Z24ZZ2 ACZ24ZZ2 15.000000   CCZ24ZZ2 1.000000
    Z2Z24ZZ2 NCZ12ZZ3 -15.000000
    Z3Z24ZZ2 OBJZZZZZ 25.000000   NCZ13ZZ2 25.000000
    Z3Z24ZZ2 ACZ24ZZ2 25.000000   CCZ24ZZ2 1.000000
    Z3Z24ZZ2 NCZ13ZZ3 -7.000000   ACZ24ZZ3 -7.000000
    Z3Z24ZZ2 NCZ12ZZ3 -18.000000
    Z4Z24ZZ2 OBJZZZZZ 1.000000   NCZ13ZZ2 1.000000
    Z4Z24ZZ2 ACZ24ZZ2 1.000000   NCZ13ZZ3 -1.000000
    Z4Z24ZZ2 ACZ24ZZ3 -1.000000
    Z1Z25ZZ2 CCZ25ZZ2 1.000000
    Z2Z25ZZ2 OBJZZZZZ 15.000000   NCZ13ZZ2 15.000000
    Z2Z25ZZ2 ACZ25ZZ2 15.000000   CCZ25ZZ2 1.000000
    Z2Z25ZZ2 NCZZ8ZZ3 -15.000000
    Z3Z25ZZ2 OBJZZZZZ 25.000000   NCZ13ZZ2 25.000000
    Z3Z25ZZ2 ACZ25ZZ2 25.000000   CCZ25ZZ2 1.000000
    Z3Z25ZZ2 NCZ13ZZ3 -7.000000   ACZ25ZZ3 -7.000000
    Z3Z25ZZ2 NCZZ8ZZ3 -18.000000
    Z4Z25ZZ2 OBJZZZZZ 1.000000   NCZ13ZZ2 1.000000
    Z4Z25ZZ2 ACZ25ZZ2 1.000000   NCZ13ZZ3 -1.000000
    Z4Z25ZZ2 ACZ25ZZ3 -1.000000
    Z1Z26ZZ2 CCZ26ZZ2 1.000000
    Z2Z26ZZ2 OBJZZZZZ 15.000000   NCZZ6ZZ2 15.000000
    Z2Z26ZZ2 ACZ26ZZ2 15.000000   CCZ26ZZ2 1.000000
    Z2Z26ZZ2 NCZZ8ZZ3 -15.000000
    Z3Z26ZZ2 OBJZZZZZ 25.000000   NCZZ6ZZ2 25.000000
    Z3Z26ZZ2 ACZ26ZZ2 25.000000   CCZ26ZZ2 1.000000
    Z3Z26ZZ2 NCZZ6ZZ3 -7.000000   ACZ26ZZ3 -7.000000
    Z3Z26ZZ2 NCZZ8ZZ3 -18.000000
    Z4Z26ZZ2 OBJZZZZZ 1.000000   NCZZ6ZZ2 1.000000
    Z4Z26ZZ2 ACZ26ZZ2 1.000000   NCZZ6ZZ3 -1.000000
    Z4Z26ZZ2 ACZ26ZZ3 -1.000000
    Z1Z27ZZ2 CCZ27ZZ2 1.000000
    Z2Z27ZZ2 OBJZZZZZ 15.000000   NCZZ6ZZ2 15.000000
    Z2Z27ZZ2 ACZ27ZZ2 15.000000   CCZ27ZZ2 1.000000
    Z2Z27ZZ2 NCZZ5ZZ3 -15.000000
    Z3Z27ZZ2 OBJZZZZZ 25.000000   NCZZ6ZZ2 25.000000
    Z3Z27ZZ2 ACZ27ZZ2 25.000000   CCZ27ZZ2 1.000000
    Z3Z27ZZ2 NCZZ6ZZ3 -7.000000   ACZ27ZZ3 -7.000000
    Z3Z27ZZ2 NCZZ5ZZ3 -18.000000
    Z4Z27ZZ2 OBJZZZZZ 1.000000   NCZZ6ZZ2 1.000000
    Z4Z27ZZ2 ACZ27ZZ2 1.000000   NCZZ6ZZ3 -1.000000
    Z4Z27ZZ2 ACZ27ZZ3 -1.000000
    Z1Z28ZZ2 CCZ28ZZ2 1.000000
    Z2Z28ZZ2 OBJZZZZZ 15.000000   NCZZ2ZZ2 15.000000
    Z2Z28ZZ2 ACZ28ZZ2 15.000000   CCZ28ZZ2 1.000000
    Z2Z28ZZ2 NCZZ5ZZ3 -15.000000
    Z3Z28ZZ2 OBJZZZZZ 25.000000   NCZZ2ZZ2 25.000000
    Z3Z28ZZ2 ACZ28ZZ2 25.000000   CCZ28ZZ2 1.000000
    Z3Z28ZZ2 NCZZ2ZZ3 -7.000000   ACZ28ZZ3 -7.000000
    Z3Z28ZZ2 NCZZ5ZZ3 -18.000000
    Z4Z28ZZ2 OBJZZZZZ 1.000000   NCZZ2ZZ2 1.000000
    Z4Z28ZZ2 ACZ28ZZ2 1.000000   NCZZ2ZZ3 -1.000000
    Z4Z28ZZ2 ACZ28ZZ3 -1.000000
    Z1Z29ZZ2 CCZ29ZZ2 1.000000
    Z2Z29ZZ2 OBJZZZZZ 15.000000   NCZZ2ZZ2 15.000000
    Z2Z29ZZ2 ACZ29ZZ2 15.000000   CCZ29ZZ2 1.000000
    Z2Z29ZZ2 NCZZ4ZZ3 -15.000000
    Z3Z29ZZ2 OBJZZZZZ 25.000000   NCZZ2ZZ2 25.000000
    Z3Z29ZZ2 ACZ29ZZ2 25.000000   CCZ29ZZ2 1.000000
    Z3Z29ZZ2 NCZZ2ZZ3 -7.000000   ACZ29ZZ3 -7.000000
    Z3Z29ZZ2 NCZZ4ZZ3 -18.000000
    Z4Z29ZZ2 OBJZZZZZ 1.000000   NCZZ2ZZ2 1.000000
    Z4Z29ZZ2 ACZ29ZZ2 1.000000   NCZZ2ZZ3 -1.000000
    Z4Z29ZZ2 ACZ29ZZ3 -1.000000
    Z1Z30ZZ2 CCZ30ZZ2 1.000000
    Z2Z30ZZ2 OBJZZZZZ 15.000000   NCZZ1ZZ2 15.000000
    Z2Z30ZZ2 ACZ30ZZ2 15.000000   CCZ30ZZ2 1.000000
    Z2Z30ZZ2 NCZZ4ZZ3 -15.000000
    Z3Z30ZZ2 OBJZZZZZ 25.000000   NCZZ1ZZ2 25.000000
    Z3Z30ZZ2 ACZ30ZZ2 25.000000   CCZ30ZZ2 1.000000
    Z3Z30ZZ2 NCZZ1ZZ3 -7.000000   ACZ30ZZ3 -7.000000
    Z3Z30ZZ2 NCZZ4ZZ3 -18.000000
    Z4Z30ZZ2 OBJZZZZZ 1.000000   NCZZ1ZZ2 1.000000
    Z4Z30ZZ2 ACZ30ZZ2 1.000000   NCZZ1ZZ3 -1.000000
    Z4Z30ZZ2 ACZ30ZZ3 -1.000000
    Z1Z31ZZ2 CCZ31ZZ2 1.000000
    Z2Z31ZZ2 OBJZZZZZ 30.000000   NCZZ7ZZ2 30.000000
    Z2Z31ZZ2 ACZ31ZZ2 30.000000   CCZ31ZZ2 1.000000
    Z2Z31ZZ2 NCZZ4ZZ3 -30.000000
    Z3Z31ZZ2 OBJZZZZZ 40.000000   NCZZ7ZZ2 40.000000
    Z3Z31ZZ2 ACZ31ZZ2 40.000000   CCZ31ZZ2 1.000000
    Z3Z31ZZ2 NCZZ7ZZ3 -7.000000   ACZ31ZZ3 -7.000000
    Z3Z31ZZ2 NCZZ4ZZ3 -33.000000
    Z4Z31ZZ2 OBJZZZZZ 1.000000   NCZZ7ZZ2 1.000000
    Z4Z31ZZ2 ACZ31ZZ2 1.000000   NCZZ7ZZ3 -1.000000
    Z4Z31ZZ2 ACZ31ZZ3 -1.000000
    Z1Z32ZZ2 CCZ32ZZ2 1.000000
    Z2Z32ZZ2 OBJZZZZZ 30.000000   NCZZ4ZZ2 30.000000
    Z2Z32ZZ2 ACZ32ZZ2 30.000000   CCZ32ZZ2 1.000000
    Z2Z32ZZ2 NCZZ7ZZ3 -30.000000
    Z3Z32ZZ2 OBJZZZZZ 40.000000   NCZZ4ZZ2 40.000000
    Z3Z32ZZ2 ACZ32ZZ2 40.000000   CCZ32ZZ2 1.000000
    Z3Z32ZZ2 NCZZ4ZZ3 -7.000000   ACZ32ZZ3 -7.000000
    Z3Z32ZZ2 NCZZ7ZZ3 -33.000000
    Z4Z32ZZ2 OBJZZZZZ 1.000000   NCZZ4ZZ2 1.000000
    Z4Z32ZZ2 ACZ32ZZ2 1.000000   NCZZ4ZZ3 -1.000000
    Z4Z32ZZ2 ACZ32ZZ3 -1.000000
    Z1Z33ZZ2 CCZ33ZZ2 1.000000
    Z2Z33ZZ2 OBJZZZZZ 30.000000   NCZZ7ZZ2 30.000000
    Z2Z33ZZ2 ACZ33ZZ2 30.000000   CCZ33ZZ2 1.000000
    Z2Z33ZZ2 NCZ10ZZ3 -30.000000
    Z3Z33ZZ2 OBJZZZZZ 40.000000   NCZZ7ZZ2 40.000000
    Z3Z33ZZ2 ACZ33ZZ2 40.000000   CCZ33ZZ2 1.000000
    Z3Z33ZZ2 NCZZ7ZZ3 -7.000000   ACZ33ZZ3 -7.000000
    Z3Z33ZZ2 NCZ10ZZ3 -33.000000
    Z4Z33ZZ2 OBJZZZZZ 1.000000   NCZZ7ZZ2 1.000000
    Z4Z33ZZ2 ACZ33ZZ2 1.000000   NCZZ7ZZ3 -1.000000
    Z4Z33ZZ2 ACZ33ZZ3 -1.000000
    Z1Z34ZZ2 CCZ34ZZ2 1.000000
    Z2Z34ZZ2 OBJZZZZZ 30.000000   NCZ10ZZ2 30.000000
    Z2Z34ZZ2 ACZ34ZZ2 30.000000   CCZ34ZZ2 1.000000
    Z2Z34ZZ2 NCZZ7ZZ3 -30.000000
    Z3Z34ZZ2 OBJZZZZZ 40.000000   NCZ10ZZ2 40.000000
    Z3Z34ZZ2 ACZ34ZZ2 40.000000   CCZ34ZZ2 1.000000
    Z3Z34ZZ2 NCZ10ZZ3 -7.000000   ACZ34ZZ3 -7.000000
    Z3Z34ZZ2 NCZZ7ZZ3 -33.000000
    Z4Z34ZZ2 OBJZZZZZ 1.000000   NCZ10ZZ2 1.000000
    Z4Z34ZZ2 ACZ34ZZ2 1.000000   NCZ10ZZ3 -1.000000
    Z4Z34ZZ2 ACZ34ZZ3 -1.000000
    Z1Z35ZZ2 CCZ35ZZ2 1.000000
    Z2Z35ZZ2 OBJZZZZZ 30.000000   NCZ10ZZ2 30.000000
    Z2Z35ZZ2 ACZ35ZZ2 30.000000   CCZ35ZZ2 1.000000
    Z2Z35ZZ2 NCZ11ZZ3 -30.000000
    Z3Z35ZZ2 OBJZZZZZ 40.000000   NCZ10ZZ2 40.000000
    Z3Z35ZZ2 ACZ35ZZ2 40.000000   CCZ35ZZ2 1.000000
    Z3Z35ZZ2 NCZ10ZZ3 -7.000000   ACZ35ZZ3 -7.000000
    Z3Z35ZZ2 NCZ11ZZ3 -33.000000
    Z4Z35ZZ2 OBJZZZZZ 1.000000   NCZ10ZZ2 1.000000
    Z4Z35ZZ2 ACZ35ZZ2 1.000000   NCZ10ZZ3 -1.000000
    Z4Z35ZZ2 ACZ35ZZ3 -1.000000
    Z1Z36ZZ2 CCZ36ZZ2 1.000000
    Z2Z36ZZ2 OBJZZZZZ 30.000000   NCZ11ZZ2 30.000000
    Z2Z36ZZ2 ACZ36ZZ2 30.000000   CCZ36ZZ2 1.000000
    Z2Z36ZZ2 NCZ10ZZ3 -30.000000
    Z3Z36ZZ2 OBJZZZZZ 40.000000   NCZ11ZZ2 40.000000
    Z3Z36ZZ2 ACZ36ZZ2 40.000000   CCZ36ZZ2 1.000000
    Z3Z36ZZ2 NCZ11ZZ3 -7.000000   ACZ36ZZ3 -7.000000
    Z3Z36ZZ2 NCZ10ZZ3 -33.000000
    Z4Z36ZZ2 OBJZZZZZ 1.000000   NCZ11ZZ2 1.000000
    Z4Z36ZZ2 ACZ36ZZ2 1.000000   NCZ11ZZ3 -1.000000
    Z4Z36ZZ2 ACZ36ZZ3 -1.000000
    Z1Z37ZZ2 CCZ37ZZ2 1.000000
    Z2Z37ZZ2 OBJZZZZZ 30.000000   NCZ11ZZ2 30.000000
    Z2Z37ZZ2 ACZ37ZZ2 30.000000   CCZ37ZZ2 1.000000
    Z2Z37ZZ2 NCZ12ZZ3 -30.000000
    Z3Z37ZZ2 OBJZZZZZ 40.000000   NCZ11ZZ2 40.000000
    Z3Z37ZZ2 ACZ37ZZ2 40.000000   CCZ37ZZ2 1.000000
    Z3Z37ZZ2 NCZ11ZZ3 -7.000000   ACZ37ZZ3 -7.000000
    Z3Z37ZZ2 NCZ12ZZ3 -33.000000
    Z4Z37ZZ2 OBJZZZZZ 1.000000   NCZ11ZZ2 1.000000
    Z4Z37ZZ2 ACZ37ZZ2 1.000000   NCZ11ZZ3 -1.000000
    Z4Z37ZZ2 ACZ37ZZ3 -1.000000
    Z1Z38ZZ2 CCZ38ZZ2 1.000000
    Z2Z38ZZ2 OBJZZZZZ 30.000000   NCZ12ZZ2 30.000000
    Z2Z38ZZ2 ACZ38ZZ2 30.000000   CCZ38ZZ2 1.000000
    Z2Z38ZZ2 NCZ11ZZ3 -30.000000
    Z3Z38ZZ2 OBJZZZZZ 40.000000   NCZ12ZZ2 40.000000
    Z3Z38ZZ2 ACZ38ZZ2 40.000000   CCZ38ZZ2 1.000000
    Z3Z38ZZ2 NCZ12ZZ3 -7.000000   ACZ38ZZ3 -7.000000
    Z3Z38ZZ2 NCZ11ZZ3 -33.000000
    Z4Z38ZZ2 OBJZZZZZ 1.000000   NCZ12ZZ2 1.000000
    Z4Z38ZZ2 ACZ38ZZ2 1.000000   NCZ12ZZ3 -1.000000
    Z4Z38ZZ2 ACZ38ZZ3 -1.000000
    Z1Z39ZZ2 CCZ39ZZ2 1.000000
    Z2Z39ZZ2 OBJZZZZZ 30.000000   NCZ12ZZ2 30.000000
    Z2Z39ZZ2 ACZ39ZZ2 30.000000   CCZ39ZZ2 1.000000
    Z2Z39ZZ2 NCZZ8ZZ3 -30.000000
    Z3Z39ZZ2 OBJZZZZZ 40.000000   NCZ12ZZ2 40.000000
    Z3Z39ZZ2 ACZ39ZZ2 40.000000   CCZ39ZZ2 1.000000
    Z3Z39ZZ2 NCZ12ZZ3 -7.000000   ACZ39ZZ3 -7.000000
    Z3Z39ZZ2 NCZZ8ZZ3 -33.000000
    Z4Z39ZZ2 OBJZZZZZ 1.000000   NCZ12ZZ2 1.000000
    Z4Z39ZZ2 ACZ39ZZ2 1.000000   NCZ12ZZ3 -1.000000
    Z4Z39ZZ2 ACZ39ZZ3 -1.000000
    Z1Z40ZZ2 CCZ40ZZ2 1.000000
    Z2Z40ZZ2 OBJZZZZZ 30.000000   NCZZ8ZZ2 30.000000
    Z2Z40ZZ2 ACZ40ZZ2 30.000000   CCZ40ZZ2 1.000000
    Z2Z40ZZ2 NCZ12ZZ3 -30.000000
    Z3Z40ZZ2 OBJZZZZZ 40.000000   NCZZ8ZZ2 40.000000
    Z3Z40ZZ2 ACZ40ZZ2 40.000000   CCZ40ZZ2 1.000000
    Z3Z40ZZ2 NCZZ8ZZ3 -7.000000   ACZ40ZZ3 -7.000000
    Z3Z40ZZ2 NCZ12ZZ3 -33.000000
    Z4Z40ZZ2 OBJZZZZZ 1.000000   NCZZ8ZZ2 1.000000
    Z4Z40ZZ2 ACZ40ZZ2 1.000000   NCZZ8ZZ3 -1.000000
    Z4Z40ZZ2 ACZ40ZZ3 -1.000000
    Z1Z41ZZ2 CCZ41ZZ2 1.000000
    Z2Z41ZZ2 OBJZZZZZ 30.000000   NCZZ5ZZ2 30.000000
    Z2Z41ZZ2 ACZ41ZZ2 30.000000   CCZ41ZZ2 1.000000
    Z2Z41ZZ2 NCZZ8ZZ3 -30.000000
    Z3Z41ZZ2 OBJZZZZZ 40.000000   NCZZ5ZZ2 40.000000
    Z3Z41ZZ2 ACZ41ZZ2 40.000000   CCZ41ZZ2 1.000000
    Z3Z41ZZ2 NCZZ5ZZ3 -7.000000   ACZ41ZZ3 -7.000000
    Z3Z41ZZ2 NCZZ8ZZ3 -33.000000
    Z4Z41ZZ2 OBJZZZZZ 1.000000   NCZZ5ZZ2 1.000000
    Z4Z41ZZ2 ACZ41ZZ2 1.000000   NCZZ5ZZ3 -1.000000
    Z4Z41ZZ2 ACZ41ZZ3 -1.000000
    Z1Z42ZZ2 CCZ42ZZ2 1.000000
    Z2Z42ZZ2 OBJZZZZZ 30.000000   NCZZ8ZZ2 30.000000
    Z2Z42ZZ2 ACZ42ZZ2 30.000000   CCZ42ZZ2 1.000000
    Z2Z42ZZ2 NCZZ5ZZ3 -30.000000
    Z3Z42ZZ2 OBJZZZZZ 40.000000   NCZZ8ZZ2 40.000000
    Z3Z42ZZ2 ACZ42ZZ2 40.000000   CCZ42ZZ2 1.000000
    Z3Z42ZZ2 NCZZ8ZZ3 -7.000000   ACZ42ZZ3 -7.000000
    Z3Z42ZZ2 NCZZ5ZZ3 -33.000000
    Z4Z42ZZ2 OBJZZZZZ 1.000000   NCZZ8ZZ2 1.000000
    Z4Z42ZZ2 ACZ42ZZ2 1.000000   NCZZ8ZZ3 -1.000000
    Z4Z42ZZ2 ACZ42ZZ3 -1.000000
    Z1Z43ZZ2 CCZ43ZZ2 1.000000
    Z2Z43ZZ2 OBJZZZZZ 30.000000   NCZZ5ZZ2 30.000000
    Z2Z43ZZ2 ACZ43ZZ2 30.000000   CCZ43ZZ2 1.000000
    Z2Z43ZZ2 NCZZ4ZZ3 -30.000000
    Z3Z43ZZ2 OBJZZZZZ 40.000000   NCZZ5ZZ2 40.000000
    Z3Z43ZZ2 ACZ43ZZ2 40.000000   CCZ43ZZ2 1.000000
    Z3Z43ZZ2 NCZZ5ZZ3 -7.000000   ACZ43ZZ3 -7.000000
    Z3Z43ZZ2 NCZZ4ZZ3 -33.000000
    Z4Z43ZZ2 OBJZZZZZ 1.000000   NCZZ5ZZ2 1.000000
    Z4Z43ZZ2 ACZ43ZZ2 1.000000   NCZZ5ZZ3 -1.000000
    Z4Z43ZZ2 ACZ43ZZ3 -1.000000
    Z1Z44ZZ2 CCZ44ZZ2 1.000000
    Z2Z44ZZ2 OBJZZZZZ 30.000000   NCZZ4ZZ2 30.000000
    Z2Z44ZZ2 ACZ44ZZ2 30.000000   CCZ44ZZ2 1.000000
    Z2Z44ZZ2 NCZZ5ZZ3 -30.000000
    Z3Z44ZZ2 OBJZZZZZ 40.000000   NCZZ4ZZ2 40.000000
    Z3Z44ZZ2 ACZ44ZZ2 40.000000   CCZ44ZZ2 1.000000
    Z3Z44ZZ2 NCZZ4ZZ3 -7.000000   ACZ44ZZ3 -7.000000
    Z3Z44ZZ2 NCZZ5ZZ3 -33.000000
    Z4Z44ZZ2 OBJZZZZZ 1.000000   NCZZ4ZZ2 1.000000
    Z4Z44ZZ2 ACZ44ZZ2 1.000000   NCZZ4ZZ3 -1.000000
    Z4Z44ZZ2 ACZ44ZZ3 -1.000000
    Z1Z45ZZ2 CCZ45ZZ2 1.000000
    Z2Z45ZZ2 OBJZZZZZ 50.000000   NCZZ4ZZ2 50.000000
    Z2Z45ZZ2 ACZ45ZZ2 50.000000   CCZ45ZZ2 1.000000
    Z3Z45ZZ2 OBJZZZZZ 80.000000   NCZZ4ZZ2 80.000000
    Z3Z45ZZ2 ACZ45ZZ2 80.000000   CCZ45ZZ2 1.000000
    Z3Z45ZZ2 NCZZ4ZZ3 -15.000000   ACZ45ZZ3 -15.000000
    Z4Z45ZZ2 OBJZZZZZ 1.000000   NCZZ4ZZ2 1.000000
    Z4Z45ZZ2 ACZ45ZZ2 1.000000   NCZZ4ZZ3 -1.000000
    Z4Z45ZZ2 ACZ45ZZ3 -1.000000
    Z1Z46ZZ2 CCZ46ZZ2 1.000000
    Z2Z46ZZ2 OBJZZZZZ 50.000000   NCZ10ZZ2 50.000000
    Z2Z46ZZ2 ACZ46ZZ2 50.000000   CCZ46ZZ2 1.000000
    Z3Z46ZZ2 OBJZZZZZ 80.000000   NCZ10ZZ2 80.000000
    Z3Z46ZZ2 ACZ46ZZ2 80.000000   CCZ46ZZ2 1.000000
    Z3Z46ZZ2 NCZ10ZZ3 -15.000000   ACZ46ZZ3 -15.000000
    Z4Z46ZZ2 OBJZZZZZ 1.000000   NCZ10ZZ2 1.000000
    Z4Z46ZZ2 ACZ46ZZ2 1.000000   NCZ10ZZ3 -1.000000
    Z4Z46ZZ2 ACZ46ZZ3 -1.000000
    Z1Z47ZZ2 CCZ47ZZ2 1.000000
    Z2Z47ZZ2 OBJZZZZZ 50.000000   NCZ12ZZ2 50.000000
    Z2Z47ZZ2 ACZ47ZZ2 50.000000   CCZ47ZZ2 1.000000
    Z3Z47ZZ2 OBJZZZZZ 80.000000   NCZ12ZZ2 80.000000
    Z3Z47ZZ2 ACZ47ZZ2 80.000000   CCZ47ZZ2 1.000000
    Z3Z47ZZ2 NCZ12ZZ3 -15.000000   ACZ47ZZ3 -15.000000
    Z4Z47ZZ2 OBJZZZZZ 1.000000   NCZ12ZZ2 1.000000
    Z4Z47ZZ2 ACZ47ZZ2 1.000000   NCZ12ZZ3 -1.000000
    Z4Z47ZZ2 ACZ47ZZ3 -1.000000
    Z1ZZ1ZZ3 CCZZ1ZZ3 1.000000
    Z2ZZ1ZZ3 OBJZZZZZ 10.000000   NCZZ3ZZ3 10.000000
    Z2ZZ1ZZ3 ACZZ1ZZ3 10.000000   CCZZ1ZZ3 1.000000
    Z2ZZ1ZZ3 NCZZ1ZZ4 -10.000000
    Z3ZZ1ZZ3 OBJZZZZZ 20.000000   NCZZ3ZZ3 20.000000
    Z3ZZ1ZZ3 ACZZ1ZZ3 20.000000   CCZZ1ZZ3 1.000000
    Z3ZZ1ZZ3 NCZZ3ZZ4 -5.000000   ACZZ1ZZ4 -5.000000
    Z3ZZ1ZZ3 NCZZ1ZZ4 -15.000000
    Z4ZZ1ZZ3 OBJZZZZZ 1.000000   NCZZ3ZZ3 1.000000
    Z4ZZ1ZZ3 ACZZ1ZZ3 1.000000   NCZZ3ZZ4 -1.000000
    Z4ZZ1ZZ3 ACZZ1ZZ4 -1.000000
    Z1ZZ2ZZ3 CCZZ2ZZ3 1.000000
    Z2ZZ2ZZ3 OBJZZZZZ 10.000000   NCZZ1ZZ3 10.000000
    Z2ZZ2ZZ3 ACZZ2ZZ3 10.000000   CCZZ2ZZ3 1.000000
    Z2ZZ2ZZ3 NCZZ3ZZ4 -10.000000
    Z3ZZ2ZZ3 OBJZZZZZ 20.000000   NCZZ1ZZ3 20.000000
    Z3ZZ2ZZ3 ACZZ2ZZ3 20.000000   CCZZ2ZZ3 1.000000
    Z3ZZ2ZZ3 NCZZ1ZZ4 -5.000000   ACZZ2ZZ4 -5.000000
    Z3ZZ2ZZ3 NCZZ3ZZ4 -15.000000
    Z4ZZ2ZZ3 OBJZZZZZ 1.000000   NCZZ1ZZ3 1.000000
    Z4ZZ2ZZ3 ACZZ2ZZ3 1.000000   NCZZ1ZZ4 -1.000000
    Z4ZZ2ZZ3 ACZZ2ZZ4 -1.000000
    Z1ZZ3ZZ3 CCZZ3ZZ3 1.000000
    Z2ZZ3ZZ3 OBJZZZZZ 10.000000   NCZZ9ZZ3 10.000000
    Z2ZZ3ZZ3 ACZZ3ZZ3 10.000000   CCZZ3ZZ3 1.000000
    Z2ZZ3ZZ3 NCZZ3ZZ4 -10.000000
    Z3ZZ3ZZ3 OBJZZZZZ 20.000000   NCZZ9ZZ3 20.000000
    Z3ZZ3ZZ3 ACZZ3ZZ3 20.000000   CCZZ3ZZ3 1.000000
    Z3ZZ3ZZ3 NCZZ9ZZ4 -5.000000   ACZZ3ZZ4 -5.000000
    Z3ZZ3ZZ3 NCZZ3ZZ4 -15.000000
    Z4ZZ3ZZ3 OBJZZZZZ 1.000000   NCZZ9ZZ3 1.000000
    Z4ZZ3ZZ3 ACZZ3ZZ3 1.000000   NCZZ9ZZ4 -1.000000
    Z4ZZ3ZZ3 ACZZ3ZZ4 -1.000000
    Z1ZZ4ZZ3 CCZZ4ZZ3 1.000000
    Z2ZZ4ZZ3 OBJZZZZZ 10.000000   NCZZ3ZZ3 10.000000
    Z2ZZ4ZZ3 ACZZ4ZZ3 10.000000   CCZZ4ZZ3 1.000000
    Z2ZZ4ZZ3 NCZZ9ZZ4 -10.000000
    Z3ZZ4ZZ3 OBJZZZZZ 20.000000   NCZZ3ZZ3 20.000000
    Z3ZZ4ZZ3 ACZZ4ZZ3 20.000000   CCZZ4ZZ3 1.000000
    Z3ZZ4ZZ3 NCZZ3ZZ4 -5.000000   ACZZ4ZZ4 -5.000000
    Z3ZZ4ZZ3 NCZZ9ZZ4 -15.000000
    Z4ZZ4ZZ3 OBJZZZZZ 1.000000   NCZZ3ZZ3 1.000000
    Z4ZZ4ZZ3 ACZZ4ZZ3 1.000000   NCZZ3ZZ4 -1.000000
    Z4ZZ4ZZ3 ACZZ4ZZ4 -1.000000
    Z1ZZ5ZZ3 CCZZ5ZZ3 1.000000
    Z2ZZ5ZZ3 OBJZZZZZ 10.000000   NCZZ9ZZ3 10.000000
    Z2ZZ5ZZ3 ACZZ5ZZ3 10.000000   CCZZ5ZZ3 1.000000
    Z2ZZ5ZZ3 NCZ14ZZ4 -10.000000
    Z3ZZ5ZZ3 OBJZZZZZ 20.000000   NCZZ9ZZ3 20.000000
    Z3ZZ5ZZ3 ACZZ5ZZ3 20.000000   CCZZ5ZZ3 1.000000
    Z3ZZ5ZZ3 NCZZ9ZZ4 -5.000000   ACZZ5ZZ4 -5.000000
    Z3ZZ5ZZ3 NCZ14ZZ4 -15.000000
    Z4ZZ5ZZ3 OBJZZZZZ 1.000000   NCZZ9ZZ3 1.000000
    Z4ZZ5ZZ3 ACZZ5ZZ3 1.000000   NCZZ9ZZ4 -1.000000
    Z4ZZ5ZZ3 ACZZ5ZZ4 -1.000000
    Z1ZZ6ZZ3 CCZZ6ZZ3 1.000000
    Z2ZZ6ZZ3 OBJZZZZZ 10.000000   NCZ14ZZ3 10.000000
    Z2ZZ6ZZ3 ACZZ6ZZ3 10.000000   CCZZ6ZZ3 1.000000
    Z2ZZ6ZZ3 NCZZ9ZZ4 -10.000000
    Z3ZZ6ZZ3 OBJZZZZZ 20.000000   NCZ14ZZ3 20.000000
    Z3ZZ6ZZ3 ACZZ6ZZ3 20.000000   CCZZ6ZZ3 1.000000
    Z3ZZ6ZZ3 NCZ14ZZ4 -5.000000   ACZZ6ZZ4 -5.000000
    Z3ZZ6ZZ3 NCZZ9ZZ4 -15.000000
    Z4ZZ6ZZ3 OBJZZZZZ 1.000000   NCZ14ZZ3 1.000000
    Z4ZZ6ZZ3 ACZZ6ZZ3 1.000000   NCZ14ZZ4 -1.000000
    Z4ZZ6ZZ3 ACZZ6ZZ4 -1.000000
    Z1ZZ7ZZ3 CCZZ7ZZ3 1.000000
    Z2ZZ7ZZ3 OBJZZZZZ 10.000000   NCZ15ZZ3 10.000000
    Z2ZZ7ZZ3 ACZZ7ZZ3 10.000000   CCZZ7ZZ3 1.000000
    Z2ZZ7ZZ3 NCZ14ZZ4 -10.000000
    Z3ZZ7ZZ3 OBJZZZZZ 20.000000   NCZ15ZZ3 20.000000
    Z3ZZ7ZZ3 ACZZ7ZZ3 20.000000   CCZZ7ZZ3 1.000000
    Z3ZZ7ZZ3 NCZ15ZZ4 -5.000000   ACZZ7ZZ4 -5.000000
    Z3ZZ7ZZ3 NCZ14ZZ4 -15.000000
    Z4ZZ7ZZ3 OBJZZZZZ 1.000000   NCZ15ZZ3 1.000000
    Z4ZZ7ZZ3 ACZZ7ZZ3 1.000000   NCZ15ZZ4 -1.000000
    Z4ZZ7ZZ3 ACZZ7ZZ4 -1.000000
    Z1ZZ8ZZ3 CCZZ8ZZ3 1.000000
    Z2ZZ8ZZ3 OBJZZZZZ 10.000000   NCZ14ZZ3 10.000000
    Z2ZZ8ZZ3 ACZZ8ZZ3 10.000000   CCZZ8ZZ3 1.000000
    Z2ZZ8ZZ3 NCZ15ZZ4 -10.000000
    Z3ZZ8ZZ3 OBJZZZZZ 20.000000   NCZ14ZZ3 20.000000
    Z3ZZ8ZZ3 ACZZ8ZZ3 20.000000   CCZZ8ZZ3 1.000000
    Z3ZZ8ZZ3 NCZ14ZZ4 -5.000000   ACZZ8ZZ4 -5.000000
    Z3ZZ8ZZ3 NCZ15ZZ4 -15.000000
    Z4ZZ8ZZ3 OBJZZZZZ 1.000000   NCZ14ZZ3 1.000000
    Z4ZZ8ZZ3 ACZZ8ZZ3 1.000000   NCZ14ZZ4 -1.000000
    Z4ZZ8ZZ3 ACZZ8ZZ4 -1.000000
    Z1ZZ9ZZ3 CCZZ9ZZ3 1.000000
    Z2ZZ9ZZ3 OBJZZZZZ 10.000000   NCZ15ZZ3 10.000000
    Z2ZZ9ZZ3 ACZZ9ZZ3 10.000000   CCZZ9ZZ3 1.000000
    Z2ZZ9ZZ3 NCZ13ZZ4 -10.000000
    Z3ZZ9ZZ3 OBJZZZZZ 20.000000   NCZ15ZZ3 20.000000
    Z3ZZ9ZZ3 ACZZ9ZZ3 20.000000   CCZZ9ZZ3 1.000000
    Z3ZZ9ZZ3 NCZ15ZZ4 -5.000000   ACZZ9ZZ4 -5.000000
    Z3ZZ9ZZ3 NCZ13ZZ4 -15.000000
    Z4ZZ9ZZ3 OBJZZZZZ 1.000000   NCZ15ZZ3 1.000000
    Z4ZZ9ZZ3 ACZZ9ZZ3 1.000000   NCZ15ZZ4 -1.000000
    Z4ZZ9ZZ3 ACZZ9ZZ4 -1.000000
    Z1Z10ZZ3 CCZ10ZZ3 1.000000
    Z2Z10ZZ3 OBJZZZZZ 10.000000   NCZ13ZZ3 10.000000
    Z2Z10ZZ3 ACZ10ZZ3 10.000000   CCZ10ZZ3 1.000000
    Z2Z10ZZ3 NCZ15ZZ4 -10.000000
    Z3Z10ZZ3 OBJZZZZZ 20.000000   NCZ13ZZ3 20.000000
    Z3Z10ZZ3 ACZ10ZZ3 20.000000   CCZ10ZZ3 1.000000
    Z3Z10ZZ3 NCZ13ZZ4 -5.000000   ACZ10ZZ4 -5.000000
    Z3Z10ZZ3 NCZ15ZZ4 -15.000000
    Z4Z10ZZ3 OBJZZZZZ 1.000000   NCZ13ZZ3 1.000000
    Z4Z10ZZ3 ACZ10ZZ3 1.000000   NCZ13ZZ4 -1.000000
    Z4Z10ZZ3 ACZ10ZZ4 -1.000000
    Z1Z11ZZ3 CCZ11ZZ3 1.000000
    Z2Z11ZZ3 OBJZZZZZ 10.000000   NCZ13ZZ3 10.000000
    Z2Z11ZZ3 ACZ11ZZ3 10.000000   CCZ11ZZ3 1.000000
    Z2Z11ZZ3 NCZZ6ZZ4 -10.000000
    Z3Z11ZZ3 OBJZZZZZ 20.000000   NCZ13ZZ3 20.000000
    Z3Z11ZZ3 ACZ11ZZ3 20.000000   CCZ11ZZ3 1.000000
    Z3Z11ZZ3 NCZ13ZZ4 -5.000000   ACZ11ZZ4 -5.000000
    Z3Z11ZZ3 NCZZ6ZZ4 -15.000000
    Z4Z11ZZ3 OBJZZZZZ 1.000000   NCZ13ZZ3 1.000000
    Z4Z11ZZ3 ACZ11ZZ3 1.000000   NCZ13ZZ4 -1.000000
    Z4Z11ZZ3 ACZ11ZZ4 -1.000000
    Z1Z12ZZ3 CCZ12ZZ3 1.000000
    Z2Z12ZZ3 OBJZZZZZ 10.000000   NCZZ6ZZ3 10.000000
    Z2Z12ZZ3 ACZ12ZZ3 10.000000   CCZ12ZZ3 1.000000
    Z2Z12ZZ3 NCZ13ZZ4 -10.000000
    Z3Z12ZZ3 OBJZZZZZ 20.000000   NCZZ6ZZ3 20.000000
    Z3Z12ZZ3 ACZ12ZZ3 20.000000   CCZ12ZZ3 1.000000
    Z3Z12ZZ3 NCZZ6ZZ4 -5.000000   ACZ12ZZ4 -5.000000
    Z3Z12ZZ3 NCZ13ZZ4 -15.000000
    Z4Z12ZZ3 OBJZZZZZ 1.000000   NCZZ6ZZ3 1.000000
    Z4Z12ZZ3 ACZ12ZZ3 1.000000   NCZZ6ZZ4 -1.000000
    Z4Z12ZZ3 ACZ12ZZ4 -1.000000
    Z1Z13ZZ3 CCZ13ZZ3 1.000000
    Z2Z13ZZ3 OBJZZZZZ 10.000000   NCZZ6ZZ3 10.000000
    Z2Z13ZZ3 ACZ13ZZ3 10.000000   CCZ13ZZ3 1.000000
    Z2Z13ZZ3 NCZZ2ZZ4 -10.000000
    Z3Z13ZZ3 OBJZZZZZ 20.000000   NCZZ6ZZ3 20.000000
    Z3Z13ZZ3 ACZ13ZZ3 20.000000   CCZ13ZZ3 1.000000
    Z3Z13ZZ3 NCZZ6ZZ4 -5.000000   ACZ13ZZ4 -5.000000
    Z3Z13ZZ3 NCZZ2ZZ4 -15.000000
    Z4Z13ZZ3 OBJZZZZZ 1.000000   NCZZ6ZZ3 1.000000
    Z4Z13ZZ3 ACZ13ZZ3 1.000000   NCZZ6ZZ4 -1.000000
    Z4Z13ZZ3 ACZ13ZZ4 -1.000000
    Z1Z14ZZ3 CCZ14ZZ3 1.000000
    Z2Z14ZZ3 OBJZZZZZ 10.000000   NCZZ2ZZ3 10.000000
    Z2Z14ZZ3 ACZ14ZZ3 10.000000   CCZ14ZZ3 1.000000
    Z2Z14ZZ3 NCZZ6ZZ4 -10.000000
    Z3Z14ZZ3 OBJZZZZZ 20.000000   NCZZ2ZZ3 20.000000
    Z3Z14ZZ3 ACZ14ZZ3 20.000000   CCZ14ZZ3 1.000000
    Z3Z14ZZ3 NCZZ2ZZ4 -5.000000   ACZ14ZZ4 -5.000000
    Z3Z14ZZ3 NCZZ6ZZ4 -15.000000
    Z4Z14ZZ3 OBJZZZZZ 1.000000   NCZZ2ZZ3 1.000000
    Z4Z14ZZ3 ACZ14ZZ3 1.000000   NCZZ2ZZ4 -1.000000
    Z4Z14ZZ3 ACZ14ZZ4 -1.000000
    Z1Z15ZZ3 CCZ15ZZ3 1.000000
    Z2Z15ZZ3 OBJZZZZZ 10.000000   NCZZ2ZZ3 10.000000
    Z2Z15ZZ3 ACZ15ZZ3 10.000000   CCZ15ZZ3 1.000000
    Z2Z15ZZ3 NCZZ1ZZ4 -10.000000
    Z3Z15ZZ3 OBJZZZZZ 20.000000   NCZZ2ZZ3 20.000000
    Z3Z15ZZ3 ACZ15ZZ3 20.000000   CCZ15ZZ3 1.000000
    Z3Z15ZZ3 NCZZ2ZZ4 -5.000000   ACZ15ZZ4 -5.000000
    Z3Z15ZZ3 NCZZ1ZZ4 -15.000000
    Z4Z15ZZ3 OBJZZZZZ 1.000000   NCZZ2ZZ3 1.000000
    Z4Z15ZZ3 ACZ15ZZ3 1.000000   NCZZ2ZZ4 -1.000000
    Z4Z15ZZ3 ACZ15ZZ4 -1.000000
    Z1Z16ZZ3 CCZ16ZZ3 1.000000
    Z2Z16ZZ3 OBJZZZZZ 10.000000   NCZZ1ZZ3 10.000000
    Z2Z16ZZ3 ACZ16ZZ3 10.000000   CCZ16ZZ3 1.000000
    Z2Z16ZZ3 NCZZ2ZZ4 -10.000000
    Z3Z16ZZ3 OBJZZZZZ 20.000000   NCZZ1ZZ3 20.000000
    Z3Z16ZZ3 ACZ16ZZ3 20.000000   CCZ16ZZ3 1.000000
    Z3Z16ZZ3 NCZZ1ZZ4 -5.000000   ACZ16ZZ4 -5.000000
    Z3Z16ZZ3 NCZZ2ZZ4 -15.000000
    Z4Z16ZZ3 OBJZZZZZ 1.000000   NCZZ1ZZ3 1.000000
    Z4Z16ZZ3 ACZ16ZZ3 1.000000   NCZZ1ZZ4 -1.000000
    Z4Z16ZZ3 ACZ16ZZ4 -1.000000
    Z1Z17ZZ3 CCZ17ZZ3 1.000000
    Z2Z17ZZ3 OBJZZZZZ 15.000000   NCZZ3ZZ3 15.000000
    Z2Z17ZZ3 ACZ17ZZ3 15.000000   CCZ17ZZ3 1.000000
    Z2Z17ZZ3 NCZZ7ZZ4 -15.000000
    Z3Z17ZZ3 OBJZZZZZ 25.000000   NCZZ3ZZ3 25.000000
    Z3Z17ZZ3 ACZ17ZZ3 25.000000   CCZ17ZZ3 1.000000
    Z3Z17ZZ3 NCZZ3ZZ4 -7.000000   ACZ17ZZ4 -7.000000
    Z3Z17ZZ3 NCZZ7ZZ4 -18.000000
    Z4Z17ZZ3 OBJZZZZZ 1.000000   NCZZ3ZZ3 1.000000
    Z4Z17ZZ3 ACZ17ZZ3 1.000000   NCZZ3ZZ4 -1.000000
    Z4Z17ZZ3 ACZ17ZZ4 -1.000000
    Z1Z18ZZ3 CCZ18ZZ3 1.000000
    Z2Z18ZZ3 OBJZZZZZ 15.000000   NCZZ9ZZ3 15.000000
    Z2Z18ZZ3 ACZ18ZZ3 15.000000   CCZ18ZZ3 1.000000
    Z2Z18ZZ3 NCZZ7ZZ4 -15.000000
    Z3Z18ZZ3 OBJZZZZZ 25.000000   NCZZ9ZZ3 25.000000
    Z3Z18ZZ3 ACZ18ZZ3 25.000000   CCZ18ZZ3 1.000000
    Z3Z18ZZ3 NCZZ9ZZ4 -7.000000   ACZ18ZZ4 -7.000000
    Z3Z18ZZ3 NCZZ7ZZ4 -18.000000
    Z4Z18ZZ3 OBJZZZZZ 1.000000   NCZZ9ZZ3 1.000000
    Z4Z18ZZ3 ACZ18ZZ3 1.000000   NCZZ9ZZ4 -1.000000
    Z4Z18ZZ3 ACZ18ZZ4 -1.000000
    Z1Z19ZZ3 CCZ19ZZ3 1.000000
    Z2Z19ZZ3 OBJZZZZZ 15.000000   NCZZ9ZZ3 15.000000
    Z2Z19ZZ3 ACZ19ZZ3 15.000000   CCZ19ZZ3 1.000000
    Z2Z19ZZ3 NCZ10ZZ4 -15.000000
    Z3Z19ZZ3 OBJZZZZZ 25.000000   NCZZ9ZZ3 25.000000
    Z3Z19ZZ3 ACZ19ZZ3 25.000000   CCZ19ZZ3 1.000000
    Z3Z19ZZ3 NCZZ9ZZ4 -7.000000   ACZ19ZZ4 -7.000000
    Z3Z19ZZ3 NCZ10ZZ4 -18.000000
    Z4Z19ZZ3 OBJZZZZZ 1.000000   NCZZ9ZZ3 1.000000
    Z4Z19ZZ3 ACZ19ZZ3 1.000000   NCZZ9ZZ4 -1.000000
    Z4Z19ZZ3 ACZ19ZZ4 -1.000000
    Z1Z20ZZ3 CCZ20ZZ3 1.000000
    Z2Z20ZZ3 OBJZZZZZ 15.000000   NCZ14ZZ3 15.000000
    Z2Z20ZZ3 ACZ20ZZ3 15.000000   CCZ20ZZ3 1.000000
    Z2Z20ZZ3 NCZ10ZZ4 -15.000000
    Z3Z20ZZ3 OBJZZZZZ 25.000000   NCZ14ZZ3 25.000000
    Z3Z20ZZ3 ACZ20ZZ3 25.000000   CCZ20ZZ3 1.000000
    Z3Z20ZZ3 NCZ14ZZ4 -7.000000   ACZ20ZZ4 -7.000000
    Z3Z20ZZ3 NCZ10ZZ4 -18.000000
    Z4Z20ZZ3 OBJZZZZZ 1.000000   NCZ14ZZ3 1.000000
    Z4Z20ZZ3 ACZ20ZZ3 1.000000   NCZ14ZZ4 -1.000000
    Z4Z20ZZ3 ACZ20ZZ4 -1.000000
    Z1Z21ZZ3 CCZ21ZZ3 1.000000
    Z2Z21ZZ3 OBJZZZZZ 15.000000   NCZ14ZZ3 15.000000
    Z2Z21ZZ3 ACZ21ZZ3 15.000000   CCZ21ZZ3 1.000000
    Z2Z21ZZ3 NCZ11ZZ4 -15.000000
    Z3Z21ZZ3 OBJZZZZZ 25.000000   NCZ14ZZ3 25.000000
    Z3Z21ZZ3 ACZ21ZZ3 25.000000   CCZ21ZZ3 1.000000
    Z3Z21ZZ3 NCZ14ZZ4 -7.000000   ACZ21ZZ4 -7.000000
    Z3Z21ZZ3 NCZ11ZZ4 -18.000000
    Z4Z21ZZ3 OBJZZZZZ 1.000000   NCZ14ZZ3 1.000000
    Z4Z21ZZ3 ACZ21ZZ3 1.000000   NCZ14ZZ4 -1.000000
    Z4Z21ZZ3 ACZ21ZZ4 -1.000000
    Z1Z22ZZ3 CCZ22ZZ3 1.000000
    Z2Z22ZZ3 OBJZZZZZ 15.000000   NCZ15ZZ3 15.000000
    Z2Z22ZZ3 ACZ22ZZ3 15.000000   CCZ22ZZ3 1.000000
    Z2Z22ZZ3 NCZ11ZZ4 -15.000000
    Z3Z22ZZ3 OBJZZZZZ 25.000000   NCZ15ZZ3 25.000000
    Z3Z22ZZ3 ACZ22ZZ3 25.000000   CCZ22ZZ3 1.000000
    Z3Z22ZZ3 NCZ15ZZ4 -7.000000   ACZ22ZZ4 -7.000000
    Z3Z22ZZ3 NCZ11ZZ4 -18.000000
    Z4Z22ZZ3 OBJZZZZZ 1.000000   NCZ15ZZ3 1.000000
    Z4Z22ZZ3 ACZ22ZZ3 1.000000   NCZ15ZZ4 -1.000000
    Z4Z22ZZ3 ACZ22ZZ4 -1.000000
    Z1Z23ZZ3 CCZ23ZZ3 1.000000
    Z2Z23ZZ3 OBJZZZZZ 15.000000   NCZ15ZZ3 15.000000
    Z2Z23ZZ3 ACZ23ZZ3 15.000000   CCZ23ZZ3 1.000000
    Z2Z23ZZ3 NCZ12ZZ4 -15.000000
    Z3Z23ZZ3 OBJZZZZZ 25.000000   NCZ15ZZ3 25.000000
    Z3Z23ZZ3 ACZ23ZZ3 25.000000   CCZ23ZZ3 1.000000
    Z3Z23ZZ3 NCZ15ZZ4 -7.000000   ACZ23ZZ4 -7.000000
    Z3Z23ZZ3 NCZ12ZZ4 -18.000000
    Z4Z23ZZ3 OBJZZZZZ 1.000000   NCZ15ZZ3 1.000000
    Z4Z23ZZ3 ACZ23ZZ3 1.000000   NCZ15ZZ4 -1.000000
    Z4Z23ZZ3 ACZ23ZZ4 -1.000000
    Z1Z24ZZ3 CCZ24ZZ3 1.000000
    Z2Z24ZZ3 OBJZZZZZ 15.000000   NCZ13ZZ3 15.000000
    Z2Z24ZZ3 ACZ24ZZ3 15.000000   CCZ24ZZ3 1.000000
    Z2Z24ZZ3 NCZ12ZZ4 -15.000000
    Z3Z24ZZ3 OBJZZZZZ 25.000000   NCZ13ZZ3 25.000000
    Z3Z24ZZ3 ACZ24ZZ3 25.000000   CCZ24ZZ3 1.000000
    Z3Z24ZZ3 NCZ13ZZ4 -7.000000   ACZ24ZZ4 -7.000000
    Z3Z24ZZ3 NCZ12ZZ4 -18.000000
    Z4Z24ZZ3 OBJZZZZZ 1.000000   NCZ13ZZ3 1.000000
    Z4Z24ZZ3 ACZ24ZZ3 1.000000   NCZ13ZZ4 -1.000000
    Z4Z24ZZ3 ACZ24ZZ4 -1.000000
    Z1Z25ZZ3 CCZ25ZZ3 1.000000
    Z2Z25ZZ3 OBJZZZZZ 15.000000   NCZ13ZZ3 15.000000
    Z2Z25ZZ3 ACZ25ZZ3 15.000000   CCZ25ZZ3 1.000000
    Z2Z25ZZ3 NCZZ8ZZ4 -15.000000
    Z3Z25ZZ3 OBJZZZZZ 25.000000   NCZ13ZZ3 25.000000
    Z3Z25ZZ3 ACZ25ZZ3 25.000000   CCZ25ZZ3 1.000000
    Z3Z25ZZ3 NCZ13ZZ4 -7.000000   ACZ25ZZ4 -7.000000
    Z3Z25ZZ3 NCZZ8ZZ4 -18.000000
    Z4Z25ZZ3 OBJZZZZZ 1.000000   NCZ13ZZ3 1.000000
    Z4Z25ZZ3 ACZ25ZZ3 1.000000   NCZ13ZZ4 -1.000000
    Z4Z25ZZ3 ACZ25ZZ4 -1.000000
    Z1Z26ZZ3 CCZ26ZZ3 1.000000
    Z2Z26ZZ3 OBJZZZZZ 15.000000   NCZZ6ZZ3 15.000000
    Z2Z26ZZ3 ACZ26ZZ3 15.000000   CCZ26ZZ3 1.000000
    Z2Z26ZZ3 NCZZ8ZZ4 -15.000000
    Z3Z26ZZ3 OBJZZZZZ 25.000000   NCZZ6ZZ3 25.000000
    Z3Z26ZZ3 ACZ26ZZ3 25.000000   CCZ26ZZ3 1.000000
    Z3Z26ZZ3 NCZZ6ZZ4 -7.000000   ACZ26ZZ4 -7.000000
    Z3Z26ZZ3 NCZZ8ZZ4 -18.000000
    Z4Z26ZZ3 OBJZZZZZ 1.000000   NCZZ6ZZ3 1.000000
    Z4Z26ZZ3 ACZ26ZZ3 1.000000   NCZZ6ZZ4 -1.000000
    Z4Z26ZZ3 ACZ26ZZ4 -1.000000
    Z1Z27ZZ3 CCZ27ZZ3 1.000000
    Z2Z27ZZ3 OBJZZZZZ 15.000000   NCZZ6ZZ3 15.000000
    Z2Z27ZZ3 ACZ27ZZ3 15.000000   CCZ27ZZ3 1.000000
    Z2Z27ZZ3 NCZZ5ZZ4 -15.000000
    Z3Z27ZZ3 OBJZZZZZ 25.000000   NCZZ6ZZ3 25.000000
    Z3Z27ZZ3 ACZ27ZZ3 25.000000   CCZ27ZZ3 1.000000
    Z3Z27ZZ3 NCZZ6ZZ4 -7.000000   ACZ27ZZ4 -7.000000
    Z3Z27ZZ3 NCZZ5ZZ4 -18.000000
    Z4Z27ZZ3 OBJZZZZZ 1.000000   NCZZ6ZZ3 1.000000
    Z4Z27ZZ3 ACZ27ZZ3 1.000000   NCZZ6ZZ4 -1.000000
    Z4Z27ZZ3 ACZ27ZZ4 -1.000000
    Z1Z28ZZ3 CCZ28ZZ3 1.000000
    Z2Z28ZZ3 OBJZZZZZ 15.000000   NCZZ2ZZ3 15.000000
    Z2Z28ZZ3 ACZ28ZZ3 15.000000   CCZ28ZZ3 1.000000
    Z2Z28ZZ3 NCZZ5ZZ4 -15.000000
    Z3Z28ZZ3 OBJZZZZZ 25.000000   NCZZ2ZZ3 25.000000
    Z3Z28ZZ3 ACZ28ZZ3 25.000000   CCZ28ZZ3 1.000000
    Z3Z28ZZ3 NCZZ2ZZ4 -7.000000   ACZ28ZZ4 -7.000000
    Z3Z28ZZ3 NCZZ5ZZ4 -18.000000
    Z4Z28ZZ3 OBJZZZZZ 1.000000   NCZZ2ZZ3 1.000000
    Z4Z28ZZ3 ACZ28ZZ3 1.000000   NCZZ2ZZ4 -1.000000
    Z4Z28ZZ3 ACZ28ZZ4 -1.000000
    Z1Z29ZZ3 CCZ29ZZ3 1.000000
    Z2Z29ZZ3 OBJZZZZZ 15.000000   NCZZ2ZZ3 15.000000
    Z2Z29ZZ3 ACZ29ZZ3 15.000000   CCZ29ZZ3 1.000000
    Z2Z29ZZ3 NCZZ4ZZ4 -15.000000
    Z3Z29ZZ3 OBJZZZZZ 25.000000   NCZZ2ZZ3 25.000000
    Z3Z29ZZ3 ACZ29ZZ3 25.000000   CCZ29ZZ3 1.000000
    Z3Z29ZZ3 NCZZ2ZZ4 -7.000000   ACZ29ZZ4 -7.000000
    Z3Z29ZZ3 NCZZ4ZZ4 -18.000000
    Z4Z29ZZ3 OBJZZZZZ 1.000000   NCZZ2ZZ3 1.000000
    Z4Z29ZZ3 ACZ29ZZ3 1.000000   NCZZ2ZZ4 -1.000000
    Z4Z29ZZ3 ACZ29ZZ4 -1.000000
    Z1Z30ZZ3 CCZ30ZZ3 1.000000
    Z2Z30ZZ3 OBJZZZZZ 15.000000   NCZZ1ZZ3 15.000000
    Z2Z30ZZ3 ACZ30ZZ3 15.000000   CCZ30ZZ3 1.000000
    Z2Z30ZZ3 NCZZ4ZZ4 -15.000000
    Z3Z30ZZ3 OBJZZZZZ 25.000000   NCZZ1ZZ3 25.000000
    Z3Z30ZZ3 ACZ30ZZ3 25.000000   CCZ30ZZ3 1.000000
    Z3Z30ZZ3 NCZZ1ZZ4 -7.000000   ACZ30ZZ4 -7.000000
    Z3Z30ZZ3 NCZZ4ZZ4 -18.000000
    Z4Z30ZZ3 OBJZZZZZ 1.000000   NCZZ1ZZ3 1.000000
    Z4Z30ZZ3 ACZ30ZZ3 1.000000   NCZZ1ZZ4 -1.000000
    Z4Z30ZZ3 ACZ30ZZ4 -1.000000
    Z1Z31ZZ3 CCZ31ZZ3 1.000000
    Z2Z31ZZ3 OBJZZZZZ 30.000000   NCZZ7ZZ3 30.000000
    Z2Z31ZZ3 ACZ31ZZ3 30.000000   CCZ31ZZ3 1.000000
    Z2Z31ZZ3 NCZZ4ZZ4 -30.000000
    Z3Z31ZZ3 OBJZZZZZ 40.000000   NCZZ7ZZ3 40.000000
    Z3Z31ZZ3 ACZ31ZZ3 40.000000   CCZ31ZZ3 1.000000
    Z3Z31ZZ3 NCZZ7ZZ4 -7.000000   ACZ31ZZ4 -7.000000
    Z3Z31ZZ3 NCZZ4ZZ4 -33.000000
    Z4Z31ZZ3 OBJZZZZZ 1.000000   NCZZ7ZZ3 1.000000
    Z4Z31ZZ3 ACZ31ZZ3 1.000000   NCZZ7ZZ4 -1.000000
    Z4Z31ZZ3 ACZ31ZZ4 -1.000000
    Z1Z32ZZ3 CCZ32ZZ3 1.000000
    Z2Z32ZZ3 OBJZZZZZ 30.000000   NCZZ4ZZ3 30.000000
    Z2Z32ZZ3 ACZ32ZZ3 30.000000   CCZ32ZZ3 1.000000
    Z2Z32ZZ3 NCZZ7ZZ4 -30.000000
    Z3Z32ZZ3 OBJZZZZZ 40.000000   NCZZ4ZZ3 40.000000
    Z3Z32ZZ3 ACZ32ZZ3 40.000000   CCZ32ZZ3 1.000000
    Z3Z32ZZ3 NCZZ4ZZ4 -7.000000   ACZ32ZZ4 -7.000000
    Z3Z32ZZ3 NCZZ7ZZ4 -33.000000
    Z4Z32ZZ3 OBJZZZZZ 1.000000   NCZZ4ZZ3 1.000000
    Z4Z32ZZ3 ACZ32ZZ3 1.000000   NCZZ4ZZ4 -1.000000
    Z4Z32ZZ3 ACZ32ZZ4 -1.000000
    Z1Z33ZZ3 CCZ33ZZ3 1.000000
    Z2Z33ZZ3 OBJZZZZZ 30.000000   NCZZ7ZZ3 30.000000
    Z2Z33ZZ3 ACZ33ZZ3 30.000000   CCZ33ZZ3 1.000000
    Z2Z33ZZ3 NCZ10ZZ4 -30.000000
    Z3Z33ZZ3 OBJZZZZZ 40.000000   NCZZ7ZZ3 40.000000
    Z3Z33ZZ3 ACZ33ZZ3 40.000000   CCZ33ZZ3 1.000000
    Z3Z33ZZ3 NCZZ7ZZ4 -7.000000   ACZ33ZZ4 -7.000000
    Z3Z33ZZ3 NCZ10ZZ4 -33.000000
    Z4Z33ZZ3 OBJZZZZZ 1.000000   NCZZ7ZZ3 1.000000
    Z4Z33ZZ3 ACZ33ZZ3 1.000000   NCZZ7ZZ4 -1.000000
    Z4Z33ZZ3 ACZ33ZZ4 -1.000000
    Z1Z34ZZ3 CCZ34ZZ3 1.000000
    Z2Z34ZZ3 OBJZZZZZ 30.000000   NCZ10ZZ3 30.000000
    Z2Z34ZZ3 ACZ34ZZ3 30.000000   CCZ34ZZ3 1.000000
    Z2Z34ZZ3 NCZZ7ZZ4 -30.000000
    Z3Z34ZZ3 OBJZZZZZ 40.000000   NCZ10ZZ3 40.000000
    Z3Z34ZZ3 ACZ34ZZ3 40.000000   CCZ34ZZ3 1.000000
    Z3Z34ZZ3 NCZ10ZZ4 -7.000000   ACZ34ZZ4 -7.000000
    Z3Z34ZZ3 NCZZ7ZZ4 -33.000000
    Z4Z34ZZ3 OBJZZZZZ 1.000000   NCZ10ZZ3 1.000000
    Z4Z34ZZ3 ACZ34ZZ3 1.000000   NCZ10ZZ4 -1.000000
    Z4Z34ZZ3 ACZ34ZZ4 -1.000000
    Z1Z35ZZ3 CCZ35ZZ3 1.000000
    Z2Z35ZZ3 OBJZZZZZ 30.000000   NCZ10ZZ3 30.000000
    Z2Z35ZZ3 ACZ35ZZ3 30.000000   CCZ35ZZ3 1.000000
    Z2Z35ZZ3 NCZ11ZZ4 -30.000000
    Z3Z35ZZ3 OBJZZZZZ 40.000000   NCZ10ZZ3 40.000000
    Z3Z35ZZ3 ACZ35ZZ3 40.000000   CCZ35ZZ3 1.000000
    Z3Z35ZZ3 NCZ10ZZ4 -7.000000   ACZ35ZZ4 -7.000000
    Z3Z35ZZ3 NCZ11ZZ4 -33.000000
    Z4Z35ZZ3 OBJZZZZZ 1.000000   NCZ10ZZ3 1.000000
    Z4Z35ZZ3 ACZ35ZZ3 1.000000   NCZ10ZZ4 -1.000000
    Z4Z35ZZ3 ACZ35ZZ4 -1.000000
    Z1Z36ZZ3 CCZ36ZZ3 1.000000
    Z2Z36ZZ3 OBJZZZZZ 30.000000   NCZ11ZZ3 30.000000
    Z2Z36ZZ3 ACZ36ZZ3 30.000000   CCZ36ZZ3 1.000000
    Z2Z36ZZ3 NCZ10ZZ4 -30.000000
    Z3Z36ZZ3 OBJZZZZZ 40.000000   NCZ11ZZ3 40.000000
    Z3Z36ZZ3 ACZ36ZZ3 40.000000   CCZ36ZZ3 1.000000
    Z3Z36ZZ3 NCZ11ZZ4 -7.000000   ACZ36ZZ4 -7.000000
    Z3Z36ZZ3 NCZ10ZZ4 -33.000000
    Z4Z36ZZ3 OBJZZZZZ 1.000000   NCZ11ZZ3 1.000000
    Z4Z36ZZ3 ACZ36ZZ3 1.000000   NCZ11ZZ4 -1.000000
    Z4Z36ZZ3 ACZ36ZZ4 -1.000000
    Z1Z37ZZ3 CCZ37ZZ3 1.000000
    Z2Z37ZZ3 OBJZZZZZ 30.000000   NCZ11ZZ3 30.000000
    Z2Z37ZZ3 ACZ37ZZ3 30.000000   CCZ37ZZ3 1.000000
    Z2Z37ZZ3 NCZ12ZZ4 -30.000000
    Z3Z37ZZ3 OBJZZZZZ 40.000000   NCZ11ZZ3 40.000000
    Z3Z37ZZ3 ACZ37ZZ3 40.000000   CCZ37ZZ3 1.000000
    Z3Z37ZZ3 NCZ11ZZ4 -7.000000   ACZ37ZZ4 -7.000000
    Z3Z37ZZ3 NCZ12ZZ4 -33.000000
    Z4Z37ZZ3 OBJZZZZZ 1.000000   NCZ11ZZ3 1.000000
    Z4Z37ZZ3 ACZ37ZZ3 1.000000   NCZ11ZZ4 -1.000000
    Z4Z37ZZ3 ACZ37ZZ4 -1.000000
    Z1Z38ZZ3 CCZ38ZZ3 1.000000
    Z2Z38ZZ3 OBJZZZZZ 30.000000   NCZ12ZZ3 30.000000
    Z2Z38ZZ3 ACZ38ZZ3 30.000000   CCZ38ZZ3 1.000000
    Z2Z38ZZ3 NCZ11ZZ4 -30.000000
    Z3Z38ZZ3 OBJZZZZZ 40.000000   NCZ12ZZ3 40.000000
    Z3Z38ZZ3 ACZ38ZZ3 40.000000   CCZ38ZZ3 1.000000
    Z3Z38ZZ3 NCZ12ZZ4 -7.000000   ACZ38ZZ4 -7.000000
    Z3Z38ZZ3 NCZ11ZZ4 -33.000000
    Z4Z38ZZ3 OBJZZZZZ 1.000000   NCZ12ZZ3 1.000000
    Z4Z38ZZ3 ACZ38ZZ3 1.000000   NCZ12ZZ4 -1.000000
    Z4Z38ZZ3 ACZ38ZZ4 -1.000000
    Z1Z39ZZ3 CCZ39ZZ3 1.000000
    Z2Z39ZZ3 OBJZZZZZ 30.000000   NCZ12ZZ3 30.000000
    Z2Z39ZZ3 ACZ39ZZ3 30.000000   CCZ39ZZ3 1.000000
    Z2Z39ZZ3 NCZZ8ZZ4 -30.000000
    Z3Z39ZZ3 OBJZZZZZ 40.000000   NCZ12ZZ3 40.000000
    Z3Z39ZZ3 ACZ39ZZ3 40.000000   CCZ39ZZ3 1.000000
    Z3Z39ZZ3 NCZ12ZZ4 -7.000000   ACZ39ZZ4 -7.000000
    Z3Z39ZZ3 NCZZ8ZZ4 -33.000000
    Z4Z39ZZ3 OBJZZZZZ 1.000000   NCZ12ZZ3 1.000000
    Z4Z39ZZ3 ACZ39ZZ3 1.000000   NCZ12ZZ4 -1.000000
    Z4Z39ZZ3 ACZ39ZZ4 -1.000000
    Z1Z40ZZ3 CCZ40ZZ3 1.000000
    Z2Z40ZZ3 OBJZZZZZ 30.000000   NCZZ8ZZ3 30.000000
    Z2Z40ZZ3 ACZ40ZZ3 30.000000   CCZ40ZZ3 1.000000
    Z2Z40ZZ3 NCZ12ZZ4 -30.000000
    Z3Z40ZZ3 OBJZZZZZ 40.000000   NCZZ8ZZ3 40.000000
    Z3Z40ZZ3 ACZ40ZZ3 40.000000   CCZ40ZZ3 1.000000
    Z3Z40ZZ3 NCZZ8ZZ4 -7.000000   ACZ40ZZ4 -7.000000
    Z3Z40ZZ3 NCZ12ZZ4 -33.000000
    Z4Z40ZZ3 OBJZZZZZ 1.000000   NCZZ8ZZ3 1.000000
    Z4Z40ZZ3 ACZ40ZZ3 1.000000   NCZZ8ZZ4 -1.000000
    Z4Z40ZZ3 ACZ40ZZ4 -1.000000
    Z1Z41ZZ3 CCZ41ZZ3 1.000000
    Z2Z41ZZ3 OBJZZZZZ 30.000000   NCZZ5ZZ3 30.000000
    Z2Z41ZZ3 ACZ41ZZ3 30.000000   CCZ41ZZ3 1.000000
    Z2Z41ZZ3 NCZZ8ZZ4 -30.000000
    Z3Z41ZZ3 OBJZZZZZ 40.000000   NCZZ5ZZ3 40.000000
    Z3Z41ZZ3 ACZ41ZZ3 40.000000   CCZ41ZZ3 1.000000
    Z3Z41ZZ3 NCZZ5ZZ4 -7.000000   ACZ41ZZ4 -7.000000
    Z3Z41ZZ3 NCZZ8ZZ4 -33.000000
    Z4Z41ZZ3 OBJZZZZZ 1.000000   NCZZ5ZZ3 1.000000
    Z4Z41ZZ3 ACZ41ZZ3 1.000000   NCZZ5ZZ4 -1.000000
    Z4Z41ZZ3 ACZ41ZZ4 -1.000000
    Z1Z42ZZ3 CCZ42ZZ3 1.000000
    Z2Z42ZZ3 OBJZZZZZ 30.000000   NCZZ8ZZ3 30.000000
    Z2Z42ZZ3 ACZ42ZZ3 30.000000   CCZ42ZZ3 1.000000
    Z2Z42ZZ3 NCZZ5ZZ4 -30.000000
    Z3Z42ZZ3 OBJZZZZZ 40.000000   NCZZ8ZZ3 40.000000
    Z3Z42ZZ3 ACZ42ZZ3 40.000000   CCZ42ZZ3 1.000000
    Z3Z42ZZ3 NCZZ8ZZ4 -7.000000   ACZ42ZZ4 -7.000000
    Z3Z42ZZ3 NCZZ5ZZ4 -33.000000
    Z4Z42ZZ3 OBJZZZZZ 1.000000   NCZZ8ZZ3 1.000000
    Z4Z42ZZ3 ACZ42ZZ3 1.000000   NCZZ8ZZ4 -1.000000
    Z4Z42ZZ3 ACZ42ZZ4 -1.000000
    Z1Z43ZZ3 CCZ43ZZ3 1.000000
    Z2Z43ZZ3 OBJZZZZZ 30.000000   NCZZ5ZZ3 30.000000
    Z2Z43ZZ3 ACZ43ZZ3 30.000000   CCZ43ZZ3 1.000000
    Z2Z43ZZ3 NCZZ4ZZ4 -30.000000
    Z3Z43ZZ3 OBJZZZZZ 40.000000   NCZZ5ZZ3 40.000000
    Z3Z43ZZ3 ACZ43ZZ3 40.000000   CCZ43ZZ3 1.000000
    Z3Z43ZZ3 NCZZ5ZZ4 -7.000000   ACZ43ZZ4 -7.000000
    Z3Z43ZZ3 NCZZ4ZZ4 -33.000000
    Z4Z43ZZ3 OBJZZZZZ 1.000000   NCZZ5ZZ3 1.000000
    Z4Z43ZZ3 ACZ43ZZ3 1.000000   NCZZ5ZZ4 -1.000000
    Z4Z43ZZ3 ACZ43ZZ4 -1.000000
    Z1Z44ZZ3 CCZ44ZZ3 1.000000
    Z2Z44ZZ3 OBJZZZZZ 30.000000   NCZZ4ZZ3 30.000000
    Z2Z44ZZ3 ACZ44ZZ3 30.000000   CCZ44ZZ3 1.000000
    Z2Z44ZZ3 NCZZ5ZZ4 -30.000000
    Z3Z44ZZ3 OBJZZZZZ 40.000000   NCZZ4ZZ3 40.000000
    Z3Z44ZZ3 ACZ44ZZ3 40.000000   CCZ44ZZ3 1.000000
    Z3Z44ZZ3 NCZZ4ZZ4 -7.000000   ACZ44ZZ4 -7.000000
    Z3Z44ZZ3 NCZZ5ZZ4 -33.000000
    Z4Z44ZZ3 OBJZZZZZ 1.000000   NCZZ4ZZ3 1.000000
    Z4Z44ZZ3 ACZ44ZZ3 1.000000   NCZZ4ZZ4 -1.000000
    Z4Z44ZZ3 ACZ44ZZ4 -1.000000
    Z1Z45ZZ3 CCZ45ZZ3 1.000000
    Z2Z45ZZ3 OBJZZZZZ 50.000000   NCZZ4ZZ3 50.000000
    Z2Z45ZZ3 ACZ45ZZ3 50.000000   CCZ45ZZ3 1.000000
    Z3Z45ZZ3 OBJZZZZZ 80.000000   NCZZ4ZZ3 80.000000
    Z3Z45ZZ3 ACZ45ZZ3 80.000000   CCZ45ZZ3 1.000000
    Z3Z45ZZ3 NCZZ4ZZ4 -15.000000   ACZ45ZZ4 -15.000000
    Z4Z45ZZ3 OBJZZZZZ 1.000000   NCZZ4ZZ3 1.000000
    Z4Z45ZZ3 ACZ45ZZ3 1.000000   NCZZ4ZZ4 -1.000000
    Z4Z45ZZ3 ACZ45ZZ4 -1.000000
    Z1Z46ZZ3 CCZ46ZZ3 1.000000
    Z2Z46ZZ3 OBJZZZZZ 50.000000   NCZ10ZZ3 50.000000
    Z2Z46ZZ3 ACZ46ZZ3 50.000000   CCZ46ZZ3 1.000000
    Z3Z46ZZ3 OBJZZZZZ 80.000000   NCZ10ZZ3 80.000000
    Z3Z46ZZ3 ACZ46ZZ3 80.000000   CCZ46ZZ3 1.000000
    Z3Z46ZZ3 NCZ10ZZ4 -15.000000   ACZ46ZZ4 -15.000000
    Z4Z46ZZ3 OBJZZZZZ 1.000000   NCZ10ZZ3 1.000000
    Z4Z46ZZ3 ACZ46ZZ3 1.000000   NCZ10ZZ4 -1.000000
    Z4Z46ZZ3 ACZ46ZZ4 -1.000000
    Z1Z47ZZ3 CCZ47ZZ3 1.000000
    Z2Z47ZZ3 OBJZZZZZ 50.000000   NCZ12ZZ3 50.000000
    Z2Z47ZZ3 ACZ47ZZ3 50.000000   CCZ47ZZ3 1.000000
    Z3Z47ZZ3 OBJZZZZZ 80.000000   NCZ12ZZ3 80.000000
    Z3Z47ZZ3 ACZ47ZZ3 80.000000   CCZ47ZZ3 1.000000
    Z3Z47ZZ3 NCZ12ZZ4 -15.000000   ACZ47ZZ4 -15.000000
    Z4Z47ZZ3 OBJZZZZZ 1.000000   NCZ12ZZ3 1.000000
    Z4Z47ZZ3 ACZ47ZZ3 1.000000   NCZ12ZZ4 -1.000000
    Z4Z47ZZ3 ACZ47ZZ4 -1.000000
    Z1ZZ1ZZ4 CCZZ1ZZ4 1.000000
    Z2ZZ1ZZ4 OBJZZZZZ 10.000000   NCZZ3ZZ4 10.000000
    Z2ZZ1ZZ4 ACZZ1ZZ4 10.000000   CCZZ1ZZ4 1.000000
    Z2ZZ1ZZ4 NCZZ1ZZ5 -10.000000
    Z3ZZ1ZZ4 OBJZZZZZ 20.000000   NCZZ3ZZ4 20.000000
    Z3ZZ1ZZ4 ACZZ1ZZ4 20.000000   CCZZ1ZZ4 1.000000
    Z3ZZ1ZZ4 NCZZ3ZZ5 -5.000000   ACZZ1ZZ5 -5.000000
    Z3ZZ1ZZ4 NCZZ1ZZ5 -15.000000
    Z4ZZ1ZZ4 OBJZZZZZ 1.000000   NCZZ3ZZ4 1.000000
    Z4ZZ1ZZ4 ACZZ1ZZ4 1.000000   NCZZ3ZZ5 -1.000000
    Z4ZZ1ZZ4 ACZZ1ZZ5 -1.000000
    Z1ZZ2ZZ4 CCZZ2ZZ4 1.000000
    Z2ZZ2ZZ4 OBJZZZZZ 10.000000   NCZZ1ZZ4 10.000000
    Z2ZZ2ZZ4 ACZZ2ZZ4 10.000000   CCZZ2ZZ4 1.000000
    Z2ZZ2ZZ4 NCZZ3ZZ5 -10.000000
    Z3ZZ2ZZ4 OBJZZZZZ 20.000000   NCZZ1ZZ4 20.000000
    Z3ZZ2ZZ4 ACZZ2ZZ4 20.000000   CCZZ2ZZ4 1.000000
    Z3ZZ2ZZ4 NCZZ1ZZ5 -5.000000   ACZZ2ZZ5 -5.000000
    Z3ZZ2ZZ4 NCZZ3ZZ5 -15.000000
    Z4ZZ2ZZ4 OBJZZZZZ 1.000000   NCZZ1ZZ4 1.000000
    Z4ZZ2ZZ4 ACZZ2ZZ4 1.000000   NCZZ1ZZ5 -1.000000
    Z4ZZ2ZZ4 ACZZ2ZZ5 -1.000000
    Z1ZZ3ZZ4 CCZZ3ZZ4 1.000000
    Z2ZZ3ZZ4 OBJZZZZZ 10.000000   NCZZ9ZZ4 10.000000
    Z2ZZ3ZZ4 ACZZ3ZZ4 10.000000   CCZZ3ZZ4 1.000000
    Z2ZZ3ZZ4 NCZZ3ZZ5 -10.000000
    Z3ZZ3ZZ4 OBJZZZZZ 20.000000   NCZZ9ZZ4 20.000000
    Z3ZZ3ZZ4 ACZZ3ZZ4 20.000000   CCZZ3ZZ4 1.000000
    Z3ZZ3ZZ4 NCZZ9ZZ5 -5.000000   ACZZ3ZZ5 -5.000000
    Z3ZZ3ZZ4 NCZZ3ZZ5 -15.000000
    Z4ZZ3ZZ4 OBJZZZZZ 1.000000   NCZZ9ZZ4 1.000000
    Z4ZZ3ZZ4 ACZZ3ZZ4 1.000000   NCZZ9ZZ5 -1.000000
    Z4ZZ3ZZ4 ACZZ3ZZ5 -1.000000
    Z1ZZ4ZZ4 CCZZ4ZZ4 1.000000
    Z2ZZ4ZZ4 OBJZZZZZ 10.000000   NCZZ3ZZ4 10.000000
    Z2ZZ4ZZ4 ACZZ4ZZ4 10.000000   CCZZ4ZZ4 1.000000
    Z2ZZ4ZZ4 NCZZ9ZZ5 -10.000000
    Z3ZZ4ZZ4 OBJZZZZZ 20.000000   NCZZ3ZZ4 20.000000
    Z3ZZ4ZZ4 ACZZ4ZZ4 20.000000   CCZZ4ZZ4 1.000000
    Z3ZZ4ZZ4 NCZZ3ZZ5 -5.000000   ACZZ4ZZ5 -5.000000
    Z3ZZ4ZZ4 NCZZ9ZZ5 -15.000000
    Z4ZZ4ZZ4 OBJZZZZZ 1.000000   NCZZ3ZZ4 1.000000
    Z4ZZ4ZZ4 ACZZ4ZZ4 1.000000   NCZZ3ZZ5 -1.000000
    Z4ZZ4ZZ4 ACZZ4ZZ5 -1.000000
    Z1ZZ5ZZ4 CCZZ5ZZ4 1.000000
    Z2ZZ5ZZ4 OBJZZZZZ 10.000000   NCZZ9ZZ4 10.000000
    Z2ZZ5ZZ4 ACZZ5ZZ4 10.000000   CCZZ5ZZ4 1.000000
    Z2ZZ5ZZ4 NCZ14ZZ5 -10.000000
    Z3ZZ5ZZ4 OBJZZZZZ 20.000000   NCZZ9ZZ4 20.000000
    Z3ZZ5ZZ4 ACZZ5ZZ4 20.000000   CCZZ5ZZ4 1.000000
    Z3ZZ5ZZ4 NCZZ9ZZ5 -5.000000   ACZZ5ZZ5 -5.000000
    Z3ZZ5ZZ4 NCZ14ZZ5 -15.000000
    Z4ZZ5ZZ4 OBJZZZZZ 1.000000   NCZZ9ZZ4 1.000000
    Z4ZZ5ZZ4 ACZZ5ZZ4 1.000000   NCZZ9ZZ5 -1.000000
    Z4ZZ5ZZ4 ACZZ5ZZ5 -1.000000
    Z1ZZ6ZZ4 CCZZ6ZZ4 1.000000
    Z2ZZ6ZZ4 OBJZZZZZ 10.000000   NCZ14ZZ4 10.000000
    Z2ZZ6ZZ4 ACZZ6ZZ4 10.000000   CCZZ6ZZ4 1.000000
    Z2ZZ6ZZ4 NCZZ9ZZ5 -10.000000
    Z3ZZ6ZZ4 OBJZZZZZ 20.000000   NCZ14ZZ4 20.000000
    Z3ZZ6ZZ4 ACZZ6ZZ4 20.000000   CCZZ6ZZ4 1.000000
    Z3ZZ6ZZ4 NCZ14ZZ5 -5.000000   ACZZ6ZZ5 -5.000000
    Z3ZZ6ZZ4 NCZZ9ZZ5 -15.000000
    Z4ZZ6ZZ4 OBJZZZZZ 1.000000   NCZ14ZZ4 1.000000
    Z4ZZ6ZZ4 ACZZ6ZZ4 1.000000   NCZ14ZZ5 -1.000000
    Z4ZZ6ZZ4 ACZZ6ZZ5 -1.000000
    Z1ZZ7ZZ4 CCZZ7ZZ4 1.000000
    Z2ZZ7ZZ4 OBJZZZZZ 10.000000   NCZ15ZZ4 10.000000
    Z2ZZ7ZZ4 ACZZ7ZZ4 10.000000   CCZZ7ZZ4 1.000000
    Z2ZZ7ZZ4 NCZ14ZZ5 -10.000000
    Z3ZZ7ZZ4 OBJZZZZZ 20.000000   NCZ15ZZ4 20.000000
    Z3ZZ7ZZ4 ACZZ7ZZ4 20.000000   CCZZ7ZZ4 1.000000
    Z3ZZ7ZZ4 NCZ15ZZ5 -5.000000   ACZZ7ZZ5 -5.000000
    Z3ZZ7ZZ4 NCZ14ZZ5 -15.000000
    Z4ZZ7ZZ4 OBJZZZZZ 1.000000   NCZ15ZZ4 1.000000
    Z4ZZ7ZZ4 ACZZ7ZZ4 1.000000   NCZ15ZZ5 -1.000000
    Z4ZZ7ZZ4 ACZZ7ZZ5 -1.000000
    Z1ZZ8ZZ4 CCZZ8ZZ4 1.000000
    Z2ZZ8ZZ4 OBJZZZZZ 10.000000   NCZ14ZZ4 10.000000
    Z2ZZ8ZZ4 ACZZ8ZZ4 10.000000   CCZZ8ZZ4 1.000000
    Z2ZZ8ZZ4 NCZ15ZZ5 -10.000000
    Z3ZZ8ZZ4 OBJZZZZZ 20.000000   NCZ14ZZ4 20.000000
    Z3ZZ8ZZ4 ACZZ8ZZ4 20.000000   CCZZ8ZZ4 1.000000
    Z3ZZ8ZZ4 NCZ14ZZ5 -5.000000   ACZZ8ZZ5 -5.000000
    Z3ZZ8ZZ4 NCZ15ZZ5 -15.000000
    Z4ZZ8ZZ4 OBJZZZZZ 1.000000   NCZ14ZZ4 1.000000
    Z4ZZ8ZZ4 ACZZ8ZZ4 1.000000   NCZ14ZZ5 -1.000000
    Z4ZZ8ZZ4 ACZZ8ZZ5 -1.000000
    Z1ZZ9ZZ4 CCZZ9ZZ4 1.000000
    Z2ZZ9ZZ4 OBJZZZZZ 10.000000   NCZ15ZZ4 10.000000
    Z2ZZ9ZZ4 ACZZ9ZZ4 10.000000   CCZZ9ZZ4 1.000000
    Z2ZZ9ZZ4 NCZ13ZZ5 -10.000000
    Z3ZZ9ZZ4 OBJZZZZZ 20.000000   NCZ15ZZ4 20.000000
    Z3ZZ9ZZ4 ACZZ9ZZ4 20.000000   CCZZ9ZZ4 1.000000
    Z3ZZ9ZZ4 NCZ15ZZ5 -5.000000   ACZZ9ZZ5 -5.000000
    Z3ZZ9ZZ4 NCZ13ZZ5 -15.000000
    Z4ZZ9ZZ4 OBJZZZZZ 1.000000   NCZ15ZZ4 1.000000
    Z4ZZ9ZZ4 ACZZ9ZZ4 1.000000   NCZ15ZZ5 -1.000000
    Z4ZZ9ZZ4 ACZZ9ZZ5 -1.000000
    Z1Z10ZZ4 CCZ10ZZ4 1.000000
    Z2Z10ZZ4 OBJZZZZZ 10.000000   NCZ13ZZ4 10.000000
    Z2Z10ZZ4 ACZ10ZZ4 10.000000   CCZ10ZZ4 1.000000
    Z2Z10ZZ4 NCZ15ZZ5 -10.000000
    Z3Z10ZZ4 OBJZZZZZ 20.000000   NCZ13ZZ4 20.000000
    Z3Z10ZZ4 ACZ10ZZ4 20.000000   CCZ10ZZ4 1.000000
    Z3Z10ZZ4 NCZ13ZZ5 -5.000000   ACZ10ZZ5 -5.000000
    Z3Z10ZZ4 NCZ15ZZ5 -15.000000
    Z4Z10ZZ4 OBJZZZZZ 1.000000   NCZ13ZZ4 1.000000
    Z4Z10ZZ4 ACZ10ZZ4 1.000000   NCZ13ZZ5 -1.000000
    Z4Z10ZZ4 ACZ10ZZ5 -1.000000
    Z1Z11ZZ4 CCZ11ZZ4 1.000000
    Z2Z11ZZ4 OBJZZZZZ 10.000000   NCZ13ZZ4 10.000000
    Z2Z11ZZ4 ACZ11ZZ4 10.000000   CCZ11ZZ4 1.000000
    Z2Z11ZZ4 NCZZ6ZZ5 -10.000000
    Z3Z11ZZ4 OBJZZZZZ 20.000000   NCZ13ZZ4 20.000000
    Z3Z11ZZ4 ACZ11ZZ4 20.000000   CCZ11ZZ4 1.000000
    Z3Z11ZZ4 NCZ13ZZ5 -5.000000   ACZ11ZZ5 -5.000000
    Z3Z11ZZ4 NCZZ6ZZ5 -15.000000
    Z4Z11ZZ4 OBJZZZZZ 1.000000   NCZ13ZZ4 1.000000
    Z4Z11ZZ4 ACZ11ZZ4 1.000000   NCZ13ZZ5 -1.000000
    Z4Z11ZZ4 ACZ11ZZ5 -1.000000
    Z1Z12ZZ4 CCZ12ZZ4 1.000000
    Z2Z12ZZ4 OBJZZZZZ 10.000000   NCZZ6ZZ4 10.000000
    Z2Z12ZZ4 ACZ12ZZ4 10.000000   CCZ12ZZ4 1.000000
    Z2Z12ZZ4 NCZ13ZZ5 -10.000000
    Z3Z12ZZ4 OBJZZZZZ 20.000000   NCZZ6ZZ4 20.000000
    Z3Z12ZZ4 ACZ12ZZ4 20.000000   CCZ12ZZ4 1.000000
    Z3Z12ZZ4 NCZZ6ZZ5 -5.000000   ACZ12ZZ5 -5.000000
    Z3Z12ZZ4 NCZ13ZZ5 -15.000000
    Z4Z12ZZ4 OBJZZZZZ 1.000000   NCZZ6ZZ4 1.000000
    Z4Z12ZZ4 ACZ12ZZ4 1.000000   NCZZ6ZZ5 -1.000000
    Z4Z12ZZ4 ACZ12ZZ5 -1.000000
    Z1Z13ZZ4 CCZ13ZZ4 1.000000
    Z2Z13ZZ4 OBJZZZZZ 10.000000   NCZZ6ZZ4 10.000000
    Z2Z13ZZ4 ACZ13ZZ4 10.000000   CCZ13ZZ4 1.000000
    Z2Z13ZZ4 NCZZ2ZZ5 -10.000000
    Z3Z13ZZ4 OBJZZZZZ 20.000000   NCZZ6ZZ4 20.000000
    Z3Z13ZZ4 ACZ13ZZ4 20.000000   CCZ13ZZ4 1.000000
    Z3Z13ZZ4 NCZZ6ZZ5 -5.000000   ACZ13ZZ5 -5.000000
    Z3Z13ZZ4 NCZZ2ZZ5 -15.000000
    Z4Z13ZZ4 OBJZZZZZ 1.000000   NCZZ6ZZ4 1.000000
    Z4Z13ZZ4 ACZ13ZZ4 1.000000   NCZZ6ZZ5 -1.000000
    Z4Z13ZZ4 ACZ13ZZ5 -1.000000
    Z1Z14ZZ4 CCZ14ZZ4 1.000000
    Z2Z14ZZ4 OBJZZZZZ 10.000000   NCZZ2ZZ4 10.000000
    Z2Z14ZZ4 ACZ14ZZ4 10.000000   CCZ14ZZ4 1.000000
    Z2Z14ZZ4 NCZZ6ZZ5 -10.000000
    Z3Z14ZZ4 OBJZZZZZ 20.000000   NCZZ2ZZ4 20.000000
    Z3Z14ZZ4 ACZ14ZZ4 20.000000   CCZ14ZZ4 1.000000
    Z3Z14ZZ4 NCZZ2ZZ5 -5.000000   ACZ14ZZ5 -5.000000
    Z3Z14ZZ4 NCZZ6ZZ5 -15.000000
    Z4Z14ZZ4 OBJZZZZZ 1.000000   NCZZ2ZZ4 1.000000
    Z4Z14ZZ4 ACZ14ZZ4 1.000000   NCZZ2ZZ5 -1.000000
    Z4Z14ZZ4 ACZ14ZZ5 -1.000000
    Z1Z15ZZ4 CCZ15ZZ4 1.000000
    Z2Z15ZZ4 OBJZZZZZ 10.000000   NCZZ2ZZ4 10.000000
    Z2Z15ZZ4 ACZ15ZZ4 10.000000   CCZ15ZZ4 1.000000
    Z2Z15ZZ4 NCZZ1ZZ5 -10.000000
    Z3Z15ZZ4 OBJZZZZZ 20.000000   NCZZ2ZZ4 20.000000
    Z3Z15ZZ4 ACZ15ZZ4 20.000000   CCZ15ZZ4 1.000000
    Z3Z15ZZ4 NCZZ2ZZ5 -5.000000   ACZ15ZZ5 -5.000000
    Z3Z15ZZ4 NCZZ1ZZ5 -15.000000
    Z4Z15ZZ4 OBJZZZZZ 1.000000   NCZZ2ZZ4 1.000000
    Z4Z15ZZ4 ACZ15ZZ4 1.000000   NCZZ2ZZ5 -1.000000
    Z4Z15ZZ4 ACZ15ZZ5 -1.000000
    Z1Z16ZZ4 CCZ16ZZ4 1.000000
    Z2Z16ZZ4 OBJZZZZZ 10.000000   NCZZ1ZZ4 10.000000
    Z2Z16ZZ4 ACZ16ZZ4 10.000000   CCZ16ZZ4 1.000000
    Z2Z16ZZ4 NCZZ2ZZ5 -10.000000
    Z3Z16ZZ4 OBJZZZZZ 20.000000   NCZZ1ZZ4 20.000000
    Z3Z16ZZ4 ACZ16ZZ4 20.000000   CCZ16ZZ4 1.000000
    Z3Z16ZZ4 NCZZ1ZZ5 -5.000000   ACZ16ZZ5 -5.000000
    Z3Z16ZZ4 NCZZ2ZZ5 -15.000000
    Z4Z16ZZ4 OBJZZZZZ 1.000000   NCZZ1ZZ4 1.000000
    Z4Z16ZZ4 ACZ16ZZ4 1.000000   NCZZ1ZZ5 -1.000000
    Z4Z16ZZ4 ACZ16ZZ5 -1.000000
    Z1Z17ZZ4 CCZ17ZZ4 1.000000
    Z2Z17ZZ4 OBJZZZZZ 15.000000   NCZZ3ZZ4 15.000000
    Z2Z17ZZ4 ACZ17ZZ4 15.000000   CCZ17ZZ4 1.000000
    Z2Z17ZZ4 NCZZ7ZZ5 -15.000000
    Z3Z17ZZ4 OBJZZZZZ 25.000000   NCZZ3ZZ4 25.000000
    Z3Z17ZZ4 ACZ17ZZ4 25.000000   CCZ17ZZ4 1.000000
    Z3Z17ZZ4 NCZZ3ZZ5 -7.000000   ACZ17ZZ5 -7.000000
    Z3Z17ZZ4 NCZZ7ZZ5 -18.000000
    Z4Z17ZZ4 OBJZZZZZ 1.000000   NCZZ3ZZ4 1.000000
    Z4Z17ZZ4 ACZ17ZZ4 1.000000   NCZZ3ZZ5 -1.000000
    Z4Z17ZZ4 ACZ17ZZ5 -1.000000
    Z1Z18ZZ4 CCZ18ZZ4 1.000000
    Z2Z18ZZ4 OBJZZZZZ 15.000000   NCZZ9ZZ4 15.000000
    Z2Z18ZZ4 ACZ18ZZ4 15.000000   CCZ18ZZ4 1.000000
    Z2Z18ZZ4 NCZZ7ZZ5 -15.000000
    Z3Z18ZZ4 OBJZZZZZ 25.000000   NCZZ9ZZ4 25.000000
    Z3Z18ZZ4 ACZ18ZZ4 25.000000   CCZ18ZZ4 1.000000
    Z3Z18ZZ4 NCZZ9ZZ5 -7.000000   ACZ18ZZ5 -7.000000
    Z3Z18ZZ4 NCZZ7ZZ5 -18.000000
    Z4Z18ZZ4 OBJZZZZZ 1.000000   NCZZ9ZZ4 1.000000
    Z4Z18ZZ4 ACZ18ZZ4 1.000000   NCZZ9ZZ5 -1.000000
    Z4Z18ZZ4 ACZ18ZZ5 -1.000000
    Z1Z19ZZ4 CCZ19ZZ4 1.000000
    Z2Z19ZZ4 OBJZZZZZ 15.000000   NCZZ9ZZ4 15.000000
    Z2Z19ZZ4 ACZ19ZZ4 15.000000   CCZ19ZZ4 1.000000
    Z2Z19ZZ4 NCZ10ZZ5 -15.000000
    Z3Z19ZZ4 OBJZZZZZ 25.000000   NCZZ9ZZ4 25.000000
    Z3Z19ZZ4 ACZ19ZZ4 25.000000   CCZ19ZZ4 1.000000
    Z3Z19ZZ4 NCZZ9ZZ5 -7.000000   ACZ19ZZ5 -7.000000
    Z3Z19ZZ4 NCZ10ZZ5 -18.000000
    Z4Z19ZZ4 OBJZZZZZ 1.000000   NCZZ9ZZ4 1.000000
    Z4Z19ZZ4 ACZ19ZZ4 1.000000   NCZZ9ZZ5 -1.000000
    Z4Z19ZZ4 ACZ19ZZ5 -1.000000
    Z1Z20ZZ4 CCZ20ZZ4 1.000000
    Z2Z20ZZ4 OBJZZZZZ 15.000000   NCZ14ZZ4 15.000000
    Z2Z20ZZ4 ACZ20ZZ4 15.000000   CCZ20ZZ4 1.000000
    Z2Z20ZZ4 NCZ10ZZ5 -15.000000
    Z3Z20ZZ4 OBJZZZZZ 25.000000   NCZ14ZZ4 25.000000
    Z3Z20ZZ4 ACZ20ZZ4 25.000000   CCZ20ZZ4 1.000000
    Z3Z20ZZ4 NCZ14ZZ5 -7.000000   ACZ20ZZ5 -7.000000
    Z3Z20ZZ4 NCZ10ZZ5 -18.000000
    Z4Z20ZZ4 OBJZZZZZ 1.000000   NCZ14ZZ4 1.000000
    Z4Z20ZZ4 ACZ20ZZ4 1.000000   NCZ14ZZ5 -1.000000
    Z4Z20ZZ4 ACZ20ZZ5 -1.000000
    Z1Z21ZZ4 CCZ21ZZ4 1.000000
    Z2Z21ZZ4 OBJZZZZZ 15.000000   NCZ14ZZ4 15.000000
    Z2Z21ZZ4 ACZ21ZZ4 15.000000   CCZ21ZZ4 1.000000
    Z2Z21ZZ4 NCZ11ZZ5 -15.000000
    Z3Z21ZZ4 OBJZZZZZ 25.000000   NCZ14ZZ4 25.000000
    Z3Z21ZZ4 ACZ21ZZ4 25.000000   CCZ21ZZ4 1.000000
    Z3Z21ZZ4 NCZ14ZZ5 -7.000000   ACZ21ZZ5 -7.000000
    Z3Z21ZZ4 NCZ11ZZ5 -18.000000
    Z4Z21ZZ4 OBJZZZZZ 1.000000   NCZ14ZZ4 1.000000
    Z4Z21ZZ4 ACZ21ZZ4 1.000000   NCZ14ZZ5 -1.000000
    Z4Z21ZZ4 ACZ21ZZ5 -1.000000
    Z1Z22ZZ4 CCZ22ZZ4 1.000000
    Z2Z22ZZ4 OBJZZZZZ 15.000000   NCZ15ZZ4 15.000000
    Z2Z22ZZ4 ACZ22ZZ4 15.000000   CCZ22ZZ4 1.000000
    Z2Z22ZZ4 NCZ11ZZ5 -15.000000
    Z3Z22ZZ4 OBJZZZZZ 25.000000   NCZ15ZZ4 25.000000
    Z3Z22ZZ4 ACZ22ZZ4 25.000000   CCZ22ZZ4 1.000000
    Z3Z22ZZ4 NCZ15ZZ5 -7.000000   ACZ22ZZ5 -7.000000
    Z3Z22ZZ4 NCZ11ZZ5 -18.000000
    Z4Z22ZZ4 OBJZZZZZ 1.000000   NCZ15ZZ4 1.000000
    Z4Z22ZZ4 ACZ22ZZ4 1.000000   NCZ15ZZ5 -1.000000
    Z4Z22ZZ4 ACZ22ZZ5 -1.000000
    Z1Z23ZZ4 CCZ23ZZ4 1.000000
    Z2Z23ZZ4 OBJZZZZZ 15.000000   NCZ15ZZ4 15.000000
    Z2Z23ZZ4 ACZ23ZZ4 15.000000   CCZ23ZZ4 1.000000
    Z2Z23ZZ4 NCZ12ZZ5 -15.000000
    Z3Z23ZZ4 OBJZZZZZ 25.000000   NCZ15ZZ4 25.000000
    Z3Z23ZZ4 ACZ23ZZ4 25.000000   CCZ23ZZ4 1.000000
    Z3Z23ZZ4 NCZ15ZZ5 -7.000000   ACZ23ZZ5 -7.000000
    Z3Z23ZZ4 NCZ12ZZ5 -18.000000
    Z4Z23ZZ4 OBJZZZZZ 1.000000   NCZ15ZZ4 1.000000
    Z4Z23ZZ4 ACZ23ZZ4 1.000000   NCZ15ZZ5 -1.000000
    Z4Z23ZZ4 ACZ23ZZ5 -1.000000
    Z1Z24ZZ4 CCZ24ZZ4 1.000000
    Z2Z24ZZ4 OBJZZZZZ 15.000000   NCZ13ZZ4 15.000000
    Z2Z24ZZ4 ACZ24ZZ4 15.000000   CCZ24ZZ4 1.000000
    Z2Z24ZZ4 NCZ12ZZ5 -15.000000
    Z3Z24ZZ4 OBJZZZZZ 25.000000   NCZ13ZZ4 25.000000
    Z3Z24ZZ4 ACZ24ZZ4 25.000000   CCZ24ZZ4 1.000000
    Z3Z24ZZ4 NCZ13ZZ5 -7.000000   ACZ24ZZ5 -7.000000
    Z3Z24ZZ4 NCZ12ZZ5 -18.000000
    Z4Z24ZZ4 OBJZZZZZ 1.000000   NCZ13ZZ4 1.000000
    Z4Z24ZZ4 ACZ24ZZ4 1.000000   NCZ13ZZ5 -1.000000
    Z4Z24ZZ4 ACZ24ZZ5 -1.000000
    Z1Z25ZZ4 CCZ25ZZ4 1.000000
    Z2Z25ZZ4 OBJZZZZZ 15.000000   NCZ13ZZ4 15.000000
    Z2Z25ZZ4 ACZ25ZZ4 15.000000   CCZ25ZZ4 1.000000
    Z2Z25ZZ4 NCZZ8ZZ5 -15.000000
    Z3Z25ZZ4 OBJZZZZZ 25.000000   NCZ13ZZ4 25.000000
    Z3Z25ZZ4 ACZ25ZZ4 25.000000   CCZ25ZZ4 1.000000
    Z3Z25ZZ4 NCZ13ZZ5 -7.000000   ACZ25ZZ5 -7.000000
    Z3Z25ZZ4 NCZZ8ZZ5 -18.000000
    Z4Z25ZZ4 OBJZZZZZ 1.000000   NCZ13ZZ4 1.000000
    Z4Z25ZZ4 ACZ25ZZ4 1.000000   NCZ13ZZ5 -1.000000
    Z4Z25ZZ4 ACZ25ZZ5 -1.000000
    Z1Z26ZZ4 CCZ26ZZ4 1.000000
    Z2Z26ZZ4 OBJZZZZZ 15.000000   NCZZ6ZZ4 15.000000
    Z2Z26ZZ4 ACZ26ZZ4 15.000000   CCZ26ZZ4 1.000000
    Z2Z26ZZ4 NCZZ8ZZ5 -15.000000
    Z3Z26ZZ4 OBJZZZZZ 25.000000   NCZZ6ZZ4 25.000000
    Z3Z26ZZ4 ACZ26ZZ4 25.000000   CCZ26ZZ4 1.000000
    Z3Z26ZZ4 NCZZ6ZZ5 -7.000000   ACZ26ZZ5 -7.000000
    Z3Z26ZZ4 NCZZ8ZZ5 -18.000000
    Z4Z26ZZ4 OBJZZZZZ 1.000000   NCZZ6ZZ4 1.000000
    Z4Z26ZZ4 ACZ26ZZ4 1.000000   NCZZ6ZZ5 -1.000000
    Z4Z26ZZ4 ACZ26ZZ5 -1.000000
    Z1Z27ZZ4 CCZ27ZZ4 1.000000
    Z2Z27ZZ4 OBJZZZZZ 15.000000   NCZZ6ZZ4 15.000000
    Z2Z27ZZ4 ACZ27ZZ4 15.000000   CCZ27ZZ4 1.000000
    Z2Z27ZZ4 NCZZ5ZZ5 -15.000000
    Z3Z27ZZ4 OBJZZZZZ 25.000000   NCZZ6ZZ4 25.000000
    Z3Z27ZZ4 ACZ27ZZ4 25.000000   CCZ27ZZ4 1.000000
    Z3Z27ZZ4 NCZZ6ZZ5 -7.000000   ACZ27ZZ5 -7.000000
    Z3Z27ZZ4 NCZZ5ZZ5 -18.000000
    Z4Z27ZZ4 OBJZZZZZ 1.000000   NCZZ6ZZ4 1.000000
    Z4Z27ZZ4 ACZ27ZZ4 1.000000   NCZZ6ZZ5 -1.000000
    Z4Z27ZZ4 ACZ27ZZ5 -1.000000
    Z1Z28ZZ4 CCZ28ZZ4 1.000000
    Z2Z28ZZ4 OBJZZZZZ 15.000000   NCZZ2ZZ4 15.000000
    Z2Z28ZZ4 ACZ28ZZ4 15.000000   CCZ28ZZ4 1.000000
    Z2Z28ZZ4 NCZZ5ZZ5 -15.000000
    Z3Z28ZZ4 OBJZZZZZ 25.000000   NCZZ2ZZ4 25.000000
    Z3Z28ZZ4 ACZ28ZZ4 25.000000   CCZ28ZZ4 1.000000
    Z3Z28ZZ4 NCZZ2ZZ5 -7.000000   ACZ28ZZ5 -7.000000
    Z3Z28ZZ4 NCZZ5ZZ5 -18.000000
    Z4Z28ZZ4 OBJZZZZZ 1.000000   NCZZ2ZZ4 1.000000
    Z4Z28ZZ4 ACZ28ZZ4 1.000000   NCZZ2ZZ5 -1.000000
    Z4Z28ZZ4 ACZ28ZZ5 -1.000000
    Z1Z29ZZ4 CCZ29ZZ4 1.000000
    Z2Z29ZZ4 OBJZZZZZ 15.000000   NCZZ2ZZ4 15.000000
    Z2Z29ZZ4 ACZ29ZZ4 15.000000   CCZ29ZZ4 1.000000
    Z2Z29ZZ4 NCZZ4ZZ5 -15.000000
    Z3Z29ZZ4 OBJZZZZZ 25.000000   NCZZ2ZZ4 25.000000
    Z3Z29ZZ4 ACZ29ZZ4 25.000000   CCZ29ZZ4 1.000000
    Z3Z29ZZ4 NCZZ2ZZ5 -7.000000   ACZ29ZZ5 -7.000000
    Z3Z29ZZ4 NCZZ4ZZ5 -18.000000
    Z4Z29ZZ4 OBJZZZZZ 1.000000   NCZZ2ZZ4 1.000000
    Z4Z29ZZ4 ACZ29ZZ4 1.000000   NCZZ2ZZ5 -1.000000
    Z4Z29ZZ4 ACZ29ZZ5 -1.000000
    Z1Z30ZZ4 CCZ30ZZ4 1.000000
    Z2Z30ZZ4 OBJZZZZZ 15.000000   NCZZ1ZZ4 15.000000
    Z2Z30ZZ4 ACZ30ZZ4 15.000000   CCZ30ZZ4 1.000000
    Z2Z30ZZ4 NCZZ4ZZ5 -15.000000
    Z3Z30ZZ4 OBJZZZZZ 25.000000   NCZZ1ZZ4 25.000000
    Z3Z30ZZ4 ACZ30ZZ4 25.000000   CCZ30ZZ4 1.000000
    Z3Z30ZZ4 NCZZ1ZZ5 -7.000000   ACZ30ZZ5 -7.000000
    Z3Z30ZZ4 NCZZ4ZZ5 -18.000000
    Z4Z30ZZ4 OBJZZZZZ 1.000000   NCZZ1ZZ4 1.000000
    Z4Z30ZZ4 ACZ30ZZ4 1.000000   NCZZ1ZZ5 -1.000000
    Z4Z30ZZ4 ACZ30ZZ5 -1.000000
    Z1Z31ZZ4 CCZ31ZZ4 1.000000
    Z2Z31ZZ4 OBJZZZZZ 30.000000   NCZZ7ZZ4 30.000000
    Z2Z31ZZ4 ACZ31ZZ4 30.000000   CCZ31ZZ4 1.000000
    Z2Z31ZZ4 NCZZ4ZZ5 -30.000000
    Z3Z31ZZ4 OBJZZZZZ 40.000000   NCZZ7ZZ4 40.000000
    Z3Z31ZZ4 ACZ31ZZ4 40.000000   CCZ31ZZ4 1.000000
    Z3Z31ZZ4 NCZZ7ZZ5 -7.000000   ACZ31ZZ5 -7.000000
    Z3Z31ZZ4 NCZZ4ZZ5 -33.000000
    Z4Z31ZZ4 OBJZZZZZ 1.000000   NCZZ7ZZ4 1.000000
    Z4Z31ZZ4 ACZ31ZZ4 1.000000   NCZZ7ZZ5 -1.000000
    Z4Z31ZZ4 ACZ31ZZ5 -1.000000
    Z1Z32ZZ4 CCZ32ZZ4 1.000000
    Z2Z32ZZ4 OBJZZZZZ 30.000000   NCZZ4ZZ4 30.000000
    Z2Z32ZZ4 ACZ32ZZ4 30.000000   CCZ32ZZ4 1.000000
    Z2Z32ZZ4 NCZZ7ZZ5 -30.000000
    Z3Z32ZZ4 OBJZZZZZ 40.000000   NCZZ4ZZ4 40.000000
    Z3Z32ZZ4 ACZ32ZZ4 40.000000   CCZ32ZZ4 1.000000
    Z3Z32ZZ4 NCZZ4ZZ5 -7.000000   ACZ32ZZ5 -7.000000
    Z3Z32ZZ4 NCZZ7ZZ5 -33.000000
    Z4Z32ZZ4 OBJZZZZZ 1.000000   NCZZ4ZZ4 1.000000
    Z4Z32ZZ4 ACZ32ZZ4 1.000000   NCZZ4ZZ5 -1.000000
    Z4Z32ZZ4 ACZ32ZZ5 -1.000000
    Z1Z33ZZ4 CCZ33ZZ4 1.000000
    Z2Z33ZZ4 OBJZZZZZ 30.000000   NCZZ7ZZ4 30.000000
    Z2Z33ZZ4 ACZ33ZZ4 30.000000   CCZ33ZZ4 1.000000
    Z2Z33ZZ4 NCZ10ZZ5 -30.000000
    Z3Z33ZZ4 OBJZZZZZ 40.000000   NCZZ7ZZ4 40.000000
    Z3Z33ZZ4 ACZ33ZZ4 40.000000   CCZ33ZZ4 1.000000
    Z3Z33ZZ4 NCZZ7ZZ5 -7.000000   ACZ33ZZ5 -7.000000
    Z3Z33ZZ4 NCZ10ZZ5 -33.000000
    Z4Z33ZZ4 OBJZZZZZ 1.000000   NCZZ7ZZ4 1.000000
    Z4Z33ZZ4 ACZ33ZZ4 1.000000   NCZZ7ZZ5 -1.000000
    Z4Z33ZZ4 ACZ33ZZ5 -1.000000
    Z1Z34ZZ4 CCZ34ZZ4 1.000000
    Z2Z34ZZ4 OBJZZZZZ 30.000000   NCZ10ZZ4 30.000000
    Z2Z34ZZ4 ACZ34ZZ4 30.000000   CCZ34ZZ4 1.000000
    Z2Z34ZZ4 NCZZ7ZZ5 -30.000000
    Z3Z34ZZ4 OBJZZZZZ 40.000000   NCZ10ZZ4 40.000000
    Z3Z34ZZ4 ACZ34ZZ4 40.000000   CCZ34ZZ4 1.000000
    Z3Z34ZZ4 NCZ10ZZ5 -7.000000   ACZ34ZZ5 -7.000000
    Z3Z34ZZ4 NCZZ7ZZ5 -33.000000
    Z4Z34ZZ4 OBJZZZZZ 1.000000   NCZ10ZZ4 1.000000
    Z4Z34ZZ4 ACZ34ZZ4 1.000000   NCZ10ZZ5 -1.000000
    Z4Z34ZZ4 ACZ34ZZ5 -1.000000
    Z1Z35ZZ4 CCZ35ZZ4 1.000000
    Z2Z35ZZ4 OBJZZZZZ 30.000000   NCZ10ZZ4 30.000000
    Z2Z35ZZ4 ACZ35ZZ4 30.000000   CCZ35ZZ4 1.000000
    Z2Z35ZZ4 NCZ11ZZ5 -30.000000
    Z3Z35ZZ4 OBJZZZZZ 40.000000   NCZ10ZZ4 40.000000
    Z3Z35ZZ4 ACZ35ZZ4 40.000000   CCZ35ZZ4 1.000000
    Z3Z35ZZ4 NCZ10ZZ5 -7.000000   ACZ35ZZ5 -7.000000
    Z3Z35ZZ4 NCZ11ZZ5 -33.000000
    Z4Z35ZZ4 OBJZZZZZ 1.000000   NCZ10ZZ4 1.000000
    Z4Z35ZZ4 ACZ35ZZ4 1.000000   NCZ10ZZ5 -1.000000
    Z4Z35ZZ4 ACZ35ZZ5 -1.000000
    Z1Z36ZZ4 CCZ36ZZ4 1.000000
    Z2Z36ZZ4 OBJZZZZZ 30.000000   NCZ11ZZ4 30.000000
    Z2Z36ZZ4 ACZ36ZZ4 30.000000   CCZ36ZZ4 1.000000
    Z2Z36ZZ4 NCZ10ZZ5 -30.000000
    Z3Z36ZZ4 OBJZZZZZ 40.000000   NCZ11ZZ4 40.000000
    Z3Z36ZZ4 ACZ36ZZ4 40.000000   CCZ36ZZ4 1.000000
    Z3Z36ZZ4 NCZ11ZZ5 -7.000000   ACZ36ZZ5 -7.000000
    Z3Z36ZZ4 NCZ10ZZ5 -33.000000
    Z4Z36ZZ4 OBJZZZZZ 1.000000   NCZ11ZZ4 1.000000
    Z4Z36ZZ4 ACZ36ZZ4 1.000000   NCZ11ZZ5 -1.000000
    Z4Z36ZZ4 ACZ36ZZ5 -1.000000
    Z1Z37ZZ4 CCZ37ZZ4 1.000000
    Z2Z37ZZ4 OBJZZZZZ 30.000000   NCZ11ZZ4 30.000000
    Z2Z37ZZ4 ACZ37ZZ4 30.000000   CCZ37ZZ4 1.000000
    Z2Z37ZZ4 NCZ12ZZ5 -30.000000
    Z3Z37ZZ4 OBJZZZZZ 40.000000   NCZ11ZZ4 40.000000
    Z3Z37ZZ4 ACZ37ZZ4 40.000000   CCZ37ZZ4 1.000000
    Z3Z37ZZ4 NCZ11ZZ5 -7.000000   ACZ37ZZ5 -7.000000
    Z3Z37ZZ4 NCZ12ZZ5 -33.000000
    Z4Z37ZZ4 OBJZZZZZ 1.000000   NCZ11ZZ4 1.000000
    Z4Z37ZZ4 ACZ37ZZ4 1.000000   NCZ11ZZ5 -1.000000
    Z4Z37ZZ4 ACZ37ZZ5 -1.000000
    Z1Z38ZZ4 CCZ38ZZ4 1.000000
    Z2Z38ZZ4 OBJZZZZZ 30.000000   NCZ12ZZ4 30.000000
    Z2Z38ZZ4 ACZ38ZZ4 30.000000   CCZ38ZZ4 1.000000
    Z2Z38ZZ4 NCZ11ZZ5 -30.000000
    Z3Z38ZZ4 OBJZZZZZ 40.000000   NCZ12ZZ4 40.000000
    Z3Z38ZZ4 ACZ38ZZ4 40.000000   CCZ38ZZ4 1.000000
    Z3Z38ZZ4 NCZ12ZZ5 -7.000000   ACZ38ZZ5 -7.000000
    Z3Z38ZZ4 NCZ11ZZ5 -33.000000
    Z4Z38ZZ4 OBJZZZZZ 1.000000   NCZ12ZZ4 1.000000
    Z4Z38ZZ4 ACZ38ZZ4 1.000000   NCZ12ZZ5 -1.000000
    Z4Z38ZZ4 ACZ38ZZ5 -1.000000
    Z1Z39ZZ4 CCZ39ZZ4 1.000000
    Z2Z39ZZ4 OBJZZZZZ 30.000000   NCZ12ZZ4 30.000000
    Z2Z39ZZ4 ACZ39ZZ4 30.000000   CCZ39ZZ4 1.000000
    Z2Z39ZZ4 NCZZ8ZZ5 -30.000000
    Z3Z39ZZ4 OBJZZZZZ 40.000000   NCZ12ZZ4 40.000000
    Z3Z39ZZ4 ACZ39ZZ4 40.000000   CCZ39ZZ4 1.000000
    Z3Z39ZZ4 NCZ12ZZ5 -7.000000   ACZ39ZZ5 -7.000000
    Z3Z39ZZ4 NCZZ8ZZ5 -33.000000
    Z4Z39ZZ4 OBJZZZZZ 1.000000   NCZ12ZZ4 1.000000
    Z4Z39ZZ4 ACZ39ZZ4 1.000000   NCZ12ZZ5 -1.000000
    Z4Z39ZZ4 ACZ39ZZ5 -1.000000
    Z1Z40ZZ4 CCZ40ZZ4 1.000000
    Z2Z40ZZ4 OBJZZZZZ 30.000000   NCZZ8ZZ4 30.000000
    Z2Z40ZZ4 ACZ40ZZ4 30.000000   CCZ40ZZ4 1.000000
    Z2Z40ZZ4 NCZ12ZZ5 -30.000000
    Z3Z40ZZ4 OBJZZZZZ 40.000000   NCZZ8ZZ4 40.000000
    Z3Z40ZZ4 ACZ40ZZ4 40.000000   CCZ40ZZ4 1.000000
    Z3Z40ZZ4 NCZZ8ZZ5 -7.000000   ACZ40ZZ5 -7.000000
    Z3Z40ZZ4 NCZ12ZZ5 -33.000000
    Z4Z40ZZ4 OBJZZZZZ 1.000000   NCZZ8ZZ4 1.000000
    Z4Z40ZZ4 ACZ40ZZ4 1.000000   NCZZ8ZZ5 -1.000000
    Z4Z40ZZ4 ACZ40ZZ5 -1.000000
    Z1Z41ZZ4 CCZ41ZZ4 1.000000
    Z2Z41ZZ4 OBJZZZZZ 30.000000   NCZZ5ZZ4 30.000000
    Z2Z41ZZ4 ACZ41ZZ4 30.000000   CCZ41ZZ4 1.000000
    Z2Z41ZZ4 NCZZ8ZZ5 -30.000000
    Z3Z41ZZ4 OBJZZZZZ 40.000000   NCZZ5ZZ4 40.000000
    Z3Z41ZZ4 ACZ41ZZ4 40.000000   CCZ41ZZ4 1.000000
    Z3Z41ZZ4 NCZZ5ZZ5 -7.000000   ACZ41ZZ5 -7.000000
    Z3Z41ZZ4 NCZZ8ZZ5 -33.000000
    Z4Z41ZZ4 OBJZZZZZ 1.000000   NCZZ5ZZ4 1.000000
    Z4Z41ZZ4 ACZ41ZZ4 1.000000   NCZZ5ZZ5 -1.000000
    Z4Z41ZZ4 ACZ41ZZ5 -1.000000
    Z1Z42ZZ4 CCZ42ZZ4 1.000000
    Z2Z42ZZ4 OBJZZZZZ 30.000000   NCZZ8ZZ4 30.000000
    Z2Z42ZZ4 ACZ42ZZ4 30.000000   CCZ42ZZ4 1.000000
    Z2Z42ZZ4 NCZZ5ZZ5 -30.000000
    Z3Z42ZZ4 OBJZZZZZ 40.000000   NCZZ8ZZ4 40.000000
    Z3Z42ZZ4 ACZ42ZZ4 40.000000   CCZ42ZZ4 1.000000
    Z3Z42ZZ4 NCZZ8ZZ5 -7.000000   ACZ42ZZ5 -7.000000
    Z3Z42ZZ4 NCZZ5ZZ5 -33.000000
    Z4Z42ZZ4 OBJZZZZZ 1.000000   NCZZ8ZZ4 1.000000
    Z4Z42ZZ4 ACZ42ZZ4 1.000000   NCZZ8ZZ5 -1.000000
    Z4Z42ZZ4 ACZ42ZZ5 -1.000000
    Z1Z43ZZ4 CCZ43ZZ4 1.000000
    Z2Z43ZZ4 OBJZZZZZ 30.000000   NCZZ5ZZ4 30.000000
    Z2Z43ZZ4 ACZ43ZZ4 30.000000   CCZ43ZZ4 1.000000
    Z2Z43ZZ4 NCZZ4ZZ5 -30.000000
    Z3Z43ZZ4 OBJZZZZZ 40.000000   NCZZ5ZZ4 40.000000
    Z3Z43ZZ4 ACZ43ZZ4 40.000000   CCZ43ZZ4 1.000000
    Z3Z43ZZ4 NCZZ5ZZ5 -7.000000   ACZ43ZZ5 -7.000000
    Z3Z43ZZ4 NCZZ4ZZ5 -33.000000
    Z4Z43ZZ4 OBJZZZZZ 1.000000   NCZZ5ZZ4 1.000000
    Z4Z43ZZ4 ACZ43ZZ4 1.000000   NCZZ5ZZ5 -1.000000
    Z4Z43ZZ4 ACZ43ZZ5 -1.000000
    Z1Z44ZZ4 CCZ44ZZ4 1.000000
    Z2Z44ZZ4 OBJZZZZZ 30.000000   NCZZ4ZZ4 30.000000
    Z2Z44ZZ4 ACZ44ZZ4 30.000000   CCZ44ZZ4 1.000000
    Z2Z44ZZ4 NCZZ5ZZ5 -30.000000
    Z3Z44ZZ4 OBJZZZZZ 40.000000   NCZZ4ZZ4 40.000000
    Z3Z44ZZ4 ACZ44ZZ4 40.000000   CCZ44ZZ4 1.000000
    Z3Z44ZZ4 NCZZ4ZZ5 -7.000000   ACZ44ZZ5 -7.000000
    Z3Z44ZZ4 NCZZ5ZZ5 -33.000000
    Z4Z44ZZ4 OBJZZZZZ 1.000000   NCZZ4ZZ4 1.000000
    Z4Z44ZZ4 ACZ44ZZ4 1.000000   NCZZ4ZZ5 -1.000000
    Z4Z44ZZ4 ACZ44ZZ5 -1.000000
    Z1Z45ZZ4 CCZ45ZZ4 1.000000
    Z2Z45ZZ4 OBJZZZZZ 50.000000   NCZZ4ZZ4 50.000000
    Z2Z45ZZ4 ACZ45ZZ4 50.000000   CCZ45ZZ4 1.000000
    Z3Z45ZZ4 OBJZZZZZ 80.000000   NCZZ4ZZ4 80.000000
    Z3Z45ZZ4 ACZ45ZZ4 80.000000   CCZ45ZZ4 1.000000
    Z3Z45ZZ4 NCZZ4ZZ5 -15.000000   ACZ45ZZ5 -15.000000
    Z4Z45ZZ4 OBJZZZZZ 1.000000   NCZZ4ZZ4 1.000000
    Z4Z45ZZ4 ACZ45ZZ4 1.000000   NCZZ4ZZ5 -1.000000
    Z4Z45ZZ4 ACZ45ZZ5 -1.000000
    Z1Z46ZZ4 CCZ46ZZ4 1.000000
    Z2Z46ZZ4 OBJZZZZZ 50.000000   NCZ10ZZ4 50.000000
    Z2Z46ZZ4 ACZ46ZZ4 50.000000   CCZ46ZZ4 1.000000
    Z3Z46ZZ4 OBJZZZZZ 80.000000   NCZ10ZZ4 80.000000
    Z3Z46ZZ4 ACZ46ZZ4 80.000000   CCZ46ZZ4 1.000000
    Z3Z46ZZ4 NCZ10ZZ5 -15.000000   ACZ46ZZ5 -15.000000
    Z4Z46ZZ4 OBJZZZZZ 1.000000   NCZ10ZZ4 1.000000
    Z4Z46ZZ4 ACZ46ZZ4 1.000000   NCZ10ZZ5 -1.000000
    Z4Z46ZZ4 ACZ46ZZ5 -1.000000
    Z1Z47ZZ4 CCZ47ZZ4 1.000000
    Z2Z47ZZ4 OBJZZZZZ 50.000000   NCZ12ZZ4 50.000000
    Z2Z47ZZ4 ACZ47ZZ4 50.000000   CCZ47ZZ4 1.000000
    Z3Z47ZZ4 OBJZZZZZ 80.000000   NCZ12ZZ4 80.000000
    Z3Z47ZZ4 ACZ47ZZ4 80.000000   CCZ47ZZ4 1.000000
    Z3Z47ZZ4 NCZ12ZZ5 -15.000000   ACZ47ZZ5 -15.000000
    Z4Z47ZZ4 OBJZZZZZ 1.000000   NCZ12ZZ4 1.000000
    Z4Z47ZZ4 ACZ47ZZ4 1.000000   NCZ12ZZ5 -1.000000
    Z4Z47ZZ4 ACZ47ZZ5 -1.000000
    Z1ZZ1ZZ5 CCZZ1ZZ5 1.000000
    Z2ZZ1ZZ5 OBJZZZZZ 10.000000   NCZZ3ZZ5 10.000000
    Z2ZZ1ZZ5 ACZZ1ZZ5 10.000000   CCZZ1ZZ5 1.000000
    Z2ZZ1ZZ5 NCZZ1ZZ6 -10.000000
    Z3ZZ1ZZ5 OBJZZZZZ 20.000000   NCZZ3ZZ5 20.000000
    Z3ZZ1ZZ5 ACZZ1ZZ5 20.000000   CCZZ1ZZ5 1.000000
    Z3ZZ1ZZ5 NCZZ3ZZ6 -5.000000   ACZZ1ZZ6 -5.000000
    Z3ZZ1ZZ5 NCZZ1ZZ6 -15.000000
    Z4ZZ1ZZ5 OBJZZZZZ 1.000000   NCZZ3ZZ5 1.000000
    Z4ZZ1ZZ5 ACZZ1ZZ5 1.000000   NCZZ3ZZ6 -1.000000
    Z4ZZ1ZZ5 ACZZ1ZZ6 -1.000000
    Z1ZZ2ZZ5 CCZZ2ZZ5 1.000000
    Z2ZZ2ZZ5 OBJZZZZZ 10.000000   NCZZ1ZZ5 10.000000
    Z2ZZ2ZZ5 ACZZ2ZZ5 10.000000   CCZZ2ZZ5 1.000000
    Z2ZZ2ZZ5 NCZZ3ZZ6 -10.000000
    Z3ZZ2ZZ5 OBJZZZZZ 20.000000   NCZZ1ZZ5 20.000000
    Z3ZZ2ZZ5 ACZZ2ZZ5 20.000000   CCZZ2ZZ5 1.000000
    Z3ZZ2ZZ5 NCZZ1ZZ6 -5.000000   ACZZ2ZZ6 -5.000000
    Z3ZZ2ZZ5 NCZZ3ZZ6 -15.000000
    Z4ZZ2ZZ5 OBJZZZZZ 1.000000   NCZZ1ZZ5 1.000000
    Z4ZZ2ZZ5 ACZZ2ZZ5 1.000000   NCZZ1ZZ6 -1.000000
    Z4ZZ2ZZ5 ACZZ2ZZ6 -1.000000
    Z1ZZ3ZZ5 CCZZ3ZZ5 1.000000
    Z2ZZ3ZZ5 OBJZZZZZ 10.000000   NCZZ9ZZ5 10.000000
    Z2ZZ3ZZ5 ACZZ3ZZ5 10.000000   CCZZ3ZZ5 1.000000
    Z2ZZ3ZZ5 NCZZ3ZZ6 -10.000000
    Z3ZZ3ZZ5 OBJZZZZZ 20.000000   NCZZ9ZZ5 20.000000
    Z3ZZ3ZZ5 ACZZ3ZZ5 20.000000   CCZZ3ZZ5 1.000000
    Z3ZZ3ZZ5 NCZZ9ZZ6 -5.000000   ACZZ3ZZ6 -5.000000
    Z3ZZ3ZZ5 NCZZ3ZZ6 -15.000000
    Z4ZZ3ZZ5 OBJZZZZZ 1.000000   NCZZ9ZZ5 1.000000
    Z4ZZ3ZZ5 ACZZ3ZZ5 1.000000   NCZZ9ZZ6 -1.000000
    Z4ZZ3ZZ5 ACZZ3ZZ6 -1.000000
    Z1ZZ4ZZ5 CCZZ4ZZ5 1.000000
    Z2ZZ4ZZ5 OBJZZZZZ 10.000000   NCZZ3ZZ5 10.000000
    Z2ZZ4ZZ5 ACZZ4ZZ5 10.000000   CCZZ4ZZ5 1.000000
    Z2ZZ4ZZ5 NCZZ9ZZ6 -10.000000
    Z3ZZ4ZZ5 OBJZZZZZ 20.000000   NCZZ3ZZ5 20.000000
    Z3ZZ4ZZ5 ACZZ4ZZ5 20.000000   CCZZ4ZZ5 1.000000
    Z3ZZ4ZZ5 NCZZ3ZZ6 -5.000000   ACZZ4ZZ6 -5.000000
    Z3ZZ4ZZ5 NCZZ9ZZ6 -15.000000
    Z4ZZ4ZZ5 OBJZZZZZ 1.000000   NCZZ3ZZ5 1.000000
    Z4ZZ4ZZ5 ACZZ4ZZ5 1.000000   NCZZ3ZZ6 -1.000000
    Z4ZZ4ZZ5 ACZZ4ZZ6 -1.000000
    Z1ZZ5ZZ5 CCZZ5ZZ5 1.000000
    Z2ZZ5ZZ5 OBJZZZZZ 10.000000   NCZZ9ZZ5 10.000000
    Z2ZZ5ZZ5 ACZZ5ZZ5 10.000000   CCZZ5ZZ5 1.000000
    Z2ZZ5ZZ5 NCZ14ZZ6 -10.000000
    Z3ZZ5ZZ5 OBJZZZZZ 20.000000   NCZZ9ZZ5 20.000000
    Z3ZZ5ZZ5 ACZZ5ZZ5 20.000000   CCZZ5ZZ5 1.000000
    Z3ZZ5ZZ5 NCZZ9ZZ6 -5.000000   ACZZ5ZZ6 -5.000000
    Z3ZZ5ZZ5 NCZ14ZZ6 -15.000000
    Z4ZZ5ZZ5 OBJZZZZZ 1.000000   NCZZ9ZZ5 1.000000
    Z4ZZ5ZZ5 ACZZ5ZZ5 1.000000   NCZZ9ZZ6 -1.000000
    Z4ZZ5ZZ5 ACZZ5ZZ6 -1.000000
    Z1ZZ6ZZ5 CCZZ6ZZ5 1.000000
    Z2ZZ6ZZ5 OBJZZZZZ 10.000000   NCZ14ZZ5 10.000000
    Z2ZZ6ZZ5 ACZZ6ZZ5 10.000000   CCZZ6ZZ5 1.000000
    Z2ZZ6ZZ5 NCZZ9ZZ6 -10.000000
    Z3ZZ6ZZ5 OBJZZZZZ 20.000000   NCZ14ZZ5 20.000000
    Z3ZZ6ZZ5 ACZZ6ZZ5 20.000000   CCZZ6ZZ5 1.000000
    Z3ZZ6ZZ5 NCZ14ZZ6 -5.000000   ACZZ6ZZ6 -5.000000
    Z3ZZ6ZZ5 NCZZ9ZZ6 -15.000000
    Z4ZZ6ZZ5 OBJZZZZZ 1.000000   NCZ14ZZ5 1.000000
    Z4ZZ6ZZ5 ACZZ6ZZ5 1.000000   NCZ14ZZ6 -1.000000
    Z4ZZ6ZZ5 ACZZ6ZZ6 -1.000000
    Z1ZZ7ZZ5 CCZZ7ZZ5 1.000000
    Z2ZZ7ZZ5 OBJZZZZZ 10.000000   NCZ15ZZ5 10.000000
    Z2ZZ7ZZ5 ACZZ7ZZ5 10.000000   CCZZ7ZZ5 1.000000
    Z2ZZ7ZZ5 NCZ14ZZ6 -10.000000
    Z3ZZ7ZZ5 OBJZZZZZ 20.000000   NCZ15ZZ5 20.000000
    Z3ZZ7ZZ5 ACZZ7ZZ5 20.000000   CCZZ7ZZ5 1.000000
    Z3ZZ7ZZ5 NCZ15ZZ6 -5.000000   ACZZ7ZZ6 -5.000000
    Z3ZZ7ZZ5 NCZ14ZZ6 -15.000000
    Z4ZZ7ZZ5 OBJZZZZZ 1.000000   NCZ15ZZ5 1.000000
    Z4ZZ7ZZ5 ACZZ7ZZ5 1.000000   NCZ15ZZ6 -1.000000
    Z4ZZ7ZZ5 ACZZ7ZZ6 -1.000000
    Z1ZZ8ZZ5 CCZZ8ZZ5 1.000000
    Z2ZZ8ZZ5 OBJZZZZZ 10.000000   NCZ14ZZ5 10.000000
    Z2ZZ8ZZ5 ACZZ8ZZ5 10.000000   CCZZ8ZZ5 1.000000
    Z2ZZ8ZZ5 NCZ15ZZ6 -10.000000
    Z3ZZ8ZZ5 OBJZZZZZ 20.000000   NCZ14ZZ5 20.000000
    Z3ZZ8ZZ5 ACZZ8ZZ5 20.000000   CCZZ8ZZ5 1.000000
    Z3ZZ8ZZ5 NCZ14ZZ6 -5.000000   ACZZ8ZZ6 -5.000000
    Z3ZZ8ZZ5 NCZ15ZZ6 -15.000000
    Z4ZZ8ZZ5 OBJZZZZZ 1.000000   NCZ14ZZ5 1.000000
    Z4ZZ8ZZ5 ACZZ8ZZ5 1.000000   NCZ14ZZ6 -1.000000
    Z4ZZ8ZZ5 ACZZ8ZZ6 -1.000000
    Z1ZZ9ZZ5 CCZZ9ZZ5 1.000000
    Z2ZZ9ZZ5 OBJZZZZZ 10.000000   NCZ15ZZ5 10.000000
    Z2ZZ9ZZ5 ACZZ9ZZ5 10.000000   CCZZ9ZZ5 1.000000
    Z2ZZ9ZZ5 NCZ13ZZ6 -10.000000
    Z3ZZ9ZZ5 OBJZZZZZ 20.000000   NCZ15ZZ5 20.000000
    Z3ZZ9ZZ5 ACZZ9ZZ5 20.000000   CCZZ9ZZ5 1.000000
    Z3ZZ9ZZ5 NCZ15ZZ6 -5.000000   ACZZ9ZZ6 -5.000000
    Z3ZZ9ZZ5 NCZ13ZZ6 -15.000000
    Z4ZZ9ZZ5 OBJZZZZZ 1.000000   NCZ15ZZ5 1.000000
    Z4ZZ9ZZ5 ACZZ9ZZ5 1.000000   NCZ15ZZ6 -1.000000
    Z4ZZ9ZZ5 ACZZ9ZZ6 -1.000000
    Z1Z10ZZ5 CCZ10ZZ5 1.000000
    Z2Z10ZZ5 OBJZZZZZ 10.000000   NCZ13ZZ5 10.000000
    Z2Z10ZZ5 ACZ10ZZ5 10.000000   CCZ10ZZ5 1.000000
    Z2Z10ZZ5 NCZ15ZZ6 -10.000000
    Z3Z10ZZ5 OBJZZZZZ 20.000000   NCZ13ZZ5 20.000000
    Z3Z10ZZ5 ACZ10ZZ5 20.000000   CCZ10ZZ5 1.000000
    Z3Z10ZZ5 NCZ13ZZ6 -5.000000   ACZ10ZZ6 -5.000000
    Z3Z10ZZ5 NCZ15ZZ6 -15.000000
    Z4Z10ZZ5 OBJZZZZZ 1.000000   NCZ13ZZ5 1.000000
    Z4Z10ZZ5 ACZ10ZZ5 1.000000   NCZ13ZZ6 -1.000000
    Z4Z10ZZ5 ACZ10ZZ6 -1.000000
    Z1Z11ZZ5 CCZ11ZZ5 1.000000
    Z2Z11ZZ5 OBJZZZZZ 10.000000   NCZ13ZZ5 10.000000
    Z2Z11ZZ5 ACZ11ZZ5 10.000000   CCZ11ZZ5 1.000000
    Z2Z11ZZ5 NCZZ6ZZ6 -10.000000
    Z3Z11ZZ5 OBJZZZZZ 20.000000   NCZ13ZZ5 20.000000
    Z3Z11ZZ5 ACZ11ZZ5 20.000000   CCZ11ZZ5 1.000000
    Z3Z11ZZ5 NCZ13ZZ6 -5.000000   ACZ11ZZ6 -5.000000
    Z3Z11ZZ5 NCZZ6ZZ6 -15.000000
    Z4Z11ZZ5 OBJZZZZZ 1.000000   NCZ13ZZ5 1.000000
    Z4Z11ZZ5 ACZ11ZZ5 1.000000   NCZ13ZZ6 -1.000000
    Z4Z11ZZ5 ACZ11ZZ6 -1.000000
    Z1Z12ZZ5 CCZ12ZZ5 1.000000
    Z2Z12ZZ5 OBJZZZZZ 10.000000   NCZZ6ZZ5 10.000000
    Z2Z12ZZ5 ACZ12ZZ5 10.000000   CCZ12ZZ5 1.000000
    Z2Z12ZZ5 NCZ13ZZ6 -10.000000
    Z3Z12ZZ5 OBJZZZZZ 20.000000   NCZZ6ZZ5 20.000000
    Z3Z12ZZ5 ACZ12ZZ5 20.000000   CCZ12ZZ5 1.000000
    Z3Z12ZZ5 NCZZ6ZZ6 -5.000000   ACZ12ZZ6 -5.000000
    Z3Z12ZZ5 NCZ13ZZ6 -15.000000
    Z4Z12ZZ5 OBJZZZZZ 1.000000   NCZZ6ZZ5 1.000000
    Z4Z12ZZ5 ACZ12ZZ5 1.000000   NCZZ6ZZ6 -1.000000
    Z4Z12ZZ5 ACZ12ZZ6 -1.000000
    Z1Z13ZZ5 CCZ13ZZ5 1.000000
    Z2Z13ZZ5 OBJZZZZZ 10.000000   NCZZ6ZZ5 10.000000
    Z2Z13ZZ5 ACZ13ZZ5 10.000000   CCZ13ZZ5 1.000000
    Z2Z13ZZ5 NCZZ2ZZ6 -10.000000
    Z3Z13ZZ5 OBJZZZZZ 20.000000   NCZZ6ZZ5 20.000000
    Z3Z13ZZ5 ACZ13ZZ5 20.000000   CCZ13ZZ5 1.000000
    Z3Z13ZZ5 NCZZ6ZZ6 -5.000000   ACZ13ZZ6 -5.000000
    Z3Z13ZZ5 NCZZ2ZZ6 -15.000000
    Z4Z13ZZ5 OBJZZZZZ 1.000000   NCZZ6ZZ5 1.000000
    Z4Z13ZZ5 ACZ13ZZ5 1.000000   NCZZ6ZZ6 -1.000000
    Z4Z13ZZ5 ACZ13ZZ6 -1.000000
    Z1Z14ZZ5 CCZ14ZZ5 1.000000
    Z2Z14ZZ5 OBJZZZZZ 10.000000   NCZZ2ZZ5 10.000000
    Z2Z14ZZ5 ACZ14ZZ5 10.000000   CCZ14ZZ5 1.000000
    Z2Z14ZZ5 NCZZ6ZZ6 -10.000000
    Z3Z14ZZ5 OBJZZZZZ 20.000000   NCZZ2ZZ5 20.000000
    Z3Z14ZZ5 ACZ14ZZ5 20.000000   CCZ14ZZ5 1.000000
    Z3Z14ZZ5 NCZZ2ZZ6 -5.000000   ACZ14ZZ6 -5.000000
    Z3Z14ZZ5 NCZZ6ZZ6 -15.000000
    Z4Z14ZZ5 OBJZZZZZ 1.000000   NCZZ2ZZ5 1.000000
    Z4Z14ZZ5 ACZ14ZZ5 1.000000   NCZZ2ZZ6 -1.000000
    Z4Z14ZZ5 ACZ14ZZ6 -1.000000
    Z1Z15ZZ5 CCZ15ZZ5 1.000000
    Z2Z15ZZ5 OBJZZZZZ 10.000000   NCZZ2ZZ5 10.000000
    Z2Z15ZZ5 ACZ15ZZ5 10.000000   CCZ15ZZ5 1.000000
    Z2Z15ZZ5 NCZZ1ZZ6 -10.000000
    Z3Z15ZZ5 OBJZZZZZ 20.000000   NCZZ2ZZ5 20.000000
    Z3Z15ZZ5 ACZ15ZZ5 20.000000   CCZ15ZZ5 1.000000
    Z3Z15ZZ5 NCZZ2ZZ6 -5.000000   ACZ15ZZ6 -5.000000
    Z3Z15ZZ5 NCZZ1ZZ6 -15.000000
    Z4Z15ZZ5 OBJZZZZZ 1.000000   NCZZ2ZZ5 1.000000
    Z4Z15ZZ5 ACZ15ZZ5 1.000000   NCZZ2ZZ6 -1.000000
    Z4Z15ZZ5 ACZ15ZZ6 -1.000000
    Z1Z16ZZ5 CCZ16ZZ5 1.000000
    Z2Z16ZZ5 OBJZZZZZ 10.000000   NCZZ1ZZ5 10.000000
    Z2Z16ZZ5 ACZ16ZZ5 10.000000   CCZ16ZZ5 1.000000
    Z2Z16ZZ5 NCZZ2ZZ6 -10.000000
    Z3Z16ZZ5 OBJZZZZZ 20.000000   NCZZ1ZZ5 20.000000
    Z3Z16ZZ5 ACZ16ZZ5 20.000000   CCZ16ZZ5 1.000000
    Z3Z16ZZ5 NCZZ1ZZ6 -5.000000   ACZ16ZZ6 -5.000000
    Z3Z16ZZ5 NCZZ2ZZ6 -15.000000
    Z4Z16ZZ5 OBJZZZZZ 1.000000   NCZZ1ZZ5 1.000000
    Z4Z16ZZ5 ACZ16ZZ5 1.000000   NCZZ1ZZ6 -1.000000
    Z4Z16ZZ5 ACZ16ZZ6 -1.000000
    Z1Z17ZZ5 CCZ17ZZ5 1.000000
    Z2Z17ZZ5 OBJZZZZZ 15.000000   NCZZ3ZZ5 15.000000
    Z2Z17ZZ5 ACZ17ZZ5 15.000000   CCZ17ZZ5 1.000000
    Z2Z17ZZ5 NCZZ7ZZ6 -15.000000
    Z3Z17ZZ5 OBJZZZZZ 25.000000   NCZZ3ZZ5 25.000000
    Z3Z17ZZ5 ACZ17ZZ5 25.000000   CCZ17ZZ5 1.000000
    Z3Z17ZZ5 NCZZ3ZZ6 -7.000000   ACZ17ZZ6 -7.000000
    Z3Z17ZZ5 NCZZ7ZZ6 -18.000000
    Z4Z17ZZ5 OBJZZZZZ 1.000000   NCZZ3ZZ5 1.000000
    Z4Z17ZZ5 ACZ17ZZ5 1.000000   NCZZ3ZZ6 -1.000000
    Z4Z17ZZ5 ACZ17ZZ6 -1.000000
    Z1Z18ZZ5 CCZ18ZZ5 1.000000
    Z2Z18ZZ5 OBJZZZZZ 15.000000   NCZZ9ZZ5 15.000000
    Z2Z18ZZ5 ACZ18ZZ5 15.000000   CCZ18ZZ5 1.000000
    Z2Z18ZZ5 NCZZ7ZZ6 -15.000000
    Z3Z18ZZ5 OBJZZZZZ 25.000000   NCZZ9ZZ5 25.000000
    Z3Z18ZZ5 ACZ18ZZ5 25.000000   CCZ18ZZ5 1.000000
    Z3Z18ZZ5 NCZZ9ZZ6 -7.000000   ACZ18ZZ6 -7.000000
    Z3Z18ZZ5 NCZZ7ZZ6 -18.000000
    Z4Z18ZZ5 OBJZZZZZ 1.000000   NCZZ9ZZ5 1.000000
    Z4Z18ZZ5 ACZ18ZZ5 1.000000   NCZZ9ZZ6 -1.000000
    Z4Z18ZZ5 ACZ18ZZ6 -1.000000
    Z1Z19ZZ5 CCZ19ZZ5 1.000000
    Z2Z19ZZ5 OBJZZZZZ 15.000000   NCZZ9ZZ5 15.000000
    Z2Z19ZZ5 ACZ19ZZ5 15.000000   CCZ19ZZ5 1.000000
    Z2Z19ZZ5 NCZ10ZZ6 -15.000000
    Z3Z19ZZ5 OBJZZZZZ 25.000000   NCZZ9ZZ5 25.000000
    Z3Z19ZZ5 ACZ19ZZ5 25.000000   CCZ19ZZ5 1.000000
    Z3Z19ZZ5 NCZZ9ZZ6 -7.000000   ACZ19ZZ6 -7.000000
    Z3Z19ZZ5 NCZ10ZZ6 -18.000000
    Z4Z19ZZ5 OBJZZZZZ 1.000000   NCZZ9ZZ5 1.000000
    Z4Z19ZZ5 ACZ19ZZ5 1.000000   NCZZ9ZZ6 -1.000000
    Z4Z19ZZ5 ACZ19ZZ6 -1.000000
    Z1Z20ZZ5 CCZ20ZZ5 1.000000
    Z2Z20ZZ5 OBJZZZZZ 15.000000   NCZ14ZZ5 15.000000
    Z2Z20ZZ5 ACZ20ZZ5 15.000000   CCZ20ZZ5 1.000000
    Z2Z20ZZ5 NCZ10ZZ6 -15.000000
    Z3Z20ZZ5 OBJZZZZZ 25.000000   NCZ14ZZ5 25.000000
    Z3Z20ZZ5 ACZ20ZZ5 25.000000   CCZ20ZZ5 1.000000
    Z3Z20ZZ5 NCZ14ZZ6 -7.000000   ACZ20ZZ6 -7.000000
    Z3Z20ZZ5 NCZ10ZZ6 -18.000000
    Z4Z20ZZ5 OBJZZZZZ 1.000000   NCZ14ZZ5 1.000000
    Z4Z20ZZ5 ACZ20ZZ5 1.000000   NCZ14ZZ6 -1.000000
    Z4Z20ZZ5 ACZ20ZZ6 -1.000000
    Z1Z21ZZ5 CCZ21ZZ5 1.000000
    Z2Z21ZZ5 OBJZZZZZ 15.000000   NCZ14ZZ5 15.000000
    Z2Z21ZZ5 ACZ21ZZ5 15.000000   CCZ21ZZ5 1.000000
    Z2Z21ZZ5 NCZ11ZZ6 -15.000000
    Z3Z21ZZ5 OBJZZZZZ 25.000000   NCZ14ZZ5 25.000000
    Z3Z21ZZ5 ACZ21ZZ5 25.000000   CCZ21ZZ5 1.000000
    Z3Z21ZZ5 NCZ14ZZ6 -7.000000   ACZ21ZZ6 -7.000000
    Z3Z21ZZ5 NCZ11ZZ6 -18.000000
    Z4Z21ZZ5 OBJZZZZZ 1.000000   NCZ14ZZ5 1.000000
    Z4Z21ZZ5 ACZ21ZZ5 1.000000   NCZ14ZZ6 -1.000000
    Z4Z21ZZ5 ACZ21ZZ6 -1.000000
    Z1Z22ZZ5 CCZ22ZZ5 1.000000
    Z2Z22ZZ5 OBJZZZZZ 15.000000   NCZ15ZZ5 15.000000
    Z2Z22ZZ5 ACZ22ZZ5 15.000000   CCZ22ZZ5 1.000000
    Z2Z22ZZ5 NCZ11ZZ6 -15.000000
    Z3Z22ZZ5 OBJZZZZZ 25.000000   NCZ15ZZ5 25.000000
    Z3Z22ZZ5 ACZ22ZZ5 25.000000   CCZ22ZZ5 1.000000
    Z3Z22ZZ5 NCZ15ZZ6 -7.000000   ACZ22ZZ6 -7.000000
    Z3Z22ZZ5 NCZ11ZZ6 -18.000000
    Z4Z22ZZ5 OBJZZZZZ 1.000000   NCZ15ZZ5 1.000000
    Z4Z22ZZ5 ACZ22ZZ5 1.000000   NCZ15ZZ6 -1.000000
    Z4Z22ZZ5 ACZ22ZZ6 -1.000000
    Z1Z23ZZ5 CCZ23ZZ5 1.000000
    Z2Z23ZZ5 OBJZZZZZ 15.000000   NCZ15ZZ5 15.000000
    Z2Z23ZZ5 ACZ23ZZ5 15.000000   CCZ23ZZ5 1.000000
    Z2Z23ZZ5 NCZ12ZZ6 -15.000000
    Z3Z23ZZ5 OBJZZZZZ 25.000000   NCZ15ZZ5 25.000000
    Z3Z23ZZ5 ACZ23ZZ5 25.000000   CCZ23ZZ5 1.000000
    Z3Z23ZZ5 NCZ15ZZ6 -7.000000   ACZ23ZZ6 -7.000000
    Z3Z23ZZ5 NCZ12ZZ6 -18.000000
    Z4Z23ZZ5 OBJZZZZZ 1.000000   NCZ15ZZ5 1.000000
    Z4Z23ZZ5 ACZ23ZZ5 1.000000   NCZ15ZZ6 -1.000000
    Z4Z23ZZ5 ACZ23ZZ6 -1.000000
    Z1Z24ZZ5 CCZ24ZZ5 1.000000
    Z2Z24ZZ5 OBJZZZZZ 15.000000   NCZ13ZZ5 15.000000
    Z2Z24ZZ5 ACZ24ZZ5 15.000000   CCZ24ZZ5 1.000000
    Z2Z24ZZ5 NCZ12ZZ6 -15.000000
    Z3Z24ZZ5 OBJZZZZZ 25.000000   NCZ13ZZ5 25.000000
    Z3Z24ZZ5 ACZ24ZZ5 25.000000   CCZ24ZZ5 1.000000
    Z3Z24ZZ5 NCZ13ZZ6 -7.000000   ACZ24ZZ6 -7.000000
    Z3Z24ZZ5 NCZ12ZZ6 -18.000000
    Z4Z24ZZ5 OBJZZZZZ 1.000000   NCZ13ZZ5 1.000000
    Z4Z24ZZ5 ACZ24ZZ5 1.000000   NCZ13ZZ6 -1.000000
    Z4Z24ZZ5 ACZ24ZZ6 -1.000000
    Z1Z25ZZ5 CCZ25ZZ5 1.000000
    Z2Z25ZZ5 OBJZZZZZ 15.000000   NCZ13ZZ5 15.000000
    Z2Z25ZZ5 ACZ25ZZ5 15.000000   CCZ25ZZ5 1.000000
    Z2Z25ZZ5 NCZZ8ZZ6 -15.000000
    Z3Z25ZZ5 OBJZZZZZ 25.000000   NCZ13ZZ5 25.000000
    Z3Z25ZZ5 ACZ25ZZ5 25.000000   CCZ25ZZ5 1.000000
    Z3Z25ZZ5 NCZ13ZZ6 -7.000000   ACZ25ZZ6 -7.000000
    Z3Z25ZZ5 NCZZ8ZZ6 -18.000000
    Z4Z25ZZ5 OBJZZZZZ 1.000000   NCZ13ZZ5 1.000000
    Z4Z25ZZ5 ACZ25ZZ5 1.000000   NCZ13ZZ6 -1.000000
    Z4Z25ZZ5 ACZ25ZZ6 -1.000000
    Z1Z26ZZ5 CCZ26ZZ5 1.000000
    Z2Z26ZZ5 OBJZZZZZ 15.000000   NCZZ6ZZ5 15.000000
    Z2Z26ZZ5 ACZ26ZZ5 15.000000   CCZ26ZZ5 1.000000
    Z2Z26ZZ5 NCZZ8ZZ6 -15.000000
    Z3Z26ZZ5 OBJZZZZZ 25.000000   NCZZ6ZZ5 25.000000
    Z3Z26ZZ5 ACZ26ZZ5 25.000000   CCZ26ZZ5 1.000000
    Z3Z26ZZ5 NCZZ6ZZ6 -7.000000   ACZ26ZZ6 -7.000000
    Z3Z26ZZ5 NCZZ8ZZ6 -18.000000
    Z4Z26ZZ5 OBJZZZZZ 1.000000   NCZZ6ZZ5 1.000000
    Z4Z26ZZ5 ACZ26ZZ5 1.000000   NCZZ6ZZ6 -1.000000
    Z4Z26ZZ5 ACZ26ZZ6 -1.000000
    Z1Z27ZZ5 CCZ27ZZ5 1.000000
    Z2Z27ZZ5 OBJZZZZZ 15.000000   NCZZ6ZZ5 15.000000
    Z2Z27ZZ5 ACZ27ZZ5 15.000000   CCZ27ZZ5 1.000000
    Z2Z27ZZ5 NCZZ5ZZ6 -15.000000
    Z3Z27ZZ5 OBJZZZZZ 25.000000   NCZZ6ZZ5 25.000000
    Z3Z27ZZ5 ACZ27ZZ5 25.000000   CCZ27ZZ5 1.000000
    Z3Z27ZZ5 NCZZ6ZZ6 -7.000000   ACZ27ZZ6 -7.000000
    Z3Z27ZZ5 NCZZ5ZZ6 -18.000000
    Z4Z27ZZ5 OBJZZZZZ 1.000000   NCZZ6ZZ5 1.000000
    Z4Z27ZZ5 ACZ27ZZ5 1.000000   NCZZ6ZZ6 -1.000000
    Z4Z27ZZ5 ACZ27ZZ6 -1.000000
    Z1Z28ZZ5 CCZ28ZZ5 1.000000
    Z2Z28ZZ5 OBJZZZZZ 15.000000   NCZZ2ZZ5 15.000000
    Z2Z28ZZ5 ACZ28ZZ5 15.000000   CCZ28ZZ5 1.000000
    Z2Z28ZZ5 NCZZ5ZZ6 -15.000000
    Z3Z28ZZ5 OBJZZZZZ 25.000000   NCZZ2ZZ5 25.000000
    Z3Z28ZZ5 ACZ28ZZ5 25.000000   CCZ28ZZ5 1.000000
    Z3Z28ZZ5 NCZZ2ZZ6 -7.000000   ACZ28ZZ6 -7.000000
    Z3Z28ZZ5 NCZZ5ZZ6 -18.000000
    Z4Z28ZZ5 OBJZZZZZ 1.000000   NCZZ2ZZ5 1.000000
    Z4Z28ZZ5 ACZ28ZZ5 1.000000   NCZZ2ZZ6 -1.000000
    Z4Z28ZZ5 ACZ28ZZ6 -1.000000
    Z1Z29ZZ5 CCZ29ZZ5 1.000000
    Z2Z29ZZ5 OBJZZZZZ 15.000000   NCZZ2ZZ5 15.000000
    Z2Z29ZZ5 ACZ29ZZ5 15.000000   CCZ29ZZ5 1.000000
    Z2Z29ZZ5 NCZZ4ZZ6 -15.000000
    Z3Z29ZZ5 OBJZZZZZ 25.000000   NCZZ2ZZ5 25.000000
    Z3Z29ZZ5 ACZ29ZZ5 25.000000   CCZ29ZZ5 1.000000
    Z3Z29ZZ5 NCZZ2ZZ6 -7.000000   ACZ29ZZ6 -7.000000
    Z3Z29ZZ5 NCZZ4ZZ6 -18.000000
    Z4Z29ZZ5 OBJZZZZZ 1.000000   NCZZ2ZZ5 1.000000
    Z4Z29ZZ5 ACZ29ZZ5 1.000000   NCZZ2ZZ6 -1.000000
    Z4Z29ZZ5 ACZ29ZZ6 -1.000000
    Z1Z30ZZ5 CCZ30ZZ5 1.000000
    Z2Z30ZZ5 OBJZZZZZ 15.000000   NCZZ1ZZ5 15.000000
    Z2Z30ZZ5 ACZ30ZZ5 15.000000   CCZ30ZZ5 1.000000
    Z2Z30ZZ5 NCZZ4ZZ6 -15.000000
    Z3Z30ZZ5 OBJZZZZZ 25.000000   NCZZ1ZZ5 25.000000
    Z3Z30ZZ5 ACZ30ZZ5 25.000000   CCZ30ZZ5 1.000000
    Z3Z30ZZ5 NCZZ1ZZ6 -7.000000   ACZ30ZZ6 -7.000000
    Z3Z30ZZ5 NCZZ4ZZ6 -18.000000
    Z4Z30ZZ5 OBJZZZZZ 1.000000   NCZZ1ZZ5 1.000000
    Z4Z30ZZ5 ACZ30ZZ5 1.000000   NCZZ1ZZ6 -1.000000
    Z4Z30ZZ5 ACZ30ZZ6 -1.000000
    Z1Z31ZZ5 CCZ31ZZ5 1.000000
    Z2Z31ZZ5 OBJZZZZZ 30.000000   NCZZ7ZZ5 30.000000
    Z2Z31ZZ5 ACZ31ZZ5 30.000000   CCZ31ZZ5 1.000000
    Z2Z31ZZ5 NCZZ4ZZ6 -30.000000
    Z3Z31ZZ5 OBJZZZZZ 40.000000   NCZZ7ZZ5 40.000000
    Z3Z31ZZ5 ACZ31ZZ5 40.000000   CCZ31ZZ5 1.000000
    Z3Z31ZZ5 NCZZ7ZZ6 -7.000000   ACZ31ZZ6 -7.000000
    Z3Z31ZZ5 NCZZ4ZZ6 -33.000000
    Z4Z31ZZ5 OBJZZZZZ 1.000000   NCZZ7ZZ5 1.000000
    Z4Z31ZZ5 ACZ31ZZ5 1.000000   NCZZ7ZZ6 -1.000000
    Z4Z31ZZ5 ACZ31ZZ6 -1.000000
    Z1Z32ZZ5 CCZ32ZZ5 1.000000
    Z2Z32ZZ5 OBJZZZZZ 30.000000   NCZZ4ZZ5 30.000000
    Z2Z32ZZ5 ACZ32ZZ5 30.000000   CCZ32ZZ5 1.000000
    Z2Z32ZZ5 NCZZ7ZZ6 -30.000000
    Z3Z32ZZ5 OBJZZZZZ 40.000000   NCZZ4ZZ5 40.000000
    Z3Z32ZZ5 ACZ32ZZ5 40.000000   CCZ32ZZ5 1.000000
    Z3Z32ZZ5 NCZZ4ZZ6 -7.000000   ACZ32ZZ6 -7.000000
    Z3Z32ZZ5 NCZZ7ZZ6 -33.000000
    Z4Z32ZZ5 OBJZZZZZ 1.000000   NCZZ4ZZ5 1.000000
    Z4Z32ZZ5 ACZ32ZZ5 1.000000   NCZZ4ZZ6 -1.000000
    Z4Z32ZZ5 ACZ32ZZ6 -1.000000
    Z1Z33ZZ5 CCZ33ZZ5 1.000000
    Z2Z33ZZ5 OBJZZZZZ 30.000000   NCZZ7ZZ5 30.000000
    Z2Z33ZZ5 ACZ33ZZ5 30.000000   CCZ33ZZ5 1.000000
    Z2Z33ZZ5 NCZ10ZZ6 -30.000000
    Z3Z33ZZ5 OBJZZZZZ 40.000000   NCZZ7ZZ5 40.000000
    Z3Z33ZZ5 ACZ33ZZ5 40.000000   CCZ33ZZ5 1.000000
    Z3Z33ZZ5 NCZZ7ZZ6 -7.000000   ACZ33ZZ6 -7.000000
    Z3Z33ZZ5 NCZ10ZZ6 -33.000000
    Z4Z33ZZ5 OBJZZZZZ 1.000000   NCZZ7ZZ5 1.000000
    Z4Z33ZZ5 ACZ33ZZ5 1.000000   NCZZ7ZZ6 -1.000000
    Z4Z33ZZ5 ACZ33ZZ6 -1.000000
    Z1Z34ZZ5 CCZ34ZZ5 1.000000
    Z2Z34ZZ5 OBJZZZZZ 30.000000   NCZ10ZZ5 30.000000
    Z2Z34ZZ5 ACZ34ZZ5 30.000000   CCZ34ZZ5 1.000000
    Z2Z34ZZ5 NCZZ7ZZ6 -30.000000
    Z3Z34ZZ5 OBJZZZZZ 40.000000   NCZ10ZZ5 40.000000
    Z3Z34ZZ5 ACZ34ZZ5 40.000000   CCZ34ZZ5 1.000000
    Z3Z34ZZ5 NCZ10ZZ6 -7.000000   ACZ34ZZ6 -7.000000
    Z3Z34ZZ5 NCZZ7ZZ6 -33.000000
    Z4Z34ZZ5 OBJZZZZZ 1.000000   NCZ10ZZ5 1.000000
    Z4Z34ZZ5 ACZ34ZZ5 1.000000   NCZ10ZZ6 -1.000000
    Z4Z34ZZ5 ACZ34ZZ6 -1.000000
    Z1Z35ZZ5 CCZ35ZZ5 1.000000
    Z2Z35ZZ5 OBJZZZZZ 30.000000   NCZ10ZZ5 30.000000
    Z2Z35ZZ5 ACZ35ZZ5 30.000000   CCZ35ZZ5 1.000000
    Z2Z35ZZ5 NCZ11ZZ6 -30.000000
    Z3Z35ZZ5 OBJZZZZZ 40.000000   NCZ10ZZ5 40.000000
    Z3Z35ZZ5 ACZ35ZZ5 40.000000   CCZ35ZZ5 1.000000
    Z3Z35ZZ5 NCZ10ZZ6 -7.000000   ACZ35ZZ6 -7.000000
    Z3Z35ZZ5 NCZ11ZZ6 -33.000000
    Z4Z35ZZ5 OBJZZZZZ 1.000000   NCZ10ZZ5 1.000000
    Z4Z35ZZ5 ACZ35ZZ5 1.000000   NCZ10ZZ6 -1.000000
    Z4Z35ZZ5 ACZ35ZZ6 -1.000000
    Z1Z36ZZ5 CCZ36ZZ5 1.000000
    Z2Z36ZZ5 OBJZZZZZ 30.000000   NCZ11ZZ5 30.000000
    Z2Z36ZZ5 ACZ36ZZ5 30.000000   CCZ36ZZ5 1.000000
    Z2Z36ZZ5 NCZ10ZZ6 -30.000000
    Z3Z36ZZ5 OBJZZZZZ 40.000000   NCZ11ZZ5 40.000000
    Z3Z36ZZ5 ACZ36ZZ5 40.000000   CCZ36ZZ5 1.000000
    Z3Z36ZZ5 NCZ11ZZ6 -7.000000   ACZ36ZZ6 -7.000000
    Z3Z36ZZ5 NCZ10ZZ6 -33.000000
    Z4Z36ZZ5 OBJZZZZZ 1.000000   NCZ11ZZ5 1.000000
    Z4Z36ZZ5 ACZ36ZZ5 1.000000   NCZ11ZZ6 -1.000000
    Z4Z36ZZ5 ACZ36ZZ6 -1.000000
    Z1Z37ZZ5 CCZ37ZZ5 1.000000
    Z2Z37ZZ5 OBJZZZZZ 30.000000   NCZ11ZZ5 30.000000
    Z2Z37ZZ5 ACZ37ZZ5 30.000000   CCZ37ZZ5 1.000000
    Z2Z37ZZ5 NCZ12ZZ6 -30.000000
    Z3Z37ZZ5 OBJZZZZZ 40.000000   NCZ11ZZ5 40.000000
    Z3Z37ZZ5 ACZ37ZZ5 40.000000   CCZ37ZZ5 1.000000
    Z3Z37ZZ5 NCZ11ZZ6 -7.000000   ACZ37ZZ6 -7.000000
    Z3Z37ZZ5 NCZ12ZZ6 -33.000000
    Z4Z37ZZ5 OBJZZZZZ 1.000000   NCZ11ZZ5 1.000000
    Z4Z37ZZ5 ACZ37ZZ5 1.000000   NCZ11ZZ6 -1.000000
    Z4Z37ZZ5 ACZ37ZZ6 -1.000000
    Z1Z38ZZ5 CCZ38ZZ5 1.000000
    Z2Z38ZZ5 OBJZZZZZ 30.000000   NCZ12ZZ5 30.000000
    Z2Z38ZZ5 ACZ38ZZ5 30.000000   CCZ38ZZ5 1.000000
    Z2Z38ZZ5 NCZ11ZZ6 -30.000000
    Z3Z38ZZ5 OBJZZZZZ 40.000000   NCZ12ZZ5 40.000000
    Z3Z38ZZ5 ACZ38ZZ5 40.000000   CCZ38ZZ5 1.000000
    Z3Z38ZZ5 NCZ12ZZ6 -7.000000   ACZ38ZZ6 -7.000000
    Z3Z38ZZ5 NCZ11ZZ6 -33.000000
    Z4Z38ZZ5 OBJZZZZZ 1.000000   NCZ12ZZ5 1.000000
    Z4Z38ZZ5 ACZ38ZZ5 1.000000   NCZ12ZZ6 -1.000000
    Z4Z38ZZ5 ACZ38ZZ6 -1.000000
    Z1Z39ZZ5 CCZ39ZZ5 1.000000
    Z2Z39ZZ5 OBJZZZZZ 30.000000   NCZ12ZZ5 30.000000
    Z2Z39ZZ5 ACZ39ZZ5 30.000000   CCZ39ZZ5 1.000000
    Z2Z39ZZ5 NCZZ8ZZ6 -30.000000
    Z3Z39ZZ5 OBJZZZZZ 40.000000   NCZ12ZZ5 40.000000
    Z3Z39ZZ5 ACZ39ZZ5 40.000000   CCZ39ZZ5 1.000000
    Z3Z39ZZ5 NCZ12ZZ6 -7.000000   ACZ39ZZ6 -7.000000
    Z3Z39ZZ5 NCZZ8ZZ6 -33.000000
    Z4Z39ZZ5 OBJZZZZZ 1.000000   NCZ12ZZ5 1.000000
    Z4Z39ZZ5 ACZ39ZZ5 1.000000   NCZ12ZZ6 -1.000000
    Z4Z39ZZ5 ACZ39ZZ6 -1.000000
    Z1Z40ZZ5 CCZ40ZZ5 1.000000
    Z2Z40ZZ5 OBJZZZZZ 30.000000   NCZZ8ZZ5 30.000000
    Z2Z40ZZ5 ACZ40ZZ5 30.000000   CCZ40ZZ5 1.000000
    Z2Z40ZZ5 NCZ12ZZ6 -30.000000
    Z3Z40ZZ5 OBJZZZZZ 40.000000   NCZZ8ZZ5 40.000000
    Z3Z40ZZ5 ACZ40ZZ5 40.000000   CCZ40ZZ5 1.000000
    Z3Z40ZZ5 NCZZ8ZZ6 -7.000000   ACZ40ZZ6 -7.000000
    Z3Z40ZZ5 NCZ12ZZ6 -33.000000
    Z4Z40ZZ5 OBJZZZZZ 1.000000   NCZZ8ZZ5 1.000000
    Z4Z40ZZ5 ACZ40ZZ5 1.000000   NCZZ8ZZ6 -1.000000
    Z4Z40ZZ5 ACZ40ZZ6 -1.000000
    Z1Z41ZZ5 CCZ41ZZ5 1.000000
    Z2Z41ZZ5 OBJZZZZZ 30.000000   NCZZ5ZZ5 30.000000
    Z2Z41ZZ5 ACZ41ZZ5 30.000000   CCZ41ZZ5 1.000000
    Z2Z41ZZ5 NCZZ8ZZ6 -30.000000
    Z3Z41ZZ5 OBJZZZZZ 40.000000   NCZZ5ZZ5 40.000000
    Z3Z41ZZ5 ACZ41ZZ5 40.000000   CCZ41ZZ5 1.000000
    Z3Z41ZZ5 NCZZ5ZZ6 -7.000000   ACZ41ZZ6 -7.000000
    Z3Z41ZZ5 NCZZ8ZZ6 -33.000000
    Z4Z41ZZ5 OBJZZZZZ 1.000000   NCZZ5ZZ5 1.000000
    Z4Z41ZZ5 ACZ41ZZ5 1.000000   NCZZ5ZZ6 -1.000000
    Z4Z41ZZ5 ACZ41ZZ6 -1.000000
    Z1Z42ZZ5 CCZ42ZZ5 1.000000
    Z2Z42ZZ5 OBJZZZZZ 30.000000   NCZZ8ZZ5 30.000000
    Z2Z42ZZ5 ACZ42ZZ5 30.000000   CCZ42ZZ5 1.000000
    Z2Z42ZZ5 NCZZ5ZZ6 -30.000000
    Z3Z42ZZ5 OBJZZZZZ 40.000000   NCZZ8ZZ5 40.000000
    Z3Z42ZZ5 ACZ42ZZ5 40.000000   CCZ42ZZ5 1.000000
    Z3Z42ZZ5 NCZZ8ZZ6 -7.000000   ACZ42ZZ6 -7.000000
    Z3Z42ZZ5 NCZZ5ZZ6 -33.000000
    Z4Z42ZZ5 OBJZZZZZ 1.000000   NCZZ8ZZ5 1.000000
    Z4Z42ZZ5 ACZ42ZZ5 1.000000   NCZZ8ZZ6 -1.000000
    Z4Z42ZZ5 ACZ42ZZ6 -1.000000
    Z1Z43ZZ5 CCZ43ZZ5 1.000000
    Z2Z43ZZ5 OBJZZZZZ 30.000000   NCZZ5ZZ5 30.000000
    Z2Z43ZZ5 ACZ43ZZ5 30.000000   CCZ43ZZ5 1.000000
    Z2Z43ZZ5 NCZZ4ZZ6 -30.000000
    Z3Z43ZZ5 OBJZZZZZ 40.000000   NCZZ5ZZ5 40.000000
    Z3Z43ZZ5 ACZ43ZZ5 40.000000   CCZ43ZZ5 1.000000
    Z3Z43ZZ5 NCZZ5ZZ6 -7.000000   ACZ43ZZ6 -7.000000
    Z3Z43ZZ5 NCZZ4ZZ6 -33.000000
    Z4Z43ZZ5 OBJZZZZZ 1.000000   NCZZ5ZZ5 1.000000
    Z4Z43ZZ5 ACZ43ZZ5 1.000000   NCZZ5ZZ6 -1.000000
    Z4Z43ZZ5 ACZ43ZZ6 -1.000000
    Z1Z44ZZ5 CCZ44ZZ5 1.000000
    Z2Z44ZZ5 OBJZZZZZ 30.000000   NCZZ4ZZ5 30.000000
    Z2Z44ZZ5 ACZ44ZZ5 30.000000   CCZ44ZZ5 1.000000
    Z2Z44ZZ5 NCZZ5ZZ6 -30.000000
    Z3Z44ZZ5 OBJZZZZZ 40.000000   NCZZ4ZZ5 40.000000
    Z3Z44ZZ5 ACZ44ZZ5 40.000000   CCZ44ZZ5 1.000000
    Z3Z44ZZ5 NCZZ4ZZ6 -7.000000   ACZ44ZZ6 -7.000000
    Z3Z44ZZ5 NCZZ5ZZ6 -33.000000
    Z4Z44ZZ5 OBJZZZZZ 1.000000   NCZZ4ZZ5 1.000000
    Z4Z44ZZ5 ACZ44ZZ5 1.000000   NCZZ4ZZ6 -1.000000
    Z4Z44ZZ5 ACZ44ZZ6 -1.000000
    Z1Z45ZZ5 CCZ45ZZ5 1.000000
    Z2Z45ZZ5 OBJZZZZZ 50.000000   NCZZ4ZZ5 50.000000
    Z2Z45ZZ5 ACZ45ZZ5 50.000000   CCZ45ZZ5 1.000000
    Z3Z45ZZ5 OBJZZZZZ 80.000000   NCZZ4ZZ5 80.000000
    Z3Z45ZZ5 ACZ45ZZ5 80.000000   CCZ45ZZ5 1.000000
    Z3Z45ZZ5 NCZZ4ZZ6 -15.000000   ACZ45ZZ6 -15.000000
    Z4Z45ZZ5 OBJZZZZZ 1.000000   NCZZ4ZZ5 1.000000
    Z4Z45ZZ5 ACZ45ZZ5 1.000000   NCZZ4ZZ6 -1.000000
    Z4Z45ZZ5 ACZ45ZZ6 -1.000000
    Z1Z46ZZ5 CCZ46ZZ5 1.000000
    Z2Z46ZZ5 OBJZZZZZ 50.000000   NCZ10ZZ5 50.000000
    Z2Z46ZZ5 ACZ46ZZ5 50.000000   CCZ46ZZ5 1.000000
    Z3Z46ZZ5 OBJZZZZZ 80.000000   NCZ10ZZ5 80.000000
    Z3Z46ZZ5 ACZ46ZZ5 80.000000   CCZ46ZZ5 1.000000
    Z3Z46ZZ5 NCZ10ZZ6 -15.000000   ACZ46ZZ6 -15.000000
    Z4Z46ZZ5 OBJZZZZZ 1.000000   NCZ10ZZ5 1.000000
    Z4Z46ZZ5 ACZ46ZZ5 1.000000   NCZ10ZZ6 -1.000000
    Z4Z46ZZ5 ACZ46ZZ6 -1.000000
    Z1Z47ZZ5 CCZ47ZZ5 1.000000
    Z2Z47ZZ5 OBJZZZZZ 50.000000   NCZ12ZZ5 50.000000
    Z2Z47ZZ5 ACZ47ZZ5 50.000000   CCZ47ZZ5 1.000000
    Z3Z47ZZ5 OBJZZZZZ 80.000000   NCZ12ZZ5 80.000000
    Z3Z47ZZ5 ACZ47ZZ5 80.000000   CCZ47ZZ5 1.000000
    Z3Z47ZZ5 NCZ12ZZ6 -15.000000   ACZ47ZZ6 -15.000000
    Z4Z47ZZ5 OBJZZZZZ 1.000000   NCZ12ZZ5 1.000000
    Z4Z47ZZ5 ACZ47ZZ5 1.000000   NCZ12ZZ6 -1.000000
    Z4Z47ZZ5 ACZ47ZZ6 -1.000000
    Z1ZZ1ZZ6 CCZZ1ZZ6 1.000000
    Z2ZZ1ZZ6 OBJZZZZZ 10.000000   NCZZ3ZZ6 10.000000
    Z2ZZ1ZZ6 ACZZ1ZZ6 10.000000   CCZZ1ZZ6 1.000000
    Z2ZZ1ZZ6 NCZZ1ZZ7 -10.000000
    Z3ZZ1ZZ6 OBJZZZZZ 20.000000   NCZZ3ZZ6 20.000000
    Z3ZZ1ZZ6 ACZZ1ZZ6 20.000000   CCZZ1ZZ6 1.000000
    Z3ZZ1ZZ6 NCZZ3ZZ7 -5.000000   ACZZ1ZZ7 -5.000000
    Z3ZZ1ZZ6 NCZZ1ZZ7 -15.000000
    Z4ZZ1ZZ6 OBJZZZZZ 1.000000   NCZZ3ZZ6 1.000000
    Z4ZZ1ZZ6 ACZZ1ZZ6 1.000000   NCZZ3ZZ7 -1.000000
    Z4ZZ1ZZ6 ACZZ1ZZ7 -1.000000
    Z1ZZ2ZZ6 CCZZ2ZZ6 1.000000
    Z2ZZ2ZZ6 OBJZZZZZ 10.000000   NCZZ1ZZ6 10.000000
    Z2ZZ2ZZ6 ACZZ2ZZ6 10.000000   CCZZ2ZZ6 1.000000
    Z2ZZ2ZZ6 NCZZ3ZZ7 -10.000000
    Z3ZZ2ZZ6 OBJZZZZZ 20.000000   NCZZ1ZZ6 20.000000
    Z3ZZ2ZZ6 ACZZ2ZZ6 20.000000   CCZZ2ZZ6 1.000000
    Z3ZZ2ZZ6 NCZZ1ZZ7 -5.000000   ACZZ2ZZ7 -5.000000
    Z3ZZ2ZZ6 NCZZ3ZZ7 -15.000000
    Z4ZZ2ZZ6 OBJZZZZZ 1.000000   NCZZ1ZZ6 1.000000
    Z4ZZ2ZZ6 ACZZ2ZZ6 1.000000   NCZZ1ZZ7 -1.000000
    Z4ZZ2ZZ6 ACZZ2ZZ7 -1.000000
    Z1ZZ3ZZ6 CCZZ3ZZ6 1.000000
    Z2ZZ3ZZ6 OBJZZZZZ 10.000000   NCZZ9ZZ6 10.000000
    Z2ZZ3ZZ6 ACZZ3ZZ6 10.000000   CCZZ3ZZ6 1.000000
    Z2ZZ3ZZ6 NCZZ3ZZ7 -10.000000
    Z3ZZ3ZZ6 OBJZZZZZ 20.000000   NCZZ9ZZ6 20.000000
    Z3ZZ3ZZ6 ACZZ3ZZ6 20.000000   CCZZ3ZZ6 1.000000
    Z3ZZ3ZZ6 NCZZ9ZZ7 -5.000000   ACZZ3ZZ7 -5.000000
    Z3ZZ3ZZ6 NCZZ3ZZ7 -15.000000
    Z4ZZ3ZZ6 OBJZZZZZ 1.000000   NCZZ9ZZ6 1.000000
    Z4ZZ3ZZ6 ACZZ3ZZ6 1.000000   NCZZ9ZZ7 -1.000000
    Z4ZZ3ZZ6 ACZZ3ZZ7 -1.000000
    Z1ZZ4ZZ6 CCZZ4ZZ6 1.000000
    Z2ZZ4ZZ6 OBJZZZZZ 10.000000   NCZZ3ZZ6 10.000000
    Z2ZZ4ZZ6 ACZZ4ZZ6 10.000000   CCZZ4ZZ6 1.000000
    Z2ZZ4ZZ6 NCZZ9ZZ7 -10.000000
    Z3ZZ4ZZ6 OBJZZZZZ 20.000000   NCZZ3ZZ6 20.000000
    Z3ZZ4ZZ6 ACZZ4ZZ6 20.000000   CCZZ4ZZ6 1.000000
    Z3ZZ4ZZ6 NCZZ3ZZ7 -5.000000   ACZZ4ZZ7 -5.000000
    Z3ZZ4ZZ6 NCZZ9ZZ7 -15.000000
    Z4ZZ4ZZ6 OBJZZZZZ 1.000000   NCZZ3ZZ6 1.000000
    Z4ZZ4ZZ6 ACZZ4ZZ6 1.000000   NCZZ3ZZ7 -1.000000
    Z4ZZ4ZZ6 ACZZ4ZZ7 -1.000000
    Z1ZZ5ZZ6 CCZZ5ZZ6 1.000000
    Z2ZZ5ZZ6 OBJZZZZZ 10.000000   NCZZ9ZZ6 10.000000
    Z2ZZ5ZZ6 ACZZ5ZZ6 10.000000   CCZZ5ZZ6 1.000000
    Z2ZZ5ZZ6 NCZ14ZZ7 -10.000000
    Z3ZZ5ZZ6 OBJZZZZZ 20.000000   NCZZ9ZZ6 20.000000
    Z3ZZ5ZZ6 ACZZ5ZZ6 20.000000   CCZZ5ZZ6 1.000000
    Z3ZZ5ZZ6 NCZZ9ZZ7 -5.000000   ACZZ5ZZ7 -5.000000
    Z3ZZ5ZZ6 NCZ14ZZ7 -15.000000
    Z4ZZ5ZZ6 OBJZZZZZ 1.000000   NCZZ9ZZ6 1.000000
    Z4ZZ5ZZ6 ACZZ5ZZ6 1.000000   NCZZ9ZZ7 -1.000000
    Z4ZZ5ZZ6 ACZZ5ZZ7 -1.000000
    Z1ZZ6ZZ6 CCZZ6ZZ6 1.000000
    Z2ZZ6ZZ6 OBJZZZZZ 10.000000   NCZ14ZZ6 10.000000
    Z2ZZ6ZZ6 ACZZ6ZZ6 10.000000   CCZZ6ZZ6 1.000000
    Z2ZZ6ZZ6 NCZZ9ZZ7 -10.000000
    Z3ZZ6ZZ6 OBJZZZZZ 20.000000   NCZ14ZZ6 20.000000
    Z3ZZ6ZZ6 ACZZ6ZZ6 20.000000   CCZZ6ZZ6 1.000000
    Z3ZZ6ZZ6 NCZ14ZZ7 -5.000000   ACZZ6ZZ7 -5.000000
    Z3ZZ6ZZ6 NCZZ9ZZ7 -15.000000
    Z4ZZ6ZZ6 OBJZZZZZ 1.000000   NCZ14ZZ6 1.000000
    Z4ZZ6ZZ6 ACZZ6ZZ6 1.000000   NCZ14ZZ7 -1.000000
    Z4ZZ6ZZ6 ACZZ6ZZ7 -1.000000
    Z1ZZ7ZZ6 CCZZ7ZZ6 1.000000
    Z2ZZ7ZZ6 OBJZZZZZ 10.000000   NCZ15ZZ6 10.000000
    Z2ZZ7ZZ6 ACZZ7ZZ6 10.000000   CCZZ7ZZ6 1.000000
    Z2ZZ7ZZ6 NCZ14ZZ7 -10.000000
    Z3ZZ7ZZ6 OBJZZZZZ 20.000000   NCZ15ZZ6 20.000000
    Z3ZZ7ZZ6 ACZZ7ZZ6 20.000000   CCZZ7ZZ6 1.000000
    Z3ZZ7ZZ6 NCZ15ZZ7 -5.000000   ACZZ7ZZ7 -5.000000
    Z3ZZ7ZZ6 NCZ14ZZ7 -15.000000
    Z4ZZ7ZZ6 OBJZZZZZ 1.000000   NCZ15ZZ6 1.000000
    Z4ZZ7ZZ6 ACZZ7ZZ6 1.000000   NCZ15ZZ7 -1.000000
    Z4ZZ7ZZ6 ACZZ7ZZ7 -1.000000
    Z1ZZ8ZZ6 CCZZ8ZZ6 1.000000
    Z2ZZ8ZZ6 OBJZZZZZ 10.000000   NCZ14ZZ6 10.000000
    Z2ZZ8ZZ6 ACZZ8ZZ6 10.000000   CCZZ8ZZ6 1.000000
    Z2ZZ8ZZ6 NCZ15ZZ7 -10.000000
    Z3ZZ8ZZ6 OBJZZZZZ 20.000000   NCZ14ZZ6 20.000000
    Z3ZZ8ZZ6 ACZZ8ZZ6 20.000000   CCZZ8ZZ6 1.000000
    Z3ZZ8ZZ6 NCZ14ZZ7 -5.000000   ACZZ8ZZ7 -5.000000
    Z3ZZ8ZZ6 NCZ15ZZ7 -15.000000
    Z4ZZ8ZZ6 OBJZZZZZ 1.000000   NCZ14ZZ6 1.000000
    Z4ZZ8ZZ6 ACZZ8ZZ6 1.000000   NCZ14ZZ7 -1.000000
    Z4ZZ8ZZ6 ACZZ8ZZ7 -1.000000
    Z1ZZ9ZZ6 CCZZ9ZZ6 1.000000
    Z2ZZ9ZZ6 OBJZZZZZ 10.000000   NCZ15ZZ6 10.000000
    Z2ZZ9ZZ6 ACZZ9ZZ6 10.000000   CCZZ9ZZ6 1.000000
    Z2ZZ9ZZ6 NCZ13ZZ7 -10.000000
    Z3ZZ9ZZ6 OBJZZZZZ 20.000000   NCZ15ZZ6 20.000000
    Z3ZZ9ZZ6 ACZZ9ZZ6 20.000000   CCZZ9ZZ6 1.000000
    Z3ZZ9ZZ6 NCZ15ZZ7 -5.000000   ACZZ9ZZ7 -5.000000
    Z3ZZ9ZZ6 NCZ13ZZ7 -15.000000
    Z4ZZ9ZZ6 OBJZZZZZ 1.000000   NCZ15ZZ6 1.000000
    Z4ZZ9ZZ6 ACZZ9ZZ6 1.000000   NCZ15ZZ7 -1.000000
    Z4ZZ9ZZ6 ACZZ9ZZ7 -1.000000
    Z1Z10ZZ6 CCZ10ZZ6 1.000000
    Z2Z10ZZ6 OBJZZZZZ 10.000000   NCZ13ZZ6 10.000000
    Z2Z10ZZ6 ACZ10ZZ6 10.000000   CCZ10ZZ6 1.000000
    Z2Z10ZZ6 NCZ15ZZ7 -10.000000
    Z3Z10ZZ6 OBJZZZZZ 20.000000   NCZ13ZZ6 20.000000
    Z3Z10ZZ6 ACZ10ZZ6 20.000000   CCZ10ZZ6 1.000000
    Z3Z10ZZ6 NCZ13ZZ7 -5.000000   ACZ10ZZ7 -5.000000
    Z3Z10ZZ6 NCZ15ZZ7 -15.000000
    Z4Z10ZZ6 OBJZZZZZ 1.000000   NCZ13ZZ6 1.000000
    Z4Z10ZZ6 ACZ10ZZ6 1.000000   NCZ13ZZ7 -1.000000
    Z4Z10ZZ6 ACZ10ZZ7 -1.000000
    Z1Z11ZZ6 CCZ11ZZ6 1.000000
    Z2Z11ZZ6 OBJZZZZZ 10.000000   NCZ13ZZ6 10.000000
    Z2Z11ZZ6 ACZ11ZZ6 10.000000   CCZ11ZZ6 1.000000
    Z2Z11ZZ6 NCZZ6ZZ7 -10.000000
    Z3Z11ZZ6 OBJZZZZZ 20.000000   NCZ13ZZ6 20.000000
    Z3Z11ZZ6 ACZ11ZZ6 20.000000   CCZ11ZZ6 1.000000
    Z3Z11ZZ6 NCZ13ZZ7 -5.000000   ACZ11ZZ7 -5.000000
    Z3Z11ZZ6 NCZZ6ZZ7 -15.000000
    Z4Z11ZZ6 OBJZZZZZ 1.000000   NCZ13ZZ6 1.000000
    Z4Z11ZZ6 ACZ11ZZ6 1.000000   NCZ13ZZ7 -1.000000
    Z4Z11ZZ6 ACZ11ZZ7 -1.000000
    Z1Z12ZZ6 CCZ12ZZ6 1.000000
    Z2Z12ZZ6 OBJZZZZZ 10.000000   NCZZ6ZZ6 10.000000
    Z2Z12ZZ6 ACZ12ZZ6 10.000000   CCZ12ZZ6 1.000000
    Z2Z12ZZ6 NCZ13ZZ7 -10.000000
    Z3Z12ZZ6 OBJZZZZZ 20.000000   NCZZ6ZZ6 20.000000
    Z3Z12ZZ6 ACZ12ZZ6 20.000000   CCZ12ZZ6 1.000000
    Z3Z12ZZ6 NCZZ6ZZ7 -5.000000   ACZ12ZZ7 -5.000000
    Z3Z12ZZ6 NCZ13ZZ7 -15.000000
    Z4Z12ZZ6 OBJZZZZZ 1.000000   NCZZ6ZZ6 1.000000
    Z4Z12ZZ6 ACZ12ZZ6 1.000000   NCZZ6ZZ7 -1.000000
    Z4Z12ZZ6 ACZ12ZZ7 -1.000000
    Z1Z13ZZ6 CCZ13ZZ6 1.000000
    Z2Z13ZZ6 OBJZZZZZ 10.000000   NCZZ6ZZ6 10.000000
    Z2Z13ZZ6 ACZ13ZZ6 10.000000   CCZ13ZZ6 1.000000
    Z2Z13ZZ6 NCZZ2ZZ7 -10.000000
    Z3Z13ZZ6 OBJZZZZZ 20.000000   NCZZ6ZZ6 20.000000
    Z3Z13ZZ6 ACZ13ZZ6 20.000000   CCZ13ZZ6 1.000000
    Z3Z13ZZ6 NCZZ6ZZ7 -5.000000   ACZ13ZZ7 -5.000000
    Z3Z13ZZ6 NCZZ2ZZ7 -15.000000
    Z4Z13ZZ6 OBJZZZZZ 1.000000   NCZZ6ZZ6 1.000000
    Z4Z13ZZ6 ACZ13ZZ6 1.000000   NCZZ6ZZ7 -1.000000
    Z4Z13ZZ6 ACZ13ZZ7 -1.000000
    Z1Z14ZZ6 CCZ14ZZ6 1.000000
    Z2Z14ZZ6 OBJZZZZZ 10.000000   NCZZ2ZZ6 10.000000
    Z2Z14ZZ6 ACZ14ZZ6 10.000000   CCZ14ZZ6 1.000000
    Z2Z14ZZ6 NCZZ6ZZ7 -10.000000
    Z3Z14ZZ6 OBJZZZZZ 20.000000   NCZZ2ZZ6 20.000000
    Z3Z14ZZ6 ACZ14ZZ6 20.000000   CCZ14ZZ6 1.000000
    Z3Z14ZZ6 NCZZ2ZZ7 -5.000000   ACZ14ZZ7 -5.000000
    Z3Z14ZZ6 NCZZ6ZZ7 -15.000000
    Z4Z14ZZ6 OBJZZZZZ 1.000000   NCZZ2ZZ6 1.000000
    Z4Z14ZZ6 ACZ14ZZ6 1.000000   NCZZ2ZZ7 -1.000000
    Z4Z14ZZ6 ACZ14ZZ7 -1.000000
    Z1Z15ZZ6 CCZ15ZZ6 1.000000
    Z2Z15ZZ6 OBJZZZZZ 10.000000   NCZZ2ZZ6 10.000000
    Z2Z15ZZ6 ACZ15ZZ6 10.000000   CCZ15ZZ6 1.000000
    Z2Z15ZZ6 NCZZ1ZZ7 -10.000000
    Z3Z15ZZ6 OBJZZZZZ 20.000000   NCZZ2ZZ6 20.000000
    Z3Z15ZZ6 ACZ15ZZ6 20.000000   CCZ15ZZ6 1.000000
    Z3Z15ZZ6 NCZZ2ZZ7 -5.000000   ACZ15ZZ7 -5.000000
    Z3Z15ZZ6 NCZZ1ZZ7 -15.000000
    Z4Z15ZZ6 OBJZZZZZ 1.000000   NCZZ2ZZ6 1.000000
    Z4Z15ZZ6 ACZ15ZZ6 1.000000   NCZZ2ZZ7 -1.000000
    Z4Z15ZZ6 ACZ15ZZ7 -1.000000
    Z1Z16ZZ6 CCZ16ZZ6 1.000000
    Z2Z16ZZ6 OBJZZZZZ 10.000000   NCZZ1ZZ6 10.000000
    Z2Z16ZZ6 ACZ16ZZ6 10.000000   CCZ16ZZ6 1.000000
    Z2Z16ZZ6 NCZZ2ZZ7 -10.000000
    Z3Z16ZZ6 OBJZZZZZ 20.000000   NCZZ1ZZ6 20.000000
    Z3Z16ZZ6 ACZ16ZZ6 20.000000   CCZ16ZZ6 1.000000
    Z3Z16ZZ6 NCZZ1ZZ7 -5.000000   ACZ16ZZ7 -5.000000
    Z3Z16ZZ6 NCZZ2ZZ7 -15.000000
    Z4Z16ZZ6 OBJZZZZZ 1.000000   NCZZ1ZZ6 1.000000
    Z4Z16ZZ6 ACZ16ZZ6 1.000000   NCZZ1ZZ7 -1.000000
    Z4Z16ZZ6 ACZ16ZZ7 -1.000000
    Z1Z17ZZ6 CCZ17ZZ6 1.000000
    Z2Z17ZZ6 OBJZZZZZ 15.000000   NCZZ3ZZ6 15.000000
    Z2Z17ZZ6 ACZ17ZZ6 15.000000   CCZ17ZZ6 1.000000
    Z2Z17ZZ6 NCZZ7ZZ7 -15.000000
    Z3Z17ZZ6 OBJZZZZZ 25.000000   NCZZ3ZZ6 25.000000
    Z3Z17ZZ6 ACZ17ZZ6 25.000000   CCZ17ZZ6 1.000000
    Z3Z17ZZ6 NCZZ3ZZ7 -7.000000   ACZ17ZZ7 -7.000000
    Z3Z17ZZ6 NCZZ7ZZ7 -18.000000
    Z4Z17ZZ6 OBJZZZZZ 1.000000   NCZZ3ZZ6 1.000000
    Z4Z17ZZ6 ACZ17ZZ6 1.000000   NCZZ3ZZ7 -1.000000
    Z4Z17ZZ6 ACZ17ZZ7 -1.000000
    Z1Z18ZZ6 CCZ18ZZ6 1.000000
    Z2Z18ZZ6 OBJZZZZZ 15.000000   NCZZ9ZZ6 15.000000
    Z2Z18ZZ6 ACZ18ZZ6 15.000000   CCZ18ZZ6 1.000000
    Z2Z18ZZ6 NCZZ7ZZ7 -15.000000
    Z3Z18ZZ6 OBJZZZZZ 25.000000   NCZZ9ZZ6 25.000000
    Z3Z18ZZ6 ACZ18ZZ6 25.000000   CCZ18ZZ6 1.000000
    Z3Z18ZZ6 NCZZ9ZZ7 -7.000000   ACZ18ZZ7 -7.000000
    Z3Z18ZZ6 NCZZ7ZZ7 -18.000000
    Z4Z18ZZ6 OBJZZZZZ 1.000000   NCZZ9ZZ6 1.000000
    Z4Z18ZZ6 ACZ18ZZ6 1.000000   NCZZ9ZZ7 -1.000000
    Z4Z18ZZ6 ACZ18ZZ7 -1.000000
    Z1Z19ZZ6 CCZ19ZZ6 1.000000
    Z2Z19ZZ6 OBJZZZZZ 15.000000   NCZZ9ZZ6 15.000000
    Z2Z19ZZ6 ACZ19ZZ6 15.000000   CCZ19ZZ6 1.000000
    Z2Z19ZZ6 NCZ10ZZ7 -15.000000
    Z3Z19ZZ6 OBJZZZZZ 25.000000   NCZZ9ZZ6 25.000000
    Z3Z19ZZ6 ACZ19ZZ6 25.000000   CCZ19ZZ6 1.000000
    Z3Z19ZZ6 NCZZ9ZZ7 -7.000000   ACZ19ZZ7 -7.000000
    Z3Z19ZZ6 NCZ10ZZ7 -18.000000
    Z4Z19ZZ6 OBJZZZZZ 1.000000   NCZZ9ZZ6 1.000000
    Z4Z19ZZ6 ACZ19ZZ6 1.000000   NCZZ9ZZ7 -1.000000
    Z4Z19ZZ6 ACZ19ZZ7 -1.000000
    Z1Z20ZZ6 CCZ20ZZ6 1.000000
    Z2Z20ZZ6 OBJZZZZZ 15.000000   NCZ14ZZ6 15.000000
    Z2Z20ZZ6 ACZ20ZZ6 15.000000   CCZ20ZZ6 1.000000
    Z2Z20ZZ6 NCZ10ZZ7 -15.000000
    Z3Z20ZZ6 OBJZZZZZ 25.000000   NCZ14ZZ6 25.000000
    Z3Z20ZZ6 ACZ20ZZ6 25.000000   CCZ20ZZ6 1.000000
    Z3Z20ZZ6 NCZ14ZZ7 -7.000000   ACZ20ZZ7 -7.000000
    Z3Z20ZZ6 NCZ10ZZ7 -18.000000
    Z4Z20ZZ6 OBJZZZZZ 1.000000   NCZ14ZZ6 1.000000
    Z4Z20ZZ6 ACZ20ZZ6 1.000000   NCZ14ZZ7 -1.000000
    Z4Z20ZZ6 ACZ20ZZ7 -1.000000
    Z1Z21ZZ6 CCZ21ZZ6 1.000000
    Z2Z21ZZ6 OBJZZZZZ 15.000000   NCZ14ZZ6 15.000000
    Z2Z21ZZ6 ACZ21ZZ6 15.000000   CCZ21ZZ6 1.000000
    Z2Z21ZZ6 NCZ11ZZ7 -15.000000
    Z3Z21ZZ6 OBJZZZZZ 25.000000   NCZ14ZZ6 25.000000
    Z3Z21ZZ6 ACZ21ZZ6 25.000000   CCZ21ZZ6 1.000000
    Z3Z21ZZ6 NCZ14ZZ7 -7.000000   ACZ21ZZ7 -7.000000
    Z3Z21ZZ6 NCZ11ZZ7 -18.000000
    Z4Z21ZZ6 OBJZZZZZ 1.000000   NCZ14ZZ6 1.000000
    Z4Z21ZZ6 ACZ21ZZ6 1.000000   NCZ14ZZ7 -1.000000
    Z4Z21ZZ6 ACZ21ZZ7 -1.000000
    Z1Z22ZZ6 CCZ22ZZ6 1.000000
    Z2Z22ZZ6 OBJZZZZZ 15.000000   NCZ15ZZ6 15.000000
    Z2Z22ZZ6 ACZ22ZZ6 15.000000   CCZ22ZZ6 1.000000
    Z2Z22ZZ6 NCZ11ZZ7 -15.000000
    Z3Z22ZZ6 OBJZZZZZ 25.000000   NCZ15ZZ6 25.000000
    Z3Z22ZZ6 ACZ22ZZ6 25.000000   CCZ22ZZ6 1.000000
    Z3Z22ZZ6 NCZ15ZZ7 -7.000000   ACZ22ZZ7 -7.000000
    Z3Z22ZZ6 NCZ11ZZ7 -18.000000
    Z4Z22ZZ6 OBJZZZZZ 1.000000   NCZ15ZZ6 1.000000
    Z4Z22ZZ6 ACZ22ZZ6 1.000000   NCZ15ZZ7 -1.000000
    Z4Z22ZZ6 ACZ22ZZ7 -1.000000
    Z1Z23ZZ6 CCZ23ZZ6 1.000000
    Z2Z23ZZ6 OBJZZZZZ 15.000000   NCZ15ZZ6 15.000000
    Z2Z23ZZ6 ACZ23ZZ6 15.000000   CCZ23ZZ6 1.000000
    Z2Z23ZZ6 NCZ12ZZ7 -15.000000
    Z3Z23ZZ6 OBJZZZZZ 25.000000   NCZ15ZZ6 25.000000
    Z3Z23ZZ6 ACZ23ZZ6 25.000000   CCZ23ZZ6 1.000000
    Z3Z23ZZ6 NCZ15ZZ7 -7.000000   ACZ23ZZ7 -7.000000
    Z3Z23ZZ6 NCZ12ZZ7 -18.000000
    Z4Z23ZZ6 OBJZZZZZ 1.000000   NCZ15ZZ6 1.000000
    Z4Z23ZZ6 ACZ23ZZ6 1.000000   NCZ15ZZ7 -1.000000
    Z4Z23ZZ6 ACZ23ZZ7 -1.000000
    Z1Z24ZZ6 CCZ24ZZ6 1.000000
    Z2Z24ZZ6 OBJZZZZZ 15.000000   NCZ13ZZ6 15.000000
    Z2Z24ZZ6 ACZ24ZZ6 15.000000   CCZ24ZZ6 1.000000
    Z2Z24ZZ6 NCZ12ZZ7 -15.000000
    Z3Z24ZZ6 OBJZZZZZ 25.000000   NCZ13ZZ6 25.000000
    Z3Z24ZZ6 ACZ24ZZ6 25.000000   CCZ24ZZ6 1.000000
    Z3Z24ZZ6 NCZ13ZZ7 -7.000000   ACZ24ZZ7 -7.000000
    Z3Z24ZZ6 NCZ12ZZ7 -18.000000
    Z4Z24ZZ6 OBJZZZZZ 1.000000   NCZ13ZZ6 1.000000
    Z4Z24ZZ6 ACZ24ZZ6 1.000000   NCZ13ZZ7 -1.000000
    Z4Z24ZZ6 ACZ24ZZ7 -1.000000
    Z1Z25ZZ6 CCZ25ZZ6 1.000000
    Z2Z25ZZ6 OBJZZZZZ 15.000000   NCZ13ZZ6 15.000000
    Z2Z25ZZ6 ACZ25ZZ6 15.000000   CCZ25ZZ6 1.000000
    Z2Z25ZZ6 NCZZ8ZZ7 -15.000000
    Z3Z25ZZ6 OBJZZZZZ 25.000000   NCZ13ZZ6 25.000000
    Z3Z25ZZ6 ACZ25ZZ6 25.000000   CCZ25ZZ6 1.000000
    Z3Z25ZZ6 NCZ13ZZ7 -7.000000   ACZ25ZZ7 -7.000000
    Z3Z25ZZ6 NCZZ8ZZ7 -18.000000
    Z4Z25ZZ6 OBJZZZZZ 1.000000   NCZ13ZZ6 1.000000
    Z4Z25ZZ6 ACZ25ZZ6 1.000000   NCZ13ZZ7 -1.000000
    Z4Z25ZZ6 ACZ25ZZ7 -1.000000
    Z1Z26ZZ6 CCZ26ZZ6 1.000000
    Z2Z26ZZ6 OBJZZZZZ 15.000000   NCZZ6ZZ6 15.000000
    Z2Z26ZZ6 ACZ26ZZ6 15.000000   CCZ26ZZ6 1.000000
    Z2Z26ZZ6 NCZZ8ZZ7 -15.000000
    Z3Z26ZZ6 OBJZZZZZ 25.000000   NCZZ6ZZ6 25.000000
    Z3Z26ZZ6 ACZ26ZZ6 25.000000   CCZ26ZZ6 1.000000
    Z3Z26ZZ6 NCZZ6ZZ7 -7.000000   ACZ26ZZ7 -7.000000
    Z3Z26ZZ6 NCZZ8ZZ7 -18.000000
    Z4Z26ZZ6 OBJZZZZZ 1.000000   NCZZ6ZZ6 1.000000
    Z4Z26ZZ6 ACZ26ZZ6 1.000000   NCZZ6ZZ7 -1.000000
    Z4Z26ZZ6 ACZ26ZZ7 -1.000000
    Z1Z27ZZ6 CCZ27ZZ6 1.000000
    Z2Z27ZZ6 OBJZZZZZ 15.000000   NCZZ6ZZ6 15.000000
    Z2Z27ZZ6 ACZ27ZZ6 15.000000   CCZ27ZZ6 1.000000
    Z2Z27ZZ6 NCZZ5ZZ7 -15.000000
    Z3Z27ZZ6 OBJZZZZZ 25.000000   NCZZ6ZZ6 25.000000
    Z3Z27ZZ6 ACZ27ZZ6 25.000000   CCZ27ZZ6 1.000000
    Z3Z27ZZ6 NCZZ6ZZ7 -7.000000   ACZ27ZZ7 -7.000000
    Z3Z27ZZ6 NCZZ5ZZ7 -18.000000
    Z4Z27ZZ6 OBJZZZZZ 1.000000   NCZZ6ZZ6 1.000000
    Z4Z27ZZ6 ACZ27ZZ6 1.000000   NCZZ6ZZ7 -1.000000
    Z4Z27ZZ6 ACZ27ZZ7 -1.000000
    Z1Z28ZZ6 CCZ28ZZ6 1.000000
    Z2Z28ZZ6 OBJZZZZZ 15.000000   NCZZ2ZZ6 15.000000
    Z2Z28ZZ6 ACZ28ZZ6 15.000000   CCZ28ZZ6 1.000000
    Z2Z28ZZ6 NCZZ5ZZ7 -15.000000
    Z3Z28ZZ6 OBJZZZZZ 25.000000   NCZZ2ZZ6 25.000000
    Z3Z28ZZ6 ACZ28ZZ6 25.000000   CCZ28ZZ6 1.000000
    Z3Z28ZZ6 NCZZ2ZZ7 -7.000000   ACZ28ZZ7 -7.000000
    Z3Z28ZZ6 NCZZ5ZZ7 -18.000000
    Z4Z28ZZ6 OBJZZZZZ 1.000000   NCZZ2ZZ6 1.000000
    Z4Z28ZZ6 ACZ28ZZ6 1.000000   NCZZ2ZZ7 -1.000000
    Z4Z28ZZ6 ACZ28ZZ7 -1.000000
    Z1Z29ZZ6 CCZ29ZZ6 1.000000
    Z2Z29ZZ6 OBJZZZZZ 15.000000   NCZZ2ZZ6 15.000000
    Z2Z29ZZ6 ACZ29ZZ6 15.000000   CCZ29ZZ6 1.000000
    Z2Z29ZZ6 NCZZ4ZZ7 -15.000000
    Z3Z29ZZ6 OBJZZZZZ 25.000000   NCZZ2ZZ6 25.000000
    Z3Z29ZZ6 ACZ29ZZ6 25.000000   CCZ29ZZ6 1.000000
    Z3Z29ZZ6 NCZZ2ZZ7 -7.000000   ACZ29ZZ7 -7.000000
    Z3Z29ZZ6 NCZZ4ZZ7 -18.000000
    Z4Z29ZZ6 OBJZZZZZ 1.000000   NCZZ2ZZ6 1.000000
    Z4Z29ZZ6 ACZ29ZZ6 1.000000   NCZZ2ZZ7 -1.000000
    Z4Z29ZZ6 ACZ29ZZ7 -1.000000
    Z1Z30ZZ6 CCZ30ZZ6 1.000000
    Z2Z30ZZ6 OBJZZZZZ 15.000000   NCZZ1ZZ6 15.000000
    Z2Z30ZZ6 ACZ30ZZ6 15.000000   CCZ30ZZ6 1.000000
    Z2Z30ZZ6 NCZZ4ZZ7 -15.000000
    Z3Z30ZZ6 OBJZZZZZ 25.000000   NCZZ1ZZ6 25.000000
    Z3Z30ZZ6 ACZ30ZZ6 25.000000   CCZ30ZZ6 1.000000
    Z3Z30ZZ6 NCZZ1ZZ7 -7.000000   ACZ30ZZ7 -7.000000
    Z3Z30ZZ6 NCZZ4ZZ7 -18.000000
    Z4Z30ZZ6 OBJZZZZZ 1.000000   NCZZ1ZZ6 1.000000
    Z4Z30ZZ6 ACZ30ZZ6 1.000000   NCZZ1ZZ7 -1.000000
    Z4Z30ZZ6 ACZ30ZZ7 -1.000000
    Z1Z31ZZ6 CCZ31ZZ6 1.000000
    Z2Z31ZZ6 OBJZZZZZ 30.000000   NCZZ7ZZ6 30.000000
    Z2Z31ZZ6 ACZ31ZZ6 30.000000   CCZ31ZZ6 1.000000
    Z2Z31ZZ6 NCZZ4ZZ7 -30.000000
    Z3Z31ZZ6 OBJZZZZZ 40.000000   NCZZ7ZZ6 40.000000
    Z3Z31ZZ6 ACZ31ZZ6 40.000000   CCZ31ZZ6 1.000000
    Z3Z31ZZ6 NCZZ7ZZ7 -7.000000   ACZ31ZZ7 -7.000000
    Z3Z31ZZ6 NCZZ4ZZ7 -33.000000
    Z4Z31ZZ6 OBJZZZZZ 1.000000   NCZZ7ZZ6 1.000000
    Z4Z31ZZ6 ACZ31ZZ6 1.000000   NCZZ7ZZ7 -1.000000
    Z4Z31ZZ6 ACZ31ZZ7 -1.000000
    Z1Z32ZZ6 CCZ32ZZ6 1.000000
    Z2Z32ZZ6 OBJZZZZZ 30.000000   NCZZ4ZZ6 30.000000
    Z2Z32ZZ6 ACZ32ZZ6 30.000000   CCZ32ZZ6 1.000000
    Z2Z32ZZ6 NCZZ7ZZ7 -30.000000
    Z3Z32ZZ6 OBJZZZZZ 40.000000   NCZZ4ZZ6 40.000000
    Z3Z32ZZ6 ACZ32ZZ6 40.000000   CCZ32ZZ6 1.000000
    Z3Z32ZZ6 NCZZ4ZZ7 -7.000000   ACZ32ZZ7 -7.000000
    Z3Z32ZZ6 NCZZ7ZZ7 -33.000000
    Z4Z32ZZ6 OBJZZZZZ 1.000000   NCZZ4ZZ6 1.000000
    Z4Z32ZZ6 ACZ32ZZ6 1.000000   NCZZ4ZZ7 -1.000000
    Z4Z32ZZ6 ACZ32ZZ7 -1.000000
    Z1Z33ZZ6 CCZ33ZZ6 1.000000
    Z2Z33ZZ6 OBJZZZZZ 30.000000   NCZZ7ZZ6 30.000000
    Z2Z33ZZ6 ACZ33ZZ6 30.000000   CCZ33ZZ6 1.000000
    Z2Z33ZZ6 NCZ10ZZ7 -30.000000
    Z3Z33ZZ6 OBJZZZZZ 40.000000   NCZZ7ZZ6 40.000000
    Z3Z33ZZ6 ACZ33ZZ6 40.000000   CCZ33ZZ6 1.000000
    Z3Z33ZZ6 NCZZ7ZZ7 -7.000000   ACZ33ZZ7 -7.000000
    Z3Z33ZZ6 NCZ10ZZ7 -33.000000
    Z4Z33ZZ6 OBJZZZZZ 1.000000   NCZZ7ZZ6 1.000000
    Z4Z33ZZ6 ACZ33ZZ6 1.000000   NCZZ7ZZ7 -1.000000
    Z4Z33ZZ6 ACZ33ZZ7 -1.000000
    Z1Z34ZZ6 CCZ34ZZ6 1.000000
    Z2Z34ZZ6 OBJZZZZZ 30.000000   NCZ10ZZ6 30.000000
    Z2Z34ZZ6 ACZ34ZZ6 30.000000   CCZ34ZZ6 1.000000
    Z2Z34ZZ6 NCZZ7ZZ7 -30.000000
    Z3Z34ZZ6 OBJZZZZZ 40.000000   NCZ10ZZ6 40.000000
    Z3Z34ZZ6 ACZ34ZZ6 40.000000   CCZ34ZZ6 1.000000
    Z3Z34ZZ6 NCZ10ZZ7 -7.000000   ACZ34ZZ7 -7.000000
    Z3Z34ZZ6 NCZZ7ZZ7 -33.000000
    Z4Z34ZZ6 OBJZZZZZ 1.000000   NCZ10ZZ6 1.000000
    Z4Z34ZZ6 ACZ34ZZ6 1.000000   NCZ10ZZ7 -1.000000
    Z4Z34ZZ6 ACZ34ZZ7 -1.000000
    Z1Z35ZZ6 CCZ35ZZ6 1.000000
    Z2Z35ZZ6 OBJZZZZZ 30.000000   NCZ10ZZ6 30.000000
    Z2Z35ZZ6 ACZ35ZZ6 30.000000   CCZ35ZZ6 1.000000
    Z2Z35ZZ6 NCZ11ZZ7 -30.000000
    Z3Z35ZZ6 OBJZZZZZ 40.000000   NCZ10ZZ6 40.000000
    Z3Z35ZZ6 ACZ35ZZ6 40.000000   CCZ35ZZ6 1.000000
    Z3Z35ZZ6 NCZ10ZZ7 -7.000000   ACZ35ZZ7 -7.000000
    Z3Z35ZZ6 NCZ11ZZ7 -33.000000
    Z4Z35ZZ6 OBJZZZZZ 1.000000   NCZ10ZZ6 1.000000
    Z4Z35ZZ6 ACZ35ZZ6 1.000000   NCZ10ZZ7 -1.000000
    Z4Z35ZZ6 ACZ35ZZ7 -1.000000
    Z1Z36ZZ6 CCZ36ZZ6 1.000000
    Z2Z36ZZ6 OBJZZZZZ 30.000000   NCZ11ZZ6 30.000000
    Z2Z36ZZ6 ACZ36ZZ6 30.000000   CCZ36ZZ6 1.000000
    Z2Z36ZZ6 NCZ10ZZ7 -30.000000
    Z3Z36ZZ6 OBJZZZZZ 40.000000   NCZ11ZZ6 40.000000
    Z3Z36ZZ6 ACZ36ZZ6 40.000000   CCZ36ZZ6 1.000000
    Z3Z36ZZ6 NCZ11ZZ7 -7.000000   ACZ36ZZ7 -7.000000
    Z3Z36ZZ6 NCZ10ZZ7 -33.000000
    Z4Z36ZZ6 OBJZZZZZ 1.000000   NCZ11ZZ6 1.000000
    Z4Z36ZZ6 ACZ36ZZ6 1.000000   NCZ11ZZ7 -1.000000
    Z4Z36ZZ6 ACZ36ZZ7 -1.000000
    Z1Z37ZZ6 CCZ37ZZ6 1.000000
    Z2Z37ZZ6 OBJZZZZZ 30.000000   NCZ11ZZ6 30.000000
    Z2Z37ZZ6 ACZ37ZZ6 30.000000   CCZ37ZZ6 1.000000
    Z2Z37ZZ6 NCZ12ZZ7 -30.000000
    Z3Z37ZZ6 OBJZZZZZ 40.000000   NCZ11ZZ6 40.000000
    Z3Z37ZZ6 ACZ37ZZ6 40.000000   CCZ37ZZ6 1.000000
    Z3Z37ZZ6 NCZ11ZZ7 -7.000000   ACZ37ZZ7 -7.000000
    Z3Z37ZZ6 NCZ12ZZ7 -33.000000
    Z4Z37ZZ6 OBJZZZZZ 1.000000   NCZ11ZZ6 1.000000
    Z4Z37ZZ6 ACZ37ZZ6 1.000000   NCZ11ZZ7 -1.000000
    Z4Z37ZZ6 ACZ37ZZ7 -1.000000
    Z1Z38ZZ6 CCZ38ZZ6 1.000000
    Z2Z38ZZ6 OBJZZZZZ 30.000000   NCZ12ZZ6 30.000000
    Z2Z38ZZ6 ACZ38ZZ6 30.000000   CCZ38ZZ6 1.000000
    Z2Z38ZZ6 NCZ11ZZ7 -30.000000
    Z3Z38ZZ6 OBJZZZZZ 40.000000   NCZ12ZZ6 40.000000
    Z3Z38ZZ6 ACZ38ZZ6 40.000000   CCZ38ZZ6 1.000000
    Z3Z38ZZ6 NCZ12ZZ7 -7.000000   ACZ38ZZ7 -7.000000
    Z3Z38ZZ6 NCZ11ZZ7 -33.000000
    Z4Z38ZZ6 OBJZZZZZ 1.000000   NCZ12ZZ6 1.000000
    Z4Z38ZZ6 ACZ38ZZ6 1.000000   NCZ12ZZ7 -1.000000
    Z4Z38ZZ6 ACZ38ZZ7 -1.000000
    Z1Z39ZZ6 CCZ39ZZ6 1.000000
    Z2Z39ZZ6 OBJZZZZZ 30.000000   NCZ12ZZ6 30.000000
    Z2Z39ZZ6 ACZ39ZZ6 30.000000   CCZ39ZZ6 1.000000
    Z2Z39ZZ6 NCZZ8ZZ7 -30.000000
    Z3Z39ZZ6 OBJZZZZZ 40.000000   NCZ12ZZ6 40.000000
    Z3Z39ZZ6 ACZ39ZZ6 40.000000   CCZ39ZZ6 1.000000
    Z3Z39ZZ6 NCZ12ZZ7 -7.000000   ACZ39ZZ7 -7.000000
    Z3Z39ZZ6 NCZZ8ZZ7 -33.000000
    Z4Z39ZZ6 OBJZZZZZ 1.000000   NCZ12ZZ6 1.000000
    Z4Z39ZZ6 ACZ39ZZ6 1.000000   NCZ12ZZ7 -1.000000
    Z4Z39ZZ6 ACZ39ZZ7 -1.000000
    Z1Z40ZZ6 CCZ40ZZ6 1.000000
    Z2Z40ZZ6 OBJZZZZZ 30.000000   NCZZ8ZZ6 30.000000
    Z2Z40ZZ6 ACZ40ZZ6 30.000000   CCZ40ZZ6 1.000000
    Z2Z40ZZ6 NCZ12ZZ7 -30.000000
    Z3Z40ZZ6 OBJZZZZZ 40.000000   NCZZ8ZZ6 40.000000
    Z3Z40ZZ6 ACZ40ZZ6 40.000000   CCZ40ZZ6 1.000000
    Z3Z40ZZ6 NCZZ8ZZ7 -7.000000   ACZ40ZZ7 -7.000000
    Z3Z40ZZ6 NCZ12ZZ7 -33.000000
    Z4Z40ZZ6 OBJZZZZZ 1.000000   NCZZ8ZZ6 1.000000
    Z4Z40ZZ6 ACZ40ZZ6 1.000000   NCZZ8ZZ7 -1.000000
    Z4Z40ZZ6 ACZ40ZZ7 -1.000000
    Z1Z41ZZ6 CCZ41ZZ6 1.000000
    Z2Z41ZZ6 OBJZZZZZ 30.000000   NCZZ5ZZ6 30.000000
    Z2Z41ZZ6 ACZ41ZZ6 30.000000   CCZ41ZZ6 1.000000
    Z2Z41ZZ6 NCZZ8ZZ7 -30.000000
    Z3Z41ZZ6 OBJZZZZZ 40.000000   NCZZ5ZZ6 40.000000
    Z3Z41ZZ6 ACZ41ZZ6 40.000000   CCZ41ZZ6 1.000000
    Z3Z41ZZ6 NCZZ5ZZ7 -7.000000   ACZ41ZZ7 -7.000000
    Z3Z41ZZ6 NCZZ8ZZ7 -33.000000
    Z4Z41ZZ6 OBJZZZZZ 1.000000   NCZZ5ZZ6 1.000000
    Z4Z41ZZ6 ACZ41ZZ6 1.000000   NCZZ5ZZ7 -1.000000
    Z4Z41ZZ6 ACZ41ZZ7 -1.000000
    Z1Z42ZZ6 CCZ42ZZ6 1.000000
    Z2Z42ZZ6 OBJZZZZZ 30.000000   NCZZ8ZZ6 30.000000
    Z2Z42ZZ6 ACZ42ZZ6 30.000000   CCZ42ZZ6 1.000000
    Z2Z42ZZ6 NCZZ5ZZ7 -30.000000
    Z3Z42ZZ6 OBJZZZZZ 40.000000   NCZZ8ZZ6 40.000000
    Z3Z42ZZ6 ACZ42ZZ6 40.000000   CCZ42ZZ6 1.000000
    Z3Z42ZZ6 NCZZ8ZZ7 -7.000000   ACZ42ZZ7 -7.000000
    Z3Z42ZZ6 NCZZ5ZZ7 -33.000000
    Z4Z42ZZ6 OBJZZZZZ 1.000000   NCZZ8ZZ6 1.000000
    Z4Z42ZZ6 ACZ42ZZ6 1.000000   NCZZ8ZZ7 -1.000000
    Z4Z42ZZ6 ACZ42ZZ7 -1.000000
    Z1Z43ZZ6 CCZ43ZZ6 1.000000
    Z2Z43ZZ6 OBJZZZZZ 30.000000   NCZZ5ZZ6 30.000000
    Z2Z43ZZ6 ACZ43ZZ6 30.000000   CCZ43ZZ6 1.000000
    Z2Z43ZZ6 NCZZ4ZZ7 -30.000000
    Z3Z43ZZ6 OBJZZZZZ 40.000000   NCZZ5ZZ6 40.000000
    Z3Z43ZZ6 ACZ43ZZ6 40.000000   CCZ43ZZ6 1.000000
    Z3Z43ZZ6 NCZZ5ZZ7 -7.000000   ACZ43ZZ7 -7.000000
    Z3Z43ZZ6 NCZZ4ZZ7 -33.000000
    Z4Z43ZZ6 OBJZZZZZ 1.000000   NCZZ5ZZ6 1.000000
    Z4Z43ZZ6 ACZ43ZZ6 1.000000   NCZZ5ZZ7 -1.000000
    Z4Z43ZZ6 ACZ43ZZ7 -1.000000
    Z1Z44ZZ6 CCZ44ZZ6 1.000000
    Z2Z44ZZ6 OBJZZZZZ 30.000000   NCZZ4ZZ6 30.000000
    Z2Z44ZZ6 ACZ44ZZ6 30.000000   CCZ44ZZ6 1.000000
    Z2Z44ZZ6 NCZZ5ZZ7 -30.000000
    Z3Z44ZZ6 OBJZZZZZ 40.000000   NCZZ4ZZ6 40.000000
    Z3Z44ZZ6 ACZ44ZZ6 40.000000   CCZ44ZZ6 1.000000
    Z3Z44ZZ6 NCZZ4ZZ7 -7.000000   ACZ44ZZ7 -7.000000
    Z3Z44ZZ6 NCZZ5ZZ7 -33.000000
    Z4Z44ZZ6 OBJZZZZZ 1.000000   NCZZ4ZZ6 1.000000
    Z4Z44ZZ6 ACZ44ZZ6 1.000000   NCZZ4ZZ7 -1.000000
    Z4Z44ZZ6 ACZ44ZZ7 -1.000000
    Z1Z45ZZ6 CCZ45ZZ6 1.000000
    Z2Z45ZZ6 OBJZZZZZ 50.000000   NCZZ4ZZ6 50.000000
    Z2Z45ZZ6 ACZ45ZZ6 50.000000   CCZ45ZZ6 1.000000
    Z3Z45ZZ6 OBJZZZZZ 80.000000   NCZZ4ZZ6 80.000000
    Z3Z45ZZ6 ACZ45ZZ6 80.000000   CCZ45ZZ6 1.000000
    Z3Z45ZZ6 NCZZ4ZZ7 -15.000000   ACZ45ZZ7 -15.000000
    Z4Z45ZZ6 OBJZZZZZ 1.000000   NCZZ4ZZ6 1.000000
    Z4Z45ZZ6 ACZ45ZZ6 1.000000   NCZZ4ZZ7 -1.000000
    Z4Z45ZZ6 ACZ45ZZ7 -1.000000
    Z1Z46ZZ6 CCZ46ZZ6 1.000000
    Z2Z46ZZ6 OBJZZZZZ 50.000000   NCZ10ZZ6 50.000000
    Z2Z46ZZ6 ACZ46ZZ6 50.000000   CCZ46ZZ6 1.000000
    Z3Z46ZZ6 OBJZZZZZ 80.000000   NCZ10ZZ6 80.000000
    Z3Z46ZZ6 ACZ46ZZ6 80.000000   CCZ46ZZ6 1.000000
    Z3Z46ZZ6 NCZ10ZZ7 -15.000000   ACZ46ZZ7 -15.000000
    Z4Z46ZZ6 OBJZZZZZ 1.000000   NCZ10ZZ6 1.000000
    Z4Z46ZZ6 ACZ46ZZ6 1.000000   NCZ10ZZ7 -1.000000
    Z4Z46ZZ6 ACZ46ZZ7 -1.000000
    Z1Z47ZZ6 CCZ47ZZ6 1.000000
    Z2Z47ZZ6 OBJZZZZZ 50.000000   NCZ12ZZ6 50.000000
    Z2Z47ZZ6 ACZ47ZZ6 50.000000   CCZ47ZZ6 1.000000
    Z3Z47ZZ6 OBJZZZZZ 80.000000   NCZ12ZZ6 80.000000
    Z3Z47ZZ6 ACZ47ZZ6 80.000000   CCZ47ZZ6 1.000000
    Z3Z47ZZ6 NCZ12ZZ7 -15.000000   ACZ47ZZ7 -15.000000
    Z4Z47ZZ6 OBJZZZZZ 1.000000   NCZ12ZZ6 1.000000
    Z4Z47ZZ6 ACZ47ZZ6 1.000000   NCZ12ZZ7 -1.000000
    Z4Z47ZZ6 ACZ47ZZ7 -1.000000
    Z1ZZ1ZZ7 CCZZ1ZZ7 1.000000
    Z2ZZ1ZZ7 OBJZZZZZ 10.000000   NCZZ3ZZ7 10.000000
    Z2ZZ1ZZ7 ACZZ1ZZ7 10.000000   CCZZ1ZZ7 1.000000
    Z2ZZ1ZZ7 NCZZ1ZZ8 -10.000000
    Z3ZZ1ZZ7 OBJZZZZZ 20.000000   NCZZ3ZZ7 20.000000
    Z3ZZ1ZZ7 ACZZ1ZZ7 20.000000   CCZZ1ZZ7 1.000000
    Z3ZZ1ZZ7 NCZZ3ZZ8 -5.000000   ACZZ1ZZ8 -5.000000
    Z3ZZ1ZZ7 NCZZ1ZZ8 -15.000000
    Z4ZZ1ZZ7 OBJZZZZZ 1.000000   NCZZ3ZZ7 1.000000
    Z4ZZ1ZZ7 ACZZ1ZZ7 1.000000   NCZZ3ZZ8 -1.000000
    Z4ZZ1ZZ7 ACZZ1ZZ8 -1.000000
    Z1ZZ2ZZ7 CCZZ2ZZ7 1.000000
    Z2ZZ2ZZ7 OBJZZZZZ 10.000000   NCZZ1ZZ7 10.000000
    Z2ZZ2ZZ7 ACZZ2ZZ7 10.000000   CCZZ2ZZ7 1.000000
    Z2ZZ2ZZ7 NCZZ3ZZ8 -10.000000
    Z3ZZ2ZZ7 OBJZZZZZ 20.000000   NCZZ1ZZ7 20.000000
    Z3ZZ2ZZ7 ACZZ2ZZ7 20.000000   CCZZ2ZZ7 1.000000
    Z3ZZ2ZZ7 NCZZ1ZZ8 -5.000000   ACZZ2ZZ8 -5.000000
    Z3ZZ2ZZ7 NCZZ3ZZ8 -15.000000
    Z4ZZ2ZZ7 OBJZZZZZ 1.000000   NCZZ1ZZ7 1.000000
    Z4ZZ2ZZ7 ACZZ2ZZ7 1.000000   NCZZ1ZZ8 -1.000000
    Z4ZZ2ZZ7 ACZZ2ZZ8 -1.000000
    Z1ZZ3ZZ7 CCZZ3ZZ7 1.000000
    Z2ZZ3ZZ7 OBJZZZZZ 10.000000   NCZZ9ZZ7 10.000000
    Z2ZZ3ZZ7 ACZZ3ZZ7 10.000000   CCZZ3ZZ7 1.000000
    Z2ZZ3ZZ7 NCZZ3ZZ8 -10.000000
    Z3ZZ3ZZ7 OBJZZZZZ 20.000000   NCZZ9ZZ7 20.000000
    Z3ZZ3ZZ7 ACZZ3ZZ7 20.000000   CCZZ3ZZ7 1.000000
    Z3ZZ3ZZ7 NCZZ9ZZ8 -5.000000   ACZZ3ZZ8 -5.000000
    Z3ZZ3ZZ7 NCZZ3ZZ8 -15.000000
    Z4ZZ3ZZ7 OBJZZZZZ 1.000000   NCZZ9ZZ7 1.000000
    Z4ZZ3ZZ7 ACZZ3ZZ7 1.000000   NCZZ9ZZ8 -1.000000
    Z4ZZ3ZZ7 ACZZ3ZZ8 -1.000000
    Z1ZZ4ZZ7 CCZZ4ZZ7 1.000000
    Z2ZZ4ZZ7 OBJZZZZZ 10.000000   NCZZ3ZZ7 10.000000
    Z2ZZ4ZZ7 ACZZ4ZZ7 10.000000   CCZZ4ZZ7 1.000000
    Z2ZZ4ZZ7 NCZZ9ZZ8 -10.000000
    Z3ZZ4ZZ7 OBJZZZZZ 20.000000   NCZZ3ZZ7 20.000000
    Z3ZZ4ZZ7 ACZZ4ZZ7 20.000000   CCZZ4ZZ7 1.000000
    Z3ZZ4ZZ7 NCZZ3ZZ8 -5.000000   ACZZ4ZZ8 -5.000000
    Z3ZZ4ZZ7 NCZZ9ZZ8 -15.000000
    Z4ZZ4ZZ7 OBJZZZZZ 1.000000   NCZZ3ZZ7 1.000000
    Z4ZZ4ZZ7 ACZZ4ZZ7 1.000000   NCZZ3ZZ8 -1.000000
    Z4ZZ4ZZ7 ACZZ4ZZ8 -1.000000
    Z1ZZ5ZZ7 CCZZ5ZZ7 1.000000
    Z2ZZ5ZZ7 OBJZZZZZ 10.000000   NCZZ9ZZ7 10.000000
    Z2ZZ5ZZ7 ACZZ5ZZ7 10.000000   CCZZ5ZZ7 1.000000
    Z2ZZ5ZZ7 NCZ14ZZ8 -10.000000
    Z3ZZ5ZZ7 OBJZZZZZ 20.000000   NCZZ9ZZ7 20.000000
    Z3ZZ5ZZ7 ACZZ5ZZ7 20.000000   CCZZ5ZZ7 1.000000
    Z3ZZ5ZZ7 NCZZ9ZZ8 -5.000000   ACZZ5ZZ8 -5.000000
    Z3ZZ5ZZ7 NCZ14ZZ8 -15.000000
    Z4ZZ5ZZ7 OBJZZZZZ 1.000000   NCZZ9ZZ7 1.000000
    Z4ZZ5ZZ7 ACZZ5ZZ7 1.000000   NCZZ9ZZ8 -1.000000
    Z4ZZ5ZZ7 ACZZ5ZZ8 -1.000000
    Z1ZZ6ZZ7 CCZZ6ZZ7 1.000000
    Z2ZZ6ZZ7 OBJZZZZZ 10.000000   NCZ14ZZ7 10.000000
    Z2ZZ6ZZ7 ACZZ6ZZ7 10.000000   CCZZ6ZZ7 1.000000
    Z2ZZ6ZZ7 NCZZ9ZZ8 -10.000000
    Z3ZZ6ZZ7 OBJZZZZZ 20.000000   NCZ14ZZ7 20.000000
    Z3ZZ6ZZ7 ACZZ6ZZ7 20.000000   CCZZ6ZZ7 1.000000
    Z3ZZ6ZZ7 NCZ14ZZ8 -5.000000   ACZZ6ZZ8 -5.000000
    Z3ZZ6ZZ7 NCZZ9ZZ8 -15.000000
    Z4ZZ6ZZ7 OBJZZZZZ 1.000000   NCZ14ZZ7 1.000000
    Z4ZZ6ZZ7 ACZZ6ZZ7 1.000000   NCZ14ZZ8 -1.000000
    Z4ZZ6ZZ7 ACZZ6ZZ8 -1.000000
    Z1ZZ7ZZ7 CCZZ7ZZ7 1.000000
    Z2ZZ7ZZ7 OBJZZZZZ 10.000000   NCZ15ZZ7 10.000000
    Z2ZZ7ZZ7 ACZZ7ZZ7 10.000000   CCZZ7ZZ7 1.000000
    Z2ZZ7ZZ7 NCZ14ZZ8 -10.000000
    Z3ZZ7ZZ7 OBJZZZZZ 20.000000   NCZ15ZZ7 20.000000
    Z3ZZ7ZZ7 ACZZ7ZZ7 20.000000   CCZZ7ZZ7 1.000000
    Z3ZZ7ZZ7 NCZ15ZZ8 -5.000000   ACZZ7ZZ8 -5.000000
    Z3ZZ7ZZ7 NCZ14ZZ8 -15.000000
    Z4ZZ7ZZ7 OBJZZZZZ 1.000000   NCZ15ZZ7 1.000000
    Z4ZZ7ZZ7 ACZZ7ZZ7 1.000000   NCZ15ZZ8 -1.000000
    Z4ZZ7ZZ7 ACZZ7ZZ8 -1.000000
    Z1ZZ8ZZ7 CCZZ8ZZ7 1.000000
    Z2ZZ8ZZ7 OBJZZZZZ 10.000000   NCZ14ZZ7 10.000000
    Z2ZZ8ZZ7 ACZZ8ZZ7 10.000000   CCZZ8ZZ7 1.000000
    Z2ZZ8ZZ7 NCZ15ZZ8 -10.000000
    Z3ZZ8ZZ7 OBJZZZZZ 20.000000   NCZ14ZZ7 20.000000
    Z3ZZ8ZZ7 ACZZ8ZZ7 20.000000   CCZZ8ZZ7 1.000000
    Z3ZZ8ZZ7 NCZ14ZZ8 -5.000000   ACZZ8ZZ8 -5.000000
    Z3ZZ8ZZ7 NCZ15ZZ8 -15.000000
    Z4ZZ8ZZ7 OBJZZZZZ 1.000000   NCZ14ZZ7 1.000000
    Z4ZZ8ZZ7 ACZZ8ZZ7 1.000000   NCZ14ZZ8 -1.000000
    Z4ZZ8ZZ7 ACZZ8ZZ8 -1.000000
    Z1ZZ9ZZ7 CCZZ9ZZ7 1.000000
    Z2ZZ9ZZ7 OBJZZZZZ 10.000000   NCZ15ZZ7 10.000000
    Z2ZZ9ZZ7 ACZZ9ZZ7 10.000000   CCZZ9ZZ7 1.000000
    Z2ZZ9ZZ7 NCZ13ZZ8 -10.000000
    Z3ZZ9ZZ7 OBJZZZZZ 20.000000   NCZ15ZZ7 20.000000
    Z3ZZ9ZZ7 ACZZ9ZZ7 20.000000   CCZZ9ZZ7 1.000000
    Z3ZZ9ZZ7 NCZ15ZZ8 -5.000000   ACZZ9ZZ8 -5.000000
    Z3ZZ9ZZ7 NCZ13ZZ8 -15.000000
    Z4ZZ9ZZ7 OBJZZZZZ 1.000000   NCZ15ZZ7 1.000000
    Z4ZZ9ZZ7 ACZZ9ZZ7 1.000000   NCZ15ZZ8 -1.000000
    Z4ZZ9ZZ7 ACZZ9ZZ8 -1.000000
    Z1Z10ZZ7 CCZ10ZZ7 1.000000
    Z2Z10ZZ7 OBJZZZZZ 10.000000   NCZ13ZZ7 10.000000
    Z2Z10ZZ7 ACZ10ZZ7 10.000000   CCZ10ZZ7 1.000000
    Z2Z10ZZ7 NCZ15ZZ8 -10.000000
    Z3Z10ZZ7 OBJZZZZZ 20.000000   NCZ13ZZ7 20.000000
    Z3Z10ZZ7 ACZ10ZZ7 20.000000   CCZ10ZZ7 1.000000
    Z3Z10ZZ7 NCZ13ZZ8 -5.000000   ACZ10ZZ8 -5.000000
    Z3Z10ZZ7 NCZ15ZZ8 -15.000000
    Z4Z10ZZ7 OBJZZZZZ 1.000000   NCZ13ZZ7 1.000000
    Z4Z10ZZ7 ACZ10ZZ7 1.000000   NCZ13ZZ8 -1.000000
    Z4Z10ZZ7 ACZ10ZZ8 -1.000000
    Z1Z11ZZ7 CCZ11ZZ7 1.000000
    Z2Z11ZZ7 OBJZZZZZ 10.000000   NCZ13ZZ7 10.000000
    Z2Z11ZZ7 ACZ11ZZ7 10.000000   CCZ11ZZ7 1.000000
    Z2Z11ZZ7 NCZZ6ZZ8 -10.000000
    Z3Z11ZZ7 OBJZZZZZ 20.000000   NCZ13ZZ7 20.000000
    Z3Z11ZZ7 ACZ11ZZ7 20.000000   CCZ11ZZ7 1.000000
    Z3Z11ZZ7 NCZ13ZZ8 -5.000000   ACZ11ZZ8 -5.000000
    Z3Z11ZZ7 NCZZ6ZZ8 -15.000000
    Z4Z11ZZ7 OBJZZZZZ 1.000000   NCZ13ZZ7 1.000000
    Z4Z11ZZ7 ACZ11ZZ7 1.000000   NCZ13ZZ8 -1.000000
    Z4Z11ZZ7 ACZ11ZZ8 -1.000000
    Z1Z12ZZ7 CCZ12ZZ7 1.000000
    Z2Z12ZZ7 OBJZZZZZ 10.000000   NCZZ6ZZ7 10.000000
    Z2Z12ZZ7 ACZ12ZZ7 10.000000   CCZ12ZZ7 1.000000
    Z2Z12ZZ7 NCZ13ZZ8 -10.000000
    Z3Z12ZZ7 OBJZZZZZ 20.000000   NCZZ6ZZ7 20.000000
    Z3Z12ZZ7 ACZ12ZZ7 20.000000   CCZ12ZZ7 1.000000
    Z3Z12ZZ7 NCZZ6ZZ8 -5.000000   ACZ12ZZ8 -5.000000
    Z3Z12ZZ7 NCZ13ZZ8 -15.000000
    Z4Z12ZZ7 OBJZZZZZ 1.000000   NCZZ6ZZ7 1.000000
    Z4Z12ZZ7 ACZ12ZZ7 1.000000   NCZZ6ZZ8 -1.000000
    Z4Z12ZZ7 ACZ12ZZ8 -1.000000
    Z1Z13ZZ7 CCZ13ZZ7 1.000000
    Z2Z13ZZ7 OBJZZZZZ 10.000000   NCZZ6ZZ7 10.000000
    Z2Z13ZZ7 ACZ13ZZ7 10.000000   CCZ13ZZ7 1.000000
    Z2Z13ZZ7 NCZZ2ZZ8 -10.000000
    Z3Z13ZZ7 OBJZZZZZ 20.000000   NCZZ6ZZ7 20.000000
    Z3Z13ZZ7 ACZ13ZZ7 20.000000   CCZ13ZZ7 1.000000
    Z3Z13ZZ7 NCZZ6ZZ8 -5.000000   ACZ13ZZ8 -5.000000
    Z3Z13ZZ7 NCZZ2ZZ8 -15.000000
    Z4Z13ZZ7 OBJZZZZZ 1.000000   NCZZ6ZZ7 1.000000
    Z4Z13ZZ7 ACZ13ZZ7 1.000000   NCZZ6ZZ8 -1.000000
    Z4Z13ZZ7 ACZ13ZZ8 -1.000000
    Z1Z14ZZ7 CCZ14ZZ7 1.000000
    Z2Z14ZZ7 OBJZZZZZ 10.000000   NCZZ2ZZ7 10.000000
    Z2Z14ZZ7 ACZ14ZZ7 10.000000   CCZ14ZZ7 1.000000
    Z2Z14ZZ7 NCZZ6ZZ8 -10.000000
    Z3Z14ZZ7 OBJZZZZZ 20.000000   NCZZ2ZZ7 20.000000
    Z3Z14ZZ7 ACZ14ZZ7 20.000000   CCZ14ZZ7 1.000000
    Z3Z14ZZ7 NCZZ2ZZ8 -5.000000   ACZ14ZZ8 -5.000000
    Z3Z14ZZ7 NCZZ6ZZ8 -15.000000
    Z4Z14ZZ7 OBJZZZZZ 1.000000   NCZZ2ZZ7 1.000000
    Z4Z14ZZ7 ACZ14ZZ7 1.000000   NCZZ2ZZ8 -1.000000
    Z4Z14ZZ7 ACZ14ZZ8 -1.000000
    Z1Z15ZZ7 CCZ15ZZ7 1.000000
    Z2Z15ZZ7 OBJZZZZZ 10.000000   NCZZ2ZZ7 10.000000
    Z2Z15ZZ7 ACZ15ZZ7 10.000000   CCZ15ZZ7 1.000000
    Z2Z15ZZ7 NCZZ1ZZ8 -10.000000
    Z3Z15ZZ7 OBJZZZZZ 20.000000   NCZZ2ZZ7 20.000000
    Z3Z15ZZ7 ACZ15ZZ7 20.000000   CCZ15ZZ7 1.000000
    Z3Z15ZZ7 NCZZ2ZZ8 -5.000000   ACZ15ZZ8 -5.000000
    Z3Z15ZZ7 NCZZ1ZZ8 -15.000000
    Z4Z15ZZ7 OBJZZZZZ 1.000000   NCZZ2ZZ7 1.000000
    Z4Z15ZZ7 ACZ15ZZ7 1.000000   NCZZ2ZZ8 -1.000000
    Z4Z15ZZ7 ACZ15ZZ8 -1.000000
    Z1Z16ZZ7 CCZ16ZZ7 1.000000
    Z2Z16ZZ7 OBJZZZZZ 10.000000   NCZZ1ZZ7 10.000000
    Z2Z16ZZ7 ACZ16ZZ7 10.000000   CCZ16ZZ7 1.000000
    Z2Z16ZZ7 NCZZ2ZZ8 -10.000000
    Z3Z16ZZ7 OBJZZZZZ 20.000000   NCZZ1ZZ7 20.000000
    Z3Z16ZZ7 ACZ16ZZ7 20.000000   CCZ16ZZ7 1.000000
    Z3Z16ZZ7 NCZZ1ZZ8 -5.000000   ACZ16ZZ8 -5.000000
    Z3Z16ZZ7 NCZZ2ZZ8 -15.000000
    Z4Z16ZZ7 OBJZZZZZ 1.000000   NCZZ1ZZ7 1.000000
    Z4Z16ZZ7 ACZ16ZZ7 1.000000   NCZZ1ZZ8 -1.000000
    Z4Z16ZZ7 ACZ16ZZ8 -1.000000
    Z1Z17ZZ7 CCZ17ZZ7 1.000000
    Z2Z17ZZ7 OBJZZZZZ 15.000000   NCZZ3ZZ7 15.000000
    Z2Z17ZZ7 ACZ17ZZ7 15.000000   CCZ17ZZ7 1.000000
    Z2Z17ZZ7 NCZZ7ZZ8 -15.000000
    Z3Z17ZZ7 OBJZZZZZ 25.000000   NCZZ3ZZ7 25.000000
    Z3Z17ZZ7 ACZ17ZZ7 25.000000   CCZ17ZZ7 1.000000
    Z3Z17ZZ7 NCZZ3ZZ8 -7.000000   ACZ17ZZ8 -7.000000
    Z3Z17ZZ7 NCZZ7ZZ8 -18.000000
    Z4Z17ZZ7 OBJZZZZZ 1.000000   NCZZ3ZZ7 1.000000
    Z4Z17ZZ7 ACZ17ZZ7 1.000000   NCZZ3ZZ8 -1.000000
    Z4Z17ZZ7 ACZ17ZZ8 -1.000000
    Z1Z18ZZ7 CCZ18ZZ7 1.000000
    Z2Z18ZZ7 OBJZZZZZ 15.000000   NCZZ9ZZ7 15.000000
    Z2Z18ZZ7 ACZ18ZZ7 15.000000   CCZ18ZZ7 1.000000
    Z2Z18ZZ7 NCZZ7ZZ8 -15.000000
    Z3Z18ZZ7 OBJZZZZZ 25.000000   NCZZ9ZZ7 25.000000
    Z3Z18ZZ7 ACZ18ZZ7 25.000000   CCZ18ZZ7 1.000000
    Z3Z18ZZ7 NCZZ9ZZ8 -7.000000   ACZ18ZZ8 -7.000000
    Z3Z18ZZ7 NCZZ7ZZ8 -18.000000
    Z4Z18ZZ7 OBJZZZZZ 1.000000   NCZZ9ZZ7 1.000000
    Z4Z18ZZ7 ACZ18ZZ7 1.000000   NCZZ9ZZ8 -1.000000
    Z4Z18ZZ7 ACZ18ZZ8 -1.000000
    Z1Z19ZZ7 CCZ19ZZ7 1.000000
    Z2Z19ZZ7 OBJZZZZZ 15.000000   NCZZ9ZZ7 15.000000
    Z2Z19ZZ7 ACZ19ZZ7 15.000000   CCZ19ZZ7 1.000000
    Z2Z19ZZ7 NCZ10ZZ8 -15.000000
    Z3Z19ZZ7 OBJZZZZZ 25.000000   NCZZ9ZZ7 25.000000
    Z3Z19ZZ7 ACZ19ZZ7 25.000000   CCZ19ZZ7 1.000000
    Z3Z19ZZ7 NCZZ9ZZ8 -7.000000   ACZ19ZZ8 -7.000000
    Z3Z19ZZ7 NCZ10ZZ8 -18.000000
    Z4Z19ZZ7 OBJZZZZZ 1.000000   NCZZ9ZZ7 1.000000
    Z4Z19ZZ7 ACZ19ZZ7 1.000000   NCZZ9ZZ8 -1.000000
    Z4Z19ZZ7 ACZ19ZZ8 -1.000000
    Z1Z20ZZ7 CCZ20ZZ7 1.000000
    Z2Z20ZZ7 OBJZZZZZ 15.000000   NCZ14ZZ7 15.000000
    Z2Z20ZZ7 ACZ20ZZ7 15.000000   CCZ20ZZ7 1.000000
    Z2Z20ZZ7 NCZ10ZZ8 -15.000000
    Z3Z20ZZ7 OBJZZZZZ 25.000000   NCZ14ZZ7 25.000000
    Z3Z20ZZ7 ACZ20ZZ7 25.000000   CCZ20ZZ7 1.000000
    Z3Z20ZZ7 NCZ14ZZ8 -7.000000   ACZ20ZZ8 -7.000000
    Z3Z20ZZ7 NCZ10ZZ8 -18.000000
    Z4Z20ZZ7 OBJZZZZZ 1.000000   NCZ14ZZ7 1.000000
    Z4Z20ZZ7 ACZ20ZZ7 1.000000   NCZ14ZZ8 -1.000000
    Z4Z20ZZ7 ACZ20ZZ8 -1.000000
    Z1Z21ZZ7 CCZ21ZZ7 1.000000
    Z2Z21ZZ7 OBJZZZZZ 15.000000   NCZ14ZZ7 15.000000
    Z2Z21ZZ7 ACZ21ZZ7 15.000000   CCZ21ZZ7 1.000000
    Z2Z21ZZ7 NCZ11ZZ8 -15.000000
    Z3Z21ZZ7 OBJZZZZZ 25.000000   NCZ14ZZ7 25.000000
    Z3Z21ZZ7 ACZ21ZZ7 25.000000   CCZ21ZZ7 1.000000
    Z3Z21ZZ7 NCZ14ZZ8 -7.000000   ACZ21ZZ8 -7.000000
    Z3Z21ZZ7 NCZ11ZZ8 -18.000000
    Z4Z21ZZ7 OBJZZZZZ 1.000000   NCZ14ZZ7 1.000000
    Z4Z21ZZ7 ACZ21ZZ7 1.000000   NCZ14ZZ8 -1.000000
    Z4Z21ZZ7 ACZ21ZZ8 -1.000000
    Z1Z22ZZ7 CCZ22ZZ7 1.000000
    Z2Z22ZZ7 OBJZZZZZ 15.000000   NCZ15ZZ7 15.000000
    Z2Z22ZZ7 ACZ22ZZ7 15.000000   CCZ22ZZ7 1.000000
    Z2Z22ZZ7 NCZ11ZZ8 -15.000000
    Z3Z22ZZ7 OBJZZZZZ 25.000000   NCZ15ZZ7 25.000000
    Z3Z22ZZ7 ACZ22ZZ7 25.000000   CCZ22ZZ7 1.000000
    Z3Z22ZZ7 NCZ15ZZ8 -7.000000   ACZ22ZZ8 -7.000000
    Z3Z22ZZ7 NCZ11ZZ8 -18.000000
    Z4Z22ZZ7 OBJZZZZZ 1.000000   NCZ15ZZ7 1.000000
    Z4Z22ZZ7 ACZ22ZZ7 1.000000   NCZ15ZZ8 -1.000000
    Z4Z22ZZ7 ACZ22ZZ8 -1.000000
    Z1Z23ZZ7 CCZ23ZZ7 1.000000
    Z2Z23ZZ7 OBJZZZZZ 15.000000   NCZ15ZZ7 15.000000
    Z2Z23ZZ7 ACZ23ZZ7 15.000000   CCZ23ZZ7 1.000000
    Z2Z23ZZ7 NCZ12ZZ8 -15.000000
    Z3Z23ZZ7 OBJZZZZZ 25.000000   NCZ15ZZ7 25.000000
    Z3Z23ZZ7 ACZ23ZZ7 25.000000   CCZ23ZZ7 1.000000
    Z3Z23ZZ7 NCZ15ZZ8 -7.000000   ACZ23ZZ8 -7.000000
    Z3Z23ZZ7 NCZ12ZZ8 -18.000000
    Z4Z23ZZ7 OBJZZZZZ 1.000000   NCZ15ZZ7 1.000000
    Z4Z23ZZ7 ACZ23ZZ7 1.000000   NCZ15ZZ8 -1.000000
    Z4Z23ZZ7 ACZ23ZZ8 -1.000000
    Z1Z24ZZ7 CCZ24ZZ7 1.000000
    Z2Z24ZZ7 OBJZZZZZ 15.000000   NCZ13ZZ7 15.000000
    Z2Z24ZZ7 ACZ24ZZ7 15.000000   CCZ24ZZ7 1.000000
    Z2Z24ZZ7 NCZ12ZZ8 -15.000000
    Z3Z24ZZ7 OBJZZZZZ 25.000000   NCZ13ZZ7 25.000000
    Z3Z24ZZ7 ACZ24ZZ7 25.000000   CCZ24ZZ7 1.000000
    Z3Z24ZZ7 NCZ13ZZ8 -7.000000   ACZ24ZZ8 -7.000000
    Z3Z24ZZ7 NCZ12ZZ8 -18.000000
    Z4Z24ZZ7 OBJZZZZZ 1.000000   NCZ13ZZ7 1.000000
    Z4Z24ZZ7 ACZ24ZZ7 1.000000   NCZ13ZZ8 -1.000000
    Z4Z24ZZ7 ACZ24ZZ8 -1.000000
    Z1Z25ZZ7 CCZ25ZZ7 1.000000
    Z2Z25ZZ7 OBJZZZZZ 15.000000   NCZ13ZZ7 15.000000
    Z2Z25ZZ7 ACZ25ZZ7 15.000000   CCZ25ZZ7 1.000000
    Z2Z25ZZ7 NCZZ8ZZ8 -15.000000
    Z3Z25ZZ7 OBJZZZZZ 25.000000   NCZ13ZZ7 25.000000
    Z3Z25ZZ7 ACZ25ZZ7 25.000000   CCZ25ZZ7 1.000000
    Z3Z25ZZ7 NCZ13ZZ8 -7.000000   ACZ25ZZ8 -7.000000
    Z3Z25ZZ7 NCZZ8ZZ8 -18.000000
    Z4Z25ZZ7 OBJZZZZZ 1.000000   NCZ13ZZ7 1.000000
    Z4Z25ZZ7 ACZ25ZZ7 1.000000   NCZ13ZZ8 -1.000000
    Z4Z25ZZ7 ACZ25ZZ8 -1.000000
    Z1Z26ZZ7 CCZ26ZZ7 1.000000
    Z2Z26ZZ7 OBJZZZZZ 15.000000   NCZZ6ZZ7 15.000000
    Z2Z26ZZ7 ACZ26ZZ7 15.000000   CCZ26ZZ7 1.000000
    Z2Z26ZZ7 NCZZ8ZZ8 -15.000000
    Z3Z26ZZ7 OBJZZZZZ 25.000000   NCZZ6ZZ7 25.000000
    Z3Z26ZZ7 ACZ26ZZ7 25.000000   CCZ26ZZ7 1.000000
    Z3Z26ZZ7 NCZZ6ZZ8 -7.000000   ACZ26ZZ8 -7.000000
    Z3Z26ZZ7 NCZZ8ZZ8 -18.000000
    Z4Z26ZZ7 OBJZZZZZ 1.000000   NCZZ6ZZ7 1.000000
    Z4Z26ZZ7 ACZ26ZZ7 1.000000   NCZZ6ZZ8 -1.000000
    Z4Z26ZZ7 ACZ26ZZ8 -1.000000
    Z1Z27ZZ7 CCZ27ZZ7 1.000000
    Z2Z27ZZ7 OBJZZZZZ 15.000000   NCZZ6ZZ7 15.000000
    Z2Z27ZZ7 ACZ27ZZ7 15.000000   CCZ27ZZ7 1.000000
    Z2Z27ZZ7 NCZZ5ZZ8 -15.000000
    Z3Z27ZZ7 OBJZZZZZ 25.000000   NCZZ6ZZ7 25.000000
    Z3Z27ZZ7 ACZ27ZZ7 25.000000   CCZ27ZZ7 1.000000
    Z3Z27ZZ7 NCZZ6ZZ8 -7.000000   ACZ27ZZ8 -7.000000
    Z3Z27ZZ7 NCZZ5ZZ8 -18.000000
    Z4Z27ZZ7 OBJZZZZZ 1.000000   NCZZ6ZZ7 1.000000
    Z4Z27ZZ7 ACZ27ZZ7 1.000000   NCZZ6ZZ8 -1.000000
    Z4Z27ZZ7 ACZ27ZZ8 -1.000000
    Z1Z28ZZ7 CCZ28ZZ7 1.000000
    Z2Z28ZZ7 OBJZZZZZ 15.000000   NCZZ2ZZ7 15.000000
    Z2Z28ZZ7 ACZ28ZZ7 15.000000   CCZ28ZZ7 1.000000
    Z2Z28ZZ7 NCZZ5ZZ8 -15.000000
    Z3Z28ZZ7 OBJZZZZZ 25.000000   NCZZ2ZZ7 25.000000
    Z3Z28ZZ7 ACZ28ZZ7 25.000000   CCZ28ZZ7 1.000000
    Z3Z28ZZ7 NCZZ2ZZ8 -7.000000   ACZ28ZZ8 -7.000000
    Z3Z28ZZ7 NCZZ5ZZ8 -18.000000
    Z4Z28ZZ7 OBJZZZZZ 1.000000   NCZZ2ZZ7 1.000000
    Z4Z28ZZ7 ACZ28ZZ7 1.000000   NCZZ2ZZ8 -1.000000
    Z4Z28ZZ7 ACZ28ZZ8 -1.000000
    Z1Z29ZZ7 CCZ29ZZ7 1.000000
    Z2Z29ZZ7 OBJZZZZZ 15.000000   NCZZ2ZZ7 15.000000
    Z2Z29ZZ7 ACZ29ZZ7 15.000000   CCZ29ZZ7 1.000000
    Z2Z29ZZ7 NCZZ4ZZ8 -15.000000
    Z3Z29ZZ7 OBJZZZZZ 25.000000   NCZZ2ZZ7 25.000000
    Z3Z29ZZ7 ACZ29ZZ7 25.000000   CCZ29ZZ7 1.000000
    Z3Z29ZZ7 NCZZ2ZZ8 -7.000000   ACZ29ZZ8 -7.000000
    Z3Z29ZZ7 NCZZ4ZZ8 -18.000000
    Z4Z29ZZ7 OBJZZZZZ 1.000000   NCZZ2ZZ7 1.000000
    Z4Z29ZZ7 ACZ29ZZ7 1.000000   NCZZ2ZZ8 -1.000000
    Z4Z29ZZ7 ACZ29ZZ8 -1.000000
    Z1Z30ZZ7 CCZ30ZZ7 1.000000
    Z2Z30ZZ7 OBJZZZZZ 15.000000   NCZZ1ZZ7 15.000000
    Z2Z30ZZ7 ACZ30ZZ7 15.000000   CCZ30ZZ7 1.000000
    Z2Z30ZZ7 NCZZ4ZZ8 -15.000000
    Z3Z30ZZ7 OBJZZZZZ 25.000000   NCZZ1ZZ7 25.000000
    Z3Z30ZZ7 ACZ30ZZ7 25.000000   CCZ30ZZ7 1.000000
    Z3Z30ZZ7 NCZZ1ZZ8 -7.000000   ACZ30ZZ8 -7.000000
    Z3Z30ZZ7 NCZZ4ZZ8 -18.000000
    Z4Z30ZZ7 OBJZZZZZ 1.000000   NCZZ1ZZ7 1.000000
    Z4Z30ZZ7 ACZ30ZZ7 1.000000   NCZZ1ZZ8 -1.000000
    Z4Z30ZZ7 ACZ30ZZ8 -1.000000
    Z1Z31ZZ7 CCZ31ZZ7 1.000000
    Z2Z31ZZ7 OBJZZZZZ 30.000000   NCZZ7ZZ7 30.000000
    Z2Z31ZZ7 ACZ31ZZ7 30.000000   CCZ31ZZ7 1.000000
    Z2Z31ZZ7 NCZZ4ZZ8 -30.000000
    Z3Z31ZZ7 OBJZZZZZ 40.000000   NCZZ7ZZ7 40.000000
    Z3Z31ZZ7 ACZ31ZZ7 40.000000   CCZ31ZZ7 1.000000
    Z3Z31ZZ7 NCZZ7ZZ8 -7.000000   ACZ31ZZ8 -7.000000
    Z3Z31ZZ7 NCZZ4ZZ8 -33.000000
    Z4Z31ZZ7 OBJZZZZZ 1.000000   NCZZ7ZZ7 1.000000
    Z4Z31ZZ7 ACZ31ZZ7 1.000000   NCZZ7ZZ8 -1.000000
    Z4Z31ZZ7 ACZ31ZZ8 -1.000000
    Z1Z32ZZ7 CCZ32ZZ7 1.000000
    Z2Z32ZZ7 OBJZZZZZ 30.000000   NCZZ4ZZ7 30.000000
    Z2Z32ZZ7 ACZ32ZZ7 30.000000   CCZ32ZZ7 1.000000
    Z2Z32ZZ7 NCZZ7ZZ8 -30.000000
    Z3Z32ZZ7 OBJZZZZZ 40.000000   NCZZ4ZZ7 40.000000
    Z3Z32ZZ7 ACZ32ZZ7 40.000000   CCZ32ZZ7 1.000000
    Z3Z32ZZ7 NCZZ4ZZ8 -7.000000   ACZ32ZZ8 -7.000000
    Z3Z32ZZ7 NCZZ7ZZ8 -33.000000
    Z4Z32ZZ7 OBJZZZZZ 1.000000   NCZZ4ZZ7 1.000000
    Z4Z32ZZ7 ACZ32ZZ7 1.000000   NCZZ4ZZ8 -1.000000
    Z4Z32ZZ7 ACZ32ZZ8 -1.000000
    Z1Z33ZZ7 CCZ33ZZ7 1.000000
    Z2Z33ZZ7 OBJZZZZZ 30.000000   NCZZ7ZZ7 30.000000
    Z2Z33ZZ7 ACZ33ZZ7 30.000000   CCZ33ZZ7 1.000000
    Z2Z33ZZ7 NCZ10ZZ8 -30.000000
    Z3Z33ZZ7 OBJZZZZZ 40.000000   NCZZ7ZZ7 40.000000
    Z3Z33ZZ7 ACZ33ZZ7 40.000000   CCZ33ZZ7 1.000000
    Z3Z33ZZ7 NCZZ7ZZ8 -7.000000   ACZ33ZZ8 -7.000000
    Z3Z33ZZ7 NCZ10ZZ8 -33.000000
    Z4Z33ZZ7 OBJZZZZZ 1.000000   NCZZ7ZZ7 1.000000
    Z4Z33ZZ7 ACZ33ZZ7 1.000000   NCZZ7ZZ8 -1.000000
    Z4Z33ZZ7 ACZ33ZZ8 -1.000000
    Z1Z34ZZ7 CCZ34ZZ7 1.000000
    Z2Z34ZZ7 OBJZZZZZ 30.000000   NCZ10ZZ7 30.000000
    Z2Z34ZZ7 ACZ34ZZ7 30.000000   CCZ34ZZ7 1.000000
    Z2Z34ZZ7 NCZZ7ZZ8 -30.000000
    Z3Z34ZZ7 OBJZZZZZ 40.000000   NCZ10ZZ7 40.000000
    Z3Z34ZZ7 ACZ34ZZ7 40.000000   CCZ34ZZ7 1.000000
    Z3Z34ZZ7 NCZ10ZZ8 -7.000000   ACZ34ZZ8 -7.000000
    Z3Z34ZZ7 NCZZ7ZZ8 -33.000000
    Z4Z34ZZ7 OBJZZZZZ 1.000000   NCZ10ZZ7 1.000000
    Z4Z34ZZ7 ACZ34ZZ7 1.000000   NCZ10ZZ8 -1.000000
    Z4Z34ZZ7 ACZ34ZZ8 -1.000000
    Z1Z35ZZ7 CCZ35ZZ7 1.000000
    Z2Z35ZZ7 OBJZZZZZ 30.000000   NCZ10ZZ7 30.000000
    Z2Z35ZZ7 ACZ35ZZ7 30.000000   CCZ35ZZ7 1.000000
    Z2Z35ZZ7 NCZ11ZZ8 -30.000000
    Z3Z35ZZ7 OBJZZZZZ 40.000000   NCZ10ZZ7 40.000000
    Z3Z35ZZ7 ACZ35ZZ7 40.000000   CCZ35ZZ7 1.000000
    Z3Z35ZZ7 NCZ10ZZ8 -7.000000   ACZ35ZZ8 -7.000000
    Z3Z35ZZ7 NCZ11ZZ8 -33.000000
    Z4Z35ZZ7 OBJZZZZZ 1.000000   NCZ10ZZ7 1.000000
    Z4Z35ZZ7 ACZ35ZZ7 1.000000   NCZ10ZZ8 -1.000000
    Z4Z35ZZ7 ACZ35ZZ8 -1.000000
    Z1Z36ZZ7 CCZ36ZZ7 1.000000
    Z2Z36ZZ7 OBJZZZZZ 30.000000   NCZ11ZZ7 30.000000
    Z2Z36ZZ7 ACZ36ZZ7 30.000000   CCZ36ZZ7 1.000000
    Z2Z36ZZ7 NCZ10ZZ8 -30.000000
    Z3Z36ZZ7 OBJZZZZZ 40.000000   NCZ11ZZ7 40.000000
    Z3Z36ZZ7 ACZ36ZZ7 40.000000   CCZ36ZZ7 1.000000
    Z3Z36ZZ7 NCZ11ZZ8 -7.000000   ACZ36ZZ8 -7.000000
    Z3Z36ZZ7 NCZ10ZZ8 -33.000000
    Z4Z36ZZ7 OBJZZZZZ 1.000000   NCZ11ZZ7 1.000000
    Z4Z36ZZ7 ACZ36ZZ7 1.000000   NCZ11ZZ8 -1.000000
    Z4Z36ZZ7 ACZ36ZZ8 -1.000000
    Z1Z37ZZ7 CCZ37ZZ7 1.000000
    Z2Z37ZZ7 OBJZZZZZ 30.000000   NCZ11ZZ7 30.000000
    Z2Z37ZZ7 ACZ37ZZ7 30.000000   CCZ37ZZ7 1.000000
    Z2Z37ZZ7 NCZ12ZZ8 -30.000000
    Z3Z37ZZ7 OBJZZZZZ 40.000000   NCZ11ZZ7 40.000000
    Z3Z37ZZ7 ACZ37ZZ7 40.000000   CCZ37ZZ7 1.000000
    Z3Z37ZZ7 NCZ11ZZ8 -7.000000   ACZ37ZZ8 -7.000000
    Z3Z37ZZ7 NCZ12ZZ8 -33.000000
    Z4Z37ZZ7 OBJZZZZZ 1.000000   NCZ11ZZ7 1.000000
    Z4Z37ZZ7 ACZ37ZZ7 1.000000   NCZ11ZZ8 -1.000000
    Z4Z37ZZ7 ACZ37ZZ8 -1.000000
    Z1Z38ZZ7 CCZ38ZZ7 1.000000
    Z2Z38ZZ7 OBJZZZZZ 30.000000   NCZ12ZZ7 30.000000
    Z2Z38ZZ7 ACZ38ZZ7 30.000000   CCZ38ZZ7 1.000000
    Z2Z38ZZ7 NCZ11ZZ8 -30.000000
    Z3Z38ZZ7 OBJZZZZZ 40.000000   NCZ12ZZ7 40.000000
    Z3Z38ZZ7 ACZ38ZZ7 40.000000   CCZ38ZZ7 1.000000
    Z3Z38ZZ7 NCZ12ZZ8 -7.000000   ACZ38ZZ8 -7.000000
    Z3Z38ZZ7 NCZ11ZZ8 -33.000000
    Z4Z38ZZ7 OBJZZZZZ 1.000000   NCZ12ZZ7 1.000000
    Z4Z38ZZ7 ACZ38ZZ7 1.000000   NCZ12ZZ8 -1.000000
    Z4Z38ZZ7 ACZ38ZZ8 -1.000000
    Z1Z39ZZ7 CCZ39ZZ7 1.000000
    Z2Z39ZZ7 OBJZZZZZ 30.000000   NCZ12ZZ7 30.000000
    Z2Z39ZZ7 ACZ39ZZ7 30.000000   CCZ39ZZ7 1.000000
    Z2Z39ZZ7 NCZZ8ZZ8 -30.000000
    Z3Z39ZZ7 OBJZZZZZ 40.000000   NCZ12ZZ7 40.000000
    Z3Z39ZZ7 ACZ39ZZ7 40.000000   CCZ39ZZ7 1.000000
    Z3Z39ZZ7 NCZ12ZZ8 -7.000000   ACZ39ZZ8 -7.000000
    Z3Z39ZZ7 NCZZ8ZZ8 -33.000000
    Z4Z39ZZ7 OBJZZZZZ 1.000000   NCZ12ZZ7 1.000000
    Z4Z39ZZ7 ACZ39ZZ7 1.000000   NCZ12ZZ8 -1.000000
    Z4Z39ZZ7 ACZ39ZZ8 -1.000000
    Z1Z40ZZ7 CCZ40ZZ7 1.000000
    Z2Z40ZZ7 OBJZZZZZ 30.000000   NCZZ8ZZ7 30.000000
    Z2Z40ZZ7 ACZ40ZZ7 30.000000   CCZ40ZZ7 1.000000
    Z2Z40ZZ7 NCZ12ZZ8 -30.000000
    Z3Z40ZZ7 OBJZZZZZ 40.000000   NCZZ8ZZ7 40.000000
    Z3Z40ZZ7 ACZ40ZZ7 40.000000   CCZ40ZZ7 1.000000
    Z3Z40ZZ7 NCZZ8ZZ8 -7.000000   ACZ40ZZ8 -7.000000
    Z3Z40ZZ7 NCZ12ZZ8 -33.000000
    Z4Z40ZZ7 OBJZZZZZ 1.000000   NCZZ8ZZ7 1.000000
    Z4Z40ZZ7 ACZ40ZZ7 1.000000   NCZZ8ZZ8 -1.000000
    Z4Z40ZZ7 ACZ40ZZ8 -1.000000
    Z1Z41ZZ7 CCZ41ZZ7 1.000000
    Z2Z41ZZ7 OBJZZZZZ 30.000000   NCZZ5ZZ7 30.000000
    Z2Z41ZZ7 ACZ41ZZ7 30.000000   CCZ41ZZ7 1.000000
    Z2Z41ZZ7 NCZZ8ZZ8 -30.000000
    Z3Z41ZZ7 OBJZZZZZ 40.000000   NCZZ5ZZ7 40.000000
    Z3Z41ZZ7 ACZ41ZZ7 40.000000   CCZ41ZZ7 1.000000
    Z3Z41ZZ7 NCZZ5ZZ8 -7.000000   ACZ41ZZ8 -7.000000
    Z3Z41ZZ7 NCZZ8ZZ8 -33.000000
    Z4Z41ZZ7 OBJZZZZZ 1.000000   NCZZ5ZZ7 1.000000
    Z4Z41ZZ7 ACZ41ZZ7 1.000000   NCZZ5ZZ8 -1.000000
    Z4Z41ZZ7 ACZ41ZZ8 -1.000000
    Z1Z42ZZ7 CCZ42ZZ7 1.000000
    Z2Z42ZZ7 OBJZZZZZ 30.000000   NCZZ8ZZ7 30.000000
    Z2Z42ZZ7 ACZ42ZZ7 30.000000   CCZ42ZZ7 1.000000
    Z2Z42ZZ7 NCZZ5ZZ8 -30.000000
    Z3Z42ZZ7 OBJZZZZZ 40.000000   NCZZ8ZZ7 40.000000
    Z3Z42ZZ7 ACZ42ZZ7 40.000000   CCZ42ZZ7 1.000000
    Z3Z42ZZ7 NCZZ8ZZ8 -7.000000   ACZ42ZZ8 -7.000000
    Z3Z42ZZ7 NCZZ5ZZ8 -33.000000
    Z4Z42ZZ7 OBJZZZZZ 1.000000   NCZZ8ZZ7 1.000000
    Z4Z42ZZ7 ACZ42ZZ7 1.000000   NCZZ8ZZ8 -1.000000
    Z4Z42ZZ7 ACZ42ZZ8 -1.000000
    Z1Z43ZZ7 CCZ43ZZ7 1.000000
    Z2Z43ZZ7 OBJZZZZZ 30.000000   NCZZ5ZZ7 30.000000
    Z2Z43ZZ7 ACZ43ZZ7 30.000000   CCZ43ZZ7 1.000000
    Z2Z43ZZ7 NCZZ4ZZ8 -30.000000
    Z3Z43ZZ7 OBJZZZZZ 40.000000   NCZZ5ZZ7 40.000000
    Z3Z43ZZ7 ACZ43ZZ7 40.000000   CCZ43ZZ7 1.000000
    Z3Z43ZZ7 NCZZ5ZZ8 -7.000000   ACZ43ZZ8 -7.000000
    Z3Z43ZZ7 NCZZ4ZZ8 -33.000000
    Z4Z43ZZ7 OBJZZZZZ 1.000000   NCZZ5ZZ7 1.000000
    Z4Z43ZZ7 ACZ43ZZ7 1.000000   NCZZ5ZZ8 -1.000000
    Z4Z43ZZ7 ACZ43ZZ8 -1.000000
    Z1Z44ZZ7 CCZ44ZZ7 1.000000
    Z2Z44ZZ7 OBJZZZZZ 30.000000   NCZZ4ZZ7 30.000000
    Z2Z44ZZ7 ACZ44ZZ7 30.000000   CCZ44ZZ7 1.000000
    Z2Z44ZZ7 NCZZ5ZZ8 -30.000000
    Z3Z44ZZ7 OBJZZZZZ 40.000000   NCZZ4ZZ7 40.000000
    Z3Z44ZZ7 ACZ44ZZ7 40.000000   CCZ44ZZ7 1.000000
    Z3Z44ZZ7 NCZZ4ZZ8 -7.000000   ACZ44ZZ8 -7.000000
    Z3Z44ZZ7 NCZZ5ZZ8 -33.000000
    Z4Z44ZZ7 OBJZZZZZ 1.000000   NCZZ4ZZ7 1.000000
    Z4Z44ZZ7 ACZ44ZZ7 1.000000   NCZZ4ZZ8 -1.000000
    Z4Z44ZZ7 ACZ44ZZ8 -1.000000
    Z1Z45ZZ7 CCZ45ZZ7 1.000000
    Z2Z45ZZ7 OBJZZZZZ 50.000000   NCZZ4ZZ7 50.000000
    Z2Z45ZZ7 ACZ45ZZ7 50.000000   CCZ45ZZ7 1.000000
    Z3Z45ZZ7 OBJZZZZZ 80.000000   NCZZ4ZZ7 80.000000
    Z3Z45ZZ7 ACZ45ZZ7 80.000000   CCZ45ZZ7 1.000000
    Z3Z45ZZ7 NCZZ4ZZ8 -15.000000   ACZ45ZZ8 -15.000000
    Z4Z45ZZ7 OBJZZZZZ 1.000000   NCZZ4ZZ7 1.000000
    Z4Z45ZZ7 ACZ45ZZ7 1.000000   NCZZ4ZZ8 -1.000000
    Z4Z45ZZ7 ACZ45ZZ8 -1.000000
    Z1Z46ZZ7 CCZ46ZZ7 1.000000
    Z2Z46ZZ7 OBJZZZZZ 50.000000   NCZ10ZZ7 50.000000
    Z2Z46ZZ7 ACZ46ZZ7 50.000000   CCZ46ZZ7 1.000000
    Z3Z46ZZ7 OBJZZZZZ 80.000000   NCZ10ZZ7 80.000000
    Z3Z46ZZ7 ACZ46ZZ7 80.000000   CCZ46ZZ7 1.000000
    Z3Z46ZZ7 NCZ10ZZ8 -15.000000   ACZ46ZZ8 -15.000000
    Z4Z46ZZ7 OBJZZZZZ 1.000000   NCZ10ZZ7 1.000000
    Z4Z46ZZ7 ACZ46ZZ7 1.000000   NCZ10ZZ8 -1.000000
    Z4Z46ZZ7 ACZ46ZZ8 -1.000000
    Z1Z47ZZ7 CCZ47ZZ7 1.000000
    Z2Z47ZZ7 OBJZZZZZ 50.000000   NCZ12ZZ7 50.000000
    Z2Z47ZZ7 ACZ47ZZ7 50.000000   CCZ47ZZ7 1.000000
    Z3Z47ZZ7 OBJZZZZZ 80.000000   NCZ12ZZ7 80.000000
    Z3Z47ZZ7 ACZ47ZZ7 80.000000   CCZ47ZZ7 1.000000
    Z3Z47ZZ7 NCZ12ZZ8 -15.000000   ACZ47ZZ8 -15.000000
    Z4Z47ZZ7 OBJZZZZZ 1.000000   NCZ12ZZ7 1.000000
    Z4Z47ZZ7 ACZ47ZZ7 1.000000   NCZ12ZZ8 -1.000000
    Z4Z47ZZ7 ACZ47ZZ8 -1.000000
    Z1ZZ1ZZ8 CCZZ1ZZ8 1.000000
    Z2ZZ1ZZ8 OBJZZZZZ 10.000000   NCZZ3ZZ8 10.000000
    Z2ZZ1ZZ8 ACZZ1ZZ8 10.000000   CCZZ1ZZ8 1.000000
    Z2ZZ1ZZ8 NCZZ1ZZ9 -10.000000
    Z3ZZ1ZZ8 OBJZZZZZ 20.000000   NCZZ3ZZ8 20.000000
    Z3ZZ1ZZ8 ACZZ1ZZ8 20.000000   CCZZ1ZZ8 1.000000
    Z3ZZ1ZZ8 NCZZ3ZZ9 -5.000000   ACZZ1ZZ9 -5.000000
    Z3ZZ1ZZ8 NCZZ1ZZ9 -15.000000
    Z4ZZ1ZZ8 OBJZZZZZ 1.000000   NCZZ3ZZ8 1.000000
    Z4ZZ1ZZ8 ACZZ1ZZ8 1.000000   NCZZ3ZZ9 -1.000000
    Z4ZZ1ZZ8 ACZZ1ZZ9 -1.000000
    Z1ZZ2ZZ8 CCZZ2ZZ8 1.000000
    Z2ZZ2ZZ8 OBJZZZZZ 10.000000   NCZZ1ZZ8 10.000000
    Z2ZZ2ZZ8 ACZZ2ZZ8 10.000000   CCZZ2ZZ8 1.000000
    Z2ZZ2ZZ8 NCZZ3ZZ9 -10.000000
    Z3ZZ2ZZ8 OBJZZZZZ 20.000000   NCZZ1ZZ8 20.000000
    Z3ZZ2ZZ8 ACZZ2ZZ8 20.000000   CCZZ2ZZ8 1.000000
    Z3ZZ2ZZ8 NCZZ1ZZ9 -5.000000   ACZZ2ZZ9 -5.000000
    Z3ZZ2ZZ8 NCZZ3ZZ9 -15.000000
    Z4ZZ2ZZ8 OBJZZZZZ 1.000000   NCZZ1ZZ8 1.000000
    Z4ZZ2ZZ8 ACZZ2ZZ8 1.000000   NCZZ1ZZ9 -1.000000
    Z4ZZ2ZZ8 ACZZ2ZZ9 -1.000000
    Z1ZZ3ZZ8 CCZZ3ZZ8 1.000000
    Z2ZZ3ZZ8 OBJZZZZZ 10.000000   NCZZ9ZZ8 10.000000
    Z2ZZ3ZZ8 ACZZ3ZZ8 10.000000   CCZZ3ZZ8 1.000000
    Z2ZZ3ZZ8 NCZZ3ZZ9 -10.000000
    Z3ZZ3ZZ8 OBJZZZZZ 20.000000   NCZZ9ZZ8 20.000000
    Z3ZZ3ZZ8 ACZZ3ZZ8 20.000000   CCZZ3ZZ8 1.000000
    Z3ZZ3ZZ8 NCZZ9ZZ9 -5.000000   ACZZ3ZZ9 -5.000000
    Z3ZZ3ZZ8 NCZZ3ZZ9 -15.000000
    Z4ZZ3ZZ8 OBJZZZZZ 1.000000   NCZZ9ZZ8 1.000000
    Z4ZZ3ZZ8 ACZZ3ZZ8 1.000000   NCZZ9ZZ9 -1.000000
    Z4ZZ3ZZ8 ACZZ3ZZ9 -1.000000
    Z1ZZ4ZZ8 CCZZ4ZZ8 1.000000
    Z2ZZ4ZZ8 OBJZZZZZ 10.000000   NCZZ3ZZ8 10.000000
    Z2ZZ4ZZ8 ACZZ4ZZ8 10.000000   CCZZ4ZZ8 1.000000
    Z2ZZ4ZZ8 NCZZ9ZZ9 -10.000000
    Z3ZZ4ZZ8 OBJZZZZZ 20.000000   NCZZ3ZZ8 20.000000
    Z3ZZ4ZZ8 ACZZ4ZZ8 20.000000   CCZZ4ZZ8 1.000000
    Z3ZZ4ZZ8 NCZZ3ZZ9 -5.000000   ACZZ4ZZ9 -5.000000
    Z3ZZ4ZZ8 NCZZ9ZZ9 -15.000000
    Z4ZZ4ZZ8 OBJZZZZZ 1.000000   NCZZ3ZZ8 1.000000
    Z4ZZ4ZZ8 ACZZ4ZZ8 1.000000   NCZZ3ZZ9 -1.000000
    Z4ZZ4ZZ8 ACZZ4ZZ9 -1.000000
    Z1ZZ5ZZ8 CCZZ5ZZ8 1.000000
    Z2ZZ5ZZ8 OBJZZZZZ 10.000000   NCZZ9ZZ8 10.000000
    Z2ZZ5ZZ8 ACZZ5ZZ8 10.000000   CCZZ5ZZ8 1.000000
    Z2ZZ5ZZ8 NCZ14ZZ9 -10.000000
    Z3ZZ5ZZ8 OBJZZZZZ 20.000000   NCZZ9ZZ8 20.000000
    Z3ZZ5ZZ8 ACZZ5ZZ8 20.000000   CCZZ5ZZ8 1.000000
    Z3ZZ5ZZ8 NCZZ9ZZ9 -5.000000   ACZZ5ZZ9 -5.000000
    Z3ZZ5ZZ8 NCZ14ZZ9 -15.000000
    Z4ZZ5ZZ8 OBJZZZZZ 1.000000   NCZZ9ZZ8 1.000000
    Z4ZZ5ZZ8 ACZZ5ZZ8 1.000000   NCZZ9ZZ9 -1.000000
    Z4ZZ5ZZ8 ACZZ5ZZ9 -1.000000
    Z1ZZ6ZZ8 CCZZ6ZZ8 1.000000
    Z2ZZ6ZZ8 OBJZZZZZ 10.000000   NCZ14ZZ8 10.000000
    Z2ZZ6ZZ8 ACZZ6ZZ8 10.000000   CCZZ6ZZ8 1.000000
    Z2ZZ6ZZ8 NCZZ9ZZ9 -10.000000
    Z3ZZ6ZZ8 OBJZZZZZ 20.000000   NCZ14ZZ8 20.000000
    Z3ZZ6ZZ8 ACZZ6ZZ8 20.000000   CCZZ6ZZ8 1.000000
    Z3ZZ6ZZ8 NCZ14ZZ9 -5.000000   ACZZ6ZZ9 -5.000000
    Z3ZZ6ZZ8 NCZZ9ZZ9 -15.000000
    Z4ZZ6ZZ8 OBJZZZZZ 1.000000   NCZ14ZZ8 1.000000
    Z4ZZ6ZZ8 ACZZ6ZZ8 1.000000   NCZ14ZZ9 -1.000000
    Z4ZZ6ZZ8 ACZZ6ZZ9 -1.000000
    Z1ZZ7ZZ8 CCZZ7ZZ8 1.000000
    Z2ZZ7ZZ8 OBJZZZZZ 10.000000   NCZ15ZZ8 10.000000
    Z2ZZ7ZZ8 ACZZ7ZZ8 10.000000   CCZZ7ZZ8 1.000000
    Z2ZZ7ZZ8 NCZ14ZZ9 -10.000000
    Z3ZZ7ZZ8 OBJZZZZZ 20.000000   NCZ15ZZ8 20.000000
    Z3ZZ7ZZ8 ACZZ7ZZ8 20.000000   CCZZ7ZZ8 1.000000
    Z3ZZ7ZZ8 NCZ15ZZ9 -5.000000   ACZZ7ZZ9 -5.000000
    Z3ZZ7ZZ8 NCZ14ZZ9 -15.000000
    Z4ZZ7ZZ8 OBJZZZZZ 1.000000   NCZ15ZZ8 1.000000
    Z4ZZ7ZZ8 ACZZ7ZZ8 1.000000   NCZ15ZZ9 -1.000000
    Z4ZZ7ZZ8 ACZZ7ZZ9 -1.000000
    Z1ZZ8ZZ8 CCZZ8ZZ8 1.000000
    Z2ZZ8ZZ8 OBJZZZZZ 10.000000   NCZ14ZZ8 10.000000
    Z2ZZ8ZZ8 ACZZ8ZZ8 10.000000   CCZZ8ZZ8 1.000000
    Z2ZZ8ZZ8 NCZ15ZZ9 -10.000000
    Z3ZZ8ZZ8 OBJZZZZZ 20.000000   NCZ14ZZ8 20.000000
    Z3ZZ8ZZ8 ACZZ8ZZ8 20.000000   CCZZ8ZZ8 1.000000
    Z3ZZ8ZZ8 NCZ14ZZ9 -5.000000   ACZZ8ZZ9 -5.000000
    Z3ZZ8ZZ8 NCZ15ZZ9 -15.000000
    Z4ZZ8ZZ8 OBJZZZZZ 1.000000   NCZ14ZZ8 1.000000
    Z4ZZ8ZZ8 ACZZ8ZZ8 1.000000   NCZ14ZZ9 -1.000000
    Z4ZZ8ZZ8 ACZZ8ZZ9 -1.000000
    Z1ZZ9ZZ8 CCZZ9ZZ8 1.000000
    Z2ZZ9ZZ8 OBJZZZZZ 10.000000   NCZ15ZZ8 10.000000
    Z2ZZ9ZZ8 ACZZ9ZZ8 10.000000   CCZZ9ZZ8 1.000000
    Z2ZZ9ZZ8 NCZ13ZZ9 -10.000000
    Z3ZZ9ZZ8 OBJZZZZZ 20.000000   NCZ15ZZ8 20.000000
    Z3ZZ9ZZ8 ACZZ9ZZ8 20.000000   CCZZ9ZZ8 1.000000
    Z3ZZ9ZZ8 NCZ15ZZ9 -5.000000   ACZZ9ZZ9 -5.000000
    Z3ZZ9ZZ8 NCZ13ZZ9 -15.000000
    Z4ZZ9ZZ8 OBJZZZZZ 1.000000   NCZ15ZZ8 1.000000
    Z4ZZ9ZZ8 ACZZ9ZZ8 1.000000   NCZ15ZZ9 -1.000000
    Z4ZZ9ZZ8 ACZZ9ZZ9 -1.000000
    Z1Z10ZZ8 CCZ10ZZ8 1.000000
    Z2Z10ZZ8 OBJZZZZZ 10.000000   NCZ13ZZ8 10.000000
    Z2Z10ZZ8 ACZ10ZZ8 10.000000   CCZ10ZZ8 1.000000
    Z2Z10ZZ8 NCZ15ZZ9 -10.000000
    Z3Z10ZZ8 OBJZZZZZ 20.000000   NCZ13ZZ8 20.000000
    Z3Z10ZZ8 ACZ10ZZ8 20.000000   CCZ10ZZ8 1.000000
    Z3Z10ZZ8 NCZ13ZZ9 -5.000000   ACZ10ZZ9 -5.000000
    Z3Z10ZZ8 NCZ15ZZ9 -15.000000
    Z4Z10ZZ8 OBJZZZZZ 1.000000   NCZ13ZZ8 1.000000
    Z4Z10ZZ8 ACZ10ZZ8 1.000000   NCZ13ZZ9 -1.000000
    Z4Z10ZZ8 ACZ10ZZ9 -1.000000
    Z1Z11ZZ8 CCZ11ZZ8 1.000000
    Z2Z11ZZ8 OBJZZZZZ 10.000000   NCZ13ZZ8 10.000000
    Z2Z11ZZ8 ACZ11ZZ8 10.000000   CCZ11ZZ8 1.000000
    Z2Z11ZZ8 NCZZ6ZZ9 -10.000000
    Z3Z11ZZ8 OBJZZZZZ 20.000000   NCZ13ZZ8 20.000000
    Z3Z11ZZ8 ACZ11ZZ8 20.000000   CCZ11ZZ8 1.000000
    Z3Z11ZZ8 NCZ13ZZ9 -5.000000   ACZ11ZZ9 -5.000000
    Z3Z11ZZ8 NCZZ6ZZ9 -15.000000
    Z4Z11ZZ8 OBJZZZZZ 1.000000   NCZ13ZZ8 1.000000
    Z4Z11ZZ8 ACZ11ZZ8 1.000000   NCZ13ZZ9 -1.000000
    Z4Z11ZZ8 ACZ11ZZ9 -1.000000
    Z1Z12ZZ8 CCZ12ZZ8 1.000000
    Z2Z12ZZ8 OBJZZZZZ 10.000000   NCZZ6ZZ8 10.000000
    Z2Z12ZZ8 ACZ12ZZ8 10.000000   CCZ12ZZ8 1.000000
    Z2Z12ZZ8 NCZ13ZZ9 -10.000000
    Z3Z12ZZ8 OBJZZZZZ 20.000000   NCZZ6ZZ8 20.000000
    Z3Z12ZZ8 ACZ12ZZ8 20.000000   CCZ12ZZ8 1.000000
    Z3Z12ZZ8 NCZZ6ZZ9 -5.000000   ACZ12ZZ9 -5.000000
    Z3Z12ZZ8 NCZ13ZZ9 -15.000000
    Z4Z12ZZ8 OBJZZZZZ 1.000000   NCZZ6ZZ8 1.000000
    Z4Z12ZZ8 ACZ12ZZ8 1.000000   NCZZ6ZZ9 -1.000000
    Z4Z12ZZ8 ACZ12ZZ9 -1.000000
    Z1Z13ZZ8 CCZ13ZZ8 1.000000
    Z2Z13ZZ8 OBJZZZZZ 10.000000   NCZZ6ZZ8 10.000000
    Z2Z13ZZ8 ACZ13ZZ8 10.000000   CCZ13ZZ8 1.000000
    Z2Z13ZZ8 NCZZ2ZZ9 -10.000000
    Z3Z13ZZ8 OBJZZZZZ 20.000000   NCZZ6ZZ8 20.000000
    Z3Z13ZZ8 ACZ13ZZ8 20.000000   CCZ13ZZ8 1.000000
    Z3Z13ZZ8 NCZZ6ZZ9 -5.000000   ACZ13ZZ9 -5.000000
    Z3Z13ZZ8 NCZZ2ZZ9 -15.000000
    Z4Z13ZZ8 OBJZZZZZ 1.000000   NCZZ6ZZ8 1.000000
    Z4Z13ZZ8 ACZ13ZZ8 1.000000   NCZZ6ZZ9 -1.000000
    Z4Z13ZZ8 ACZ13ZZ9 -1.000000
    Z1Z14ZZ8 CCZ14ZZ8 1.000000
    Z2Z14ZZ8 OBJZZZZZ 10.000000   NCZZ2ZZ8 10.000000
    Z2Z14ZZ8 ACZ14ZZ8 10.000000   CCZ14ZZ8 1.000000
    Z2Z14ZZ8 NCZZ6ZZ9 -10.000000
    Z3Z14ZZ8 OBJZZZZZ 20.000000   NCZZ2ZZ8 20.000000
    Z3Z14ZZ8 ACZ14ZZ8 20.000000   CCZ14ZZ8 1.000000
    Z3Z14ZZ8 NCZZ2ZZ9 -5.000000   ACZ14ZZ9 -5.000000
    Z3Z14ZZ8 NCZZ6ZZ9 -15.000000
    Z4Z14ZZ8 OBJZZZZZ 1.000000   NCZZ2ZZ8 1.000000
    Z4Z14ZZ8 ACZ14ZZ8 1.000000   NCZZ2ZZ9 -1.000000
    Z4Z14ZZ8 ACZ14ZZ9 -1.000000
    Z1Z15ZZ8 CCZ15ZZ8 1.000000
    Z2Z15ZZ8 OBJZZZZZ 10.000000   NCZZ2ZZ8 10.000000
    Z2Z15ZZ8 ACZ15ZZ8 10.000000   CCZ15ZZ8 1.000000
    Z2Z15ZZ8 NCZZ1ZZ9 -10.000000
    Z3Z15ZZ8 OBJZZZZZ 20.000000   NCZZ2ZZ8 20.000000
    Z3Z15ZZ8 ACZ15ZZ8 20.000000   CCZ15ZZ8 1.000000
    Z3Z15ZZ8 NCZZ2ZZ9 -5.000000   ACZ15ZZ9 -5.000000
    Z3Z15ZZ8 NCZZ1ZZ9 -15.000000
    Z4Z15ZZ8 OBJZZZZZ 1.000000   NCZZ2ZZ8 1.000000
    Z4Z15ZZ8 ACZ15ZZ8 1.000000   NCZZ2ZZ9 -1.000000
    Z4Z15ZZ8 ACZ15ZZ9 -1.000000
    Z1Z16ZZ8 CCZ16ZZ8 1.000000
    Z2Z16ZZ8 OBJZZZZZ 10.000000   NCZZ1ZZ8 10.000000
    Z2Z16ZZ8 ACZ16ZZ8 10.000000   CCZ16ZZ8 1.000000
    Z2Z16ZZ8 NCZZ2ZZ9 -10.000000
    Z3Z16ZZ8 OBJZZZZZ 20.000000   NCZZ1ZZ8 20.000000
    Z3Z16ZZ8 ACZ16ZZ8 20.000000   CCZ16ZZ8 1.000000
    Z3Z16ZZ8 NCZZ1ZZ9 -5.000000   ACZ16ZZ9 -5.000000
    Z3Z16ZZ8 NCZZ2ZZ9 -15.000000
    Z4Z16ZZ8 OBJZZZZZ 1.000000   NCZZ1ZZ8 1.000000
    Z4Z16ZZ8 ACZ16ZZ8 1.000000   NCZZ1ZZ9 -1.000000
    Z4Z16ZZ8 ACZ16ZZ9 -1.000000
    Z1Z17ZZ8 CCZ17ZZ8 1.000000
    Z2Z17ZZ8 OBJZZZZZ 15.000000   NCZZ3ZZ8 15.000000
    Z2Z17ZZ8 ACZ17ZZ8 15.000000   CCZ17ZZ8 1.000000
    Z2Z17ZZ8 NCZZ7ZZ9 -15.000000
    Z3Z17ZZ8 OBJZZZZZ 25.000000   NCZZ3ZZ8 25.000000
    Z3Z17ZZ8 ACZ17ZZ8 25.000000   CCZ17ZZ8 1.000000
    Z3Z17ZZ8 NCZZ3ZZ9 -7.000000   ACZ17ZZ9 -7.000000
    Z3Z17ZZ8 NCZZ7ZZ9 -18.000000
    Z4Z17ZZ8 OBJZZZZZ 1.000000   NCZZ3ZZ8 1.000000
    Z4Z17ZZ8 ACZ17ZZ8 1.000000   NCZZ3ZZ9 -1.000000
    Z4Z17ZZ8 ACZ17ZZ9 -1.000000
    Z1Z18ZZ8 CCZ18ZZ8 1.000000
    Z2Z18ZZ8 OBJZZZZZ 15.000000   NCZZ9ZZ8 15.000000
    Z2Z18ZZ8 ACZ18ZZ8 15.000000   CCZ18ZZ8 1.000000
    Z2Z18ZZ8 NCZZ7ZZ9 -15.000000
    Z3Z18ZZ8 OBJZZZZZ 25.000000   NCZZ9ZZ8 25.000000
    Z3Z18ZZ8 ACZ18ZZ8 25.000000   CCZ18ZZ8 1.000000
    Z3Z18ZZ8 NCZZ9ZZ9 -7.000000   ACZ18ZZ9 -7.000000
    Z3Z18ZZ8 NCZZ7ZZ9 -18.000000
    Z4Z18ZZ8 OBJZZZZZ 1.000000   NCZZ9ZZ8 1.000000
    Z4Z18ZZ8 ACZ18ZZ8 1.000000   NCZZ9ZZ9 -1.000000
    Z4Z18ZZ8 ACZ18ZZ9 -1.000000
    Z1Z19ZZ8 CCZ19ZZ8 1.000000
    Z2Z19ZZ8 OBJZZZZZ 15.000000   NCZZ9ZZ8 15.000000
    Z2Z19ZZ8 ACZ19ZZ8 15.000000   CCZ19ZZ8 1.000000
    Z2Z19ZZ8 NCZ10ZZ9 -15.000000
    Z3Z19ZZ8 OBJZZZZZ 25.000000   NCZZ9ZZ8 25.000000
    Z3Z19ZZ8 ACZ19ZZ8 25.000000   CCZ19ZZ8 1.000000
    Z3Z19ZZ8 NCZZ9ZZ9 -7.000000   ACZ19ZZ9 -7.000000
    Z3Z19ZZ8 NCZ10ZZ9 -18.000000
    Z4Z19ZZ8 OBJZZZZZ 1.000000   NCZZ9ZZ8 1.000000
    Z4Z19ZZ8 ACZ19ZZ8 1.000000   NCZZ9ZZ9 -1.000000
    Z4Z19ZZ8 ACZ19ZZ9 -1.000000
    Z1Z20ZZ8 CCZ20ZZ8 1.000000
    Z2Z20ZZ8 OBJZZZZZ 15.000000   NCZ14ZZ8 15.000000
    Z2Z20ZZ8 ACZ20ZZ8 15.000000   CCZ20ZZ8 1.000000
    Z2Z20ZZ8 NCZ10ZZ9 -15.000000
    Z3Z20ZZ8 OBJZZZZZ 25.000000   NCZ14ZZ8 25.000000
    Z3Z20ZZ8 ACZ20ZZ8 25.000000   CCZ20ZZ8 1.000000
    Z3Z20ZZ8 NCZ14ZZ9 -7.000000   ACZ20ZZ9 -7.000000
    Z3Z20ZZ8 NCZ10ZZ9 -18.000000
    Z4Z20ZZ8 OBJZZZZZ 1.000000   NCZ14ZZ8 1.000000
    Z4Z20ZZ8 ACZ20ZZ8 1.000000   NCZ14ZZ9 -1.000000
    Z4Z20ZZ8 ACZ20ZZ9 -1.000000
    Z1Z21ZZ8 CCZ21ZZ8 1.000000
    Z2Z21ZZ8 OBJZZZZZ 15.000000   NCZ14ZZ8 15.000000
    Z2Z21ZZ8 ACZ21ZZ8 15.000000   CCZ21ZZ8 1.000000
    Z2Z21ZZ8 NCZ11ZZ9 -15.000000
    Z3Z21ZZ8 OBJZZZZZ 25.000000   NCZ14ZZ8 25.000000
    Z3Z21ZZ8 ACZ21ZZ8 25.000000   CCZ21ZZ8 1.000000
    Z3Z21ZZ8 NCZ14ZZ9 -7.000000   ACZ21ZZ9 -7.000000
    Z3Z21ZZ8 NCZ11ZZ9 -18.000000
    Z4Z21ZZ8 OBJZZZZZ 1.000000   NCZ14ZZ8 1.000000
    Z4Z21ZZ8 ACZ21ZZ8 1.000000   NCZ14ZZ9 -1.000000
    Z4Z21ZZ8 ACZ21ZZ9 -1.000000
    Z1Z22ZZ8 CCZ22ZZ8 1.000000
    Z2Z22ZZ8 OBJZZZZZ 15.000000   NCZ15ZZ8 15.000000
    Z2Z22ZZ8 ACZ22ZZ8 15.000000   CCZ22ZZ8 1.000000
    Z2Z22ZZ8 NCZ11ZZ9 -15.000000
    Z3Z22ZZ8 OBJZZZZZ 25.000000   NCZ15ZZ8 25.000000
    Z3Z22ZZ8 ACZ22ZZ8 25.000000   CCZ22ZZ8 1.000000
    Z3Z22ZZ8 NCZ15ZZ9 -7.000000   ACZ22ZZ9 -7.000000
    Z3Z22ZZ8 NCZ11ZZ9 -18.000000
    Z4Z22ZZ8 OBJZZZZZ 1.000000   NCZ15ZZ8 1.000000
    Z4Z22ZZ8 ACZ22ZZ8 1.000000   NCZ15ZZ9 -1.000000
    Z4Z22ZZ8 ACZ22ZZ9 -1.000000
    Z1Z23ZZ8 CCZ23ZZ8 1.000000
    Z2Z23ZZ8 OBJZZZZZ 15.000000   NCZ15ZZ8 15.000000
    Z2Z23ZZ8 ACZ23ZZ8 15.000000   CCZ23ZZ8 1.000000
    Z2Z23ZZ8 NCZ12ZZ9 -15.000000
    Z3Z23ZZ8 OBJZZZZZ 25.000000   NCZ15ZZ8 25.000000
    Z3Z23ZZ8 ACZ23ZZ8 25.000000   CCZ23ZZ8 1.000000
    Z3Z23ZZ8 NCZ15ZZ9 -7.000000   ACZ23ZZ9 -7.000000
    Z3Z23ZZ8 NCZ12ZZ9 -18.000000
    Z4Z23ZZ8 OBJZZZZZ 1.000000   NCZ15ZZ8 1.000000
    Z4Z23ZZ8 ACZ23ZZ8 1.000000   NCZ15ZZ9 -1.000000
    Z4Z23ZZ8 ACZ23ZZ9 -1.000000
    Z1Z24ZZ8 CCZ24ZZ8 1.000000
    Z2Z24ZZ8 OBJZZZZZ 15.000000   NCZ13ZZ8 15.000000
    Z2Z24ZZ8 ACZ24ZZ8 15.000000   CCZ24ZZ8 1.000000
    Z2Z24ZZ8 NCZ12ZZ9 -15.000000
    Z3Z24ZZ8 OBJZZZZZ 25.000000   NCZ13ZZ8 25.000000
    Z3Z24ZZ8 ACZ24ZZ8 25.000000   CCZ24ZZ8 1.000000
    Z3Z24ZZ8 NCZ13ZZ9 -7.000000   ACZ24ZZ9 -7.000000
    Z3Z24ZZ8 NCZ12ZZ9 -18.000000
    Z4Z24ZZ8 OBJZZZZZ 1.000000   NCZ13ZZ8 1.000000
    Z4Z24ZZ8 ACZ24ZZ8 1.000000   NCZ13ZZ9 -1.000000
    Z4Z24ZZ8 ACZ24ZZ9 -1.000000
    Z1Z25ZZ8 CCZ25ZZ8 1.000000
    Z2Z25ZZ8 OBJZZZZZ 15.000000   NCZ13ZZ8 15.000000
    Z2Z25ZZ8 ACZ25ZZ8 15.000000   CCZ25ZZ8 1.000000
    Z2Z25ZZ8 NCZZ8ZZ9 -15.000000
    Z3Z25ZZ8 OBJZZZZZ 25.000000   NCZ13ZZ8 25.000000
    Z3Z25ZZ8 ACZ25ZZ8 25.000000   CCZ25ZZ8 1.000000
    Z3Z25ZZ8 NCZ13ZZ9 -7.000000   ACZ25ZZ9 -7.000000
    Z3Z25ZZ8 NCZZ8ZZ9 -18.000000
    Z4Z25ZZ8 OBJZZZZZ 1.000000   NCZ13ZZ8 1.000000
    Z4Z25ZZ8 ACZ25ZZ8 1.000000   NCZ13ZZ9 -1.000000
    Z4Z25ZZ8 ACZ25ZZ9 -1.000000
    Z1Z26ZZ8 CCZ26ZZ8 1.000000
    Z2Z26ZZ8 OBJZZZZZ 15.000000   NCZZ6ZZ8 15.000000
    Z2Z26ZZ8 ACZ26ZZ8 15.000000   CCZ26ZZ8 1.000000
    Z2Z26ZZ8 NCZZ8ZZ9 -15.000000
    Z3Z26ZZ8 OBJZZZZZ 25.000000   NCZZ6ZZ8 25.000000
    Z3Z26ZZ8 ACZ26ZZ8 25.000000   CCZ26ZZ8 1.000000
    Z3Z26ZZ8 NCZZ6ZZ9 -7.000000   ACZ26ZZ9 -7.000000
    Z3Z26ZZ8 NCZZ8ZZ9 -18.000000
    Z4Z26ZZ8 OBJZZZZZ 1.000000   NCZZ6ZZ8 1.000000
    Z4Z26ZZ8 ACZ26ZZ8 1.000000   NCZZ6ZZ9 -1.000000
    Z4Z26ZZ8 ACZ26ZZ9 -1.000000
    Z1Z27ZZ8 CCZ27ZZ8 1.000000
    Z2Z27ZZ8 OBJZZZZZ 15.000000   NCZZ6ZZ8 15.000000
    Z2Z27ZZ8 ACZ27ZZ8 15.000000   CCZ27ZZ8 1.000000
    Z2Z27ZZ8 NCZZ5ZZ9 -15.000000
    Z3Z27ZZ8 OBJZZZZZ 25.000000   NCZZ6ZZ8 25.000000
    Z3Z27ZZ8 ACZ27ZZ8 25.000000   CCZ27ZZ8 1.000000
    Z3Z27ZZ8 NCZZ6ZZ9 -7.000000   ACZ27ZZ9 -7.000000
    Z3Z27ZZ8 NCZZ5ZZ9 -18.000000
    Z4Z27ZZ8 OBJZZZZZ 1.000000   NCZZ6ZZ8 1.000000
    Z4Z27ZZ8 ACZ27ZZ8 1.000000   NCZZ6ZZ9 -1.000000
    Z4Z27ZZ8 ACZ27ZZ9 -1.000000
    Z1Z28ZZ8 CCZ28ZZ8 1.000000
    Z2Z28ZZ8 OBJZZZZZ 15.000000   NCZZ2ZZ8 15.000000
    Z2Z28ZZ8 ACZ28ZZ8 15.000000   CCZ28ZZ8 1.000000
    Z2Z28ZZ8 NCZZ5ZZ9 -15.000000
    Z3Z28ZZ8 OBJZZZZZ 25.000000   NCZZ2ZZ8 25.000000
    Z3Z28ZZ8 ACZ28ZZ8 25.000000   CCZ28ZZ8 1.000000
    Z3Z28ZZ8 NCZZ2ZZ9 -7.000000   ACZ28ZZ9 -7.000000
    Z3Z28ZZ8 NCZZ5ZZ9 -18.000000
    Z4Z28ZZ8 OBJZZZZZ 1.000000   NCZZ2ZZ8 1.000000
    Z4Z28ZZ8 ACZ28ZZ8 1.000000   NCZZ2ZZ9 -1.000000
    Z4Z28ZZ8 ACZ28ZZ9 -1.000000
    Z1Z29ZZ8 CCZ29ZZ8 1.000000
    Z2Z29ZZ8 OBJZZZZZ 15.000000   NCZZ2ZZ8 15.000000
    Z2Z29ZZ8 ACZ29ZZ8 15.000000   CCZ29ZZ8 1.000000
    Z2Z29ZZ8 NCZZ4ZZ9 -15.000000
    Z3Z29ZZ8 OBJZZZZZ 25.000000   NCZZ2ZZ8 25.000000
    Z3Z29ZZ8 ACZ29ZZ8 25.000000   CCZ29ZZ8 1.000000
    Z3Z29ZZ8 NCZZ2ZZ9 -7.000000   ACZ29ZZ9 -7.000000
    Z3Z29ZZ8 NCZZ4ZZ9 -18.000000
    Z4Z29ZZ8 OBJZZZZZ 1.000000   NCZZ2ZZ8 1.000000
    Z4Z29ZZ8 ACZ29ZZ8 1.000000   NCZZ2ZZ9 -1.000000
    Z4Z29ZZ8 ACZ29ZZ9 -1.000000
    Z1Z30ZZ8 CCZ30ZZ8 1.000000
    Z2Z30ZZ8 OBJZZZZZ 15.000000   NCZZ1ZZ8 15.000000
    Z2Z30ZZ8 ACZ30ZZ8 15.000000   CCZ30ZZ8 1.000000
    Z2Z30ZZ8 NCZZ4ZZ9 -15.000000
    Z3Z30ZZ8 OBJZZZZZ 25.000000   NCZZ1ZZ8 25.000000
    Z3Z30ZZ8 ACZ30ZZ8 25.000000   CCZ30ZZ8 1.000000
    Z3Z30ZZ8 NCZZ1ZZ9 -7.000000   ACZ30ZZ9 -7.000000
    Z3Z30ZZ8 NCZZ4ZZ9 -18.000000
    Z4Z30ZZ8 OBJZZZZZ 1.000000   NCZZ1ZZ8 1.000000
    Z4Z30ZZ8 ACZ30ZZ8 1.000000   NCZZ1ZZ9 -1.000000
    Z4Z30ZZ8 ACZ30ZZ9 -1.000000
    Z1Z31ZZ8 CCZ31ZZ8 1.000000
    Z2Z31ZZ8 OBJZZZZZ 30.000000   NCZZ7ZZ8 30.000000
    Z2Z31ZZ8 ACZ31ZZ8 30.000000   CCZ31ZZ8 1.000000
    Z2Z31ZZ8 NCZZ4ZZ9 -30.000000
    Z3Z31ZZ8 OBJZZZZZ 40.000000   NCZZ7ZZ8 40.000000
    Z3Z31ZZ8 ACZ31ZZ8 40.000000   CCZ31ZZ8 1.000000
    Z3Z31ZZ8 NCZZ7ZZ9 -7.000000   ACZ31ZZ9 -7.000000
    Z3Z31ZZ8 NCZZ4ZZ9 -33.000000
    Z4Z31ZZ8 OBJZZZZZ 1.000000   NCZZ7ZZ8 1.000000
    Z4Z31ZZ8 ACZ31ZZ8 1.000000   NCZZ7ZZ9 -1.000000
    Z4Z31ZZ8 ACZ31ZZ9 -1.000000
    Z1Z32ZZ8 CCZ32ZZ8 1.000000
    Z2Z32ZZ8 OBJZZZZZ 30.000000   NCZZ4ZZ8 30.000000
    Z2Z32ZZ8 ACZ32ZZ8 30.000000   CCZ32ZZ8 1.000000
    Z2Z32ZZ8 NCZZ7ZZ9 -30.000000
    Z3Z32ZZ8 OBJZZZZZ 40.000000   NCZZ4ZZ8 40.000000
    Z3Z32ZZ8 ACZ32ZZ8 40.000000   CCZ32ZZ8 1.000000
    Z3Z32ZZ8 NCZZ4ZZ9 -7.000000   ACZ32ZZ9 -7.000000
    Z3Z32ZZ8 NCZZ7ZZ9 -33.000000
    Z4Z32ZZ8 OBJZZZZZ 1.000000   NCZZ4ZZ8 1.000000
    Z4Z32ZZ8 ACZ32ZZ8 1.000000   NCZZ4ZZ9 -1.000000
    Z4Z32ZZ8 ACZ32ZZ9 -1.000000
    Z1Z33ZZ8 CCZ33ZZ8 1.000000
    Z2Z33ZZ8 OBJZZZZZ 30.000000   NCZZ7ZZ8 30.000000
    Z2Z33ZZ8 ACZ33ZZ8 30.000000   CCZ33ZZ8 1.000000
    Z2Z33ZZ8 NCZ10ZZ9 -30.000000
    Z3Z33ZZ8 OBJZZZZZ 40.000000   NCZZ7ZZ8 40.000000
    Z3Z33ZZ8 ACZ33ZZ8 40.000000   CCZ33ZZ8 1.000000
    Z3Z33ZZ8 NCZZ7ZZ9 -7.000000   ACZ33ZZ9 -7.000000
    Z3Z33ZZ8 NCZ10ZZ9 -33.000000
    Z4Z33ZZ8 OBJZZZZZ 1.000000   NCZZ7ZZ8 1.000000
    Z4Z33ZZ8 ACZ33ZZ8 1.000000   NCZZ7ZZ9 -1.000000
    Z4Z33ZZ8 ACZ33ZZ9 -1.000000
    Z1Z34ZZ8 CCZ34ZZ8 1.000000
    Z2Z34ZZ8 OBJZZZZZ 30.000000   NCZ10ZZ8 30.000000
    Z2Z34ZZ8 ACZ34ZZ8 30.000000   CCZ34ZZ8 1.000000
    Z2Z34ZZ8 NCZZ7ZZ9 -30.000000
    Z3Z34ZZ8 OBJZZZZZ 40.000000   NCZ10ZZ8 40.000000
    Z3Z34ZZ8 ACZ34ZZ8 40.000000   CCZ34ZZ8 1.000000
    Z3Z34ZZ8 NCZ10ZZ9 -7.000000   ACZ34ZZ9 -7.000000
    Z3Z34ZZ8 NCZZ7ZZ9 -33.000000
    Z4Z34ZZ8 OBJZZZZZ 1.000000   NCZ10ZZ8 1.000000
    Z4Z34ZZ8 ACZ34ZZ8 1.000000   NCZ10ZZ9 -1.000000
    Z4Z34ZZ8 ACZ34ZZ9 -1.000000
    Z1Z35ZZ8 CCZ35ZZ8 1.000000
    Z2Z35ZZ8 OBJZZZZZ 30.000000   NCZ10ZZ8 30.000000
    Z2Z35ZZ8 ACZ35ZZ8 30.000000   CCZ35ZZ8 1.000000
    Z2Z35ZZ8 NCZ11ZZ9 -30.000000
    Z3Z35ZZ8 OBJZZZZZ 40.000000   NCZ10ZZ8 40.000000
    Z3Z35ZZ8 ACZ35ZZ8 40.000000   CCZ35ZZ8 1.000000
    Z3Z35ZZ8 NCZ10ZZ9 -7.000000   ACZ35ZZ9 -7.000000
    Z3Z35ZZ8 NCZ11ZZ9 -33.000000
    Z4Z35ZZ8 OBJZZZZZ 1.000000   NCZ10ZZ8 1.000000
    Z4Z35ZZ8 ACZ35ZZ8 1.000000   NCZ10ZZ9 -1.000000
    Z4Z35ZZ8 ACZ35ZZ9 -1.000000
    Z1Z36ZZ8 CCZ36ZZ8 1.000000
    Z2Z36ZZ8 OBJZZZZZ 30.000000   NCZ11ZZ8 30.000000
    Z2Z36ZZ8 ACZ36ZZ8 30.000000   CCZ36ZZ8 1.000000
    Z2Z36ZZ8 NCZ10ZZ9 -30.000000
    Z3Z36ZZ8 OBJZZZZZ 40.000000   NCZ11ZZ8 40.000000
    Z3Z36ZZ8 ACZ36ZZ8 40.000000   CCZ36ZZ8 1.000000
    Z3Z36ZZ8 NCZ11ZZ9 -7.000000   ACZ36ZZ9 -7.000000
    Z3Z36ZZ8 NCZ10ZZ9 -33.000000
    Z4Z36ZZ8 OBJZZZZZ 1.000000   NCZ11ZZ8 1.000000
    Z4Z36ZZ8 ACZ36ZZ8 1.000000   NCZ11ZZ9 -1.000000
    Z4Z36ZZ8 ACZ36ZZ9 -1.000000
    Z1Z37ZZ8 CCZ37ZZ8 1.000000
    Z2Z37ZZ8 OBJZZZZZ 30.000000   NCZ11ZZ8 30.000000
    Z2Z37ZZ8 ACZ37ZZ8 30.000000   CCZ37ZZ8 1.000000
    Z2Z37ZZ8 NCZ12ZZ9 -30.000000
    Z3Z37ZZ8 OBJZZZZZ 40.000000   NCZ11ZZ8 40.000000
    Z3Z37ZZ8 ACZ37ZZ8 40.000000   CCZ37ZZ8 1.000000
    Z3Z37ZZ8 NCZ11ZZ9 -7.000000   ACZ37ZZ9 -7.000000
    Z3Z37ZZ8 NCZ12ZZ9 -33.000000
    Z4Z37ZZ8 OBJZZZZZ 1.000000   NCZ11ZZ8 1.000000
    Z4Z37ZZ8 ACZ37ZZ8 1.000000   NCZ11ZZ9 -1.000000
    Z4Z37ZZ8 ACZ37ZZ9 -1.000000
    Z1Z38ZZ8 CCZ38ZZ8 1.000000
    Z2Z38ZZ8 OBJZZZZZ 30.000000   NCZ12ZZ8 30.000000
    Z2Z38ZZ8 ACZ38ZZ8 30.000000   CCZ38ZZ8 1.000000
    Z2Z38ZZ8 NCZ11ZZ9 -30.000000
    Z3Z38ZZ8 OBJZZZZZ 40.000000   NCZ12ZZ8 40.000000
    Z3Z38ZZ8 ACZ38ZZ8 40.000000   CCZ38ZZ8 1.000000
    Z3Z38ZZ8 NCZ12ZZ9 -7.000000   ACZ38ZZ9 -7.000000
    Z3Z38ZZ8 NCZ11ZZ9 -33.000000
    Z4Z38ZZ8 OBJZZZZZ 1.000000   NCZ12ZZ8 1.000000
    Z4Z38ZZ8 ACZ38ZZ8 1.000000   NCZ12ZZ9 -1.000000
    Z4Z38ZZ8 ACZ38ZZ9 -1.000000
    Z1Z39ZZ8 CCZ39ZZ8 1.000000
    Z2Z39ZZ8 OBJZZZZZ 30.000000   NCZ12ZZ8 30.000000
    Z2Z39ZZ8 ACZ39ZZ8 30.000000   CCZ39ZZ8 1.000000
    Z2Z39ZZ8 NCZZ8ZZ9 -30.000000
    Z3Z39ZZ8 OBJZZZZZ 40.000000   NCZ12ZZ8 40.000000
    Z3Z39ZZ8 ACZ39ZZ8 40.000000   CCZ39ZZ8 1.000000
    Z3Z39ZZ8 NCZ12ZZ9 -7.000000   ACZ39ZZ9 -7.000000
    Z3Z39ZZ8 NCZZ8ZZ9 -33.000000
    Z4Z39ZZ8 OBJZZZZZ 1.000000   NCZ12ZZ8 1.000000
    Z4Z39ZZ8 ACZ39ZZ8 1.000000   NCZ12ZZ9 -1.000000
    Z4Z39ZZ8 ACZ39ZZ9 -1.000000
    Z1Z40ZZ8 CCZ40ZZ8 1.000000
    Z2Z40ZZ8 OBJZZZZZ 30.000000   NCZZ8ZZ8 30.000000
    Z2Z40ZZ8 ACZ40ZZ8 30.000000   CCZ40ZZ8 1.000000
    Z2Z40ZZ8 NCZ12ZZ9 -30.000000
    Z3Z40ZZ8 OBJZZZZZ 40.000000   NCZZ8ZZ8 40.000000
    Z3Z40ZZ8 ACZ40ZZ8 40.000000   CCZ40ZZ8 1.000000
    Z3Z40ZZ8 NCZZ8ZZ9 -7.000000   ACZ40ZZ9 -7.000000
    Z3Z40ZZ8 NCZ12ZZ9 -33.000000
    Z4Z40ZZ8 OBJZZZZZ 1.000000   NCZZ8ZZ8 1.000000
    Z4Z40ZZ8 ACZ40ZZ8 1.000000   NCZZ8ZZ9 -1.000000
    Z4Z40ZZ8 ACZ40ZZ9 -1.000000
    Z1Z41ZZ8 CCZ41ZZ8 1.000000
    Z2Z41ZZ8 OBJZZZZZ 30.000000   NCZZ5ZZ8 30.000000
    Z2Z41ZZ8 ACZ41ZZ8 30.000000   CCZ41ZZ8 1.000000
    Z2Z41ZZ8 NCZZ8ZZ9 -30.000000
    Z3Z41ZZ8 OBJZZZZZ 40.000000   NCZZ5ZZ8 40.000000
    Z3Z41ZZ8 ACZ41ZZ8 40.000000   CCZ41ZZ8 1.000000
    Z3Z41ZZ8 NCZZ5ZZ9 -7.000000   ACZ41ZZ9 -7.000000
    Z3Z41ZZ8 NCZZ8ZZ9 -33.000000
    Z4Z41ZZ8 OBJZZZZZ 1.000000   NCZZ5ZZ8 1.000000
    Z4Z41ZZ8 ACZ41ZZ8 1.000000   NCZZ5ZZ9 -1.000000
    Z4Z41ZZ8 ACZ41ZZ9 -1.000000
    Z1Z42ZZ8 CCZ42ZZ8 1.000000
    Z2Z42ZZ8 OBJZZZZZ 30.000000   NCZZ8ZZ8 30.000000
    Z2Z42ZZ8 ACZ42ZZ8 30.000000   CCZ42ZZ8 1.000000
    Z2Z42ZZ8 NCZZ5ZZ9 -30.000000
    Z3Z42ZZ8 OBJZZZZZ 40.000000   NCZZ8ZZ8 40.000000
    Z3Z42ZZ8 ACZ42ZZ8 40.000000   CCZ42ZZ8 1.000000
    Z3Z42ZZ8 NCZZ8ZZ9 -7.000000   ACZ42ZZ9 -7.000000
    Z3Z42ZZ8 NCZZ5ZZ9 -33.000000
    Z4Z42ZZ8 OBJZZZZZ 1.000000   NCZZ8ZZ8 1.000000
    Z4Z42ZZ8 ACZ42ZZ8 1.000000   NCZZ8ZZ9 -1.000000
    Z4Z42ZZ8 ACZ42ZZ9 -1.000000
    Z1Z43ZZ8 CCZ43ZZ8 1.000000
    Z2Z43ZZ8 OBJZZZZZ 30.000000   NCZZ5ZZ8 30.000000
    Z2Z43ZZ8 ACZ43ZZ8 30.000000   CCZ43ZZ8 1.000000
    Z2Z43ZZ8 NCZZ4ZZ9 -30.000000
    Z3Z43ZZ8 OBJZZZZZ 40.000000   NCZZ5ZZ8 40.000000
    Z3Z43ZZ8 ACZ43ZZ8 40.000000   CCZ43ZZ8 1.000000
    Z3Z43ZZ8 NCZZ5ZZ9 -7.000000   ACZ43ZZ9 -7.000000
    Z3Z43ZZ8 NCZZ4ZZ9 -33.000000
    Z4Z43ZZ8 OBJZZZZZ 1.000000   NCZZ5ZZ8 1.000000
    Z4Z43ZZ8 ACZ43ZZ8 1.000000   NCZZ5ZZ9 -1.000000
    Z4Z43ZZ8 ACZ43ZZ9 -1.000000
    Z1Z44ZZ8 CCZ44ZZ8 1.000000
    Z2Z44ZZ8 OBJZZZZZ 30.000000   NCZZ4ZZ8 30.000000
    Z2Z44ZZ8 ACZ44ZZ8 30.000000   CCZ44ZZ8 1.000000
    Z2Z44ZZ8 NCZZ5ZZ9 -30.000000
    Z3Z44ZZ8 OBJZZZZZ 40.000000   NCZZ4ZZ8 40.000000
    Z3Z44ZZ8 ACZ44ZZ8 40.000000   CCZ44ZZ8 1.000000
    Z3Z44ZZ8 NCZZ4ZZ9 -7.000000   ACZ44ZZ9 -7.000000
    Z3Z44ZZ8 NCZZ5ZZ9 -33.000000
    Z4Z44ZZ8 OBJZZZZZ 1.000000   NCZZ4ZZ8 1.000000
    Z4Z44ZZ8 ACZ44ZZ8 1.000000   NCZZ4ZZ9 -1.000000
    Z4Z44ZZ8 ACZ44ZZ9 -1.000000
    Z1Z45ZZ8 CCZ45ZZ8 1.000000
    Z2Z45ZZ8 OBJZZZZZ 50.000000   NCZZ4ZZ8 50.000000
    Z2Z45ZZ8 ACZ45ZZ8 50.000000   CCZ45ZZ8 1.000000
    Z3Z45ZZ8 OBJZZZZZ 80.000000   NCZZ4ZZ8 80.000000
    Z3Z45ZZ8 ACZ45ZZ8 80.000000   CCZ45ZZ8 1.000000
    Z3Z45ZZ8 NCZZ4ZZ9 -15.000000   ACZ45ZZ9 -15.000000
    Z4Z45ZZ8 OBJZZZZZ 1.000000   NCZZ4ZZ8 1.000000
    Z4Z45ZZ8 ACZ45ZZ8 1.000000   NCZZ4ZZ9 -1.000000
    Z4Z45ZZ8 ACZ45ZZ9 -1.000000
    Z1Z46ZZ8 CCZ46ZZ8 1.000000
    Z2Z46ZZ8 OBJZZZZZ 50.000000   NCZ10ZZ8 50.000000
    Z2Z46ZZ8 ACZ46ZZ8 50.000000   CCZ46ZZ8 1.000000
    Z3Z46ZZ8 OBJZZZZZ 80.000000   NCZ10ZZ8 80.000000
    Z3Z46ZZ8 ACZ46ZZ8 80.000000   CCZ46ZZ8 1.000000
    Z3Z46ZZ8 NCZ10ZZ9 -15.000000   ACZ46ZZ9 -15.000000
    Z4Z46ZZ8 OBJZZZZZ 1.000000   NCZ10ZZ8 1.000000
    Z4Z46ZZ8 ACZ46ZZ8 1.000000   NCZ10ZZ9 -1.000000
    Z4Z46ZZ8 ACZ46ZZ9 -1.000000
    Z1Z47ZZ8 CCZ47ZZ8 1.000000
    Z2Z47ZZ8 OBJZZZZZ 50.000000   NCZ12ZZ8 50.000000
    Z2Z47ZZ8 ACZ47ZZ8 50.000000   CCZ47ZZ8 1.000000
    Z3Z47ZZ8 OBJZZZZZ 80.000000   NCZ12ZZ8 80.000000
    Z3Z47ZZ8 ACZ47ZZ8 80.000000   CCZ47ZZ8 1.000000
    Z3Z47ZZ8 NCZ12ZZ9 -15.000000   ACZ47ZZ9 -15.000000
    Z4Z47ZZ8 OBJZZZZZ 1.000000   NCZ12ZZ8 1.000000
    Z4Z47ZZ8 ACZ47ZZ8 1.000000   NCZ12ZZ9 -1.000000
    Z4Z47ZZ8 ACZ47ZZ9 -1.000000
    Z1ZZ1ZZ9 CCZZ1ZZ9 1.000000
    Z2ZZ1ZZ9 OBJZZZZZ 10.000000   NCZZ3ZZ9 10.000000
    Z2ZZ1ZZ9 ACZZ1ZZ9 10.000000   CCZZ1ZZ9 1.000000
    Z2ZZ1ZZ9 NCZZ1Z10 -10.000000
    Z3ZZ1ZZ9 OBJZZZZZ 20.000000   NCZZ3ZZ9 20.000000
    Z3ZZ1ZZ9 ACZZ1ZZ9 20.000000   CCZZ1ZZ9 1.000000
    Z3ZZ1ZZ9 NCZZ3Z10 -5.000000   ACZZ1Z10 -5.000000
    Z3ZZ1ZZ9 NCZZ1Z10 -15.000000
    Z4ZZ1ZZ9 OBJZZZZZ 1.000000   NCZZ3ZZ9 1.000000
    Z4ZZ1ZZ9 ACZZ1ZZ9 1.000000   NCZZ3Z10 -1.000000
    Z4ZZ1ZZ9 ACZZ1Z10 -1.000000
    Z1ZZ2ZZ9 CCZZ2ZZ9 1.000000
    Z2ZZ2ZZ9 OBJZZZZZ 10.000000   NCZZ1ZZ9 10.000000
    Z2ZZ2ZZ9 ACZZ2ZZ9 10.000000   CCZZ2ZZ9 1.000000
    Z2ZZ2ZZ9 NCZZ3Z10 -10.000000
    Z3ZZ2ZZ9 OBJZZZZZ 20.000000   NCZZ1ZZ9 20.000000
    Z3ZZ2ZZ9 ACZZ2ZZ9 20.000000   CCZZ2ZZ9 1.000000
    Z3ZZ2ZZ9 NCZZ1Z10 -5.000000   ACZZ2Z10 -5.000000
    Z3ZZ2ZZ9 NCZZ3Z10 -15.000000
    Z4ZZ2ZZ9 OBJZZZZZ 1.000000   NCZZ1ZZ9 1.000000
    Z4ZZ2ZZ9 ACZZ2ZZ9 1.000000   NCZZ1Z10 -1.000000
    Z4ZZ2ZZ9 ACZZ2Z10 -1.000000
    Z1ZZ3ZZ9 CCZZ3ZZ9 1.000000
    Z2ZZ3ZZ9 OBJZZZZZ 10.000000   NCZZ9ZZ9 10.000000
    Z2ZZ3ZZ9 ACZZ3ZZ9 10.000000   CCZZ3ZZ9 1.000000
    Z2ZZ3ZZ9 NCZZ3Z10 -10.000000
    Z3ZZ3ZZ9 OBJZZZZZ 20.000000   NCZZ9ZZ9 20.000000
    Z3ZZ3ZZ9 ACZZ3ZZ9 20.000000   CCZZ3ZZ9 1.000000
    Z3ZZ3ZZ9 NCZZ9Z10 -5.000000   ACZZ3Z10 -5.000000
    Z3ZZ3ZZ9 NCZZ3Z10 -15.000000
    Z4ZZ3ZZ9 OBJZZZZZ 1.000000   NCZZ9ZZ9 1.000000
    Z4ZZ3ZZ9 ACZZ3ZZ9 1.000000   NCZZ9Z10 -1.000000
    Z4ZZ3ZZ9 ACZZ3Z10 -1.000000
    Z1ZZ4ZZ9 CCZZ4ZZ9 1.000000
    Z2ZZ4ZZ9 OBJZZZZZ 10.000000   NCZZ3ZZ9 10.000000
    Z2ZZ4ZZ9 ACZZ4ZZ9 10.000000   CCZZ4ZZ9 1.000000
    Z2ZZ4ZZ9 NCZZ9Z10 -10.000000
    Z3ZZ4ZZ9 OBJZZZZZ 20.000000   NCZZ3ZZ9 20.000000
    Z3ZZ4ZZ9 ACZZ4ZZ9 20.000000   CCZZ4ZZ9 1.000000
    Z3ZZ4ZZ9 NCZZ3Z10 -5.000000   ACZZ4Z10 -5.000000
    Z3ZZ4ZZ9 NCZZ9Z10 -15.000000
    Z4ZZ4ZZ9 OBJZZZZZ 1.000000   NCZZ3ZZ9 1.000000
    Z4ZZ4ZZ9 ACZZ4ZZ9 1.000000   NCZZ3Z10 -1.000000
    Z4ZZ4ZZ9 ACZZ4Z10 -1.000000
    Z1ZZ5ZZ9 CCZZ5ZZ9 1.000000
    Z2ZZ5ZZ9 OBJZZZZZ 10.000000   NCZZ9ZZ9 10.000000
    Z2ZZ5ZZ9 ACZZ5ZZ9 10.000000   CCZZ5ZZ9 1.000000
    Z2ZZ5ZZ9 NCZ14Z10 -10.000000
    Z3ZZ5ZZ9 OBJZZZZZ 20.000000   NCZZ9ZZ9 20.000000
    Z3ZZ5ZZ9 ACZZ5ZZ9 20.000000   CCZZ5ZZ9 1.000000
    Z3ZZ5ZZ9 NCZZ9Z10 -5.000000   ACZZ5Z10 -5.000000
    Z3ZZ5ZZ9 NCZ14Z10 -15.000000
    Z4ZZ5ZZ9 OBJZZZZZ 1.000000   NCZZ9ZZ9 1.000000
    Z4ZZ5ZZ9 ACZZ5ZZ9 1.000000   NCZZ9Z10 -1.000000
    Z4ZZ5ZZ9 ACZZ5Z10 -1.000000
    Z1ZZ6ZZ9 CCZZ6ZZ9 1.000000
    Z2ZZ6ZZ9 OBJZZZZZ 10.000000   NCZ14ZZ9 10.000000
    Z2ZZ6ZZ9 ACZZ6ZZ9 10.000000   CCZZ6ZZ9 1.000000
    Z2ZZ6ZZ9 NCZZ9Z10 -10.000000
    Z3ZZ6ZZ9 OBJZZZZZ 20.000000   NCZ14ZZ9 20.000000
    Z3ZZ6ZZ9 ACZZ6ZZ9 20.000000   CCZZ6ZZ9 1.000000
    Z3ZZ6ZZ9 NCZ14Z10 -5.000000   ACZZ6Z10 -5.000000
    Z3ZZ6ZZ9 NCZZ9Z10 -15.000000
    Z4ZZ6ZZ9 OBJZZZZZ 1.000000   NCZ14ZZ9 1.000000
    Z4ZZ6ZZ9 ACZZ6ZZ9 1.000000   NCZ14Z10 -1.000000
    Z4ZZ6ZZ9 ACZZ6Z10 -1.000000
    Z1ZZ7ZZ9 CCZZ7ZZ9 1.000000
    Z2ZZ7ZZ9 OBJZZZZZ 10.000000   NCZ15ZZ9 10.000000
    Z2ZZ7ZZ9 ACZZ7ZZ9 10.000000   CCZZ7ZZ9 1.000000
    Z2ZZ7ZZ9 NCZ14Z10 -10.000000
    Z3ZZ7ZZ9 OBJZZZZZ 20.000000   NCZ15ZZ9 20.000000
    Z3ZZ7ZZ9 ACZZ7ZZ9 20.000000   CCZZ7ZZ9 1.000000
    Z3ZZ7ZZ9 NCZ15Z10 -5.000000   ACZZ7Z10 -5.000000
    Z3ZZ7ZZ9 NCZ14Z10 -15.000000
    Z4ZZ7ZZ9 OBJZZZZZ 1.000000   NCZ15ZZ9 1.000000
    Z4ZZ7ZZ9 ACZZ7ZZ9 1.000000   NCZ15Z10 -1.000000
    Z4ZZ7ZZ9 ACZZ7Z10 -1.000000
    Z1ZZ8ZZ9 CCZZ8ZZ9 1.000000
    Z2ZZ8ZZ9 OBJZZZZZ 10.000000   NCZ14ZZ9 10.000000
    Z2ZZ8ZZ9 ACZZ8ZZ9 10.000000   CCZZ8ZZ9 1.000000
    Z2ZZ8ZZ9 NCZ15Z10 -10.000000
    Z3ZZ8ZZ9 OBJZZZZZ 20.000000   NCZ14ZZ9 20.000000
    Z3ZZ8ZZ9 ACZZ8ZZ9 20.000000   CCZZ8ZZ9 1.000000
    Z3ZZ8ZZ9 NCZ14Z10 -5.000000   ACZZ8Z10 -5.000000
    Z3ZZ8ZZ9 NCZ15Z10 -15.000000
    Z4ZZ8ZZ9 OBJZZZZZ 1.000000   NCZ14ZZ9 1.000000
    Z4ZZ8ZZ9 ACZZ8ZZ9 1.000000   NCZ14Z10 -1.000000
    Z4ZZ8ZZ9 ACZZ8Z10 -1.000000
    Z1ZZ9ZZ9 CCZZ9ZZ9 1.000000
    Z2ZZ9ZZ9 OBJZZZZZ 10.000000   NCZ15ZZ9 10.000000
    Z2ZZ9ZZ9 ACZZ9ZZ9 10.000000   CCZZ9ZZ9 1.000000
    Z2ZZ9ZZ9 NCZ13Z10 -10.000000
    Z3ZZ9ZZ9 OBJZZZZZ 20.000000   NCZ15ZZ9 20.000000
    Z3ZZ9ZZ9 ACZZ9ZZ9 20.000000   CCZZ9ZZ9 1.000000
    Z3ZZ9ZZ9 NCZ15Z10 -5.000000   ACZZ9Z10 -5.000000
    Z3ZZ9ZZ9 NCZ13Z10 -15.000000
    Z4ZZ9ZZ9 OBJZZZZZ 1.000000   NCZ15ZZ9 1.000000
    Z4ZZ9ZZ9 ACZZ9ZZ9 1.000000   NCZ15Z10 -1.000000
    Z4ZZ9ZZ9 ACZZ9Z10 -1.000000
    Z1Z10ZZ9 CCZ10ZZ9 1.000000
    Z2Z10ZZ9 OBJZZZZZ 10.000000   NCZ13ZZ9 10.000000
    Z2Z10ZZ9 ACZ10ZZ9 10.000000   CCZ10ZZ9 1.000000
    Z2Z10ZZ9 NCZ15Z10 -10.000000
    Z3Z10ZZ9 OBJZZZZZ 20.000000   NCZ13ZZ9 20.000000
    Z3Z10ZZ9 ACZ10ZZ9 20.000000   CCZ10ZZ9 1.000000
    Z3Z10ZZ9 NCZ13Z10 -5.000000   ACZ10Z10 -5.000000
    Z3Z10ZZ9 NCZ15Z10 -15.000000
    Z4Z10ZZ9 OBJZZZZZ 1.000000   NCZ13ZZ9 1.000000
    Z4Z10ZZ9 ACZ10ZZ9 1.000000   NCZ13Z10 -1.000000
    Z4Z10ZZ9 ACZ10Z10 -1.000000
    Z1Z11ZZ9 CCZ11ZZ9 1.000000
    Z2Z11ZZ9 OBJZZZZZ 10.000000   NCZ13ZZ9 10.000000
    Z2Z11ZZ9 ACZ11ZZ9 10.000000   CCZ11ZZ9 1.000000
    Z2Z11ZZ9 NCZZ6Z10 -10.000000
    Z3Z11ZZ9 OBJZZZZZ 20.000000   NCZ13ZZ9 20.000000
    Z3Z11ZZ9 ACZ11ZZ9 20.000000   CCZ11ZZ9 1.000000
    Z3Z11ZZ9 NCZ13Z10 -5.000000   ACZ11Z10 -5.000000
    Z3Z11ZZ9 NCZZ6Z10 -15.000000
    Z4Z11ZZ9 OBJZZZZZ 1.000000   NCZ13ZZ9 1.000000
    Z4Z11ZZ9 ACZ11ZZ9 1.000000   NCZ13Z10 -1.000000
    Z4Z11ZZ9 ACZ11Z10 -1.000000
    Z1Z12ZZ9 CCZ12ZZ9 1.000000
    Z2Z12ZZ9 OBJZZZZZ 10.000000   NCZZ6ZZ9 10.000000
    Z2Z12ZZ9 ACZ12ZZ9 10.000000   CCZ12ZZ9 1.000000
    Z2Z12ZZ9 NCZ13Z10 -10.000000
    Z3Z12ZZ9 OBJZZZZZ 20.000000   NCZZ6ZZ9 20.000000
    Z3Z12ZZ9 ACZ12ZZ9 20.000000   CCZ12ZZ9 1.000000
    Z3Z12ZZ9 NCZZ6Z10 -5.000000   ACZ12Z10 -5.000000
    Z3Z12ZZ9 NCZ13Z10 -15.000000
    Z4Z12ZZ9 OBJZZZZZ 1.000000   NCZZ6ZZ9 1.000000
    Z4Z12ZZ9 ACZ12ZZ9 1.000000   NCZZ6Z10 -1.000000
    Z4Z12ZZ9 ACZ12Z10 -1.000000
    Z1Z13ZZ9 CCZ13ZZ9 1.000000
    Z2Z13ZZ9 OBJZZZZZ 10.000000   NCZZ6ZZ9 10.000000
    Z2Z13ZZ9 ACZ13ZZ9 10.000000   CCZ13ZZ9 1.000000
    Z2Z13ZZ9 NCZZ2Z10 -10.000000
    Z3Z13ZZ9 OBJZZZZZ 20.000000   NCZZ6ZZ9 20.000000
    Z3Z13ZZ9 ACZ13ZZ9 20.000000   CCZ13ZZ9 1.000000
    Z3Z13ZZ9 NCZZ6Z10 -5.000000   ACZ13Z10 -5.000000
    Z3Z13ZZ9 NCZZ2Z10 -15.000000
    Z4Z13ZZ9 OBJZZZZZ 1.000000   NCZZ6ZZ9 1.000000
    Z4Z13ZZ9 ACZ13ZZ9 1.000000   NCZZ6Z10 -1.000000
    Z4Z13ZZ9 ACZ13Z10 -1.000000
    Z1Z14ZZ9 CCZ14ZZ9 1.000000
    Z2Z14ZZ9 OBJZZZZZ 10.000000   NCZZ2ZZ9 10.000000
    Z2Z14ZZ9 ACZ14ZZ9 10.000000   CCZ14ZZ9 1.000000
    Z2Z14ZZ9 NCZZ6Z10 -10.000000
    Z3Z14ZZ9 OBJZZZZZ 20.000000   NCZZ2ZZ9 20.000000
    Z3Z14ZZ9 ACZ14ZZ9 20.000000   CCZ14ZZ9 1.000000
    Z3Z14ZZ9 NCZZ2Z10 -5.000000   ACZ14Z10 -5.000000
    Z3Z14ZZ9 NCZZ6Z10 -15.000000
    Z4Z14ZZ9 OBJZZZZZ 1.000000   NCZZ2ZZ9 1.000000
    Z4Z14ZZ9 ACZ14ZZ9 1.000000   NCZZ2Z10 -1.000000
    Z4Z14ZZ9 ACZ14Z10 -1.000000
    Z1Z15ZZ9 CCZ15ZZ9 1.000000
    Z2Z15ZZ9 OBJZZZZZ 10.000000   NCZZ2ZZ9 10.000000
    Z2Z15ZZ9 ACZ15ZZ9 10.000000   CCZ15ZZ9 1.000000
    Z2Z15ZZ9 NCZZ1Z10 -10.000000
    Z3Z15ZZ9 OBJZZZZZ 20.000000   NCZZ2ZZ9 20.000000
    Z3Z15ZZ9 ACZ15ZZ9 20.000000   CCZ15ZZ9 1.000000
    Z3Z15ZZ9 NCZZ2Z10 -5.000000   ACZ15Z10 -5.000000
    Z3Z15ZZ9 NCZZ1Z10 -15.000000
    Z4Z15ZZ9 OBJZZZZZ 1.000000   NCZZ2ZZ9 1.000000
    Z4Z15ZZ9 ACZ15ZZ9 1.000000   NCZZ2Z10 -1.000000
    Z4Z15ZZ9 ACZ15Z10 -1.000000
    Z1Z16ZZ9 CCZ16ZZ9 1.000000
    Z2Z16ZZ9 OBJZZZZZ 10.000000   NCZZ1ZZ9 10.000000
    Z2Z16ZZ9 ACZ16ZZ9 10.000000   CCZ16ZZ9 1.000000
    Z2Z16ZZ9 NCZZ2Z10 -10.000000
    Z3Z16ZZ9 OBJZZZZZ 20.000000   NCZZ1ZZ9 20.000000
    Z3Z16ZZ9 ACZ16ZZ9 20.000000   CCZ16ZZ9 1.000000
    Z3Z16ZZ9 NCZZ1Z10 -5.000000   ACZ16Z10 -5.000000
    Z3Z16ZZ9 NCZZ2Z10 -15.000000
    Z4Z16ZZ9 OBJZZZZZ 1.000000   NCZZ1ZZ9 1.000000
    Z4Z16ZZ9 ACZ16ZZ9 1.000000   NCZZ1Z10 -1.000000
    Z4Z16ZZ9 ACZ16Z10 -1.000000
    Z1Z17ZZ9 CCZ17ZZ9 1.000000
    Z2Z17ZZ9 OBJZZZZZ 15.000000   NCZZ3ZZ9 15.000000
    Z2Z17ZZ9 ACZ17ZZ9 15.000000   CCZ17ZZ9 1.000000
    Z2Z17ZZ9 NCZZ7Z10 -15.000000
    Z3Z17ZZ9 OBJZZZZZ 25.000000   NCZZ3ZZ9 25.000000
    Z3Z17ZZ9 ACZ17ZZ9 25.000000   CCZ17ZZ9 1.000000
    Z3Z17ZZ9 NCZZ3Z10 -7.000000   ACZ17Z10 -7.000000
    Z3Z17ZZ9 NCZZ7Z10 -18.000000
    Z4Z17ZZ9 OBJZZZZZ 1.000000   NCZZ3ZZ9 1.000000
    Z4Z17ZZ9 ACZ17ZZ9 1.000000   NCZZ3Z10 -1.000000
    Z4Z17ZZ9 ACZ17Z10 -1.000000
    Z1Z18ZZ9 CCZ18ZZ9 1.000000
    Z2Z18ZZ9 OBJZZZZZ 15.000000   NCZZ9ZZ9 15.000000
    Z2Z18ZZ9 ACZ18ZZ9 15.000000   CCZ18ZZ9 1.000000
    Z2Z18ZZ9 NCZZ7Z10 -15.000000
    Z3Z18ZZ9 OBJZZZZZ 25.000000   NCZZ9ZZ9 25.000000
    Z3Z18ZZ9 ACZ18ZZ9 25.000000   CCZ18ZZ9 1.000000
    Z3Z18ZZ9 NCZZ9Z10 -7.000000   ACZ18Z10 -7.000000
    Z3Z18ZZ9 NCZZ7Z10 -18.000000
    Z4Z18ZZ9 OBJZZZZZ 1.000000   NCZZ9ZZ9 1.000000
    Z4Z18ZZ9 ACZ18ZZ9 1.000000   NCZZ9Z10 -1.000000
    Z4Z18ZZ9 ACZ18Z10 -1.000000
    Z1Z19ZZ9 CCZ19ZZ9 1.000000
    Z2Z19ZZ9 OBJZZZZZ 15.000000   NCZZ9ZZ9 15.000000
    Z2Z19ZZ9 ACZ19ZZ9 15.000000   CCZ19ZZ9 1.000000
    Z2Z19ZZ9 NCZ10Z10 -15.000000
    Z3Z19ZZ9 OBJZZZZZ 25.000000   NCZZ9ZZ9 25.000000
    Z3Z19ZZ9 ACZ19ZZ9 25.000000   CCZ19ZZ9 1.000000
    Z3Z19ZZ9 NCZZ9Z10 -7.000000   ACZ19Z10 -7.000000
    Z3Z19ZZ9 NCZ10Z10 -18.000000
    Z4Z19ZZ9 OBJZZZZZ 1.000000   NCZZ9ZZ9 1.000000
    Z4Z19ZZ9 ACZ19ZZ9 1.000000   NCZZ9Z10 -1.000000
    Z4Z19ZZ9 ACZ19Z10 -1.000000
    Z1Z20ZZ9 CCZ20ZZ9 1.000000
    Z2Z20ZZ9 OBJZZZZZ 15.000000   NCZ14ZZ9 15.000000
    Z2Z20ZZ9 ACZ20ZZ9 15.000000   CCZ20ZZ9 1.000000
    Z2Z20ZZ9 NCZ10Z10 -15.000000
    Z3Z20ZZ9 OBJZZZZZ 25.000000   NCZ14ZZ9 25.000000
    Z3Z20ZZ9 ACZ20ZZ9 25.000000   CCZ20ZZ9 1.000000
    Z3Z20ZZ9 NCZ14Z10 -7.000000   ACZ20Z10 -7.000000
    Z3Z20ZZ9 NCZ10Z10 -18.000000
    Z4Z20ZZ9 OBJZZZZZ 1.000000   NCZ14ZZ9 1.000000
    Z4Z20ZZ9 ACZ20ZZ9 1.000000   NCZ14Z10 -1.000000
    Z4Z20ZZ9 ACZ20Z10 -1.000000
    Z1Z21ZZ9 CCZ21ZZ9 1.000000
    Z2Z21ZZ9 OBJZZZZZ 15.000000   NCZ14ZZ9 15.000000
    Z2Z21ZZ9 ACZ21ZZ9 15.000000   CCZ21ZZ9 1.000000
    Z2Z21ZZ9 NCZ11Z10 -15.000000
    Z3Z21ZZ9 OBJZZZZZ 25.000000   NCZ14ZZ9 25.000000
    Z3Z21ZZ9 ACZ21ZZ9 25.000000   CCZ21ZZ9 1.000000
    Z3Z21ZZ9 NCZ14Z10 -7.000000   ACZ21Z10 -7.000000
    Z3Z21ZZ9 NCZ11Z10 -18.000000
    Z4Z21ZZ9 OBJZZZZZ 1.000000   NCZ14ZZ9 1.000000
    Z4Z21ZZ9 ACZ21ZZ9 1.000000   NCZ14Z10 -1.000000
    Z4Z21ZZ9 ACZ21Z10 -1.000000
    Z1Z22ZZ9 CCZ22ZZ9 1.000000
    Z2Z22ZZ9 OBJZZZZZ 15.000000   NCZ15ZZ9 15.000000
    Z2Z22ZZ9 ACZ22ZZ9 15.000000   CCZ22ZZ9 1.000000
    Z2Z22ZZ9 NCZ11Z10 -15.000000
    Z3Z22ZZ9 OBJZZZZZ 25.000000   NCZ15ZZ9 25.000000
    Z3Z22ZZ9 ACZ22ZZ9 25.000000   CCZ22ZZ9 1.000000
    Z3Z22ZZ9 NCZ15Z10 -7.000000   ACZ22Z10 -7.000000
    Z3Z22ZZ9 NCZ11Z10 -18.000000
    Z4Z22ZZ9 OBJZZZZZ 1.000000   NCZ15ZZ9 1.000000
    Z4Z22ZZ9 ACZ22ZZ9 1.000000   NCZ15Z10 -1.000000
    Z4Z22ZZ9 ACZ22Z10 -1.000000
    Z1Z23ZZ9 CCZ23ZZ9 1.000000
    Z2Z23ZZ9 OBJZZZZZ 15.000000   NCZ15ZZ9 15.000000
    Z2Z23ZZ9 ACZ23ZZ9 15.000000   CCZ23ZZ9 1.000000
    Z2Z23ZZ9 NCZ12Z10 -15.000000
    Z3Z23ZZ9 OBJZZZZZ 25.000000   NCZ15ZZ9 25.000000
    Z3Z23ZZ9 ACZ23ZZ9 25.000000   CCZ23ZZ9 1.000000
    Z3Z23ZZ9 NCZ15Z10 -7.000000   ACZ23Z10 -7.000000
    Z3Z23ZZ9 NCZ12Z10 -18.000000
    Z4Z23ZZ9 OBJZZZZZ 1.000000   NCZ15ZZ9 1.000000
    Z4Z23ZZ9 ACZ23ZZ9 1.000000   NCZ15Z10 -1.000000
    Z4Z23ZZ9 ACZ23Z10 -1.000000
    Z1Z24ZZ9 CCZ24ZZ9 1.000000
    Z2Z24ZZ9 OBJZZZZZ 15.000000   NCZ13ZZ9 15.000000
    Z2Z24ZZ9 ACZ24ZZ9 15.000000   CCZ24ZZ9 1.000000
    Z2Z24ZZ9 NCZ12Z10 -15.000000
    Z3Z24ZZ9 OBJZZZZZ 25.000000   NCZ13ZZ9 25.000000
    Z3Z24ZZ9 ACZ24ZZ9 25.000000   CCZ24ZZ9 1.000000
    Z3Z24ZZ9 NCZ13Z10 -7.000000   ACZ24Z10 -7.000000
    Z3Z24ZZ9 NCZ12Z10 -18.000000
    Z4Z24ZZ9 OBJZZZZZ 1.000000   NCZ13ZZ9 1.000000
    Z4Z24ZZ9 ACZ24ZZ9 1.000000   NCZ13Z10 -1.000000
    Z4Z24ZZ9 ACZ24Z10 -1.000000
    Z1Z25ZZ9 CCZ25ZZ9 1.000000
    Z2Z25ZZ9 OBJZZZZZ 15.000000   NCZ13ZZ9 15.000000
    Z2Z25ZZ9 ACZ25ZZ9 15.000000   CCZ25ZZ9 1.000000
    Z2Z25ZZ9 NCZZ8Z10 -15.000000
    Z3Z25ZZ9 OBJZZZZZ 25.000000   NCZ13ZZ9 25.000000
    Z3Z25ZZ9 ACZ25ZZ9 25.000000   CCZ25ZZ9 1.000000
    Z3Z25ZZ9 NCZ13Z10 -7.000000   ACZ25Z10 -7.000000
    Z3Z25ZZ9 NCZZ8Z10 -18.000000
    Z4Z25ZZ9 OBJZZZZZ 1.000000   NCZ13ZZ9 1.000000
    Z4Z25ZZ9 ACZ25ZZ9 1.000000   NCZ13Z10 -1.000000
    Z4Z25ZZ9 ACZ25Z10 -1.000000
    Z1Z26ZZ9 CCZ26ZZ9 1.000000
    Z2Z26ZZ9 OBJZZZZZ 15.000000   NCZZ6ZZ9 15.000000
    Z2Z26ZZ9 ACZ26ZZ9 15.000000   CCZ26ZZ9 1.000000
    Z2Z26ZZ9 NCZZ8Z10 -15.000000
    Z3Z26ZZ9 OBJZZZZZ 25.000000   NCZZ6ZZ9 25.000000
    Z3Z26ZZ9 ACZ26ZZ9 25.000000   CCZ26ZZ9 1.000000
    Z3Z26ZZ9 NCZZ6Z10 -7.000000   ACZ26Z10 -7.000000
    Z3Z26ZZ9 NCZZ8Z10 -18.000000
    Z4Z26ZZ9 OBJZZZZZ 1.000000   NCZZ6ZZ9 1.000000
    Z4Z26ZZ9 ACZ26ZZ9 1.000000   NCZZ6Z10 -1.000000
    Z4Z26ZZ9 ACZ26Z10 -1.000000
    Z1Z27ZZ9 CCZ27ZZ9 1.000000
    Z2Z27ZZ9 OBJZZZZZ 15.000000   NCZZ6ZZ9 15.000000
    Z2Z27ZZ9 ACZ27ZZ9 15.000000   CCZ27ZZ9 1.000000
    Z2Z27ZZ9 NCZZ5Z10 -15.000000
    Z3Z27ZZ9 OBJZZZZZ 25.000000   NCZZ6ZZ9 25.000000
    Z3Z27ZZ9 ACZ27ZZ9 25.000000   CCZ27ZZ9 1.000000
    Z3Z27ZZ9 NCZZ6Z10 -7.000000   ACZ27Z10 -7.000000
    Z3Z27ZZ9 NCZZ5Z10 -18.000000
    Z4Z27ZZ9 OBJZZZZZ 1.000000   NCZZ6ZZ9 1.000000
    Z4Z27ZZ9 ACZ27ZZ9 1.000000   NCZZ6Z10 -1.000000
    Z4Z27ZZ9 ACZ27Z10 -1.000000
    Z1Z28ZZ9 CCZ28ZZ9 1.000000
    Z2Z28ZZ9 OBJZZZZZ 15.000000   NCZZ2ZZ9 15.000000
    Z2Z28ZZ9 ACZ28ZZ9 15.000000   CCZ28ZZ9 1.000000
    Z2Z28ZZ9 NCZZ5Z10 -15.000000
    Z3Z28ZZ9 OBJZZZZZ 25.000000   NCZZ2ZZ9 25.000000
    Z3Z28ZZ9 ACZ28ZZ9 25.000000   CCZ28ZZ9 1.000000
    Z3Z28ZZ9 NCZZ2Z10 -7.000000   ACZ28Z10 -7.000000
    Z3Z28ZZ9 NCZZ5Z10 -18.000000
    Z4Z28ZZ9 OBJZZZZZ 1.000000   NCZZ2ZZ9 1.000000
    Z4Z28ZZ9 ACZ28ZZ9 1.000000   NCZZ2Z10 -1.000000
    Z4Z28ZZ9 ACZ28Z10 -1.000000
    Z1Z29ZZ9 CCZ29ZZ9 1.000000
    Z2Z29ZZ9 OBJZZZZZ 15.000000   NCZZ2ZZ9 15.000000
    Z2Z29ZZ9 ACZ29ZZ9 15.000000   CCZ29ZZ9 1.000000
    Z2Z29ZZ9 NCZZ4Z10 -15.000000
    Z3Z29ZZ9 OBJZZZZZ 25.000000   NCZZ2ZZ9 25.000000
    Z3Z29ZZ9 ACZ29ZZ9 25.000000   CCZ29ZZ9 1.000000
    Z3Z29ZZ9 NCZZ2Z10 -7.000000   ACZ29Z10 -7.000000
    Z3Z29ZZ9 NCZZ4Z10 -18.000000
    Z4Z29ZZ9 OBJZZZZZ 1.000000   NCZZ2ZZ9 1.000000
    Z4Z29ZZ9 ACZ29ZZ9 1.000000   NCZZ2Z10 -1.000000
    Z4Z29ZZ9 ACZ29Z10 -1.000000
    Z1Z30ZZ9 CCZ30ZZ9 1.000000
    Z2Z30ZZ9 OBJZZZZZ 15.000000   NCZZ1ZZ9 15.000000
    Z2Z30ZZ9 ACZ30ZZ9 15.000000   CCZ30ZZ9 1.000000
    Z2Z30ZZ9 NCZZ4Z10 -15.000000
    Z3Z30ZZ9 OBJZZZZZ 25.000000   NCZZ1ZZ9 25.000000
    Z3Z30ZZ9 ACZ30ZZ9 25.000000   CCZ30ZZ9 1.000000
    Z3Z30ZZ9 NCZZ1Z10 -7.000000   ACZ30Z10 -7.000000
    Z3Z30ZZ9 NCZZ4Z10 -18.000000
    Z4Z30ZZ9 OBJZZZZZ 1.000000   NCZZ1ZZ9 1.000000
    Z4Z30ZZ9 ACZ30ZZ9 1.000000   NCZZ1Z10 -1.000000
    Z4Z30ZZ9 ACZ30Z10 -1.000000
    Z1Z31ZZ9 CCZ31ZZ9 1.000000
    Z2Z31ZZ9 OBJZZZZZ 30.000000   NCZZ7ZZ9 30.000000
    Z2Z31ZZ9 ACZ31ZZ9 30.000000   CCZ31ZZ9 1.000000
    Z2Z31ZZ9 NCZZ4Z10 -30.000000
    Z3Z31ZZ9 OBJZZZZZ 40.000000   NCZZ7ZZ9 40.000000
    Z3Z31ZZ9 ACZ31ZZ9 40.000000   CCZ31ZZ9 1.000000
    Z3Z31ZZ9 NCZZ7Z10 -7.000000   ACZ31Z10 -7.000000
    Z3Z31ZZ9 NCZZ4Z10 -33.000000
    Z4Z31ZZ9 OBJZZZZZ 1.000000   NCZZ7ZZ9 1.000000
    Z4Z31ZZ9 ACZ31ZZ9 1.000000   NCZZ7Z10 -1.000000
    Z4Z31ZZ9 ACZ31Z10 -1.000000
    Z1Z32ZZ9 CCZ32ZZ9 1.000000
    Z2Z32ZZ9 OBJZZZZZ 30.000000   NCZZ4ZZ9 30.000000
    Z2Z32ZZ9 ACZ32ZZ9 30.000000   CCZ32ZZ9 1.000000
    Z2Z32ZZ9 NCZZ7Z10 -30.000000
    Z3Z32ZZ9 OBJZZZZZ 40.000000   NCZZ4ZZ9 40.000000
    Z3Z32ZZ9 ACZ32ZZ9 40.000000   CCZ32ZZ9 1.000000
    Z3Z32ZZ9 NCZZ4Z10 -7.000000   ACZ32Z10 -7.000000
    Z3Z32ZZ9 NCZZ7Z10 -33.000000
    Z4Z32ZZ9 OBJZZZZZ 1.000000   NCZZ4ZZ9 1.000000
    Z4Z32ZZ9 ACZ32ZZ9 1.000000   NCZZ4Z10 -1.000000
    Z4Z32ZZ9 ACZ32Z10 -1.000000
    Z1Z33ZZ9 CCZ33ZZ9 1.000000
    Z2Z33ZZ9 OBJZZZZZ 30.000000   NCZZ7ZZ9 30.000000
    Z2Z33ZZ9 ACZ33ZZ9 30.000000   CCZ33ZZ9 1.000000
    Z2Z33ZZ9 NCZ10Z10 -30.000000
    Z3Z33ZZ9 OBJZZZZZ 40.000000   NCZZ7ZZ9 40.000000
    Z3Z33ZZ9 ACZ33ZZ9 40.000000   CCZ33ZZ9 1.000000
    Z3Z33ZZ9 NCZZ7Z10 -7.000000   ACZ33Z10 -7.000000
    Z3Z33ZZ9 NCZ10Z10 -33.000000
    Z4Z33ZZ9 OBJZZZZZ 1.000000   NCZZ7ZZ9 1.000000
    Z4Z33ZZ9 ACZ33ZZ9 1.000000   NCZZ7Z10 -1.000000
    Z4Z33ZZ9 ACZ33Z10 -1.000000
    Z1Z34ZZ9 CCZ34ZZ9 1.000000
    Z2Z34ZZ9 OBJZZZZZ 30.000000   NCZ10ZZ9 30.000000
    Z2Z34ZZ9 ACZ34ZZ9 30.000000   CCZ34ZZ9 1.000000
    Z2Z34ZZ9 NCZZ7Z10 -30.000000
    Z3Z34ZZ9 OBJZZZZZ 40.000000   NCZ10ZZ9 40.000000
    Z3Z34ZZ9 ACZ34ZZ9 40.000000   CCZ34ZZ9 1.000000
    Z3Z34ZZ9 NCZ10Z10 -7.000000   ACZ34Z10 -7.000000
    Z3Z34ZZ9 NCZZ7Z10 -33.000000
    Z4Z34ZZ9 OBJZZZZZ 1.000000   NCZ10ZZ9 1.000000
    Z4Z34ZZ9 ACZ34ZZ9 1.000000   NCZ10Z10 -1.000000
    Z4Z34ZZ9 ACZ34Z10 -1.000000
    Z1Z35ZZ9 CCZ35ZZ9 1.000000
    Z2Z35ZZ9 OBJZZZZZ 30.000000   NCZ10ZZ9 30.000000
    Z2Z35ZZ9 ACZ35ZZ9 30.000000   CCZ35ZZ9 1.000000
    Z2Z35ZZ9 NCZ11Z10 -30.000000
    Z3Z35ZZ9 OBJZZZZZ 40.000000   NCZ10ZZ9 40.000000
    Z3Z35ZZ9 ACZ35ZZ9 40.000000   CCZ35ZZ9 1.000000
    Z3Z35ZZ9 NCZ10Z10 -7.000000   ACZ35Z10 -7.000000
    Z3Z35ZZ9 NCZ11Z10 -33.000000
    Z4Z35ZZ9 OBJZZZZZ 1.000000   NCZ10ZZ9 1.000000
    Z4Z35ZZ9 ACZ35ZZ9 1.000000   NCZ10Z10 -1.000000
    Z4Z35ZZ9 ACZ35Z10 -1.000000
    Z1Z36ZZ9 CCZ36ZZ9 1.000000
    Z2Z36ZZ9 OBJZZZZZ 30.000000   NCZ11ZZ9 30.000000
    Z2Z36ZZ9 ACZ36ZZ9 30.000000   CCZ36ZZ9 1.000000
    Z2Z36ZZ9 NCZ10Z10 -30.000000
    Z3Z36ZZ9 OBJZZZZZ 40.000000   NCZ11ZZ9 40.000000
    Z3Z36ZZ9 ACZ36ZZ9 40.000000   CCZ36ZZ9 1.000000
    Z3Z36ZZ9 NCZ11Z10 -7.000000   ACZ36Z10 -7.000000
    Z3Z36ZZ9 NCZ10Z10 -33.000000
    Z4Z36ZZ9 OBJZZZZZ 1.000000   NCZ11ZZ9 1.000000
    Z4Z36ZZ9 ACZ36ZZ9 1.000000   NCZ11Z10 -1.000000
    Z4Z36ZZ9 ACZ36Z10 -1.000000
    Z1Z37ZZ9 CCZ37ZZ9 1.000000
    Z2Z37ZZ9 OBJZZZZZ 30.000000   NCZ11ZZ9 30.000000
    Z2Z37ZZ9 ACZ37ZZ9 30.000000   CCZ37ZZ9 1.000000
    Z2Z37ZZ9 NCZ12Z10 -30.000000
    Z3Z37ZZ9 OBJZZZZZ 40.000000   NCZ11ZZ9 40.000000
    Z3Z37ZZ9 ACZ37ZZ9 40.000000   CCZ37ZZ9 1.000000
    Z3Z37ZZ9 NCZ11Z10 -7.000000   ACZ37Z10 -7.000000
    Z3Z37ZZ9 NCZ12Z10 -33.000000
    Z4Z37ZZ9 OBJZZZZZ 1.000000   NCZ11ZZ9 1.000000
    Z4Z37ZZ9 ACZ37ZZ9 1.000000   NCZ11Z10 -1.000000
    Z4Z37ZZ9 ACZ37Z10 -1.000000
    Z1Z38ZZ9 CCZ38ZZ9 1.000000
    Z2Z38ZZ9 OBJZZZZZ 30.000000   NCZ12ZZ9 30.000000
    Z2Z38ZZ9 ACZ38ZZ9 30.000000   CCZ38ZZ9 1.000000
    Z2Z38ZZ9 NCZ11Z10 -30.000000
    Z3Z38ZZ9 OBJZZZZZ 40.000000   NCZ12ZZ9 40.000000
    Z3Z38ZZ9 ACZ38ZZ9 40.000000   CCZ38ZZ9 1.000000
    Z3Z38ZZ9 NCZ12Z10 -7.000000   ACZ38Z10 -7.000000
    Z3Z38ZZ9 NCZ11Z10 -33.000000
    Z4Z38ZZ9 OBJZZZZZ 1.000000   NCZ12ZZ9 1.000000
    Z4Z38ZZ9 ACZ38ZZ9 1.000000   NCZ12Z10 -1.000000
    Z4Z38ZZ9 ACZ38Z10 -1.000000
    Z1Z39ZZ9 CCZ39ZZ9 1.000000
    Z2Z39ZZ9 OBJZZZZZ 30.000000   NCZ12ZZ9 30.000000
    Z2Z39ZZ9 ACZ39ZZ9 30.000000   CCZ39ZZ9 1.000000
    Z2Z39ZZ9 NCZZ8Z10 -30.000000
    Z3Z39ZZ9 OBJZZZZZ 40.000000   NCZ12ZZ9 40.000000
    Z3Z39ZZ9 ACZ39ZZ9 40.000000   CCZ39ZZ9 1.000000
    Z3Z39ZZ9 NCZ12Z10 -7.000000   ACZ39Z10 -7.000000
    Z3Z39ZZ9 NCZZ8Z10 -33.000000
    Z4Z39ZZ9 OBJZZZZZ 1.000000   NCZ12ZZ9 1.000000
    Z4Z39ZZ9 ACZ39ZZ9 1.000000   NCZ12Z10 -1.000000
    Z4Z39ZZ9 ACZ39Z10 -1.000000
    Z1Z40ZZ9 CCZ40ZZ9 1.000000
    Z2Z40ZZ9 OBJZZZZZ 30.000000   NCZZ8ZZ9 30.000000
    Z2Z40ZZ9 ACZ40ZZ9 30.000000   CCZ40ZZ9 1.000000
    Z2Z40ZZ9 NCZ12Z10 -30.000000
    Z3Z40ZZ9 OBJZZZZZ 40.000000   NCZZ8ZZ9 40.000000
    Z3Z40ZZ9 ACZ40ZZ9 40.000000   CCZ40ZZ9 1.000000
    Z3Z40ZZ9 NCZZ8Z10 -7.000000   ACZ40Z10 -7.000000
    Z3Z40ZZ9 NCZ12Z10 -33.000000
    Z4Z40ZZ9 OBJZZZZZ 1.000000   NCZZ8ZZ9 1.000000
    Z4Z40ZZ9 ACZ40ZZ9 1.000000   NCZZ8Z10 -1.000000
    Z4Z40ZZ9 ACZ40Z10 -1.000000
    Z1Z41ZZ9 CCZ41ZZ9 1.000000
    Z2Z41ZZ9 OBJZZZZZ 30.000000   NCZZ5ZZ9 30.000000
    Z2Z41ZZ9 ACZ41ZZ9 30.000000   CCZ41ZZ9 1.000000
    Z2Z41ZZ9 NCZZ8Z10 -30.000000
    Z3Z41ZZ9 OBJZZZZZ 40.000000   NCZZ5ZZ9 40.000000
    Z3Z41ZZ9 ACZ41ZZ9 40.000000   CCZ41ZZ9 1.000000
    Z3Z41ZZ9 NCZZ5Z10 -7.000000   ACZ41Z10 -7.000000
    Z3Z41ZZ9 NCZZ8Z10 -33.000000
    Z4Z41ZZ9 OBJZZZZZ 1.000000   NCZZ5ZZ9 1.000000
    Z4Z41ZZ9 ACZ41ZZ9 1.000000   NCZZ5Z10 -1.000000
    Z4Z41ZZ9 ACZ41Z10 -1.000000
    Z1Z42ZZ9 CCZ42ZZ9 1.000000
    Z2Z42ZZ9 OBJZZZZZ 30.000000   NCZZ8ZZ9 30.000000
    Z2Z42ZZ9 ACZ42ZZ9 30.000000   CCZ42ZZ9 1.000000
    Z2Z42ZZ9 NCZZ5Z10 -30.000000
    Z3Z42ZZ9 OBJZZZZZ 40.000000   NCZZ8ZZ9 40.000000
    Z3Z42ZZ9 ACZ42ZZ9 40.000000   CCZ42ZZ9 1.000000
    Z3Z42ZZ9 NCZZ8Z10 -7.000000   ACZ42Z10 -7.000000
    Z3Z42ZZ9 NCZZ5Z10 -33.000000
    Z4Z42ZZ9 OBJZZZZZ 1.000000   NCZZ8ZZ9 1.000000
    Z4Z42ZZ9 ACZ42ZZ9 1.000000   NCZZ8Z10 -1.000000
    Z4Z42ZZ9 ACZ42Z10 -1.000000
    Z1Z43ZZ9 CCZ43ZZ9 1.000000
    Z2Z43ZZ9 OBJZZZZZ 30.000000   NCZZ5ZZ9 30.000000
    Z2Z43ZZ9 ACZ43ZZ9 30.000000   CCZ43ZZ9 1.000000
    Z2Z43ZZ9 NCZZ4Z10 -30.000000
    Z3Z43ZZ9 OBJZZZZZ 40.000000   NCZZ5ZZ9 40.000000
    Z3Z43ZZ9 ACZ43ZZ9 40.000000   CCZ43ZZ9 1.000000
    Z3Z43ZZ9 NCZZ5Z10 -7.000000   ACZ43Z10 -7.000000
    Z3Z43ZZ9 NCZZ4Z10 -33.000000
    Z4Z43ZZ9 OBJZZZZZ 1.000000   NCZZ5ZZ9 1.000000
    Z4Z43ZZ9 ACZ43ZZ9 1.000000   NCZZ5Z10 -1.000000
    Z4Z43ZZ9 ACZ43Z10 -1.000000
    Z1Z44ZZ9 CCZ44ZZ9 1.000000
    Z2Z44ZZ9 OBJZZZZZ 30.000000   NCZZ4ZZ9 30.000000
    Z2Z44ZZ9 ACZ44ZZ9 30.000000   CCZ44ZZ9 1.000000
    Z2Z44ZZ9 NCZZ5Z10 -30.000000
    Z3Z44ZZ9 OBJZZZZZ 40.000000   NCZZ4ZZ9 40.000000
    Z3Z44ZZ9 ACZ44ZZ9 40.000000   CCZ44ZZ9 1.000000
    Z3Z44ZZ9 NCZZ4Z10 -7.000000   ACZ44Z10 -7.000000
    Z3Z44ZZ9 NCZZ5Z10 -33.000000
    Z4Z44ZZ9 OBJZZZZZ 1.000000   NCZZ4ZZ9 1.000000
    Z4Z44ZZ9 ACZ44ZZ9 1.000000   NCZZ4Z10 -1.000000
    Z4Z44ZZ9 ACZ44Z10 -1.000000
    Z1Z45ZZ9 CCZ45ZZ9 1.000000
    Z2Z45ZZ9 OBJZZZZZ 50.000000   NCZZ4ZZ9 50.000000
    Z2Z45ZZ9 ACZ45ZZ9 50.000000   CCZ45ZZ9 1.000000
    Z3Z45ZZ9 OBJZZZZZ 80.000000   NCZZ4ZZ9 80.000000
    Z3Z45ZZ9 ACZ45ZZ9 80.000000   CCZ45ZZ9 1.000000
    Z3Z45ZZ9 NCZZ4Z10 -15.000000   ACZ45Z10 -15.000000
    Z4Z45ZZ9 OBJZZZZZ 1.000000   NCZZ4ZZ9 1.000000
    Z4Z45ZZ9 ACZ45ZZ9 1.000000   NCZZ4Z10 -1.000000
    Z4Z45ZZ9 ACZ45Z10 -1.000000
    Z1Z46ZZ9 CCZ46ZZ9 1.000000
    Z2Z46ZZ9 OBJZZZZZ 50.000000   NCZ10ZZ9 50.000000
    Z2Z46ZZ9 ACZ46ZZ9 50.000000   CCZ46ZZ9 1.000000
    Z3Z46ZZ9 OBJZZZZZ 80.000000   NCZ10ZZ9 80.000000
    Z3Z46ZZ9 ACZ46ZZ9 80.000000   CCZ46ZZ9 1.000000
    Z3Z46ZZ9 NCZ10Z10 -15.000000   ACZ46Z10 -15.000000
    Z4Z46ZZ9 OBJZZZZZ 1.000000   NCZ10ZZ9 1.000000
    Z4Z46ZZ9 ACZ46ZZ9 1.000000   NCZ10Z10 -1.000000
    Z4Z46ZZ9 ACZ46Z10 -1.000000
    Z1Z47ZZ9 CCZ47ZZ9 1.000000
    Z2Z47ZZ9 OBJZZZZZ 50.000000   NCZ12ZZ9 50.000000
    Z2Z47ZZ9 ACZ47ZZ9 50.000000   CCZ47ZZ9 1.000000
    Z3Z47ZZ9 OBJZZZZZ 80.000000   NCZ12ZZ9 80.000000
    Z3Z47ZZ9 ACZ47ZZ9 80.000000   CCZ47ZZ9 1.000000
    Z3Z47ZZ9 NCZ12Z10 -15.000000   ACZ47Z10 -15.000000
    Z4Z47ZZ9 OBJZZZZZ 1.000000   NCZ12ZZ9 1.000000
    Z4Z47ZZ9 ACZ47ZZ9 1.000000   NCZ12Z10 -1.000000
    Z4Z47ZZ9 ACZ47Z10 -1.000000
    Z1ZZ1Z10 CCZZ1Z10 1.000000
    Z2ZZ1Z10 OBJZZZZZ 10.000000   NCZZ3Z10 10.000000
    Z2ZZ1Z10 ACZZ1Z10 10.000000   CCZZ1Z10 1.000000
    Z3ZZ1Z10 OBJZZZZZ 20.000000   NCZZ3Z10 20.000000
    Z3ZZ1Z10 ACZZ1Z10 20.000000   CCZZ1Z10 1.000000
    Z4ZZ1Z10 OBJZZZZZ 1.000000   NCZZ3Z10 1.000000
    Z4ZZ1Z10 ACZZ1Z10 1.000000
    Z1ZZ2Z10 CCZZ2Z10 1.000000
    Z2ZZ2Z10 OBJZZZZZ 10.000000   NCZZ1Z10 10.000000
    Z2ZZ2Z10 ACZZ2Z10 10.000000   CCZZ2Z10 1.000000
    Z3ZZ2Z10 OBJZZZZZ 20.000000   NCZZ1Z10 20.000000
    Z3ZZ2Z10 ACZZ2Z10 20.000000   CCZZ2Z10 1.000000
    Z4ZZ2Z10 OBJZZZZZ 1.000000   NCZZ1Z10 1.000000
    Z4ZZ2Z10 ACZZ2Z10 1.000000
    Z1ZZ3Z10 CCZZ3Z10 1.000000
    Z2ZZ3Z10 OBJZZZZZ 10.000000   NCZZ9Z10 10.000000
    Z2ZZ3Z10 ACZZ3Z10 10.000000   CCZZ3Z10 1.000000
    Z3ZZ3Z10 OBJZZZZZ 20.000000   NCZZ9Z10 20.000000
    Z3ZZ3Z10 ACZZ3Z10 20.000000   CCZZ3Z10 1.000000
    Z4ZZ3Z10 OBJZZZZZ 1.000000   NCZZ9Z10 1.000000
    Z4ZZ3Z10 ACZZ3Z10 1.000000
    Z1ZZ4Z10 CCZZ4Z10 1.000000
    Z2ZZ4Z10 OBJZZZZZ 10.000000   NCZZ3Z10 10.000000
    Z2ZZ4Z10 ACZZ4Z10 10.000000   CCZZ4Z10 1.000000
    Z3ZZ4Z10 OBJZZZZZ 20.000000   NCZZ3Z10 20.000000
    Z3ZZ4Z10 ACZZ4Z10 20.000000   CCZZ4Z10 1.000000
    Z4ZZ4Z10 OBJZZZZZ 1.000000   NCZZ3Z10 1.000000
    Z4ZZ4Z10 ACZZ4Z10 1.000000
    Z1ZZ5Z10 CCZZ5Z10 1.000000
    Z2ZZ5Z10 OBJZZZZZ 10.000000   NCZZ9Z10 10.000000
    Z2ZZ5Z10 ACZZ5Z10 10.000000   CCZZ5Z10 1.000000
    Z3ZZ5Z10 OBJZZZZZ 20.000000   NCZZ9Z10 20.000000
    Z3ZZ5Z10 ACZZ5Z10 20.000000   CCZZ5Z10 1.000000
    Z4ZZ5Z10 OBJZZZZZ 1.000000   NCZZ9Z10 1.000000
    Z4ZZ5Z10 ACZZ5Z10 1.000000
    Z1ZZ6Z10 CCZZ6Z10 1.000000
    Z2ZZ6Z10 OBJZZZZZ 10.000000   NCZ14Z10 10.000000
    Z2ZZ6Z10 ACZZ6Z10 10.000000   CCZZ6Z10 1.000000
    Z3ZZ6Z10 OBJZZZZZ 20.000000   NCZ14Z10 20.000000
    Z3ZZ6Z10 ACZZ6Z10 20.000000   CCZZ6Z10 1.000000
    Z4ZZ6Z10 OBJZZZZZ 1.000000   NCZ14Z10 1.000000
    Z4ZZ6Z10 ACZZ6Z10 1.000000
    Z1ZZ7Z10 CCZZ7Z10 1.000000
    Z2ZZ7Z10 OBJZZZZZ 10.000000   NCZ15Z10 10.000000
    Z2ZZ7Z10 ACZZ7Z10 10.000000   CCZZ7Z10 1.000000
    Z3ZZ7Z10 OBJZZZZZ 20.000000   NCZ15Z10 20.000000
    Z3ZZ7Z10 ACZZ7Z10 20.000000   CCZZ7Z10 1.000000
    Z4ZZ7Z10 OBJZZZZZ 1.000000   NCZ15Z10 1.000000
    Z4ZZ7Z10 ACZZ7Z10 1.000000
    Z1ZZ8Z10 CCZZ8Z10 1.000000
    Z2ZZ8Z10 OBJZZZZZ 10.000000   NCZ14Z10 10.000000
    Z2ZZ8Z10 ACZZ8Z10 10.000000   CCZZ8Z10 1.000000
    Z3ZZ8Z10 OBJZZZZZ 20.000000   NCZ14Z10 20.000000
    Z3ZZ8Z10 ACZZ8Z10 20.000000   CCZZ8Z10 1.000000
    Z4ZZ8Z10 OBJZZZZZ 1.000000   NCZ14Z10 1.000000
    Z4ZZ8Z10 ACZZ8Z10 1.000000
    Z1ZZ9Z10 CCZZ9Z10 1.000000
    Z2ZZ9Z10 OBJZZZZZ 10.000000   NCZ15Z10 10.000000
    Z2ZZ9Z10 ACZZ9Z10 10.000000   CCZZ9Z10 1.000000
    Z3ZZ9Z10 OBJZZZZZ 20.000000   NCZ15Z10 20.000000
    Z3ZZ9Z10 ACZZ9Z10 20.000000   CCZZ9Z10 1.000000
    Z4ZZ9Z10 OBJZZZZZ 1.000000   NCZ15Z10 1.000000
    Z4ZZ9Z10 ACZZ9Z10 1.000000
    Z1Z10Z10 CCZ10Z10 1.000000
    Z2Z10Z10 OBJZZZZZ 10.000000   NCZ13Z10 10.000000
    Z2Z10Z10 ACZ10Z10 10.000000   CCZ10Z10 1.000000
    Z3Z10Z10 OBJZZZZZ 20.000000   NCZ13Z10 20.000000
    Z3Z10Z10 ACZ10Z10 20.000000   CCZ10Z10 1.000000
    Z4Z10Z10 OBJZZZZZ 1.000000   NCZ13Z10 1.000000
    Z4Z10Z10 ACZ10Z10 1.000000
    Z1Z11Z10 CCZ11Z10 1.000000
    Z2Z11Z10 OBJZZZZZ 10.000000   NCZ13Z10 10.000000
    Z2Z11Z10 ACZ11Z10 10.000000   CCZ11Z10 1.000000
    Z3Z11Z10 OBJZZZZZ 20.000000   NCZ13Z10 20.000000
    Z3Z11Z10 ACZ11Z10 20.000000   CCZ11Z10 1.000000
    Z4Z11Z10 OBJZZZZZ 1.000000   NCZ13Z10 1.000000
    Z4Z11Z10 ACZ11Z10 1.000000
    Z1Z12Z10 CCZ12Z10 1.000000
    Z2Z12Z10 OBJZZZZZ 10.000000   NCZZ6Z10 10.000000
    Z2Z12Z10 ACZ12Z10 10.000000   CCZ12Z10 1.000000
    Z3Z12Z10 OBJZZZZZ 20.000000   NCZZ6Z10 20.000000
    Z3Z12Z10 ACZ12Z10 20.000000   CCZ12Z10 1.000000
    Z4Z12Z10 OBJZZZZZ 1.000000   NCZZ6Z10 1.000000
    Z4Z12Z10 ACZ12Z10 1.000000
    Z1Z13Z10 CCZ13Z10 1.000000
    Z2Z13Z10 OBJZZZZZ 10.000000   NCZZ6Z10 10.000000
    Z2Z13Z10 ACZ13Z10 10.000000   CCZ13Z10 1.000000
    Z3Z13Z10 OBJZZZZZ 20.000000   NCZZ6Z10 20.000000
    Z3Z13Z10 ACZ13Z10 20.000000   CCZ13Z10 1.000000
    Z4Z13Z10 OBJZZZZZ 1.000000   NCZZ6Z10 1.000000
    Z4Z13Z10 ACZ13Z10 1.000000
    Z1Z14Z10 CCZ14Z10 1.000000
    Z2Z14Z10 OBJZZZZZ 10.000000   NCZZ2Z10 10.000000
    Z2Z14Z10 ACZ14Z10 10.000000   CCZ14Z10 1.000000
    Z3Z14Z10 OBJZZZZZ 20.000000   NCZZ2Z10 20.000000
    Z3Z14Z10 ACZ14Z10 20.000000   CCZ14Z10 1.000000
    Z4Z14Z10 OBJZZZZZ 1.000000   NCZZ2Z10 1.000000
    Z4Z14Z10 ACZ14Z10 1.000000
    Z1Z15Z10 CCZ15Z10 1.000000
    Z2Z15Z10 OBJZZZZZ 10.000000   NCZZ2Z10 10.000000
    Z2Z15Z10 ACZ15Z10 10.000000   CCZ15Z10 1.000000
    Z3Z15Z10 OBJZZZZZ 20.000000   NCZZ2Z10 20.000000
    Z3Z15Z10 ACZ15Z10 20.000000   CCZ15Z10 1.000000
    Z4Z15Z10 OBJZZZZZ 1.000000   NCZZ2Z10 1.000000
    Z4Z15Z10 ACZ15Z10 1.000000
    Z1Z16Z10 CCZ16Z10 1.000000
    Z2Z16Z10 OBJZZZZZ 10.000000   NCZZ1Z10 10.000000
    Z2Z16Z10 ACZ16Z10 10.000000   CCZ16Z10 1.000000
    Z3Z16Z10 OBJZZZZZ 20.000000   NCZZ1Z10 20.000000
    Z3Z16Z10 ACZ16Z10 20.000000   CCZ16Z10 1.000000
    Z4Z16Z10 OBJZZZZZ 1.000000   NCZZ1Z10 1.000000
    Z4Z16Z10 ACZ16Z10 1.000000
    Z1Z17Z10 CCZ17Z10 1.000000
    Z2Z17Z10 OBJZZZZZ 15.000000   NCZZ3Z10 15.000000
    Z2Z17Z10 ACZ17Z10 15.000000   CCZ17Z10 1.000000
    Z3Z17Z10 OBJZZZZZ 25.000000   NCZZ3Z10 25.000000
    Z3Z17Z10 ACZ17Z10 25.000000   CCZ17Z10 1.000000
    Z4Z17Z10 OBJZZZZZ 1.000000   NCZZ3Z10 1.000000
    Z4Z17Z10 ACZ17Z10 1.000000
    Z1Z18Z10 CCZ18Z10 1.000000
    Z2Z18Z10 OBJZZZZZ 15.000000   NCZZ9Z10 15.000000
    Z2Z18Z10 ACZ18Z10 15.000000   CCZ18Z10 1.000000
    Z3Z18Z10 OBJZZZZZ 25.000000   NCZZ9Z10 25.000000
    Z3Z18Z10 ACZ18Z10 25.000000   CCZ18Z10 1.000000
    Z4Z18Z10 OBJZZZZZ 1.000000   NCZZ9Z10 1.000000
    Z4Z18Z10 ACZ18Z10 1.000000
    Z1Z19Z10 CCZ19Z10 1.000000
    Z2Z19Z10 OBJZZZZZ 15.000000   NCZZ9Z10 15.000000
    Z2Z19Z10 ACZ19Z10 15.000000   CCZ19Z10 1.000000
    Z3Z19Z10 OBJZZZZZ 25.000000   NCZZ9Z10 25.000000
    Z3Z19Z10 ACZ19Z10 25.000000   CCZ19Z10 1.000000
    Z4Z19Z10 OBJZZZZZ 1.000000   NCZZ9Z10 1.000000
    Z4Z19Z10 ACZ19Z10 1.000000
    Z1Z20Z10 CCZ20Z10 1.000000
    Z2Z20Z10 OBJZZZZZ 15.000000   NCZ14Z10 15.000000
    Z2Z20Z10 ACZ20Z10 15.000000   CCZ20Z10 1.000000
    Z3Z20Z10 OBJZZZZZ 25.000000   NCZ14Z10 25.000000
    Z3Z20Z10 ACZ20Z10 25.000000   CCZ20Z10 1.000000
    Z4Z20Z10 OBJZZZZZ 1.000000   NCZ14Z10 1.000000
    Z4Z20Z10 ACZ20Z10 1.000000
    Z1Z21Z10 CCZ21Z10 1.000000
    Z2Z21Z10 OBJZZZZZ 15.000000   NCZ14Z10 15.000000
    Z2Z21Z10 ACZ21Z10 15.000000   CCZ21Z10 1.000000
    Z3Z21Z10 OBJZZZZZ 25.000000   NCZ14Z10 25.000000
    Z3Z21Z10 ACZ21Z10 25.000000   CCZ21Z10 1.000000
    Z4Z21Z10 OBJZZZZZ 1.000000   NCZ14Z10 1.000000
    Z4Z21Z10 ACZ21Z10 1.000000
    Z1Z22Z10 CCZ22Z10 1.000000
    Z2Z22Z10 OBJZZZZZ 15.000000   NCZ15Z10 15.000000
    Z2Z22Z10 ACZ22Z10 15.000000   CCZ22Z10 1.000000
    Z3Z22Z10 OBJZZZZZ 25.000000   NCZ15Z10 25.000000
    Z3Z22Z10 ACZ22Z10 25.000000   CCZ22Z10 1.000000
    Z4Z22Z10 OBJZZZZZ 1.000000   NCZ15Z10 1.000000
    Z4Z22Z10 ACZ22Z10 1.000000
    Z1Z23Z10 CCZ23Z10 1.000000
    Z2Z23Z10 OBJZZZZZ 15.000000   NCZ15Z10 15.000000
    Z2Z23Z10 ACZ23Z10 15.000000   CCZ23Z10 1.000000
    Z3Z23Z10 OBJZZZZZ 25.000000   NCZ15Z10 25.000000
    Z3Z23Z10 ACZ23Z10 25.000000   CCZ23Z10 1.000000
    Z4Z23Z10 OBJZZZZZ 1.000000   NCZ15Z10 1.000000
    Z4Z23Z10 ACZ23Z10 1.000000
    Z1Z24Z10 CCZ24Z10 1.000000
    Z2Z24Z10 OBJZZZZZ 15.000000   NCZ13Z10 15.000000
    Z2Z24Z10 ACZ24Z10 15.000000   CCZ24Z10 1.000000
    Z3Z24Z10 OBJZZZZZ 25.000000   NCZ13Z10 25.000000
    Z3Z24Z10 ACZ24Z10 25.000000   CCZ24Z10 1.000000
    Z4Z24Z10 OBJZZZZZ 1.000000   NCZ13Z10 1.000000
    Z4Z24Z10 ACZ24Z10 1.000000
    Z1Z25Z10 CCZ25Z10 1.000000
    Z2Z25Z10 OBJZZZZZ 15.000000   NCZ13Z10 15.000000
    Z2Z25Z10 ACZ25Z10 15.000000   CCZ25Z10 1.000000
    Z3Z25Z10 OBJZZZZZ 25.000000   NCZ13Z10 25.000000
    Z3Z25Z10 ACZ25Z10 25.000000   CCZ25Z10 1.000000
    Z4Z25Z10 OBJZZZZZ 1.000000   NCZ13Z10 1.000000
    Z4Z25Z10 ACZ25Z10 1.000000
    Z1Z26Z10 CCZ26Z10 1.000000
    Z2Z26Z10 OBJZZZZZ 15.000000   NCZZ6Z10 15.000000
    Z2Z26Z10 ACZ26Z10 15.000000   CCZ26Z10 1.000000
    Z3Z26Z10 OBJZZZZZ 25.000000   NCZZ6Z10 25.000000
    Z3Z26Z10 ACZ26Z10 25.000000   CCZ26Z10 1.000000
    Z4Z26Z10 OBJZZZZZ 1.000000   NCZZ6Z10 1.000000
    Z4Z26Z10 ACZ26Z10 1.000000
    Z1Z27Z10 CCZ27Z10 1.000000
    Z2Z27Z10 OBJZZZZZ 15.000000   NCZZ6Z10 15.000000
    Z2Z27Z10 ACZ27Z10 15.000000   CCZ27Z10 1.000000
    Z3Z27Z10 OBJZZZZZ 25.000000   NCZZ6Z10 25.000000
    Z3Z27Z10 ACZ27Z10 25.000000   CCZ27Z10 1.000000
    Z4Z27Z10 OBJZZZZZ 1.000000   NCZZ6Z10 1.000000
    Z4Z27Z10 ACZ27Z10 1.000000
    Z1Z28Z10 CCZ28Z10 1.000000
    Z2Z28Z10 OBJZZZZZ 15.000000   NCZZ2Z10 15.000000
    Z2Z28Z10 ACZ28Z10 15.000000   CCZ28Z10 1.000000
    Z3Z28Z10 OBJZZZZZ 25.000000   NCZZ2Z10 25.000000
    Z3Z28Z10 ACZ28Z10 25.000000   CCZ28Z10 1.000000
    Z4Z28Z10 OBJZZZZZ 1.000000   NCZZ2Z10 1.000000
    Z4Z28Z10 ACZ28Z10 1.000000
    Z1Z29Z10 CCZ29Z10 1.000000
    Z2Z29Z10 OBJZZZZZ 15.000000   NCZZ2Z10 15.000000
    Z2Z29Z10 ACZ29Z10 15.000000   CCZ29Z10 1.000000
    Z3Z29Z10 OBJZZZZZ 25.000000   NCZZ2Z10 25.000000
    Z3Z29Z10 ACZ29Z10 25.000000   CCZ29Z10 1.000000
    Z4Z29Z10 OBJZZZZZ 1.000000   NCZZ2Z10 1.000000
    Z4Z29Z10 ACZ29Z10 1.000000
    Z1Z30Z10 CCZ30Z10 1.000000
    Z2Z30Z10 OBJZZZZZ 15.000000   NCZZ1Z10 15.000000
    Z2Z30Z10 ACZ30Z10 15.000000   CCZ30Z10 1.000000
    Z3Z30Z10 OBJZZZZZ 25.000000   NCZZ1Z10 25.000000
    Z3Z30Z10 ACZ30Z10 25.000000   CCZ30Z10 1.000000
    Z4Z30Z10 OBJZZZZZ 1.000000   NCZZ1Z10 1.000000
    Z4Z30Z10 ACZ30Z10 1.000000
    Z1Z31Z10 CCZ31Z10 1.000000
    Z2Z31Z10 OBJZZZZZ 30.000000   NCZZ7Z10 30.000000
    Z2Z31Z10 ACZ31Z10 30.000000   CCZ31Z10 1.000000
    Z3Z31Z10 OBJZZZZZ 40.000000   NCZZ7Z10 40.000000
    Z3Z31Z10 ACZ31Z10 40.000000   CCZ31Z10 1.000000
    Z4Z31Z10 OBJZZZZZ 1.000000   NCZZ7Z10 1.000000
    Z4Z31Z10 ACZ31Z10 1.000000
    Z1Z32Z10 CCZ32Z10 1.000000
    Z2Z32Z10 OBJZZZZZ 30.000000   NCZZ4Z10 30.000000
    Z2Z32Z10 ACZ32Z10 30.000000   CCZ32Z10 1.000000
    Z3Z32Z10 OBJZZZZZ 40.000000   NCZZ4Z10 40.000000
    Z3Z32Z10 ACZ32Z10 40.000000   CCZ32Z10 1.000000
    Z4Z32Z10 OBJZZZZZ 1.000000   NCZZ4Z10 1.000000
    Z4Z32Z10 ACZ32Z10 1.000000
    Z1Z33Z10 CCZ33Z10 1.000000
    Z2Z33Z10 OBJZZZZZ 30.000000   NCZZ7Z10 30.000000
    Z2Z33Z10 ACZ33Z10 30.000000   CCZ33Z10 1.000000
    Z3Z33Z10 OBJZZZZZ 40.000000   NCZZ7Z10 40.000000
    Z3Z33Z10 ACZ33Z10 40.000000   CCZ33Z10 1.000000
    Z4Z33Z10 OBJZZZZZ 1.000000   NCZZ7Z10 1.000000
    Z4Z33Z10 ACZ33Z10 1.000000
    Z1Z34Z10 CCZ34Z10 1.000000
    Z2Z34Z10 OBJZZZZZ 30.000000   NCZ10Z10 30.000000
    Z2Z34Z10 ACZ34Z10 30.000000   CCZ34Z10 1.000000
    Z3Z34Z10 OBJZZZZZ 40.000000   NCZ10Z10 40.000000
    Z3Z34Z10 ACZ34Z10 40.000000   CCZ34Z10 1.000000
    Z4Z34Z10 OBJZZZZZ 1.000000   NCZ10Z10 1.000000
    Z4Z34Z10 ACZ34Z10 1.000000
    Z1Z35Z10 CCZ35Z10 1.000000
    Z2Z35Z10 OBJZZZZZ 30.000000   NCZ10Z10 30.000000
    Z2Z35Z10 ACZ35Z10 30.000000   CCZ35Z10 1.000000
    Z3Z35Z10 OBJZZZZZ 40.000000   NCZ10Z10 40.000000
    Z3Z35Z10 ACZ35Z10 40.000000   CCZ35Z10 1.000000
    Z4Z35Z10 OBJZZZZZ 1.000000   NCZ10Z10 1.000000
    Z4Z35Z10 ACZ35Z10 1.000000
    Z1Z36Z10 CCZ36Z10 1.000000
    Z2Z36Z10 OBJZZZZZ 30.000000   NCZ11Z10 30.000000
    Z2Z36Z10 ACZ36Z10 30.000000   CCZ36Z10 1.000000
    Z3Z36Z10 OBJZZZZZ 40.000000   NCZ11Z10 40.000000
    Z3Z36Z10 ACZ36Z10 40.000000   CCZ36Z10 1.000000
    Z4Z36Z10 OBJZZZZZ 1.000000   NCZ11Z10 1.000000
    Z4Z36Z10 ACZ36Z10 1.000000
    Z1Z37Z10 CCZ37Z10 1.000000
    Z2Z37Z10 OBJZZZZZ 30.000000   NCZ11Z10 30.000000
    Z2Z37Z10 ACZ37Z10 30.000000   CCZ37Z10 1.000000
    Z3Z37Z10 OBJZZZZZ 40.000000   NCZ11Z10 40.000000
    Z3Z37Z10 ACZ37Z10 40.000000   CCZ37Z10 1.000000
    Z4Z37Z10 OBJZZZZZ 1.000000   NCZ11Z10 1.000000
    Z4Z37Z10 ACZ37Z10 1.000000
    Z1Z38Z10 CCZ38Z10 1.000000
    Z2Z38Z10 OBJZZZZZ 30.000000   NCZ12Z10 30.000000
    Z2Z38Z10 ACZ38Z10 30.000000   CCZ38Z10 1.000000
    Z3Z38Z10 OBJZZZZZ 40.000000   NCZ12Z10 40.000000
    Z3Z38Z10 ACZ38Z10 40.000000   CCZ38Z10 1.000000
    Z4Z38Z10 OBJZZZZZ 1.000000   NCZ12Z10 1.000000
    Z4Z38Z10 ACZ38Z10 1.000000
    Z1Z39Z10 CCZ39Z10 1.000000
    Z2Z39Z10 OBJZZZZZ 30.000000   NCZ12Z10 30.000000
    Z2Z39Z10 ACZ39Z10 30.000000   CCZ39Z10 1.000000
    Z3Z39Z10 OBJZZZZZ 40.000000   NCZ12Z10 40.000000
    Z3Z39Z10 ACZ39Z10 40.000000   CCZ39Z10 1.000000
    Z4Z39Z10 OBJZZZZZ 1.000000   NCZ12Z10 1.000000
    Z4Z39Z10 ACZ39Z10 1.000000
    Z1Z40Z10 CCZ40Z10 1.000000
    Z2Z40Z10 OBJZZZZZ 30.000000   NCZZ8Z10 30.000000
    Z2Z40Z10 ACZ40Z10 30.000000   CCZ40Z10 1.000000
    Z3Z40Z10 OBJZZZZZ 40.000000   NCZZ8Z10 40.000000
    Z3Z40Z10 ACZ40Z10 40.000000   CCZ40Z10 1.000000
    Z4Z40Z10 OBJZZZZZ 1.000000   NCZZ8Z10 1.000000
    Z4Z40Z10 ACZ40Z10 1.000000
    Z1Z41Z10 CCZ41Z10 1.000000
    Z2Z41Z10 OBJZZZZZ 30.000000   NCZZ5Z10 30.000000
    Z2Z41Z10 ACZ41Z10 30.000000   CCZ41Z10 1.000000
    Z3Z41Z10 OBJZZZZZ 40.000000   NCZZ5Z10 40.000000
    Z3Z41Z10 ACZ41Z10 40.000000   CCZ41Z10 1.000000
    Z4Z41Z10 OBJZZZZZ 1.000000   NCZZ5Z10 1.000000
    Z4Z41Z10 ACZ41Z10 1.000000
    Z1Z42Z10 CCZ42Z10 1.000000
    Z2Z42Z10 OBJZZZZZ 30.000000   NCZZ8Z10 30.000000
    Z2Z42Z10 ACZ42Z10 30.000000   CCZ42Z10 1.000000
    Z3Z42Z10 OBJZZZZZ 40.000000   NCZZ8Z10 40.000000
    Z3Z42Z10 ACZ42Z10 40.000000   CCZ42Z10 1.000000
    Z4Z42Z10 OBJZZZZZ 1.000000   NCZZ8Z10 1.000000
    Z4Z42Z10 ACZ42Z10 1.000000
    Z1Z43Z10 CCZ43Z10 1.000000
    Z2Z43Z10 OBJZZZZZ 30.000000   NCZZ5Z10 30.000000
    Z2Z43Z10 ACZ43Z10 30.000000   CCZ43Z10 1.000000
    Z3Z43Z10 OBJZZZZZ 40.000000   NCZZ5Z10 40.000000
    Z3Z43Z10 ACZ43Z10 40.000000   CCZ43Z10 1.000000
    Z4Z43Z10 OBJZZZZZ 1.000000   NCZZ5Z10 1.000000
    Z4Z43Z10 ACZ43Z10 1.000000
    Z1Z44Z10 CCZ44Z10 1.000000
    Z2Z44Z10 OBJZZZZZ 30.000000   NCZZ4Z10 30.000000
    Z2Z44Z10 ACZ44Z10 30.000000   CCZ44Z10 1.000000
    Z3Z44Z10 OBJZZZZZ 40.000000   NCZZ4Z10 40.000000
    Z3Z44Z10 ACZ44Z10 40.000000   CCZ44Z10 1.000000
    Z4Z44Z10 OBJZZZZZ 1.000000   NCZZ4Z10 1.000000
    Z4Z44Z10 ACZ44Z10 1.000000
    Z1Z45Z10 CCZ45Z10 1.000000
    Z2Z45Z10 OBJZZZZZ 50.000000   NCZZ4Z10 50.000000
    Z2Z45Z10 ACZ45Z10 50.000000   CCZ45Z10 1.000000
    Z3Z45Z10 OBJZZZZZ 80.000000   NCZZ4Z10 80.000000
    Z3Z45Z10 ACZ45Z10 80.000000   CCZ45Z10 1.000000
    Z4Z45Z10 OBJZZZZZ 1.000000   NCZZ4Z10 1.000000
    Z4Z45Z10 ACZ45Z10 1.000000
    Z1Z46Z10 CCZ46Z10 1.000000
    Z2Z46Z10 OBJZZZZZ 50.000000   NCZ10Z10 50.000000
    Z2Z46Z10 ACZ46Z10 50.000000   CCZ46Z10 1.000000
    Z3Z46Z10 OBJZZZZZ 80.000000   NCZ10Z10 80.000000
    Z3Z46Z10 ACZ46Z10 80.000000   CCZ46Z10 1.000000
    Z4Z46Z10 OBJZZZZZ 1.000000   NCZ10Z10 1.000000
    Z4Z46Z10 ACZ46Z10 1.000000
    Z1Z47Z10 CCZ47Z10 1.000000
    Z2Z47Z10 OBJZZZZZ 50.000000   NCZ12Z10 50.000000
    Z2Z47Z10 ACZ47Z10 50.000000   CCZ47Z10 1.000000
    Z3Z47Z10 OBJZZZZZ 80.000000   NCZ12Z10 80.000000
    Z3Z47Z10 ACZ47Z10 80.000000   CCZ47Z10 1.000000
    Z4Z47Z10 OBJZZZZZ 1.000000   NCZ12Z10 1.000000
    Z4Z47Z10 ACZ47Z10 1.000000
    SLACK36316 NCZZ1ZZ1 -1.000000
    SLACK36317 NCZZ2ZZ1 -1.000000
    SLACK36318 NCZZ3ZZ1 -1.000000
    SLACK36319 NCZZ4ZZ1 -1.000000
    SLACK36320 NCZZ5ZZ1 -1.000000
    SLACK36321 NCZZ6ZZ1 -1.000000
    SLACK36322 NCZZ7ZZ1 -1.000000
    SLACK36323 NCZZ8ZZ1 -1.000000
    SLACK36324 NCZZ9ZZ1 -1.000000
    SLACK36325 NCZ10ZZ1 -1.000000
    SLACK36326 NCZ11ZZ1 -1.000000
    SLACK36327 NCZ12ZZ1 -1.000000
    SLACK36328 NCZ13ZZ1 -1.000000
    SLACK36329 NCZ14ZZ1 -1.000000
    SLACK36330 NCZ15ZZ1 -1.000000
    SLACK36331 ACZZ1ZZ1 -1.000000
    SLACK36332 ACZZ2ZZ1 -1.000000
    SLACK36333 ACZZ3ZZ1 -1.000000
    SLACK36334 ACZZ4ZZ1 -1.000000
    SLACK36335 ACZZ5ZZ1 -1.000000
    SLACK36336 ACZZ6ZZ1 -1.000000
    SLACK36337 ACZZ7ZZ1 -1.000000
    SLACK36338 ACZZ8ZZ1 -1.000000
    SLACK36339 ACZZ9ZZ1 -1.000000
    SLACK36340 ACZ10ZZ1 -1.000000
    SLACK36341 ACZ11ZZ1 -1.000000
    SLACK36342 ACZ12ZZ1 -1.000000
    SLACK36343 ACZ13ZZ1 -1.000000
    SLACK36344 ACZ14ZZ1 -1.000000
    SLACK36345 ACZ15ZZ1 -1.000000
    SLACK36346 ACZ16ZZ1 -1.000000
    SLACK36347 ACZ17ZZ1 -1.000000
    SLACK36348 ACZ18ZZ1 -1.000000
    SLACK36349 ACZ19ZZ1 -1.000000
    SLACK36350 ACZ20ZZ1 -1.000000
    SLACK36351 ACZ21ZZ1 -1.000000
    SLACK36352 ACZ22ZZ1 -1.000000
    SLACK36353 ACZ23ZZ1 -1.000000
    SLACK36354 ACZ24ZZ1 -1.000000
    SLACK36355 ACZ25ZZ1 -1.000000
    SLACK36356 ACZ26ZZ1 -1.000000
    SLACK36357 ACZ27ZZ1 -1.000000
    SLACK36358 ACZ28ZZ1 -1.000000
    SLACK36359 ACZ29ZZ1 -1.000000
    SLACK36360 ACZ30ZZ1 -1.000000
    SLACK36361 ACZ31ZZ1 -1.000000
    SLACK36362 ACZ32ZZ1 -1.000000
    SLACK36363 ACZ33ZZ1 -1.000000
    SLACK36364 ACZ34ZZ1 -1.000000
    SLACK36365 ACZ35ZZ1 -1.000000
    SLACK36366 ACZ36ZZ1 -1.000000
    SLACK36367 ACZ37ZZ1 -1.000000
    SLACK36368 ACZ38ZZ1 -1.000000
    SLACK36369 ACZ39ZZ1 -1.000000
    SLACK36370 ACZ40ZZ1 -1.000000
    SLACK36371 ACZ41ZZ1 -1.000000
    SLACK36372 ACZ42ZZ1 -1.000000
    SLACK36373 ACZ43ZZ1 -1.000000
    SLACK36374 ACZ44ZZ1 -1.000000
    SLACK36375 ACZ45ZZ1 -1.000000
    SLACK36376 ACZ46ZZ1 -1.000000
    SLACK36377 ACZ47ZZ1 -1.000000
    SLACK36378 NCZZ1ZZ2 -1.000000
    SLACK36379 NCZZ2ZZ2 -1.000000
    SLACK36380 NCZZ3ZZ2 -1.000000
    SLACK36381 NCZZ4ZZ2 -1.000000
    SLACK36382 NCZZ5ZZ2 -1.000000
    SLACK36383 NCZZ6ZZ2 -1.000000
    SLACK36384 NCZZ7ZZ2 -1.000000
    SLACK36385 NCZZ8ZZ2 -1.000000
    SLACK36386 NCZZ9ZZ2 -1.000000
    SLACK36387 NCZ10ZZ2 -1.000000
    SLACK36388 NCZ11ZZ2 -1.000000
    SLACK36389 NCZ12ZZ2 -1.000000
    SLACK36390 NCZ13ZZ2 -1.000000
    SLACK36391 NCZ14ZZ2 -1.000000
    SLACK36392 NCZ15ZZ2 -1.000000
    SLACK36393 ACZZ1ZZ2 -1.000000
    SLACK36394 ACZZ2ZZ2 -1.000000
    SLACK36395 ACZZ3ZZ2 -1.000000
    SLACK36396 ACZZ4ZZ2 -1.000000
    SLACK36397 ACZZ5ZZ2 -1.000000
    SLACK36398 ACZZ6ZZ2 -1.000000
    SLACK36399 ACZZ7ZZ2 -1.000000
    SLACK36400 ACZZ8ZZ2 -1.000000
    SLACK36401 ACZZ9ZZ2 -1.000000
    SLACK36402 ACZ10ZZ2 -1.000000
    SLACK36403 ACZ11ZZ2 -1.000000
    SLACK36404 ACZ12ZZ2 -1.000000
    SLACK36405 ACZ13ZZ2 -1.000000
    SLACK36406 ACZ14ZZ2 -1.000000
    SLACK36407 ACZ15ZZ2 -1.000000
    SLACK36408 ACZ16ZZ2 -1.000000
    SLACK36409 ACZ17ZZ2 -1.000000
    SLACK36410 ACZ18ZZ2 -1.000000
    SLACK36411 ACZ19ZZ2 -1.000000
    SLACK36412 ACZ20ZZ2 -1.000000
    SLACK36413 ACZ21ZZ2 -1.000000
    SLACK36414 ACZ22ZZ2 -1.000000
    SLACK36415 ACZ23ZZ2 -1.000000
    SLACK36416 ACZ24ZZ2 -1.000000
    SLACK36417 ACZ25ZZ2 -1.000000
    SLACK36418 ACZ26ZZ2 -1.000000
    SLACK36419 ACZ27ZZ2 -1.000000
    SLACK36420 ACZ28ZZ2 -1.000000
    SLACK36421 ACZ29ZZ2 -1.000000
    SLACK36422 ACZ30ZZ2 -1.000000
    SLACK36423 ACZ31ZZ2 -1.000000
    SLACK36424 ACZ32ZZ2 -1.000000
    SLACK36425 ACZ33ZZ2 -1.000000
    SLACK36426 ACZ34ZZ2 -1.000000
    SLACK36427 ACZ35ZZ2 -1.000000
    SLACK36428 ACZ36ZZ2 -1.000000
    SLACK36429 ACZ37ZZ2 -1.000000
    SLACK36430 ACZ38ZZ2 -1.000000
    SLACK36431 ACZ39ZZ2 -1.000000
    SLACK36432 ACZ40ZZ2 -1.000000
    SLACK36433 ACZ41ZZ2 -1.000000
    SLACK36434 ACZ42ZZ2 -1.000000
    SLACK36435 ACZ43ZZ2 -1.000000
    SLACK36436 ACZ44ZZ2 -1.000000
    SLACK36437 ACZ45ZZ2 -1.000000
    SLACK36438 ACZ46ZZ2 -1.000000
    SLACK36439 ACZ47ZZ2 -1.000000
    SLACK36440 NCZZ1ZZ3 -1.000000
    SLACK36441 NCZZ2ZZ3 -1.000000
    SLACK36442 NCZZ3ZZ3 -1.000000
    SLACK36443 NCZZ4ZZ3 -1.000000
    SLACK36444 NCZZ5ZZ3 -1.000000
    SLACK36445 NCZZ6ZZ3 -1.000000
    SLACK36446 NCZZ7ZZ3 -1.000000
    SLACK36447 NCZZ8ZZ3 -1.000000
    SLACK36448 NCZZ9ZZ3 -1.000000
    SLACK36449 NCZ10ZZ3 -1.000000
    SLACK36450 NCZ11ZZ3 -1.000000
    SLACK36451 NCZ12ZZ3 -1.000000
    SLACK36452 NCZ13ZZ3 -1.000000
    SLACK36453 NCZ14ZZ3 -1.000000
    SLACK36454 NCZ15ZZ3 -1.000000
    SLACK36455 ACZZ1ZZ3 -1.000000
    SLACK36456 ACZZ2ZZ3 -1.000000
    SLACK36457 ACZZ3ZZ3 -1.000000
    SLACK36458 ACZZ4ZZ3 -1.000000
    SLACK36459 ACZZ5ZZ3 -1.000000
    SLACK36460 ACZZ6ZZ3 -1.000000
    SLACK36461 ACZZ7ZZ3 -1.000000
    SLACK36462 ACZZ8ZZ3 -1.000000
    SLACK36463 ACZZ9ZZ3 -1.000000
    SLACK36464 ACZ10ZZ3 -1.000000
    SLACK36465 ACZ11ZZ3 -1.000000
    SLACK36466 ACZ12ZZ3 -1.000000
    SLACK36467 ACZ13ZZ3 -1.000000
    SLACK36468 ACZ14ZZ3 -1.000000
    SLACK36469 ACZ15ZZ3 -1.000000
    SLACK36470 ACZ16ZZ3 -1.000000
    SLACK36471 ACZ17ZZ3 -1.000000
    SLACK36472 ACZ18ZZ3 -1.000000
    SLACK36473 ACZ19ZZ3 -1.000000
    SLACK36474 ACZ20ZZ3 -1.000000
    SLACK36475 ACZ21ZZ3 -1.000000
    SLACK36476 ACZ22ZZ3 -1.000000
    SLACK36477 ACZ23ZZ3 -1.000000
    SLACK36478 ACZ24ZZ3 -1.000000
    SLACK36479 ACZ25ZZ3 -1.000000
    SLACK36480 ACZ26ZZ3 -1.000000
    SLACK36481 ACZ27ZZ3 -1.000000
    SLACK36482 ACZ28ZZ3 -1.000000
    SLACK36483 ACZ29ZZ3 -1.000000
    SLACK36484 ACZ30ZZ3 -1.000000
    SLACK36485 ACZ31ZZ3 -1.000000
    SLACK36486 ACZ32ZZ3 -1.000000
    SLACK36487 ACZ33ZZ3 -1.000000
    SLACK36488 ACZ34ZZ3 -1.000000
    SLACK36489 ACZ35ZZ3 -1.000000
    SLACK36490 ACZ36ZZ3 -1.000000
    SLACK36491 ACZ37ZZ3 -1.000000
    SLACK36492 ACZ38ZZ3 -1.000000
    SLACK36493 ACZ39ZZ3 -1.000000
    SLACK36494 ACZ40ZZ3 -1.000000
    SLACK36495 ACZ41ZZ3 -1.000000
    SLACK36496 ACZ42ZZ3 -1.000000
    SLACK36497 ACZ43ZZ3 -1.000000
    SLACK36498 ACZ44ZZ3 -1.000000
    SLACK36499 ACZ45ZZ3 -1.000000
    SLACK36500 ACZ46ZZ3 -1.000000
    SLACK36501 ACZ47ZZ3 -1.000000
    SLACK36502 NCZZ1ZZ4 -1.000000
    SLACK36503 NCZZ2ZZ4 -1.000000
    SLACK36504 NCZZ3ZZ4 -1.000000
    SLACK36505 NCZZ4ZZ4 -1.000000
    SLACK36506 NCZZ5ZZ4 -1.000000
    SLACK36507 NCZZ6ZZ4 -1.000000
    SLACK36508 NCZZ7ZZ4 -1.000000
    SLACK36509 NCZZ8ZZ4 -1.000000
    SLACK36510 NCZZ9ZZ4 -1.000000
    SLACK36511 NCZ10ZZ4 -1.000000
    SLACK36512 NCZ11ZZ4 -1.000000
    SLACK36513 NCZ12ZZ4 -1.000000
    SLACK36514 NCZ13ZZ4 -1.000000
    SLACK36515 NCZ14ZZ4 -1.000000
    SLACK36516 NCZ15ZZ4 -1.000000
    SLACK36517 ACZZ1ZZ4 -1.000000
    SLACK36518 ACZZ2ZZ4 -1.000000
    SLACK36519 ACZZ3ZZ4 -1.000000
    SLACK36520 ACZZ4ZZ4 -1.000000
    SLACK36521 ACZZ5ZZ4 -1.000000
    SLACK36522 ACZZ6ZZ4 -1.000000
    SLACK36523 ACZZ7ZZ4 -1.000000
    SLACK36524 ACZZ8ZZ4 -1.000000
    SLACK36525 ACZZ9ZZ4 -1.000000
    SLACK36526 ACZ10ZZ4 -1.000000
    SLACK36527 ACZ11ZZ4 -1.000000
    SLACK36528 ACZ12ZZ4 -1.000000
    SLACK36529 ACZ13ZZ4 -1.000000
    SLACK36530 ACZ14ZZ4 -1.000000
    SLACK36531 ACZ15ZZ4 -1.000000
    SLACK36532 ACZ16ZZ4 -1.000000
    SLACK36533 ACZ17ZZ4 -1.000000
    SLACK36534 ACZ18ZZ4 -1.000000
    SLACK36535 ACZ19ZZ4 -1.000000
    SLACK36536 ACZ20ZZ4 -1.000000
    SLACK36537 ACZ21ZZ4 -1.000000
    SLACK36538 ACZ22ZZ4 -1.000000
    SLACK36539 ACZ23ZZ4 -1.000000
    SLACK36540 ACZ24ZZ4 -1.000000
    SLACK36541 ACZ25ZZ4 -1.000000
    SLACK36542 ACZ26ZZ4 -1.000000
    SLACK36543 ACZ27ZZ4 -1.000000
    SLACK36544 ACZ28ZZ4 -1.000000
    SLACK36545 ACZ29ZZ4 -1.000000
    SLACK36546 ACZ30ZZ4 -1.000000
    SLACK36547 ACZ31ZZ4 -1.000000
    SLACK36548 ACZ32ZZ4 -1.000000
    SLACK36549 ACZ33ZZ4 -1.000000
    SLACK36550 ACZ34ZZ4 -1.000000
    SLACK36551 ACZ35ZZ4 -1.000000
    SLACK36552 ACZ36ZZ4 -1.000000
    SLACK36553 ACZ37ZZ4 -1.000000
    SLACK36554 ACZ38ZZ4 -1.000000
    SLACK36555 ACZ39ZZ4 -1.000000
    SLACK36556 ACZ40ZZ4 -1.000000
    SLACK36557 ACZ41ZZ4 -1.000000
    SLACK36558 ACZ42ZZ4 -1.000000
    SLACK36559 ACZ43ZZ4 -1.000000
    SLACK36560 ACZ44ZZ4 -1.000000
    SLACK36561 ACZ45ZZ4 -1.000000
    SLACK36562 ACZ46ZZ4 -1.000000
    SLACK36563 ACZ47ZZ4 -1.000000
    SLACK36564 NCZZ1ZZ5 -1.000000
    SLACK36565 NCZZ2ZZ5 -1.000000
    SLACK36566 NCZZ3ZZ5 -1.000000
    SLACK36567 NCZZ4ZZ5 -1.000000
    SLACK36568 NCZZ5ZZ5 -1.000000
    SLACK36569 NCZZ6ZZ5 -1.000000
    SLACK36570 NCZZ7ZZ5 -1.000000
    SLACK36571 NCZZ8ZZ5 -1.000000
    SLACK36572 NCZZ9ZZ5 -1.000000
    SLACK36573 NCZ10ZZ5 -1.000000
    SLACK36574 NCZ11ZZ5 -1.000000
    SLACK36575 NCZ12ZZ5 -1.000000
    SLACK36576 NCZ13ZZ5 -1.000000
    SLACK36577 NCZ14ZZ5 -1.000000
    SLACK36578 NCZ15ZZ5 -1.000000
    SLACK36579 ACZZ1ZZ5 -1.000000
    SLACK36580 ACZZ2ZZ5 -1.000000
    SLACK36581 ACZZ3ZZ5 -1.000000
    SLACK36582 ACZZ4ZZ5 -1.000000
    SLACK36583 ACZZ5ZZ5 -1.000000
    SLACK36584 ACZZ6ZZ5 -1.000000
    SLACK36585 ACZZ7ZZ5 -1.000000
    SLACK36586 ACZZ8ZZ5 -1.000000
    SLACK36587 ACZZ9ZZ5 -1.000000
    SLACK36588 ACZ10ZZ5 -1.000000
    SLACK36589 ACZ11ZZ5 -1.000000
    SLACK36590 ACZ12ZZ5 -1.000000
    SLACK36591 ACZ13ZZ5 -1.000000
    SLACK36592 ACZ14ZZ5 -1.000000
    SLACK36593 ACZ15ZZ5 -1.000000
    SLACK36594 ACZ16ZZ5 -1.000000
    SLACK36595 ACZ17ZZ5 -1.000000
    SLACK36596 ACZ18ZZ5 -1.000000
    SLACK36597 ACZ19ZZ5 -1.000000
    SLACK36598 ACZ20ZZ5 -1.000000
    SLACK36599 ACZ21ZZ5 -1.000000
    SLACK36600 ACZ22ZZ5 -1.000000
    SLACK36601 ACZ23ZZ5 -1.000000
    SLACK36602 ACZ24ZZ5 -1.000000
    SLACK36603 ACZ25ZZ5 -1.000000
    SLACK36604 ACZ26ZZ5 -1.000000
    SLACK36605 ACZ27ZZ5 -1.000000
    SLACK36606 ACZ28ZZ5 -1.000000
    SLACK36607 ACZ29ZZ5 -1.000000
    SLACK36608 ACZ30ZZ5 -1.000000
    SLACK36609 ACZ31ZZ5 -1.000000
    SLACK36610 ACZ32ZZ5 -1.000000
    SLACK36611 ACZ33ZZ5 -1.000000
    SLACK36612 ACZ34ZZ5 -1.000000
    SLACK36613 ACZ35ZZ5 -1.000000
    SLACK36614 ACZ36ZZ5 -1.000000
    SLACK36615 ACZ37ZZ5 -1.000000
    SLACK36616 ACZ38ZZ5 -1.000000
    SLACK36617 ACZ39ZZ5 -1.000000
    SLACK36618 ACZ40ZZ5 -1.000000
    SLACK36619 ACZ41ZZ5 -1.000000
    SLACK36620 ACZ42ZZ5 -1.000000
    SLACK36621 ACZ43ZZ5 -1.000000
    SLACK36622 ACZ44ZZ5 -1.000000
    SLACK36623 ACZ45ZZ5 -1.000000
    SLACK36624 ACZ46ZZ5 -1.000000
    SLACK36625 ACZ47ZZ5 -1.000000
    SLACK36626 NCZZ1ZZ6 -1.000000
    SLACK36627 NCZZ2ZZ6 -1.000000
    SLACK36628 NCZZ3ZZ6 -1.000000
    SLACK36629 NCZZ4ZZ6 -1.000000
    SLACK36630 NCZZ5ZZ6 -1.000000
    SLACK36631 NCZZ6ZZ6 -1.000000
    SLACK36632 NCZZ7ZZ6 -1.000000
    SLACK36633 NCZZ8ZZ6 -1.000000
    SLACK36634 NCZZ9ZZ6 -1.000000
    SLACK36635 NCZ10ZZ6 -1.000000
    SLACK36636 NCZ11ZZ6 -1.000000
    SLACK36637 NCZ12ZZ6 -1.000000
    SLACK36638 NCZ13ZZ6 -1.000000
    SLACK36639 NCZ14ZZ6 -1.000000
    SLACK36640 NCZ15ZZ6 -1.000000
    SLACK36641 ACZZ1ZZ6 -1.000000
    SLACK36642 ACZZ2ZZ6 -1.000000
    SLACK36643 ACZZ3ZZ6 -1.000000
    SLACK36644 ACZZ4ZZ6 -1.000000
    SLACK36645 ACZZ5ZZ6 -1.000000
    SLACK36646 ACZZ6ZZ6 -1.000000
    SLACK36647 ACZZ7ZZ6 -1.000000
    SLACK36648 ACZZ8ZZ6 -1.000000
    SLACK36649 ACZZ9ZZ6 -1.000000
    SLACK36650 ACZ10ZZ6 -1.000000
    SLACK36651 ACZ11ZZ6 -1.000000
    SLACK36652 ACZ12ZZ6 -1.000000
    SLACK36653 ACZ13ZZ6 -1.000000
    SLACK36654 ACZ14ZZ6 -1.000000
    SLACK36655 ACZ15ZZ6 -1.000000
    SLACK36656 ACZ16ZZ6 -1.000000
    SLACK36657 ACZ17ZZ6 -1.000000
    SLACK36658 ACZ18ZZ6 -1.000000
    SLACK36659 ACZ19ZZ6 -1.000000
    SLACK36660 ACZ20ZZ6 -1.000000
    SLACK36661 ACZ21ZZ6 -1.000000
    SLACK36662 ACZ22ZZ6 -1.000000
    SLACK36663 ACZ23ZZ6 -1.000000
    SLACK36664 ACZ24ZZ6 -1.000000
    SLACK36665 ACZ25ZZ6 -1.000000
    SLACK36666 ACZ26ZZ6 -1.000000
    SLACK36667 ACZ27ZZ6 -1.000000
    SLACK36668 ACZ28ZZ6 -1.000000
    SLACK36669 ACZ29ZZ6 -1.000000
    SLACK36670 ACZ30ZZ6 -1.000000
    SLACK36671 ACZ31ZZ6 -1.000000
    SLACK36672 ACZ32ZZ6 -1.000000
    SLACK36673 ACZ33ZZ6 -1.000000
    SLACK36674 ACZ34ZZ6 -1.000000
    SLACK36675 ACZ35ZZ6 -1.000000
    SLACK36676 ACZ36ZZ6 -1.000000
    SLACK36677 ACZ37ZZ6 -1.000000
    SLACK36678 ACZ38ZZ6 -1.000000
    SLACK36679 ACZ39ZZ6 -1.000000
    SLACK36680 ACZ40ZZ6 -1.000000
    SLACK36681 ACZ41ZZ6 -1.000000
    SLACK36682 ACZ42ZZ6 -1.000000
    SLACK36683 ACZ43ZZ6 -1.000000
    SLACK36684 ACZ44ZZ6 -1.000000
    SLACK36685 ACZ45ZZ6 -1.000000
    SLACK36686 ACZ46ZZ6 -1.000000
    SLACK36687 ACZ47ZZ6 -1.000000
    SLACK36688 NCZZ1ZZ7 -1.000000
    SLACK36689 NCZZ2ZZ7 -1.000000
    SLACK36690 NCZZ3ZZ7 -1.000000
    SLACK36691 NCZZ4ZZ7 -1.000000
    SLACK36692 NCZZ5ZZ7 -1.000000
    SLACK36693 NCZZ6ZZ7 -1.000000
    SLACK36694 NCZZ7ZZ7 -1.000000
    SLACK36695 NCZZ8ZZ7 -1.000000
    SLACK36696 NCZZ9ZZ7 -1.000000
    SLACK36697 NCZ10ZZ7 -1.000000
    SLACK36698 NCZ11ZZ7 -1.000000
    SLACK36699 NCZ12ZZ7 -1.000000
    SLACK36700 NCZ13ZZ7 -1.000000
    SLACK36701 NCZ14ZZ7 -1.000000
    SLACK36702 NCZ15ZZ7 -1.000000
    SLACK36703 ACZZ1ZZ7 -1.000000
    SLACK36704 ACZZ2ZZ7 -1.000000
    SLACK36705 ACZZ3ZZ7 -1.000000
    SLACK36706 ACZZ4ZZ7 -1.000000
    SLACK36707 ACZZ5ZZ7 -1.000000
    SLACK36708 ACZZ6ZZ7 -1.000000
    SLACK36709 ACZZ7ZZ7 -1.000000
    SLACK36710 ACZZ8ZZ7 -1.000000
    SLACK36711 ACZZ9ZZ7 -1.000000
    SLACK36712 ACZ10ZZ7 -1.000000
    SLACK36713 ACZ11ZZ7 -1.000000
    SLACK36714 ACZ12ZZ7 -1.000000
    SLACK36715 ACZ13ZZ7 -1.000000
    SLACK36716 ACZ14ZZ7 -1.000000
    SLACK36717 ACZ15ZZ7 -1.000000
    SLACK36718 ACZ16ZZ7 -1.000000
    SLACK36719 ACZ17ZZ7 -1.000000
    SLACK36720 ACZ18ZZ7 -1.000000
    SLACK36721 ACZ19ZZ7 -1.000000
    SLACK36722 ACZ20ZZ7 -1.000000
    SLACK36723 ACZ21ZZ7 -1.000000
    SLACK36724 ACZ22ZZ7 -1.000000
    SLACK36725 ACZ23ZZ7 -1.000000
    SLACK36726 ACZ24ZZ7 -1.000000
    SLACK36727 ACZ25ZZ7 -1.000000
    SLACK36728 ACZ26ZZ7 -1.000000
    SLACK36729 ACZ27ZZ7 -1.000000
    SLACK36730 ACZ28ZZ7 -1.000000
    SLACK36731 ACZ29ZZ7 -1.000000
    SLACK36732 ACZ30ZZ7 -1.000000
    SLACK36733 ACZ31ZZ7 -1.000000
    SLACK36734 ACZ32ZZ7 -1.000000
    SLACK36735 ACZ33ZZ7 -1.000000
    SLACK36736 ACZ34ZZ7 -1.000000
    SLACK36737 ACZ35ZZ7 -1.000000
    SLACK36738 ACZ36ZZ7 -1.000000
    SLACK36739 ACZ37ZZ7 -1.000000
    SLACK36740 ACZ38ZZ7 -1.000000
    SLACK36741 ACZ39ZZ7 -1.000000
    SLACK36742 ACZ40ZZ7 -1.000000
    SLACK36743 ACZ41ZZ7 -1.000000
    SLACK36744 ACZ42ZZ7 -1.000000
    SLACK36745 ACZ43ZZ7 -1.000000
    SLACK36746 ACZ44ZZ7 -1.000000
    SLACK36747 ACZ45ZZ7 -1.000000
    SLACK36748 ACZ46ZZ7 -1.000000
    SLACK36749 ACZ47ZZ7 -1.000000
    SLACK36750 NCZZ1ZZ8 -1.000000
    SLACK36751 NCZZ2ZZ8 -1.000000
    SLACK36752 NCZZ3ZZ8 -1.000000
    SLACK36753 NCZZ4ZZ8 -1.000000
    SLACK36754 NCZZ5ZZ8 -1.000000
    SLACK36755 NCZZ6ZZ8 -1.000000
    SLACK36756 NCZZ7ZZ8 -1.000000
    SLACK36757 NCZZ8ZZ8 -1.000000
    SLACK36758 NCZZ9ZZ8 -1.000000
    SLACK36759 NCZ10ZZ8 -1.000000
    SLACK36760 NCZ11ZZ8 -1.000000
    SLACK36761 NCZ12ZZ8 -1.000000
    SLACK36762 NCZ13ZZ8 -1.000000
    SLACK36763 NCZ14ZZ8 -1.000000
    SLACK36764 NCZ15ZZ8 -1.000000
    SLACK36765 ACZZ1ZZ8 -1.000000
    SLACK36766 ACZZ2ZZ8 -1.000000
    SLACK36767 ACZZ3ZZ8 -1.000000
    SLACK36768 ACZZ4ZZ8 -1.000000
    SLACK36769 ACZZ5ZZ8 -1.000000
    SLACK36770 ACZZ6ZZ8 -1.000000
    SLACK36771 ACZZ7ZZ8 -1.000000
    SLACK36772 ACZZ8ZZ8 -1.000000
    SLACK36773 ACZZ9ZZ8 -1.000000
    SLACK36774 ACZ10ZZ8 -1.000000
    SLACK36775 ACZ11ZZ8 -1.000000
    SLACK36776 ACZ12ZZ8 -1.000000
    SLACK36777 ACZ13ZZ8 -1.000000
    SLACK36778 ACZ14ZZ8 -1.000000
    SLACK36779 ACZ15ZZ8 -1.000000
    SLACK36780 ACZ16ZZ8 -1.000000
    SLACK36781 ACZ17ZZ8 -1.000000
    SLACK36782 ACZ18ZZ8 -1.000000
    SLACK36783 ACZ19ZZ8 -1.000000
    SLACK36784 ACZ20ZZ8 -1.000000
    SLACK36785 ACZ21ZZ8 -1.000000
    SLACK36786 ACZ22ZZ8 -1.000000
    SLACK36787 ACZ23ZZ8 -1.000000
    SLACK36788 ACZ24ZZ8 -1.000000
    SLACK36789 ACZ25ZZ8 -1.000000
    SLACK36790 ACZ26ZZ8 -1.000000
    SLACK36791 ACZ27ZZ8 -1.000000
    SLACK36792 ACZ28ZZ8 -1.000000
    SLACK36793 ACZ29ZZ8 -1.000000
    SLACK36794 ACZ30ZZ8 -1.000000
    SLACK36795 ACZ31ZZ8 -1.000000
    SLACK36796 ACZ32ZZ8 -1.000000
    SLACK36797 ACZ33ZZ8 -1.000000
    SLACK36798 ACZ34ZZ8 -1.000000
    SLACK36799 ACZ35ZZ8 -1.000000
    SLACK36800 ACZ36ZZ8 -1.000000
    SLACK36801 ACZ37ZZ8 -1.000000
    SLACK36802 ACZ38ZZ8 -1.000000
    SLACK36803 ACZ39ZZ8 -1.000000
    SLACK36804 ACZ40ZZ8 -1.000000
    SLACK36805 ACZ41ZZ8 -1.000000
    SLACK36806 ACZ42ZZ8 -1.000000
    SLACK36807 ACZ43ZZ8 -1.000000
    SLACK36808 ACZ44ZZ8 -1.000000
    SLACK36809 ACZ45ZZ8 -1.000000
    SLACK36810 ACZ46ZZ8 -1.000000
    SLACK36811 ACZ47ZZ8 -1.000000
    SLACK36812 NCZZ1ZZ9 -1.000000
    SLACK36813 NCZZ2ZZ9 -1.000000
    SLACK36814 NCZZ3ZZ9 -1.000000
    SLACK36815 NCZZ4ZZ9 -1.000000
    SLACK36816 NCZZ5ZZ9 -1.000000
    SLACK36817 NCZZ6ZZ9 -1.000000
    SLACK36818 NCZZ7ZZ9 -1.000000
    SLACK36819 NCZZ8ZZ9 -1.000000
    SLACK36820 NCZZ9ZZ9 -1.000000
    SLACK36821 NCZ10ZZ9 -1.000000
    SLACK36822 NCZ11ZZ9 -1.000000
    SLACK36823 NCZ12ZZ9 -1.000000
    SLACK36824 NCZ13ZZ9 -1.000000
    SLACK36825 NCZ14ZZ9 -1.000000
    SLACK36826 NCZ15ZZ9 -1.000000
    SLACK36827 ACZZ1ZZ9 -1.000000
    SLACK36828 ACZZ2ZZ9 -1.000000
    SLACK36829 ACZZ3ZZ9 -1.000000
    SLACK36830 ACZZ4ZZ9 -1.000000
    SLACK36831 ACZZ5ZZ9 -1.000000
    SLACK36832 ACZZ6ZZ9 -1.000000
    SLACK36833 ACZZ7ZZ9 -1.000000
    SLACK36834 ACZZ8ZZ9 -1.000000
    SLACK36835 ACZZ9ZZ9 -1.000000
    SLACK36836 ACZ10ZZ9 -1.000000
    SLACK36837 ACZ11ZZ9 -1.000000
    SLACK36838 ACZ12ZZ9 -1.000000
    SLACK36839 ACZ13ZZ9 -1.000000
    SLACK36840 ACZ14ZZ9 -1.000000
    SLACK36841 ACZ15ZZ9 -1.000000
    SLACK36842 ACZ16ZZ9 -1.000000
    SLACK36843 ACZ17ZZ9 -1.000000
    SLACK36844 ACZ18ZZ9 -1.000000
    SLACK36845 ACZ19ZZ9 -1.000000
    SLACK36846 ACZ20ZZ9 -1.000000
    SLACK36847 ACZ21ZZ9 -1.000000
    SLACK36848 ACZ22ZZ9 -1.000000
    SLACK36849 ACZ23ZZ9 -1.000000
    SLACK36850 ACZ24ZZ9 -1.000000
    SLACK36851 ACZ25ZZ9 -1.000000
    SLACK36852 ACZ26ZZ9 -1.000000
    SLACK36853 ACZ27ZZ9 -1.000000
    SLACK36854 ACZ28ZZ9 -1.000000
    SLACK36855 ACZ29ZZ9 -1.000000
    SLACK36856 ACZ30ZZ9 -1.000000
    SLACK36857 ACZ31ZZ9 -1.000000
    SLACK36858 ACZ32ZZ9 -1.000000
    SLACK36859 ACZ33ZZ9 -1.000000
    SLACK36860 ACZ34ZZ9 -1.000000
    SLACK36861 ACZ35ZZ9 -1.000000
    SLACK36862 ACZ36ZZ9 -1.000000
    SLACK36863 ACZ37ZZ9 -1.000000
    SLACK36864 ACZ38ZZ9 -1.000000
    SLACK36865 ACZ39ZZ9 -1.000000
    SLACK36866 ACZ40ZZ9 -1.000000
    SLACK36867 ACZ41ZZ9 -1.000000
    SLACK36868 ACZ42ZZ9 -1.000000
    SLACK36869 ACZ43ZZ9 -1.000000
    SLACK36870 ACZ44ZZ9 -1.000000
    SLACK36871 ACZ45ZZ9 -1.000000
    SLACK36872 ACZ46ZZ9 -1.000000
    SLACK36873 ACZ47ZZ9 -1.000000
    SLACK36874 NCZZ1Z10 -1.000000
    SLACK36875 NCZZ2Z10 -1.000000
    SLACK36876 NCZZ3Z10 -1.000000
    SLACK36877 NCZZ4Z10 -1.000000
    SLACK36878 NCZZ5Z10 -1.000000
    SLACK36879 NCZZ6Z10 -1.000000
    SLACK36880 NCZZ7Z10 -1.000000
    SLACK36881 NCZZ8Z10 -1.000000
    SLACK36882 NCZZ9Z10 -1.000000
    SLACK36883 NCZ10Z10 -1.000000
    SLACK36884 NCZ11Z10 -1.000000
    SLACK36885 NCZ12Z10 -1.000000
    SLACK36886 NCZ13Z10 -1.000000
    SLACK36887 NCZ14Z10 -1.000000
    SLACK36888 NCZ15Z10 -1.000000
    SLACK36889 ACZZ1Z10 -1.000000
    SLACK36890 ACZZ2Z10 -1.000000
    SLACK36891 ACZZ3Z10 -1.000000
    SLACK36892 ACZZ4Z10 -1.000000
    SLACK36893 ACZZ5Z10 -1.000000
    SLACK36894 ACZZ6Z10 -1.000000
    SLACK36895 ACZZ7Z10 -1.000000
    SLACK36896 ACZZ8Z10 -1.000000
    SLACK36897 ACZZ9Z10 -1.000000
    SLACK36898 ACZ10Z10 -1.000000
    SLACK36899 ACZ11Z10 -1.000000
    SLACK36900 ACZ12Z10 -1.000000
    SLACK36901 ACZ13Z10 -1.000000
    SLACK36902 ACZ14Z10 -1.000000
    SLACK36903 ACZ15Z10 -1.000000
    SLACK36904 ACZ16Z10 -1.000000
    SLACK36905 ACZ17Z10 -1.000000
    SLACK36906 ACZ18Z10 -1.000000
    SLACK36907 ACZ19Z10 -1.000000
    SLACK36908 ACZ20Z10 -1.000000
    SLACK36909 ACZ21Z10 -1.000000
    SLACK36910 ACZ22Z10 -1.000000
    SLACK36911 ACZ23Z10 -1.000000
    SLACK36912 ACZ24Z10 -1.000000
    SLACK36913 ACZ25Z10 -1.000000
    SLACK36914 ACZ26Z10 -1.000000
    SLACK36915 ACZ27Z10 -1.000000
    SLACK36916 ACZ28Z10 -1.000000
    SLACK36917 ACZ29Z10 -1.000000
    SLACK36918 ACZ30Z10 -1.000000
    SLACK36919 ACZ31Z10 -1.000000
    SLACK36920 ACZ32Z10 -1.000000
    SLACK36921 ACZ33Z10 -1.000000
    SLACK36922 ACZ34Z10 -1.000000
    SLACK36923 ACZ35Z10 -1.000000
    SLACK36924 ACZ36Z10 -1.000000
    SLACK36925 ACZ37Z10 -1.000000
    SLACK36926 ACZ38Z10 -1.000000
    SLACK36927 ACZ39Z10 -1.000000
    SLACK36928 ACZ40Z10 -1.000000
    SLACK36929 ACZ41Z10 -1.000000
    SLACK36930 ACZ42Z10 -1.000000
    SLACK36931 ACZ43Z10 -1.000000
    SLACK36932 ACZ44Z10 -1.000000
    SLACK36933 ACZ45Z10 -1.000000
    SLACK36934 ACZ46Z10 -1.000000
    SLACK36935 ACZ47Z10 -1.000000
RHS
    RHS      NCZZ1ZZ1 5.000000
    RHS      NCZZ2ZZ1 5.000000
    RHS      NCZZ9ZZ1 5.000000
    RHS      NCZ13ZZ1 10.000000
    RHS      NCZ15ZZ1 10.000000
    RHS      CCZZ1ZZ1 1.000000
    RHS      CCZZ2ZZ1 1.000000
    RHS      CCZZ3ZZ1 1.000000
    RHS      CCZZ4ZZ1 1.000000
    RHS      CCZZ5ZZ1 1.000000
    RHS      CCZZ6ZZ1 1.000000
    RHS      CCZZ7ZZ1 1.000000
    RHS      CCZZ8ZZ1 1.000000
    RHS      CCZZ9ZZ1 1.000000
    RHS      CCZ10ZZ1 1.000000
    RHS      CCZ11ZZ1 1.000000
    RHS      CCZ12ZZ1 1.000000
    RHS      CCZ13ZZ1 1.000000
    RHS      CCZ14ZZ1 1.000000
    RHS      CCZ15ZZ1 1.000000
    RHS      CCZ16ZZ1 1.000000
    RHS      CCZ17ZZ1 1.000000
    RHS      CCZ18ZZ1 1.000000
    RHS      CCZ19ZZ1 1.000000
    RHS      CCZ20ZZ1 1.000000
    RHS      CCZ21ZZ1 1.000000
    RHS      CCZ22ZZ1 1.000000
    RHS      CCZ23ZZ1 1.000000
    RHS      CCZ24ZZ1 1.000000
    RHS      CCZ25ZZ1 1.000000
    RHS      CCZ26ZZ1 1.000000
    RHS      CCZ27ZZ1 1.000000
    RHS      CCZ28ZZ1 1.000000
    RHS      CCZ29ZZ1 1.000000
    RHS      CCZ30ZZ1 1.000000
    RHS      CCZ31ZZ1 1.000000
    RHS      CCZ32ZZ1 1.000000
    RHS      CCZ33ZZ1 1.000000
    RHS      CCZ34ZZ1 1.000000
    RHS      CCZ35ZZ1 1.000000
    RHS      CCZ36ZZ1 1.000000
    RHS      CCZ37ZZ1 1.000000
    RHS      CCZ38ZZ1 1.000000
    RHS      CCZ39ZZ1 1.000000
    RHS      CCZ40ZZ1 1.000000
    RHS      CCZ41ZZ1 1.000000
    RHS      CCZ42ZZ1 1.000000
    RHS      CCZ43ZZ1 1.000000
    RHS      CCZ44ZZ1 1.000000
    RHS      CCZ45ZZ1 1.000000
    RHS      CCZ46ZZ1 1.000000
    RHS      CCZ47ZZ1 1.000000
    RHS      NCZZ1ZZ2 10.000000
    RHS      NCZZ2ZZ2 5.000000
    RHS      NCZZ3ZZ2 5.000000
    RHS      NCZZ6ZZ2 10.000000
    RHS      NCZZ9ZZ2 5.000000
    RHS      NCZ13ZZ2 30.000000
    RHS      NCZ15ZZ2 10.000000
    RHS      CCZZ1ZZ2 1.000000
    RHS      CCZZ2ZZ2 1.000000
    RHS      CCZZ3ZZ2 1.000000
    RHS      CCZZ4ZZ2 1.000000
    RHS      CCZZ5ZZ2 1.000000
    RHS      CCZZ6ZZ2 1.000000
    RHS      CCZZ7ZZ2 1.000000
    RHS      CCZZ8ZZ2 1.000000
    RHS      CCZZ9ZZ2 1.000000
    RHS      CCZ10ZZ2 1.000000
    RHS      CCZ11ZZ2 1.000000
    RHS      CCZ12ZZ2 1.000000
    RHS      CCZ13ZZ2 1.000000
    RHS      CCZ14ZZ2 1.000000
    RHS      CCZ15ZZ2 1.000000
    RHS      CCZ16ZZ2 1.000000
    RHS      CCZ17ZZ2 1.000000
    RHS      CCZ18ZZ2 1.000000
    RHS      CCZ19ZZ2 1.000000
    RHS      CCZ20ZZ2 1.000000
    RHS      CCZ21ZZ2 1.000000
    RHS      CCZ22ZZ2 1.000000
    RHS      CCZ23ZZ2 1.000000
    RHS      CCZ24ZZ2 1.000000
    RHS      CCZ25ZZ2 1.000000
    RHS      CCZ26ZZ2 1.000000
    RHS      CCZ27ZZ2 1.000000
    RHS      CCZ28ZZ2 1.000000
    RHS      CCZ29ZZ2 1.000000
    RHS      CCZ30ZZ2 1.000000
    RHS      CCZ31ZZ2 1.000000
    RHS      CCZ32ZZ2 1.000000
    RHS      CCZ33ZZ2 1.000000
    RHS      CCZ34ZZ2 1.000000
    RHS      CCZ35ZZ2 1.000000
    RHS      CCZ36ZZ2 1.000000
    RHS      CCZ37ZZ2 1.000000
    RHS      CCZ38ZZ2 1.000000
    RHS      CCZ39ZZ2 1.000000
    RHS      CCZ40ZZ2 1.000000
    RHS      CCZ41ZZ2 1.000000
    RHS      CCZ42ZZ2 1.000000
    RHS      CCZ43ZZ2 1.000000
    RHS      CCZ44ZZ2 1.000000
    RHS      CCZ45ZZ2 1.000000
    RHS      CCZ46ZZ2 1.000000
    RHS      CCZ47ZZ2 1.000000
    RHS      NCZZ1ZZ3 15.000000
    RHS      NCZZ2ZZ3 10.000000
    RHS      NCZZ3ZZ3 10.000000
    RHS      NCZZ6ZZ3 20.000000
    RHS      NCZZ9ZZ3 5.000000
    RHS      NCZ13ZZ3 40.000000
    RHS      NCZ15ZZ3 10.000000
    RHS      CCZZ1ZZ3 1.000000
    RHS      CCZZ2ZZ3 1.000000
    RHS      CCZZ3ZZ3 1.000000
    RHS      CCZZ4ZZ3 1.000000
    RHS      CCZZ5ZZ3 1.000000
    RHS      CCZZ6ZZ3 1.000000
    RHS      CCZZ7ZZ3 1.000000
    RHS      CCZZ8ZZ3 1.000000
    RHS      CCZZ9ZZ3 1.000000
    RHS      CCZ10ZZ3 1.000000
    RHS      CCZ11ZZ3 1.000000
    RHS      CCZ12ZZ3 1.000000
    RHS      CCZ13ZZ3 1.000000
    RHS      CCZ14ZZ3 1.000000
    RHS      CCZ15ZZ3 1.000000
    RHS      CCZ16ZZ3 1.000000
    RHS      CCZ17ZZ3 1.000000
    RHS      CCZ18ZZ3 1.000000
    RHS      CCZ19ZZ3 1.000000
    RHS      CCZ20ZZ3 1.000000
    RHS      CCZ21ZZ3 1.000000
    RHS      CCZ22ZZ3 1.000000
    RHS      CCZ23ZZ3 1.000000
    RHS      CCZ24ZZ3 1.000000
    RHS      CCZ25ZZ3 1.000000
    RHS      CCZ26ZZ3 1.000000
    RHS      CCZ27ZZ3 1.000000
    RHS      CCZ28ZZ3 1.000000
    RHS      CCZ29ZZ3 1.000000
    RHS      CCZ30ZZ3 1.000000
    RHS      CCZ31ZZ3 1.000000
    RHS      CCZ32ZZ3 1.000000
    RHS      CCZ33ZZ3 1.000000
    RHS      CCZ34ZZ3 1.000000
    RHS      CCZ35ZZ3 1.000000
    RHS      CCZ36ZZ3 1.000000
    RHS      CCZ37ZZ3 1.000000
    RHS      CCZ38ZZ3 1.000000
    RHS      CCZ39ZZ3 1.000000
    RHS      CCZ40ZZ3 1.000000
    RHS      CCZ41ZZ3 1.000000
    RHS      CCZ42ZZ3 1.000000
    RHS      CCZ43ZZ3 1.000000
    RHS      CCZ44ZZ3 1.000000
    RHS      CCZ45ZZ3 1.000000
    RHS      CCZ46ZZ3 1.000000
    RHS      CCZ47ZZ3 1.000000
    RHS      NCZZ1ZZ4 20.000000
    RHS      NCZZ2ZZ4 10.000000
    RHS      NCZZ3ZZ4 20.000000
    RHS      NCZZ6ZZ4 30.000000
    RHS      NCZZ9ZZ4 5.000000
    RHS      NCZ13ZZ4 20.000000
    RHS      NCZ15ZZ4 10.000000
    RHS      CCZZ1ZZ4 1.000000
    RHS      CCZZ2ZZ4 1.000000
    RHS      CCZZ3ZZ4 1.000000
    RHS      CCZZ4ZZ4 1.000000
    RHS      CCZZ5ZZ4 1.000000
    RHS      CCZZ6ZZ4 1.000000
    RHS      CCZZ7ZZ4 1.000000
    RHS      CCZZ8ZZ4 1.000000
    RHS      CCZZ9ZZ4 1.000000
    RHS      CCZ10ZZ4 1.000000
    RHS      CCZ11ZZ4 1.000000
    RHS      CCZ12ZZ4 1.000000
    RHS      CCZ13ZZ4 1.000000
    RHS      CCZ14ZZ4 1.000000
    RHS      CCZ15ZZ4 1.000000
    RHS      CCZ16ZZ4 1.000000
    RHS      CCZ17ZZ4 1.000000
    RHS      CCZ18ZZ4 1.000000
    RHS      CCZ19ZZ4 1.000000
    RHS      CCZ20ZZ4 1.000000
    RHS      CCZ21ZZ4 1.000000
    RHS      CCZ22ZZ4 1.000000
    RHS      CCZ23ZZ4 1.000000
    RHS      CCZ24ZZ4 1.000000
    RHS      CCZ25ZZ4 1.000000
    RHS      CCZ26ZZ4 1.000000
    RHS      CCZ27ZZ4 1.000000
    RHS      CCZ28ZZ4 1.000000
    RHS      CCZ29ZZ4 1.000000
    RHS      CCZ30ZZ4 1.000000
    RHS      CCZ31ZZ4 1.000000
    RHS      CCZ32ZZ4 1.000000
    RHS      CCZ33ZZ4 1.000000
    RHS      CCZ34ZZ4 1.000000
    RHS      CCZ35ZZ4 1.000000
    RHS      CCZ36ZZ4 1.000000
    RHS      CCZ37ZZ4 1.000000
    RHS      CCZ38ZZ4 1.000000
    RHS      CCZ39ZZ4 1.000000
    RHS      CCZ40ZZ4 1.000000
    RHS      CCZ41ZZ4 1.000000
    RHS      CCZ42ZZ4 1.000000
    RHS      CCZ43ZZ4 1.000000
    RHS      CCZ44ZZ4 1.000000
    RHS      CCZ45ZZ4 1.000000
    RHS      CCZ46ZZ4 1.000000
    RHS      CCZ47ZZ4 1.000000
    RHS      NCZZ1ZZ5 20.000000
    RHS      NCZZ2ZZ5 10.000000
    RHS      NCZZ3ZZ5 30.000000
    RHS      NCZZ6ZZ5 50.000000
    RHS      NCZZ9ZZ5 10.000000
    RHS      NCZ13ZZ5 5.000000
    RHS      NCZ15ZZ5 10.000000
    RHS      CCZZ1ZZ5 1.000000
    RHS      CCZZ2ZZ5 1.000000
    RHS      CCZZ3ZZ5 1.000000
    RHS      CCZZ4ZZ5 1.000000
    RHS      CCZZ5ZZ5 1.000000
    RHS      CCZZ6ZZ5 1.000000
    RHS      CCZZ7ZZ5 1.000000
    RHS      CCZZ8ZZ5 1.000000
    RHS      CCZZ9ZZ5 1.000000
    RHS      CCZ10ZZ5 1.000000
    RHS      CCZ11ZZ5 1.000000
    RHS      CCZ12ZZ5 1.000000
    RHS      CCZ13ZZ5 1.000000
    RHS      CCZ14ZZ5 1.000000
    RHS      CCZ15ZZ5 1.000000
    RHS      CCZ16ZZ5 1.000000
    RHS      CCZ17ZZ5 1.000000
    RHS      CCZ18ZZ5 1.000000
    RHS      CCZ19ZZ5 1.000000
    RHS      CCZ20ZZ5 1.000000
    RHS      CCZ21ZZ5 1.000000
    RHS      CCZ22ZZ5 1.000000
    RHS      CCZ23ZZ5 1.000000
    RHS      CCZ24ZZ5 1.000000
    RHS      CCZ25ZZ5 1.000000
    RHS      CCZ26ZZ5 1.000000
    RHS      CCZ27ZZ5 1.000000
    RHS      CCZ28ZZ5 1.000000
    RHS      CCZ29ZZ5 1.000000
    RHS      CCZ30ZZ5 1.000000
    RHS      CCZ31ZZ5 1.000000
    RHS      CCZ32ZZ5 1.000000
    RHS      CCZ33ZZ5 1.000000
    RHS      CCZ34ZZ5 1.000000
    RHS      CCZ35ZZ5 1.000000
    RHS      CCZ36ZZ5 1.000000
    RHS      CCZ37ZZ5 1.000000
    RHS      CCZ38ZZ5 1.000000
    RHS      CCZ39ZZ5 1.000000
    RHS      CCZ40ZZ5 1.000000
    RHS      CCZ41ZZ5 1.000000
    RHS      CCZ42ZZ5 1.000000
    RHS      CCZ43ZZ5 1.000000
    RHS      CCZ44ZZ5 1.000000
    RHS      CCZ45ZZ5 1.000000
    RHS      CCZ46ZZ5 1.000000
    RHS      CCZ47ZZ5 1.000000
    RHS      NCZZ1ZZ6 20.000000
    RHS      NCZZ2ZZ6 15.000000
    RHS      NCZZ3ZZ6 10.000000
    RHS      NCZZ6ZZ6 20.000000
    RHS      NCZZ9ZZ6 5.000000
    RHS      NCZ15ZZ6 10.000000
    RHS      CCZZ1ZZ6 1.000000
    RHS      CCZZ2ZZ6 1.000000
    RHS      CCZZ3ZZ6 1.000000
    RHS      CCZZ4ZZ6 1.000000
    RHS      CCZZ5ZZ6 1.000000
    RHS      CCZZ6ZZ6 1.000000
    RHS      CCZZ7ZZ6 1.000000
    RHS      CCZZ8ZZ6 1.000000
    RHS      CCZZ9ZZ6 1.000000
    RHS      CCZ10ZZ6 1.000000
    RHS      CCZ11ZZ6 1.000000
    RHS      CCZ12ZZ6 1.000000
    RHS      CCZ13ZZ6 1.000000
    RHS      CCZ14ZZ6 1.000000
    RHS      CCZ15ZZ6 1.000000
    RHS      CCZ16ZZ6 1.000000
    RHS      CCZ17ZZ6 1.000000
    RHS      CCZ18ZZ6 1.000000
    RHS      CCZ19ZZ6 1.000000
    RHS      CCZ20ZZ6 1.000000
    RHS      CCZ21ZZ6 1.000000
    RHS      CCZ22ZZ6 1.000000
    RHS      CCZ23ZZ6 1.000000
    RHS      CCZ24ZZ6 1.000000
    RHS      CCZ25ZZ6 1.000000
    RHS      CCZ26ZZ6 1.000000
    RHS      CCZ27ZZ6 1.000000
    RHS      CCZ28ZZ6 1.000000
    RHS      CCZ29ZZ6 1.000000
    RHS      CCZ30ZZ6 1.000000
    RHS      CCZ31ZZ6 1.000000
    RHS      CCZ32ZZ6 1.000000
    RHS      CCZ33ZZ6 1.000000
    RHS      CCZ34ZZ6 1.000000
    RHS      CCZ35ZZ6 1.000000
    RHS      CCZ36ZZ6 1.000000
    RHS      CCZ37ZZ6 1.000000
    RHS      CCZ38ZZ6 1.000000
    RHS      CCZ39ZZ6 1.000000
    RHS      CCZ40ZZ6 1.000000
    RHS      CCZ41ZZ6 1.000000
    RHS      CCZ42ZZ6 1.000000
    RHS      CCZ43ZZ6 1.000000
    RHS      CCZ44ZZ6 1.000000
    RHS      CCZ45ZZ6 1.000000
    RHS      CCZ46ZZ6 1.000000
    RHS      CCZ47ZZ6 1.000000
    RHS      NCZZ1ZZ7 10.000000
    RHS      NCZZ2ZZ7 10.000000
    RHS      NCZZ3ZZ7 5.000000
    RHS      NCZZ6ZZ7 30.000000
    RHS      NCZZ9ZZ7 5.000000
    RHS      NCZ15ZZ7 20.000000
    RHS      CCZZ1ZZ7 1.000000
    RHS      CCZZ2ZZ7 1.000000
    RHS      CCZZ3ZZ7 1.000000
    RHS      CCZZ4ZZ7 1.000000
    RHS      CCZZ5ZZ7 1.000000
    RHS      CCZZ6ZZ7 1.000000
    RHS      CCZZ7ZZ7 1.000000
    RHS      CCZZ8ZZ7 1.000000
    RHS      CCZZ9ZZ7 1.000000
    RHS      CCZ10ZZ7 1.000000
    RHS      CCZ11ZZ7 1.000000
    RHS      CCZ12ZZ7 1.000000
    RHS      CCZ13ZZ7 1.000000
    RHS      CCZ14ZZ7 1.000000
    RHS      CCZ15ZZ7 1.000000
    RHS      CCZ16ZZ7 1.000000
    RHS      CCZ17ZZ7 1.000000
    RHS      CCZ18ZZ7 1.000000
    RHS      CCZ19ZZ7 1.000000
    RHS      CCZ20ZZ7 1.000000
    RHS      CCZ21ZZ7 1.000000
    RHS      CCZ22ZZ7 1.000000
    RHS      CCZ23ZZ7 1.000000
    RHS      CCZ24ZZ7 1.000000
    RHS      CCZ25ZZ7 1.000000
    RHS      CCZ26ZZ7 1.000000
    RHS      CCZ27ZZ7 1.000000
    RHS      CCZ28ZZ7 1.000000
    RHS      CCZ29ZZ7 1.000000
    RHS      CCZ30ZZ7 1.000000
    RHS      CCZ31ZZ7 1.000000
    RHS      CCZ32ZZ7 1.000000
    RHS      CCZ33ZZ7 1.000000
    RHS      CCZ34ZZ7 1.000000
    RHS      CCZ35ZZ7 1.000000
    RHS      CCZ36ZZ7 1.000000
    RHS      CCZ37ZZ7 1.000000
    RHS      CCZ38ZZ7 1.000000
    RHS      CCZ39ZZ7 1.000000
    RHS      CCZ40ZZ7 1.000000
    RHS      CCZ41ZZ7 1.000000
    RHS      CCZ42ZZ7 1.000000
    RHS      CCZ43ZZ7 1.000000
    RHS      CCZ44ZZ7 1.000000
    RHS      CCZ45ZZ7 1.000000
    RHS      CCZ46ZZ7 1.000000
    RHS      CCZ47ZZ7 1.000000
    RHS      NCZZ1ZZ8 10.000000
    RHS      NCZZ2ZZ8 5.000000
    RHS      NCZZ6ZZ8 10.000000
    RHS      NCZ15ZZ8 30.000000
    RHS      CCZZ1ZZ8 1.000000
    RHS      CCZZ2ZZ8 1.000000
    RHS      CCZZ3ZZ8 1.000000
    RHS      CCZZ4ZZ8 1.000000
    RHS      CCZZ5ZZ8 1.000000
    RHS      CCZZ6ZZ8 1.000000
    RHS      CCZZ7ZZ8 1.000000
    RHS      CCZZ8ZZ8 1.000000
    RHS      CCZZ9ZZ8 1.000000
    RHS      CCZ10ZZ8 1.000000
    RHS      CCZ11ZZ8 1.000000
    RHS      CCZ12ZZ8 1.000000
    RHS      CCZ13ZZ8 1.000000
    RHS      CCZ14ZZ8 1.000000
    RHS      CCZ15ZZ8 1.000000
    RHS      CCZ16ZZ8 1.000000
    RHS      CCZ17ZZ8 1.000000
    RHS      CCZ18ZZ8 1.000000
    RHS      CCZ19ZZ8 1.000000
    RHS      CCZ20ZZ8 1.000000
    RHS      CCZ21ZZ8 1.000000
    RHS      CCZ22ZZ8 1.000000
    RHS      CCZ23ZZ8 1.000000
    RHS      CCZ24ZZ8 1.000000
    RHS      CCZ25ZZ8 1.000000
    RHS      CCZ26ZZ8 1.000000
    RHS      CCZ27ZZ8 1.000000
    RHS      CCZ28ZZ8 1.000000
    RHS      CCZ29ZZ8 1.000000
    RHS      CCZ30ZZ8 1.000000
    RHS      CCZ31ZZ8 1.000000
    RHS      CCZ32ZZ8 1.000000
    RHS      CCZ33ZZ8 1.000000
    RHS      CCZ34ZZ8 1.000000
    RHS      CCZ35ZZ8 1.000000
    RHS      CCZ36ZZ8 1.000000
    RHS      CCZ37ZZ8 1.000000
    RHS      CCZ38ZZ8 1.000000
    RHS      CCZ39ZZ8 1.000000
    RHS      CCZ40ZZ8 1.000000
    RHS      CCZ41ZZ8 1.000000
    RHS      CCZ42ZZ8 1.000000
    RHS      CCZ43ZZ8 1.000000
    RHS      CCZ44ZZ8 1.000000
    RHS      CCZ45ZZ8 1.000000
    RHS      CCZ46ZZ8 1.000000
    RHS      CCZ47ZZ8 1.000000
    RHS      NCZZ6ZZ9 5.000000
    RHS      NCZ15ZZ9 5.000000
    RHS      CCZZ1ZZ9 1.000000
    RHS      CCZZ2ZZ9 1.000000
    RHS      CCZZ3ZZ9 1.000000
    RHS      CCZZ4ZZ9 1.000000
    RHS      CCZZ5ZZ9 1.000000
    RHS      CCZZ6ZZ9 1.000000
    RHS      CCZZ7ZZ9 1.000000
    RHS      CCZZ8ZZ9 1.000000
    RHS      CCZZ9ZZ9 1.000000
    RHS      CCZ10ZZ9 1.000000
    RHS      CCZ11ZZ9 1.000000
    RHS      CCZ12ZZ9 1.000000
    RHS      CCZ13ZZ9 1.000000
    RHS      CCZ14ZZ9 1.000000
    RHS      CCZ15ZZ9 1.000000
    RHS      CCZ16ZZ9 1.000000
    RHS      CCZ17ZZ9 1.000000
    RHS      CCZ18ZZ9 1.000000
    RHS      CCZ19ZZ9 1.000000
    RHS      CCZ20ZZ9 1.000000
    RHS      CCZ21ZZ9 1.000000
    RHS      CCZ22ZZ9 1.000000
    RHS      CCZ23ZZ9 1.000000
    RHS      CCZ24ZZ9 1.000000
    RHS      CCZ25ZZ9 1.000000
    RHS      CCZ26ZZ9 1.000000
    RHS      CCZ27ZZ9 1.000000
    RHS      CCZ28ZZ9 1.000000
    RHS      CCZ29ZZ9 1.000000
    RHS      CCZ30ZZ9 1.000000
    RHS      CCZ31ZZ9 1.000000
    RHS      CCZ32ZZ9 1.000000
    RHS      CCZ33ZZ9 1.000000
    RHS      CCZ34ZZ9 1.000000
    RHS      CCZ35ZZ9 1.000000
    RHS      CCZ36ZZ9 1.000000
    RHS      CCZ37ZZ9 1.000000
    RHS      CCZ38ZZ9 1.000000
    RHS      CCZ39ZZ9 1.000000
    RHS      CCZ40ZZ9 1.000000
    RHS      CCZ41ZZ9 1.000000
    RHS      CCZ42ZZ9 1.000000
    RHS      CCZ43ZZ9 1.000000
    RHS      CCZ44ZZ9 1.000000
    RHS      CCZ45ZZ9 1.000000
    RHS      CCZ46ZZ9 1.000000
    RHS      CCZ47ZZ9 1.000000
    RHS      CCZZ1Z10 1.000000
    RHS      CCZZ2Z10 1.000000
    RHS      CCZZ3Z10 1.000000
    RHS      CCZZ4Z10 1.000000
    RHS      CCZZ5Z10 1.000000
    RHS      CCZZ6Z10 1.000000
    RHS      CCZZ7Z10 1.000000
    RHS      CCZZ8Z10 1.000000
    RHS      CCZZ9Z10 1.000000
    RHS      CCZ10Z10 1.000000
    RHS      CCZ11Z10 1.000000
    RHS      CCZ12Z10 1.000000
    RHS      CCZ13Z10 1.000000
    RHS      CCZ14Z10 1.000000
    RHS      CCZ15Z10 1.000000
    RHS      CCZ16Z10 1.000000
    RHS      CCZ17Z10 1.000000
    RHS      CCZ18Z10 1.000000
    RHS      CCZ19Z10 1.000000
    RHS      CCZ20Z10 1.000000
    RHS      CCZ21Z10 1.000000
    RHS      CCZ22Z10 1.000000
    RHS      CCZ23Z10 1.000000
    RHS      CCZ24Z10 1.000000
    RHS      CCZ25Z10 1.000000
    RHS      CCZ26Z10 1.000000
    RHS      CCZ27Z10 1.000000
    RHS      CCZ28Z10 1.000000
    RHS      CCZ29Z10 1.000000
    RHS      CCZ30Z10 1.000000
    RHS      CCZ31Z10 1.000000
    RHS      CCZ32Z10 1.000000
    RHS      CCZ33Z10 1.000000
    RHS      CCZ34Z10 1.000000
    RHS      CCZ35Z10 1.000000
    RHS      CCZ36Z10 1.000000
    RHS      CCZ37Z10 1.000000
    RHS      CCZ38Z10 1.000000
    RHS      CCZ39Z10 1.000000
    RHS      CCZ40Z10 1.000000
    RHS      CCZ41Z10 1.000000
    RHS      CCZ42Z10 1.000000
    RHS      CCZ43Z10 1.000000
    RHS      CCZ44Z10 1.000000
    RHS      CCZ45Z10 1.000000
    RHS      CCZ46Z10 1.000000
    RHS      CCZ47Z10 1.000000
BOUNDS
ENDATA
