NAME          SCTAP1
ROWS
 N  OBJZZZZZ
 E  NCZZ1ZZ1
 E  NCZZ2ZZ1
 E  NCZZ3ZZ1
 E  NCZZ4ZZ1
 E  NCZZ5ZZ1
 E  NCZZ6ZZ1
 E  ACZZ1ZZ1
 E  ACZZ2ZZ1
 E  ACZZ3ZZ1
 E  ACZZ4ZZ1
 E  ACZZ5ZZ1
 E  ACZZ6ZZ1
 E  ACZZ7ZZ1
 E  ACZZ8ZZ1
 E  ACZZ9ZZ1
 E  ACZ10ZZ1
 E  ACZ11ZZ1
 E  ACZ12ZZ1
 E  CCZZ1ZZ1
 E  CCZZ2ZZ1
 E  CCZZ3ZZ1
 E  CCZZ4ZZ1
 E  CCZZ5ZZ1
 E  CCZZ6ZZ1
 E  CCZZ7ZZ1
 E  CCZZ8ZZ1
 E  CCZZ9ZZ1
 E  CCZ10ZZ1
 E  CCZ11ZZ1
 E  CCZ12ZZ1
 E  NCZZ1ZZ2
 E  NCZZ2ZZ2
 E  NCZZ3ZZ2
 E  NCZZ4ZZ2
 E  NCZZ5ZZ2
 E  NCZZ6ZZ2
 E  ACZZ1ZZ2
 E  ACZZ2ZZ2
 E  ACZZ3ZZ2
 E  ACZZ4ZZ2
 E  ACZZ5ZZ2
 E  ACZZ6ZZ2
 E  ACZZ7ZZ2
 E  ACZZ8ZZ2
 E  ACZZ9ZZ2
 E  ACZ10ZZ2
 E  ACZ11ZZ2
 E  ACZ12ZZ2
 E  CCZZ1ZZ2
 E  CCZZ2ZZ2
 E  CCZZ3ZZ2
 E  CCZZ4ZZ2
 E  CCZZ5ZZ2
 E  CCZZ6ZZ2
 E  CCZZ7ZZ2
 E  CCZZ8ZZ2
 E  CCZZ9ZZ2
 E  CCZ10ZZ2
 E  CCZ11ZZ2
 E  CCZ12ZZ2
 E  NCZZ1ZZ3
 E  NCZZ2ZZ3
 E  NCZZ3ZZ3
 E  NCZZ4ZZ3
 E  NCZZ5ZZ3
 E  NCZZ6ZZ3
 E  ACZZ1ZZ3
 E  ACZZ2ZZ3
 E  ACZZ3ZZ3
 E  ACZZ4ZZ3
 E  ACZZ5ZZ3
 E  ACZZ6ZZ3
 E  ACZZ7ZZ3
 E  ACZZ8ZZ3
 E  ACZZ9ZZ3
 E  ACZ10ZZ3
 E  ACZ11ZZ3
 E  ACZ12ZZ3
 E  CCZZ1ZZ3
 E  CCZZ2ZZ3
 E  CCZZ3ZZ3
 E  CCZZ4ZZ3
 E  CCZZ5ZZ3
 E  CCZZ6ZZ3
 E  CCZZ7ZZ3
 E  CCZZ8ZZ3
 E  CCZZ9ZZ3
 E  CCZ10ZZ3
 E  CCZ11ZZ3
 E  CCZ12ZZ3
 E  NCZZ1ZZ4
 E  NCZZ2ZZ4
 E  NCZZ3ZZ4
 E  NCZZ4ZZ4
 E  NCZZ5ZZ4
 E  NCZZ6ZZ4
 E  ACZZ1ZZ4
 E  ACZZ2ZZ4
 E  ACZZ3ZZ4
 E  ACZZ4ZZ4
 E  ACZZ5ZZ4
 E  ACZZ6ZZ4
 E  ACZZ7ZZ4
 E  ACZZ8ZZ4
 E  ACZZ9ZZ4
 E  ACZ10ZZ4
 E  ACZ11ZZ4
 E  ACZ12ZZ4
 E  CCZZ1ZZ4
 E  CCZZ2ZZ4
 E  CCZZ3ZZ4
 E  CCZZ4ZZ4
 E  CCZZ5ZZ4
 E  CCZZ6ZZ4
 E  CCZZ7ZZ4
 E  CCZZ8ZZ4
 E  CCZZ9ZZ4
 E  CCZ10ZZ4
 E  CCZ11ZZ4
 E  CCZ12ZZ4
 E  NCZZ1ZZ5
 E  NCZZ2ZZ5
 E  NCZZ3ZZ5
 E  NCZZ4ZZ5
 E  NCZZ5ZZ5
 E  NCZZ6ZZ5
 E  ACZZ1ZZ5
 E  ACZZ2ZZ5
 E  ACZZ3ZZ5
 E  ACZZ4ZZ5
 E  ACZZ5ZZ5
 E  ACZZ6ZZ5
 E  ACZZ7ZZ5
 E  ACZZ8ZZ5
 E  ACZZ9ZZ5
 E  ACZ10ZZ5
 E  ACZ11ZZ5
 E  ACZ12ZZ5
 E  CCZZ1ZZ5
 E  CCZZ2ZZ5
 E  CCZZ3ZZ5
 E  CCZZ4ZZ5
 E  CCZZ5ZZ5
 E  CCZZ6ZZ5
 E  CCZZ7ZZ5
 E  CCZZ8ZZ5
 E  CCZZ9ZZ5
 E  CCZ10ZZ5
 E  CCZ11ZZ5
 E  CCZ12ZZ5
 E  NCZZ1ZZ6
 E  NCZZ2ZZ6
 E  NCZZ3ZZ6
 E  NCZZ4ZZ6
 E  NCZZ5ZZ6
 E  NCZZ6ZZ6
 E  ACZZ1ZZ6
 E  ACZZ2ZZ6
 E  ACZZ3ZZ6
 E  ACZZ4ZZ6
 E  ACZZ5ZZ6
 E  ACZZ6ZZ6
 E  ACZZ7ZZ6
 E  ACZZ8ZZ6
 E  ACZZ9ZZ6
 E  ACZ10ZZ6
 E  ACZ11ZZ6
 E  ACZ12ZZ6
 E  CCZZ1ZZ6
 E  CCZZ2ZZ6
 E  CCZZ3ZZ6
 E  CCZZ4ZZ6
 E  CCZZ5ZZ6
 E  CCZZ6ZZ6
 E  CCZZ7ZZ6
 E  CCZZ8ZZ6
 E  CCZZ9ZZ6
 E  CCZ10ZZ6
 E  CCZ11ZZ6
 E  CCZ12ZZ6
 E  NCZZ1ZZ7
 E  NCZZ2ZZ7
 E  NCZZ3ZZ7
 E  NCZZ4ZZ7
 E  NCZZ5ZZ7
 E  NCZZ6ZZ7
 E  ACZZ1ZZ7
 E  ACZZ2ZZ7
 E  ACZZ3ZZ7
 E  ACZZ4ZZ7
 E  ACZZ5ZZ7
 E  ACZZ6ZZ7
 E  ACZZ7ZZ7
 E  ACZZ8ZZ7
 E  ACZZ9ZZ7
 E  ACZ10ZZ7
 E  ACZ11ZZ7
 E  ACZ12ZZ7
 E  CCZZ1ZZ7
 E  CCZZ2ZZ7
 E  CCZZ3ZZ7
 E  CCZZ4ZZ7
 E  CCZZ5ZZ7
 E  CCZZ6ZZ7
 E  CCZZ7ZZ7
 E  CCZZ8ZZ7
 E  CCZZ9ZZ7
 E  CCZ10ZZ7
 E  CCZ11ZZ7
 E  CCZ12ZZ7
 E  NCZZ1ZZ8
 E  NCZZ2ZZ8
 E  NCZZ3ZZ8
 E  NCZZ4ZZ8
 E  NCZZ5ZZ8
 E  NCZZ6ZZ8
 E  ACZZ1ZZ8
 E  ACZZ2ZZ8
 E  ACZZ3ZZ8
 E  ACZZ4ZZ8
 E  ACZZ5ZZ8
 E  ACZZ6ZZ8
 E  ACZZ7ZZ8
 E  ACZZ8ZZ8
 E  ACZZ9ZZ8
 E  ACZ10ZZ8
 E  ACZ11ZZ8
 E  ACZ12ZZ8
 E  CCZZ1ZZ8
 E  CCZZ2ZZ8
 E  CCZZ3ZZ8
 E  CCZZ4ZZ8
 E  CCZZ5ZZ8
 E  CCZZ6ZZ8
 E  CCZZ7ZZ8
 E  CCZZ8ZZ8
 E  CCZZ9ZZ8
 E  CCZ10ZZ8
 E  CCZ11ZZ8
 E  CCZ12ZZ8
 E  NCZZ1ZZ9
 E  NCZZ2ZZ9
 E  NCZZ3ZZ9
 E  NCZZ4ZZ9
 E  NCZZ5ZZ9
 E  NCZZ6ZZ9
 E  ACZZ1ZZ9
 E  ACZZ2ZZ9
 E  ACZZ3ZZ9
 E  ACZZ4ZZ9
 E  ACZZ5ZZ9
 E  ACZZ6ZZ9
 E  ACZZ7ZZ9
 E  ACZZ8ZZ9
 E  ACZZ9ZZ9
 E  ACZ10ZZ9
 E  ACZ11ZZ9
 E  ACZ12ZZ9
 E  CCZZ1ZZ9
 E  CCZZ2ZZ9
 E  CCZZ3ZZ9
 E  CCZZ4ZZ9
 E  CCZZ5ZZ9
 E  CCZZ6ZZ9
 E  CCZZ7ZZ9
 E  CCZZ8ZZ9
 E  CCZZ9ZZ9
 E  CCZ10ZZ9
 E  CCZ11ZZ9
 E  CCZ12ZZ9
 E  NCZZ1Z10
 E  NCZZ2Z10
 E  NCZZ3Z10
 E  NCZZ4Z10
 E  NCZZ5Z10
 E  NCZZ6Z10
 E  ACZZ1Z10
 E  ACZZ2Z10
 E  ACZZ3Z10
 E  ACZZ4Z10
 E  ACZZ5Z10
 E  ACZZ6Z10
 E  ACZZ7Z10
 E  ACZZ8Z10
 E  ACZZ9Z10
 E  ACZ10Z10
 E  ACZ11Z10
 E  ACZ12Z10
 E  CCZZ1Z10
 E  CCZZ2Z10
 E  CCZZ3Z10
 E  CCZZ4Z10
 E  CCZZ5Z10
 E  CCZZ6Z10
 E  CCZZ7Z10
 E  CCZZ8Z10
 E  CCZZ9Z10
 E  CCZ10Z10
 E  CCZ11Z10
 E  CCZ12Z10
COLUMNS
    Z1ZZ1ZZ1 CCZZ1ZZ1 1.000000
    Z2ZZ1ZZ1 OBJZZZZZ 10.000000   NCZZ1ZZ1 10.000000
    Z2ZZ1ZZ1 ACZZ1ZZ1 10.000000   CCZZ1ZZ1 1.000000
    Z2ZZ1ZZ1 NCZZ2ZZ2 -10.000000
    Z3ZZ1ZZ1 OBJZZZZZ 20.000000   NCZZ1ZZ1 20.000000
    Z3ZZ1ZZ1 ACZZ1ZZ1 20.000000   CCZZ1ZZ1 1.000000
    Z3ZZ1ZZ1 NCZZ1ZZ2 -5.000000   ACZZ1ZZ2 -5.000000
    Z3ZZ1ZZ1 NCZZ2ZZ2 -15.000000
    Z4ZZ1ZZ1 OBJZZZZZ 1.000000   NCZZ1ZZ1 1.000000
    Z4ZZ1ZZ1 ACZZ1ZZ1 1.000000   NCZZ1ZZ2 -1.000000
    Z4ZZ1ZZ1 ACZZ1ZZ2 -1.000000
    Z1ZZ2ZZ1 CCZZ2ZZ1 1.000000
    Z2ZZ2ZZ1 OBJZZZZZ 15.000000   NCZZ2ZZ1 15.000000
    Z2ZZ2ZZ1 ACZZ2ZZ1 15.000000   CCZZ2ZZ1 1.000000
    Z2ZZ2ZZ1 NCZZ3ZZ2 -15.000000
    Z3ZZ2ZZ1 OBJZZZZZ 25.000000   NCZZ2ZZ1 25.000000
    Z3ZZ2ZZ1 ACZZ2ZZ1 25.000000   CCZZ2ZZ1 1.000000
    Z3ZZ2ZZ1 NCZZ2ZZ2 -7.000000   ACZZ2ZZ2 -7.000000
    Z3ZZ2ZZ1 NCZZ3ZZ2 -18.000000
    Z4ZZ2ZZ1 OBJZZZZZ 1.000000   NCZZ2ZZ1 1.000000
    Z4ZZ2ZZ1 ACZZ2ZZ1 1.000000   NCZZ2ZZ2 -1.000000
    Z4ZZ2ZZ1 ACZZ2ZZ2 -1.000000
    Z1ZZ3ZZ1 CCZZ3ZZ1 1.000000
    Z2ZZ3ZZ1 OBJZZZZZ 10.000000   NCZZ2ZZ1 10.000000
    Z2ZZ3ZZ1 ACZZ3ZZ1 10.000000   CCZZ3ZZ1 1.000000
    Z2ZZ3ZZ1 NCZZ1ZZ2 -10.000000
    Z3ZZ3ZZ1 OBJZZZZZ 20.000000   NCZZ2ZZ1 20.000000
    Z3ZZ3ZZ1 ACZZ3ZZ1 20.000000   CCZZ3ZZ1 1.000000
    Z3ZZ3ZZ1 NCZZ2ZZ2 -5.000000   ACZZ3ZZ2 -5.000000
    Z3ZZ3ZZ1 NCZZ1ZZ2 -15.000000
    Z4ZZ3ZZ1 OBJZZZZZ 1.000000   NCZZ2ZZ1 1.000000
    Z4ZZ3ZZ1 ACZZ3ZZ1 1.000000   NCZZ2ZZ2 -1.000000
    Z4ZZ3ZZ1 ACZZ3ZZ2 -1.000000
    Z1ZZ4ZZ1 CCZZ4ZZ1 1.000000
    Z2ZZ4ZZ1 OBJZZZZZ 15.000000   NCZZ1ZZ1 15.000000
    Z2ZZ4ZZ1 ACZZ4ZZ1 15.000000   CCZZ4ZZ1 1.000000
    Z2ZZ4ZZ1 NCZZ4ZZ2 -15.000000
    Z3ZZ4ZZ1 OBJZZZZZ 25.000000   NCZZ1ZZ1 25.000000
    Z3ZZ4ZZ1 ACZZ4ZZ1 25.000000   CCZZ4ZZ1 1.000000
    Z3ZZ4ZZ1 NCZZ1ZZ2 -7.000000   ACZZ4ZZ2 -7.000000
    Z3ZZ4ZZ1 NCZZ4ZZ2 -18.000000
    Z4ZZ4ZZ1 OBJZZZZZ 1.000000   NCZZ1ZZ1 1.000000
    Z4ZZ4ZZ1 ACZZ4ZZ1 1.000000   NCZZ1ZZ2 -1.000000
    Z4ZZ4ZZ1 ACZZ4ZZ2 -1.000000
    Z1ZZ5ZZ1 CCZZ5ZZ1 1.000000
    Z2ZZ5ZZ1 OBJZZZZZ 15.000000   NCZZ2ZZ1 15.000000
    Z2ZZ5ZZ1 ACZZ5ZZ1 15.000000   CCZZ5ZZ1 1.000000
    Z2ZZ5ZZ1 NCZZ4ZZ2 -15.000000
    Z3ZZ5ZZ1 OBJZZZZZ 25.000000   NCZZ2ZZ1 25.000000
    Z3ZZ5ZZ1 ACZZ5ZZ1 25.000000   CCZZ5ZZ1 1.000000
    Z3ZZ5ZZ1 NCZZ2ZZ2 -7.000000   ACZZ5ZZ2 -7.000000
    Z3ZZ5ZZ1 NCZZ4ZZ2 -18.000000
    Z4ZZ5ZZ1 OBJZZZZZ 1.000000   NCZZ2ZZ1 1.000000
    Z4ZZ5ZZ1 ACZZ5ZZ1 1.000000   NCZZ2ZZ2 -1.000000
    Z4ZZ5ZZ1 ACZZ5ZZ2 -1.000000
    Z1ZZ6ZZ1 CCZZ6ZZ1 1.000000
    Z2ZZ6ZZ1 OBJZZZZZ 10.000000   NCZZ2ZZ1 10.000000
    Z2ZZ6ZZ1 ACZZ6ZZ1 10.000000   CCZZ6ZZ1 1.000000
    Z2ZZ6ZZ1 NCZZ5ZZ2 -10.000000
    Z3ZZ6ZZ1 OBJZZZZZ 20.000000   NCZZ2ZZ1 20.000000
    Z3ZZ6ZZ1 ACZZ6ZZ1 20.000000   CCZZ6ZZ1 1.000000
    Z3ZZ6ZZ1 NCZZ2ZZ2 -5.000000   ACZZ6ZZ2 -5.000000
    Z3ZZ6ZZ1 NCZZ5ZZ2 -15.000000
    Z4ZZ6ZZ1 OBJZZZZZ 1.000000   NCZZ2ZZ1 1.000000
    Z4ZZ6ZZ1 ACZZ6ZZ1 1.000000   NCZZ2ZZ2 -1.000000
    Z4ZZ6ZZ1 ACZZ6ZZ2 -1.000000
    Z1ZZ7ZZ1 CCZZ7ZZ1 1.000000
    Z2ZZ7ZZ1 OBJZZZZZ 10.000000   NCZZ3ZZ1 10.000000
    Z2ZZ7ZZ1 ACZZ7ZZ1 10.000000   CCZZ7ZZ1 1.000000
    Z2ZZ7ZZ1 NCZZ5ZZ2 -10.000000
    Z3ZZ7ZZ1 OBJZZZZZ 20.000000   NCZZ3ZZ1 20.000000
    Z3ZZ7ZZ1 ACZZ7ZZ1 20.000000   CCZZ7ZZ1 1.000000
    Z3ZZ7ZZ1 NCZZ3ZZ2 -5.000000   ACZZ7ZZ2 -5.000000
    Z3ZZ7ZZ1 NCZZ5ZZ2 -15.000000
    Z4ZZ7ZZ1 OBJZZZZZ 1.000000   NCZZ3ZZ1 1.000000
    Z4ZZ7ZZ1 ACZZ7ZZ1 1.000000   NCZZ3ZZ2 -1.000000
    Z4ZZ7ZZ1 ACZZ7ZZ2 -1.000000
    Z1ZZ8ZZ1 CCZZ8ZZ1 1.000000
    Z2ZZ8ZZ1 OBJZZZZZ 30.000000   NCZZ4ZZ1 30.000000
    Z2ZZ8ZZ1 ACZZ8ZZ1 30.000000   CCZZ8ZZ1 1.000000
    Z2ZZ8ZZ1 NCZZ5ZZ2 -30.000000
    Z3ZZ8ZZ1 OBJZZZZZ 40.000000   NCZZ4ZZ1 40.000000
    Z3ZZ8ZZ1 ACZZ8ZZ1 40.000000   CCZZ8ZZ1 1.000000
    Z3ZZ8ZZ1 NCZZ4ZZ2 -7.000000   ACZZ8ZZ2 -7.000000
    Z3ZZ8ZZ1 NCZZ5ZZ2 -33.000000
    Z4ZZ8ZZ1 OBJZZZZZ 1.000000   NCZZ4ZZ1 1.000000
    Z4ZZ8ZZ1 ACZZ8ZZ1 1.000000   NCZZ4ZZ2 -1.000000
    Z4ZZ8ZZ1 ACZZ8ZZ2 -1.000000
    Z1ZZ9ZZ1 CCZZ9ZZ1 1.000000
    Z2ZZ9ZZ1 OBJZZZZZ 30.000000   NCZZ5ZZ1 30.000000
    Z2ZZ9ZZ1 ACZZ9ZZ1 30.000000   CCZZ9ZZ1 1.000000
    Z2ZZ9ZZ1 NCZZ4ZZ2 -30.000000
    Z3ZZ9ZZ1 OBJZZZZZ 40.000000   NCZZ5ZZ1 40.000000
    Z3ZZ9ZZ1 ACZZ9ZZ1 40.000000   CCZZ9ZZ1 1.000000
    Z3ZZ9ZZ1 NCZZ5ZZ2 -7.000000   ACZZ9ZZ2 -7.000000
    Z3ZZ9ZZ1 NCZZ4ZZ2 -33.000000
    Z4ZZ9ZZ1 OBJZZZZZ 1.000000   NCZZ5ZZ1 1.000000
    Z4ZZ9ZZ1 ACZZ9ZZ1 1.000000   NCZZ5ZZ2 -1.000000
    Z4ZZ9ZZ1 ACZZ9ZZ2 -1.000000
    Z1Z10ZZ1 CCZ10ZZ1 1.000000
    Z2Z10ZZ1 OBJZZZZZ 10.000000   NCZZ4ZZ1 10.000000
    Z2Z10ZZ1 ACZ10ZZ1 10.000000   CCZ10ZZ1 1.000000
    Z2Z10ZZ1 NCZZ6ZZ2 -10.000000
    Z3Z10ZZ1 OBJZZZZZ 20.000000   NCZZ4ZZ1 20.000000
    Z3Z10ZZ1 ACZ10ZZ1 20.000000   CCZ10ZZ1 1.000000
    Z3Z10ZZ1 NCZZ4ZZ2 -5.000000   ACZ10ZZ2 -5.000000
    Z3Z10ZZ1 NCZZ6ZZ2 -15.000000
    Z4Z10ZZ1 OBJZZZZZ 1.000000   NCZZ4ZZ1 1.000000
    Z4Z10ZZ1 ACZ10ZZ1 1.000000   NCZZ4ZZ2 -1.000000
    Z4Z10ZZ1 ACZ10ZZ2 -1.000000
    Z1Z11ZZ1 CCZ11ZZ1 1.000000
    Z2Z11ZZ1 OBJZZZZZ 15.000000   NCZZ6ZZ1 15.000000
    Z2Z11ZZ1 ACZ11ZZ1 15.000000   CCZ11ZZ1 1.000000
    Z3Z11ZZ1 OBJZZZZZ 25.000000   NCZZ6ZZ1 25.000000
    Z3Z11ZZ1 ACZ11ZZ1 25.000000   CCZ11ZZ1 1.000000
    Z3Z11ZZ1 NCZZ6ZZ2 -7.000000   ACZ11ZZ2 -7.000000
    Z4Z11ZZ1 OBJZZZZZ 1.000000   NCZZ6ZZ1 1.000000
    Z4Z11ZZ1 ACZ11ZZ1 1.000000   NCZZ6ZZ2 -1.000000
    Z4Z11ZZ1 ACZ11ZZ2 -1.000000
    Z1Z12ZZ1 CCZ12ZZ1 1.000000
    Z2Z12ZZ1 OBJZZZZZ 50.000000   NCZZ5ZZ1 50.000000
    Z2Z12ZZ1 ACZ12ZZ1 50.000000   CCZ12ZZ1 1.000000
    Z3Z12ZZ1 OBJZZZZZ 80.000000   NCZZ5ZZ1 80.000000
    Z3Z12ZZ1 ACZ12ZZ1 80.000000   CCZ12ZZ1 1.000000
    Z3Z12ZZ1 NCZZ5ZZ2 -15.000000   ACZ12ZZ2 -15.000000
    Z4Z12ZZ1 OBJZZZZZ 1.000000   NCZZ5ZZ1 1.000000
    Z4Z12ZZ1 ACZ12ZZ1 1.000000   NCZZ5ZZ2 -1.000000
    Z4Z12ZZ1 ACZ12ZZ2 -1.000000
    Z1ZZ1ZZ2 CCZZ1ZZ2 1.000000
    Z2ZZ1ZZ2 OBJZZZZZ 10.000000   NCZZ1ZZ2 10.000000
    Z2ZZ1ZZ2 ACZZ1ZZ2 10.000000   CCZZ1ZZ2 1.000000
    Z2ZZ1ZZ2 NCZZ2ZZ3 -10.000000
    Z3ZZ1ZZ2 OBJZZZZZ 20.000000   NCZZ1ZZ2 20.000000
    Z3ZZ1ZZ2 ACZZ1ZZ2 20.000000   CCZZ1ZZ2 1.000000
    Z3ZZ1ZZ2 NCZZ1ZZ3 -5.000000   ACZZ1ZZ3 -5.000000
    Z3ZZ1ZZ2 NCZZ2ZZ3 -15.000000
    Z4ZZ1ZZ2 OBJZZZZZ 1.000000   NCZZ1ZZ2 1.000000
    Z4ZZ1ZZ2 ACZZ1ZZ2 1.000000   NCZZ1ZZ3 -1.000000
    Z4ZZ1ZZ2 ACZZ1ZZ3 -1.000000
    Z1ZZ2ZZ2 CCZZ2ZZ2 1.000000
    Z2ZZ2ZZ2 OBJZZZZZ 15.000000   NCZZ2ZZ2 15.000000
    Z2ZZ2ZZ2 ACZZ2ZZ2 15.000000   CCZZ2ZZ2 1.000000
    Z2ZZ2ZZ2 NCZZ3ZZ3 -15.000000
    Z3ZZ2ZZ2 OBJZZZZZ 25.000000   NCZZ2ZZ2 25.000000
    Z3ZZ2ZZ2 ACZZ2ZZ2 25.000000   CCZZ2ZZ2 1.000000
    Z3ZZ2ZZ2 NCZZ2ZZ3 -7.000000   ACZZ2ZZ3 -7.000000
    Z3ZZ2ZZ2 NCZZ3ZZ3 -18.000000
    Z4ZZ2ZZ2 OBJZZZZZ 1.000000   NCZZ2ZZ2 1.000000
    Z4ZZ2ZZ2 ACZZ2ZZ2 1.000000   NCZZ2ZZ3 -1.000000
    Z4ZZ2ZZ2 ACZZ2ZZ3 -1.000000
    Z1ZZ3ZZ2 CCZZ3ZZ2 1.000000
    Z2ZZ3ZZ2 OBJZZZZZ 10.000000   NCZZ2ZZ2 10.000000
    Z2ZZ3ZZ2 ACZZ3ZZ2 10.000000   CCZZ3ZZ2 1.000000
    Z2ZZ3ZZ2 NCZZ1ZZ3 -10.000000
    Z3ZZ3ZZ2 OBJZZZZZ 20.000000   NCZZ2ZZ2 20.000000
    Z3ZZ3ZZ2 ACZZ3ZZ2 20.000000   CCZZ3ZZ2 1.000000
    Z3ZZ3ZZ2 NCZZ2ZZ3 -5.000000   ACZZ3ZZ3 -5.000000
    Z3ZZ3ZZ2 NCZZ1ZZ3 -15.000000
    Z4ZZ3ZZ2 OBJZZZZZ 1.000000   NCZZ2ZZ2 1.000000
    Z4ZZ3ZZ2 ACZZ3ZZ2 1.000000   NCZZ2ZZ3 -1.000000
    Z4ZZ3ZZ2 ACZZ3ZZ3 -1.000000
    Z1ZZ4ZZ2 CCZZ4ZZ2 1.000000
    Z2ZZ4ZZ2 OBJZZZZZ 15.000000   NCZZ1ZZ2 15.000000
    Z2ZZ4ZZ2 ACZZ4ZZ2 15.000000   CCZZ4ZZ2 1.000000
    Z2ZZ4ZZ2 NCZZ4ZZ3 -15.000000
    Z3ZZ4ZZ2 OBJZZZZZ 25.000000   NCZZ1ZZ2 25.000000
    Z3ZZ4ZZ2 ACZZ4ZZ2 25.000000   CCZZ4ZZ2 1.000000
    Z3ZZ4ZZ2 NCZZ1ZZ3 -7.000000   ACZZ4ZZ3 -7.000000
    Z3ZZ4ZZ2 NCZZ4ZZ3 -18.000000
    Z4ZZ4ZZ2 OBJZZZZZ 1.000000   NCZZ1ZZ2 1.000000
    Z4ZZ4ZZ2 ACZZ4ZZ2 1.000000   NCZZ1ZZ3 -1.000000
    Z4ZZ4ZZ2 ACZZ4ZZ3 -1.000000
    Z1ZZ5ZZ2 CCZZ5ZZ2 1.000000
    Z2ZZ5ZZ2 OBJZZZZZ 15.000000   NCZZ2ZZ2 15.000000
    Z2ZZ5ZZ2 ACZZ5ZZ2 15.000000   CCZZ5ZZ2 1.000000
    Z2ZZ5ZZ2 NCZZ4ZZ3 -15.000000
    Z3ZZ5ZZ2 OBJZZZZZ 25.000000   NCZZ2ZZ2 25.000000
    Z3ZZ5ZZ2 ACZZ5ZZ2 25.000000   CCZZ5ZZ2 1.000000
    Z3ZZ5ZZ2 NCZZ2ZZ3 -7.000000   ACZZ5ZZ3 -7.000000
    Z3ZZ5ZZ2 NCZZ4ZZ3 -18.000000
    Z4ZZ5ZZ2 OBJZZZZZ 1.000000   NCZZ2ZZ2 1.000000
    Z4ZZ5ZZ2 ACZZ5ZZ2 1.000000   NCZZ2ZZ3 -1.000000
    Z4ZZ5ZZ2 ACZZ5ZZ3 -1.000000
    Z1ZZ6ZZ2 CCZZ6ZZ2 1.000000
    Z2ZZ6ZZ2 OBJZZZZZ 10.000000   NCZZ2ZZ2 10.000000
    Z2ZZ6ZZ2 ACZZ6ZZ2 10.000000   CCZZ6ZZ2 1.000000
    Z2ZZ6ZZ2 NCZZ5ZZ3 -10.000000
    Z3ZZ6ZZ2 OBJZZZZZ 20.000000   NCZZ2ZZ2 20.000000
    Z3ZZ6ZZ2 ACZZ6ZZ2 20.000000   CCZZ6ZZ2 1.000000
    Z3ZZ6ZZ2 NCZZ2ZZ3 -5.000000   ACZZ6ZZ3 -5.000000
    Z3ZZ6ZZ2 NCZZ5ZZ3 -15.000000
    Z4ZZ6ZZ2 OBJZZZZZ 1.000000   NCZZ2ZZ2 1.000000
    Z4ZZ6ZZ2 ACZZ6ZZ2 1.000000   NCZZ2ZZ3 -1.000000
    Z4ZZ6ZZ2 ACZZ6ZZ3 -1.000000
    Z1ZZ7ZZ2 CCZZ7ZZ2 1.000000
    Z2ZZ7ZZ2 OBJZZZZZ 10.000000   NCZZ3ZZ2 10.000000
    Z2ZZ7ZZ2 ACZZ7ZZ2 10.000000   CCZZ7ZZ2 1.000000
    Z2ZZ7ZZ2 NCZZ5ZZ3 -10.000000
    Z3ZZ7ZZ2 OBJZZZZZ 20.000000   NCZZ3ZZ2 20.000000
    Z3ZZ7ZZ2 ACZZ7ZZ2 20.000000   CCZZ7ZZ2 1.000000
    Z3ZZ7ZZ2 NCZZ3ZZ3 -5.000000   ACZZ7ZZ3 -5.000000
    Z3ZZ7ZZ2 NCZZ5ZZ3 -15.000000
    Z4ZZ7ZZ2 OBJZZZZZ 1.000000   NCZZ3ZZ2 1.000000
    Z4ZZ7ZZ2 ACZZ7ZZ2 1.000000   NCZZ3ZZ3 -1.000000
    Z4ZZ7ZZ2 ACZZ7ZZ3 -1.000000
    Z1ZZ8ZZ2 CCZZ8ZZ2 1.000000
    Z2ZZ8ZZ2 OBJZZZZZ 30.000000   NCZZ4ZZ2 30.000000
    Z2ZZ8ZZ2 ACZZ8ZZ2 30.000000   CCZZ8ZZ2 1.000000
    Z2ZZ8ZZ2 NCZZ5ZZ3 -30.000000
    Z3ZZ8ZZ2 OBJZZZZZ 40.000000   NCZZ4ZZ2 40.000000
    Z3ZZ8ZZ2 ACZZ8ZZ2 40.000000   CCZZ8ZZ2 1.000000
    Z3ZZ8ZZ2 NCZZ4ZZ3 -7.000000   ACZZ8ZZ3 -7.000000
    Z3ZZ8ZZ2 NCZZ5ZZ3 -33.000000
    Z4ZZ8ZZ2 OBJZZZZZ 1.000000   NCZZ4ZZ2 1.000000
    Z4ZZ8ZZ2 ACZZ8ZZ2 1.000000   NCZZ4ZZ3 -1.000000
    Z4ZZ8ZZ2 ACZZ8ZZ3 -1.000000
    Z1ZZ9ZZ2 CCZZ9ZZ2 1.000000
    Z2ZZ9ZZ2 OBJZZZZZ 30.000000   NCZZ5ZZ2 30.000000
    Z2ZZ9ZZ2 ACZZ9ZZ2 30.000000   CCZZ9ZZ2 1.000000
    Z2ZZ9ZZ2 NCZZ4ZZ3 -30.000000
    Z3ZZ9ZZ2 OBJZZZZZ 40.000000   NCZZ5ZZ2 40.000000
    Z3ZZ9ZZ2 ACZZ9ZZ2 40.000000   CCZZ9ZZ2 1.000000
    Z3ZZ9ZZ2 NCZZ5ZZ3 -7.000000   ACZZ9ZZ3 -7.000000
    Z3ZZ9ZZ2 NCZZ4ZZ3 -33.000000
    Z4ZZ9ZZ2 OBJZZZZZ 1.000000   NCZZ5ZZ2 1.000000
    Z4ZZ9ZZ2 ACZZ9ZZ2 1.000000   NCZZ5ZZ3 -1.000000
    Z4ZZ9ZZ2 ACZZ9ZZ3 -1.000000
    Z1Z10ZZ2 CCZ10ZZ2 1.000000
    Z2Z10ZZ2 OBJZZZZZ 10.000000   NCZZ4ZZ2 10.000000
    Z2Z10ZZ2 ACZ10ZZ2 10.000000   CCZ10ZZ2 1.000000
    Z2Z10ZZ2 NCZZ6ZZ3 -10.000000
    Z3Z10ZZ2 OBJZZZZZ 20.000000   NCZZ4ZZ2 20.000000
    Z3Z10ZZ2 ACZ10ZZ2 20.000000   CCZ10ZZ2 1.000000
    Z3Z10ZZ2 NCZZ4ZZ3 -5.000000   ACZ10ZZ3 -5.000000
    Z3Z10ZZ2 NCZZ6ZZ3 -15.000000
    Z4Z10ZZ2 OBJZZZZZ 1.000000   NCZZ4ZZ2 1.000000
    Z4Z10ZZ2 ACZ10ZZ2 1.000000   NCZZ4ZZ3 -1.000000
    Z4Z10ZZ2 ACZ10ZZ3 -1.000000
    Z1Z11ZZ2 CCZ11ZZ2 1.000000
    Z2Z11ZZ2 OBJZZZZZ 15.000000   NCZZ6ZZ2 15.000000
    Z2Z11ZZ2 ACZ11ZZ2 15.000000   CCZ11ZZ2 1.000000
    Z3Z11ZZ2 OBJZZZZZ 25.000000   NCZZ6ZZ2 25.000000
    Z3Z11ZZ2 ACZ11ZZ2 25.000000   CCZ11ZZ2 1.000000
    Z3Z11ZZ2 NCZZ6ZZ3 -7.000000   ACZ11ZZ3 -7.000000
    Z4Z11ZZ2 OBJZZZZZ 1.000000   NCZZ6ZZ2 1.000000
    Z4Z11ZZ2 ACZ11ZZ2 1.000000   NCZZ6ZZ3 -1.000000
    Z4Z11ZZ2 ACZ11ZZ3 -1.000000
    Z1Z12ZZ2 CCZ12ZZ2 1.000000
    Z2Z12ZZ2 OBJZZZZZ 50.000000   NCZZ5ZZ2 50.000000
    Z2Z12ZZ2 ACZ12ZZ2 50.000000   CCZ12ZZ2 1.000000
    Z3Z12ZZ2 OBJZZZZZ 80.000000   NCZZ5ZZ2 80.000000
    Z3Z12ZZ2 ACZ12ZZ2 80.000000   CCZ12ZZ2 1.000000
    Z3Z12ZZ2 NCZZ5ZZ3 -15.000000   ACZ12ZZ3 -15.000000
    Z4Z12ZZ2 OBJZZZZZ 1.000000   NCZZ5ZZ2 1.000000
    Z4Z12ZZ2 ACZ12ZZ2 1.000000   NCZZ5ZZ3 -1.000000
    Z4Z12ZZ2 ACZ12ZZ3 -1.000000
    Z1ZZ1ZZ3 CCZZ1ZZ3 1.000000
    Z2ZZ1ZZ3 OBJZZZZZ 10.000000   NCZZ1ZZ3 10.000000
    Z2ZZ1ZZ3 ACZZ1ZZ3 10.000000   CCZZ1ZZ3 1.000000
    Z2ZZ1ZZ3 NCZZ2ZZ4 -10.000000
    Z3ZZ1ZZ3 OBJZZZZZ 20.000000   NCZZ1ZZ3 20.000000
    Z3ZZ1ZZ3 ACZZ1ZZ3 20.000000   CCZZ1ZZ3 1.000000
    Z3ZZ1ZZ3 NCZZ1ZZ4 -5.000000   ACZZ1ZZ4 -5.000000
    Z3ZZ1ZZ3 NCZZ2ZZ4 -15.000000
    Z4ZZ1ZZ3 OBJZZZZZ 1.000000   NCZZ1ZZ3 1.000000
    Z4ZZ1ZZ3 ACZZ1ZZ3 1.000000   NCZZ1ZZ4 -1.000000
    Z4ZZ1ZZ3 ACZZ1ZZ4 -1.000000
    Z1ZZ2ZZ3 CCZZ2ZZ3 1.000000
    Z2ZZ2ZZ3 OBJZZZZZ 15.000000   NCZZ2ZZ3 15.000000
    Z2ZZ2ZZ3 ACZZ2ZZ3 15.000000   CCZZ2ZZ3 1.000000
    Z2ZZ2ZZ3 NCZZ3ZZ4 -15.000000
    Z3ZZ2ZZ3 OBJZZZZZ 25.000000   NCZZ2ZZ3 25.000000
    Z3ZZ2ZZ3 ACZZ2ZZ3 25.000000   CCZZ2ZZ3 1.000000
    Z3ZZ2ZZ3 NCZZ2ZZ4 -7.000000   ACZZ2ZZ4 -7.000000
    Z3ZZ2ZZ3 NCZZ3ZZ4 -18.000000
    Z4ZZ2ZZ3 OBJZZZZZ 1.000000   NCZZ2ZZ3 1.000000
    Z4ZZ2ZZ3 ACZZ2ZZ3 1.000000   NCZZ2ZZ4 -1.000000
    Z4ZZ2ZZ3 ACZZ2ZZ4 -1.000000
    Z1ZZ3ZZ3 CCZZ3ZZ3 1.000000
    Z2ZZ3ZZ3 OBJZZZZZ 10.000000   NCZZ2ZZ3 10.000000
    Z2ZZ3ZZ3 ACZZ3ZZ3 10.000000   CCZZ3ZZ3 1.000000
    Z2ZZ3ZZ3 NCZZ1ZZ4 -10.000000
    Z3ZZ3ZZ3 OBJZZZZZ 20.000000   NCZZ2ZZ3 20.000000
    Z3ZZ3ZZ3 ACZZ3ZZ3 20.000000   CCZZ3ZZ3 1.000000
    Z3ZZ3ZZ3 NCZZ2ZZ4 -5.000000   ACZZ3ZZ4 -5.000000
    Z3ZZ3ZZ3 NCZZ1ZZ4 -15.000000
    Z4ZZ3ZZ3 OBJZZZZZ 1.000000   NCZZ2ZZ3 1.000000
    Z4ZZ3ZZ3 ACZZ3ZZ3 1.000000   NCZZ2ZZ4 -1.000000
    Z4ZZ3ZZ3 ACZZ3ZZ4 -1.000000
    Z1ZZ4ZZ3 CCZZ4ZZ3 1.000000
    Z2ZZ4ZZ3 OBJZZZZZ 15.000000   NCZZ1ZZ3 15.000000
    Z2ZZ4ZZ3 ACZZ4ZZ3 15.000000   CCZZ4ZZ3 1.000000
    Z2ZZ4ZZ3 NCZZ4ZZ4 -15.000000
    Z3ZZ4ZZ3 OBJZZZZZ 25.000000   NCZZ1ZZ3 25.000000
    Z3ZZ4ZZ3 ACZZ4ZZ3 25.000000   CCZZ4ZZ3 1.000000
    Z3ZZ4ZZ3 NCZZ1ZZ4 -7.000000   ACZZ4ZZ4 -7.000000
    Z3ZZ4ZZ3 NCZZ4ZZ4 -18.000000
    Z4ZZ4ZZ3 OBJZZZZZ 1.000000   NCZZ1ZZ3 1.000000
    Z4ZZ4ZZ3 ACZZ4ZZ3 1.000000   NCZZ1ZZ4 -1.000000
    Z4ZZ4ZZ3 ACZZ4ZZ4 -1.000000
    Z1ZZ5ZZ3 CCZZ5ZZ3 1.000000
    Z2ZZ5ZZ3 OBJZZZZZ 15.000000   NCZZ2ZZ3 15.000000
    Z2ZZ5ZZ3 ACZZ5ZZ3 15.000000   CCZZ5ZZ3 1.000000
    Z2ZZ5ZZ3 NCZZ4ZZ4 -15.000000
    Z3ZZ5ZZ3 OBJZZZZZ 25.000000   NCZZ2ZZ3 25.000000
    Z3ZZ5ZZ3 ACZZ5ZZ3 25.000000   CCZZ5ZZ3 1.000000
    Z3ZZ5ZZ3 NCZZ2ZZ4 -7.000000   ACZZ5ZZ4 -7.000000
    Z3ZZ5ZZ3 NCZZ4ZZ4 -18.000000
    Z4ZZ5ZZ3 OBJZZZZZ 1.000000   NCZZ2ZZ3 1.000000
    Z4ZZ5ZZ3 ACZZ5ZZ3 1.000000   NCZZ2ZZ4 -1.000000
    Z4ZZ5ZZ3 ACZZ5ZZ4 -1.000000
    Z1ZZ6ZZ3 CCZZ6ZZ3 1.000000
    Z2ZZ6ZZ3 OBJZZZZZ 10.000000   NCZZ2ZZ3 10.000000
    Z2ZZ6ZZ3 ACZZ6ZZ3 10.000000   CCZZ6ZZ3 1.000000
    Z2ZZ6ZZ3 NCZZ5ZZ4 -10.000000
    Z3ZZ6ZZ3 OBJZZZZZ 20.000000   NCZZ2ZZ3 20.000000
    Z3ZZ6ZZ3 ACZZ6ZZ3 20.000000   CCZZ6ZZ3 1.000000
    Z3ZZ6ZZ3 NCZZ2ZZ4 -5.000000   ACZZ6ZZ4 -5.000000
    Z3ZZ6ZZ3 NCZZ5ZZ4 -15.000000
    Z4ZZ6ZZ3 OBJZZZZZ 1.000000   NCZZ2ZZ3 1.000000
    Z4ZZ6ZZ3 ACZZ6ZZ3 1.000000   NCZZ2ZZ4 -1.000000
    Z4ZZ6ZZ3 ACZZ6ZZ4 -1.000000
    Z1ZZ7ZZ3 CCZZ7ZZ3 1.000000
    Z2ZZ7ZZ3 OBJZZZZZ 10.000000   NCZZ3ZZ3 10.000000
    Z2ZZ7ZZ3 ACZZ7ZZ3 10.000000   CCZZ7ZZ3 1.000000
    Z2ZZ7ZZ3 NCZZ5ZZ4 -10.000000
    Z3ZZ7ZZ3 OBJZZZZZ 20.000000   NCZZ3ZZ3 20.000000
    Z3ZZ7ZZ3 ACZZ7ZZ3 20.000000   CCZZ7ZZ3 1.000000
    Z3ZZ7ZZ3 NCZZ3ZZ4 -5.000000   ACZZ7ZZ4 -5.000000
    Z3ZZ7ZZ3 NCZZ5ZZ4 -15.000000
    Z4ZZ7ZZ3 OBJZZZZZ 1.000000   NCZZ3ZZ3 1.000000
    Z4ZZ7ZZ3 ACZZ7ZZ3 1.000000   NCZZ3ZZ4 -1.000000
    Z4ZZ7ZZ3 ACZZ7ZZ4 -1.000000
    Z1ZZ8ZZ3 CCZZ8ZZ3 1.000000
    Z2ZZ8ZZ3 OBJZZZZZ 30.000000   NCZZ4ZZ3 30.000000
    Z2ZZ8ZZ3 ACZZ8ZZ3 30.000000   CCZZ8ZZ3 1.000000
    Z2ZZ8ZZ3 NCZZ5ZZ4 -30.000000
    Z3ZZ8ZZ3 OBJZZZZZ 40.000000   NCZZ4ZZ3 40.000000
    Z3ZZ8ZZ3 ACZZ8ZZ3 40.000000   CCZZ8ZZ3 1.000000
    Z3ZZ8ZZ3 NCZZ4ZZ4 -7.000000   ACZZ8ZZ4 -7.000000
    Z3ZZ8ZZ3 NCZZ5ZZ4 -33.000000
    Z4ZZ8ZZ3 OBJZZZZZ 1.000000   NCZZ4ZZ3 1.000000
    Z4ZZ8ZZ3 ACZZ8ZZ3 1.000000   NCZZ4ZZ4 -1.000000
    Z4ZZ8ZZ3 ACZZ8ZZ4 -1.000000
    Z1ZZ9ZZ3 CCZZ9ZZ3 1.000000
    Z2ZZ9ZZ3 OBJZZZZZ 30.000000   NCZZ5ZZ3 30.000000
    Z2ZZ9ZZ3 ACZZ9ZZ3 30.000000   CCZZ9ZZ3 1.000000
    Z2ZZ9ZZ3 NCZZ4ZZ4 -30.000000
    Z3ZZ9ZZ3 OBJZZZZZ 40.000000   NCZZ5ZZ3 40.000000
    Z3ZZ9ZZ3 ACZZ9ZZ3 40.000000   CCZZ9ZZ3 1.000000
    Z3ZZ9ZZ3 NCZZ5ZZ4 -7.000000   ACZZ9ZZ4 -7.000000
    Z3ZZ9ZZ3 NCZZ4ZZ4 -33.000000
    Z4ZZ9ZZ3 OBJZZZZZ 1.000000   NCZZ5ZZ3 1.000000
    Z4ZZ9ZZ3 ACZZ9ZZ3 1.000000   NCZZ5ZZ4 -1.000000
    Z4ZZ9ZZ3 ACZZ9ZZ4 -1.000000
    Z1Z10ZZ3 CCZ10ZZ3 1.000000
    Z2Z10ZZ3 OBJZZZZZ 10.000000   NCZZ4ZZ3 10.000000
    Z2Z10ZZ3 ACZ10ZZ3 10.000000   CCZ10ZZ3 1.000000
    Z2Z10ZZ3 NCZZ6ZZ4 -10.000000
    Z3Z10ZZ3 OBJZZZZZ 20.000000   NCZZ4ZZ3 20.000000
    Z3Z10ZZ3 ACZ10ZZ3 20.000000   CCZ10ZZ3 1.000000
    Z3Z10ZZ3 NCZZ4ZZ4 -5.000000   ACZ10ZZ4 -5.000000
    Z3Z10ZZ3 NCZZ6ZZ4 -15.000000
    Z4Z10ZZ3 OBJZZZZZ 1.000000   NCZZ4ZZ3 1.000000
    Z4Z10ZZ3 ACZ10ZZ3 1.000000   NCZZ4ZZ4 -1.000000
    Z4Z10ZZ3 ACZ10ZZ4 -1.000000
    Z1Z11ZZ3 CCZ11ZZ3 1.000000
    Z2Z11ZZ3 OBJZZZZZ 15.000000   NCZZ6ZZ3 15.000000
    Z2Z11ZZ3 ACZ11ZZ3 15.000000   CCZ11ZZ3 1.000000
    Z3Z11ZZ3 OBJZZZZZ 25.000000   NCZZ6ZZ3 25.000000
    Z3Z11ZZ3 ACZ11ZZ3 25.000000   CCZ11ZZ3 1.000000
    Z3Z11ZZ3 NCZZ6ZZ4 -7.000000   ACZ11ZZ4 -7.000000
    Z4Z11ZZ3 OBJZZZZZ 1.000000   NCZZ6ZZ3 1.000000
    Z4Z11ZZ3 ACZ11ZZ3 1.000000   NCZZ6ZZ4 -1.000000
    Z4Z11ZZ3 ACZ11ZZ4 -1.000000
    Z1Z12ZZ3 CCZ12ZZ3 1.000000
    Z2Z12ZZ3 OBJZZZZZ 50.000000   NCZZ5ZZ3 50.000000
    Z2Z12ZZ3 ACZ12ZZ3 50.000000   CCZ12ZZ3 1.000000
    Z3Z12ZZ3 OBJZZZZZ 80.000000   NCZZ5ZZ3 80.000000
    Z3Z12ZZ3 ACZ12ZZ3 80.000000   CCZ12ZZ3 1.000000
    Z3Z12ZZ3 NCZZ5ZZ4 -15.000000   ACZ12ZZ4 -15.000000
    Z4Z12ZZ3 OBJZZZZZ 1.000000   NCZZ5ZZ3 1.000000
    Z4Z12ZZ3 ACZ12ZZ3 1.000000   NCZZ5ZZ4 -1.000000
    Z4Z12ZZ3 ACZ12ZZ4 -1.000000
    Z1ZZ1ZZ4 CCZZ1ZZ4 1.000000
    Z2ZZ1ZZ4 OBJZZZZZ 10.000000   NCZZ1ZZ4 10.000000
    Z2ZZ1ZZ4 ACZZ1ZZ4 10.000000   CCZZ1ZZ4 1.000000
    Z2ZZ1ZZ4 NCZZ2ZZ5 -10.000000
    Z3ZZ1ZZ4 OBJZZZZZ 20.000000   NCZZ1ZZ4 20.000000
    Z3ZZ1ZZ4 ACZZ1ZZ4 20.000000   CCZZ1ZZ4 1.000000
    Z3ZZ1ZZ4 NCZZ1ZZ5 -5.000000   ACZZ1ZZ5 -5.000000
    Z3ZZ1ZZ4 NCZZ2ZZ5 -15.000000
    Z4ZZ1ZZ4 OBJZZZZZ 1.000000   NCZZ1ZZ4 1.000000
    Z4ZZ1ZZ4 ACZZ1ZZ4 1.000000   NCZZ1ZZ5 -1.000000
    Z4ZZ1ZZ4 ACZZ1ZZ5 -1.000000
    Z1ZZ2ZZ4 CCZZ2ZZ4 1.000000
    Z2ZZ2ZZ4 OBJZZZZZ 15.000000   NCZZ2ZZ4 15.000000
    Z2ZZ2ZZ4 ACZZ2ZZ4 15.000000   CCZZ2ZZ4 1.000000
    Z2ZZ2ZZ4 NCZZ3ZZ5 -15.000000
    Z3ZZ2ZZ4 OBJZZZZZ 25.000000   NCZZ2ZZ4 25.000000
    Z3ZZ2ZZ4 ACZZ2ZZ4 25.000000   CCZZ2ZZ4 1.000000
    Z3ZZ2ZZ4 NCZZ2ZZ5 -7.000000   ACZZ2ZZ5 -7.000000
    Z3ZZ2ZZ4 NCZZ3ZZ5 -18.000000
    Z4ZZ2ZZ4 OBJZZZZZ 1.000000   NCZZ2ZZ4 1.000000
    Z4ZZ2ZZ4 ACZZ2ZZ4 1.000000   NCZZ2ZZ5 -1.000000
    Z4ZZ2ZZ4 ACZZ2ZZ5 -1.000000
    Z1ZZ3ZZ4 CCZZ3ZZ4 1.000000
    Z2ZZ3ZZ4 OBJZZZZZ 10.000000   NCZZ2ZZ4 10.000000
    Z2ZZ3ZZ4 ACZZ3ZZ4 10.000000   CCZZ3ZZ4 1.000000
    Z2ZZ3ZZ4 NCZZ1ZZ5 -10.000000
    Z3ZZ3ZZ4 OBJZZZZZ 20.000000   NCZZ2ZZ4 20.000000
    Z3ZZ3ZZ4 ACZZ3ZZ4 20.000000   CCZZ3ZZ4 1.000000
    Z3ZZ3ZZ4 NCZZ2ZZ5 -5.000000   ACZZ3ZZ5 -5.000000
    Z3ZZ3ZZ4 NCZZ1ZZ5 -15.000000
    Z4ZZ3ZZ4 OBJZZZZZ 1.000000   NCZZ2ZZ4 1.000000
    Z4ZZ3ZZ4 ACZZ3ZZ4 1.000000   NCZZ2ZZ5 -1.000000
    Z4ZZ3ZZ4 ACZZ3ZZ5 -1.000000
    Z1ZZ4ZZ4 CCZZ4ZZ4 1.000000
    Z2ZZ4ZZ4 OBJZZZZZ 15.000000   NCZZ1ZZ4 15.000000
    Z2ZZ4ZZ4 ACZZ4ZZ4 15.000000   CCZZ4ZZ4 1.000000
    Z2ZZ4ZZ4 NCZZ4ZZ5 -15.000000
    Z3ZZ4ZZ4 OBJZZZZZ 25.000000   NCZZ1ZZ4 25.000000
    Z3ZZ4ZZ4 ACZZ4ZZ4 25.000000   CCZZ4ZZ4 1.000000
    Z3ZZ4ZZ4 NCZZ1ZZ5 -7.000000   ACZZ4ZZ5 -7.000000
    Z3ZZ4ZZ4 NCZZ4ZZ5 -18.000000
    Z4ZZ4ZZ4 OBJZZZZZ 1.000000   NCZZ1ZZ4 1.000000
    Z4ZZ4ZZ4 ACZZ4ZZ4 1.000000   NCZZ1ZZ5 -1.000000
    Z4ZZ4ZZ4 ACZZ4ZZ5 -1.000000
    Z1ZZ5ZZ4 CCZZ5ZZ4 1.000000
    Z2ZZ5ZZ4 OBJZZZZZ 15.000000   NCZZ2ZZ4 15.000000
    Z2ZZ5ZZ4 ACZZ5ZZ4 15.000000   CCZZ5ZZ4 1.000000
    Z2ZZ5ZZ4 NCZZ4ZZ5 -15.000000
    Z3ZZ5ZZ4 OBJZZZZZ 25.000000   NCZZ2ZZ4 25.000000
    Z3ZZ5ZZ4 ACZZ5ZZ4 25.000000   CCZZ5ZZ4 1.000000
    Z3ZZ5ZZ4 NCZZ2ZZ5 -7.000000   ACZZ5ZZ5 -7.000000
    Z3ZZ5ZZ4 NCZZ4ZZ5 -18.000000
    Z4ZZ5ZZ4 OBJZZZZZ 1.000000   NCZZ2ZZ4 1.000000
    Z4ZZ5ZZ4 ACZZ5ZZ4 1.000000   NCZZ2ZZ5 -1.000000
    Z4ZZ5ZZ4 ACZZ5ZZ5 -1.000000
    Z1ZZ6ZZ4 CCZZ6ZZ4 1.000000
    Z2ZZ6ZZ4 OBJZZZZZ 10.000000   NCZZ2ZZ4 10.000000
    Z2ZZ6ZZ4 ACZZ6ZZ4 10.000000   CCZZ6ZZ4 1.000000
    Z2ZZ6ZZ4 NCZZ5ZZ5 -10.000000
    Z3ZZ6ZZ4 OBJZZZZZ 20.000000   NCZZ2ZZ4 20.000000
    Z3ZZ6ZZ4 ACZZ6ZZ4 20.000000   CCZZ6ZZ4 1.000000
    Z3ZZ6ZZ4 NCZZ2ZZ5 -5.000000   ACZZ6ZZ5 -5.000000
    Z3ZZ6ZZ4 NCZZ5ZZ5 -15.000000
    Z4ZZ6ZZ4 OBJZZZZZ 1.000000   NCZZ2ZZ4 1.000000
    Z4ZZ6ZZ4 ACZZ6ZZ4 1.000000   NCZZ2ZZ5 -1.000000
    Z4ZZ6ZZ4 ACZZ6ZZ5 -1.000000
    Z1ZZ7ZZ4 CCZZ7ZZ4 1.000000
    Z2ZZ7ZZ4 OBJZZZZZ 10.000000   NCZZ3ZZ4 10.000000
    Z2ZZ7ZZ4 ACZZ7ZZ4 10.000000   CCZZ7ZZ4 1.000000
    Z2ZZ7ZZ4 NCZZ5ZZ5 -10.000000
    Z3ZZ7ZZ4 OBJZZZZZ 20.000000   NCZZ3ZZ4 20.000000
    Z3ZZ7ZZ4 ACZZ7ZZ4 20.000000   CCZZ7ZZ4 1.000000
    Z3ZZ7ZZ4 NCZZ3ZZ5 -5.000000   ACZZ7ZZ5 -5.000000
    Z3ZZ7ZZ4 NCZZ5ZZ5 -15.000000
    Z4ZZ7ZZ4 OBJZZZZZ 1.000000   NCZZ3ZZ4 1.000000
    Z4ZZ7ZZ4 ACZZ7ZZ4 1.000000   NCZZ3ZZ5 -1.000000
    Z4ZZ7ZZ4 ACZZ7ZZ5 -1.000000
    Z1ZZ8ZZ4 CCZZ8ZZ4 1.000000
    Z2ZZ8ZZ4 OBJZZZZZ 30.000000   NCZZ4ZZ4 30.000000
    Z2ZZ8ZZ4 ACZZ8ZZ4 30.000000   CCZZ8ZZ4 1.000000
    Z2ZZ8ZZ4 NCZZ5ZZ5 -30.000000
    Z3ZZ8ZZ4 OBJZZZZZ 40.000000   NCZZ4ZZ4 40.000000
    Z3ZZ8ZZ4 ACZZ8ZZ4 40.000000   CCZZ8ZZ4 1.000000
    Z3ZZ8ZZ4 NCZZ4ZZ5 -7.000000   ACZZ8ZZ5 -7.000000
    Z3ZZ8ZZ4 NCZZ5ZZ5 -33.000000
    Z4ZZ8ZZ4 OBJZZZZZ 1.000000   NCZZ4ZZ4 1.000000
    Z4ZZ8ZZ4 ACZZ8ZZ4 1.000000   NCZZ4ZZ5 -1.000000
    Z4ZZ8ZZ4 ACZZ8ZZ5 -1.000000
    Z1ZZ9ZZ4 CCZZ9ZZ4 1.000000
    Z2ZZ9ZZ4 OBJZZZZZ 30.000000   NCZZ5ZZ4 30.000000
    Z2ZZ9ZZ4 ACZZ9ZZ4 30.000000   CCZZ9ZZ4 1.000000
    Z2ZZ9ZZ4 NCZZ4ZZ5 -30.000000
    Z3ZZ9ZZ4 OBJZZZZZ 40.000000   NCZZ5ZZ4 40.000000
    Z3ZZ9ZZ4 ACZZ9ZZ4 40.000000   CCZZ9ZZ4 1.000000
    Z3ZZ9ZZ4 NCZZ5ZZ5 -7.000000   ACZZ9ZZ5 -7.000000
    Z3ZZ9ZZ4 NCZZ4ZZ5 -33.000000
    Z4ZZ9ZZ4 OBJZZZZZ 1.000000   NCZZ5ZZ4 1.000000
    Z4ZZ9ZZ4 ACZZ9ZZ4 1.000000   NCZZ5ZZ5 -1.000000
    Z4ZZ9ZZ4 ACZZ9ZZ5 -1.000000
    Z1Z10ZZ4 CCZ10ZZ4 1.000000
    Z2Z10ZZ4 OBJZZZZZ 10.000000   NCZZ4ZZ4 10.000000
    Z2Z10ZZ4 ACZ10ZZ4 10.000000   CCZ10ZZ4 1.000000
    Z2Z10ZZ4 NCZZ6ZZ5 -10.000000
    Z3Z10ZZ4 OBJZZZZZ 20.000000   NCZZ4ZZ4 20.000000
    Z3Z10ZZ4 ACZ10ZZ4 20.000000   CCZ10ZZ4 1.000000
    Z3Z10ZZ4 NCZZ4ZZ5 -5.000000   ACZ10ZZ5 -5.000000
    Z3Z10ZZ4 NCZZ6ZZ5 -15.000000
    Z4Z10ZZ4 OBJZZZZZ 1.000000   NCZZ4ZZ4 1.000000
    Z4Z10ZZ4 ACZ10ZZ4 1.000000   NCZZ4ZZ5 -1.000000
    Z4Z10ZZ4 ACZ10ZZ5 -1.000000
    Z1Z11ZZ4 CCZ11ZZ4 1.000000
    Z2Z11ZZ4 OBJZZZZZ 15.000000   NCZZ6ZZ4 15.000000
    Z2Z11ZZ4 ACZ11ZZ4 15.000000   CCZ11ZZ4 1.000000
    Z3Z11ZZ4 OBJZZZZZ 25.000000   NCZZ6ZZ4 25.000000
    Z3Z11ZZ4 ACZ11ZZ4 25.000000   CCZ11ZZ4 1.000000
    Z3Z11ZZ4 NCZZ6ZZ5 -7.000000   ACZ11ZZ5 -7.000000
    Z4Z11ZZ4 OBJZZZZZ 1.000000   NCZZ6ZZ4 1.000000
    Z4Z11ZZ4 ACZ11ZZ4 1.000000   NCZZ6ZZ5 -1.000000
    Z4Z11ZZ4 ACZ11ZZ5 -1.000000
    Z1Z12ZZ4 CCZ12ZZ4 1.000000
    Z2Z12ZZ4 OBJZZZZZ 50.000000   NCZZ5ZZ4 50.000000
    Z2Z12ZZ4 ACZ12ZZ4 50.000000   CCZ12ZZ4 1.000000
    Z3Z12ZZ4 OBJZZZZZ 80.000000   NCZZ5ZZ4 80.000000
    Z3Z12ZZ4 ACZ12ZZ4 80.000000   CCZ12ZZ4 1.000000
    Z3Z12ZZ4 NCZZ5ZZ5 -15.000000   ACZ12ZZ5 -15.000000
    Z4Z12ZZ4 OBJZZZZZ 1.000000   NCZZ5ZZ4 1.000000
    Z4Z12ZZ4 ACZ12ZZ4 1.000000   NCZZ5ZZ5 -1.000000
    Z4Z12ZZ4 ACZ12ZZ5 -1.000000
    Z1ZZ1ZZ5 CCZZ1ZZ5 1.000000
    Z2ZZ1ZZ5 OBJZZZZZ 10.000000   NCZZ1ZZ5 10.000000
    Z2ZZ1ZZ5 ACZZ1ZZ5 10.000000   CCZZ1ZZ5 1.000000
    Z2ZZ1ZZ5 NCZZ2ZZ6 -10.000000
    Z3ZZ1ZZ5 OBJZZZZZ 20.000000   NCZZ1ZZ5 20.000000
    Z3ZZ1ZZ5 ACZZ1ZZ5 20.000000   CCZZ1ZZ5 1.000000
    Z3ZZ1ZZ5 NCZZ1ZZ6 -5.000000   ACZZ1ZZ6 -5.000000
    Z3ZZ1ZZ5 NCZZ2ZZ6 -15.000000
    Z4ZZ1ZZ5 OBJZZZZZ 1.000000   NCZZ1ZZ5 1.000000
    Z4ZZ1ZZ5 ACZZ1ZZ5 1.000000   NCZZ1ZZ6 -1.000000
    Z4ZZ1ZZ5 ACZZ1ZZ6 -1.000000
    Z1ZZ2ZZ5 CCZZ2ZZ5 1.000000
    Z2ZZ2ZZ5 OBJZZZZZ 15.000000   NCZZ2ZZ5 15.000000
    Z2ZZ2ZZ5 ACZZ2ZZ5 15.000000   CCZZ2ZZ5 1.000000
    Z2ZZ2ZZ5 NCZZ3ZZ6 -15.000000
    Z3ZZ2ZZ5 OBJZZZZZ 25.000000   NCZZ2ZZ5 25.000000
    Z3ZZ2ZZ5 ACZZ2ZZ5 25.000000   CCZZ2ZZ5 1.000000
    Z3ZZ2ZZ5 NCZZ2ZZ6 -7.000000   ACZZ2ZZ6 -7.000000
    Z3ZZ2ZZ5 NCZZ3ZZ6 -18.000000
    Z4ZZ2ZZ5 OBJZZZZZ 1.000000   NCZZ2ZZ5 1.000000
    Z4ZZ2ZZ5 ACZZ2ZZ5 1.000000   NCZZ2ZZ6 -1.000000
    Z4ZZ2ZZ5 ACZZ2ZZ6 -1.000000
    Z1ZZ3ZZ5 CCZZ3ZZ5 1.000000
    Z2ZZ3ZZ5 OBJZZZZZ 10.000000   NCZZ2ZZ5 10.000000
    Z2ZZ3ZZ5 ACZZ3ZZ5 10.000000   CCZZ3ZZ5 1.000000
    Z2ZZ3ZZ5 NCZZ1ZZ6 -10.000000
    Z3ZZ3ZZ5 OBJZZZZZ 20.000000   NCZZ2ZZ5 20.000000
    Z3ZZ3ZZ5 ACZZ3ZZ5 20.000000   CCZZ3ZZ5 1.000000
    Z3ZZ3ZZ5 NCZZ2ZZ6 -5.000000   ACZZ3ZZ6 -5.000000
    Z3ZZ3ZZ5 NCZZ1ZZ6 -15.000000
    Z4ZZ3ZZ5 OBJZZZZZ 1.000000   NCZZ2ZZ5 1.000000
    Z4ZZ3ZZ5 ACZZ3ZZ5 1.000000   NCZZ2ZZ6 -1.000000
    Z4ZZ3ZZ5 ACZZ3ZZ6 -1.000000
    Z1ZZ4ZZ5 CCZZ4ZZ5 1.000000
    Z2ZZ4ZZ5 OBJZZZZZ 15.000000   NCZZ1ZZ5 15.000000
    Z2ZZ4ZZ5 ACZZ4ZZ5 15.000000   CCZZ4ZZ5 1.000000
    Z2ZZ4ZZ5 NCZZ4ZZ6 -15.000000
    Z3ZZ4ZZ5 OBJZZZZZ 25.000000   NCZZ1ZZ5 25.000000
    Z3ZZ4ZZ5 ACZZ4ZZ5 25.000000   CCZZ4ZZ5 1.000000
    Z3ZZ4ZZ5 NCZZ1ZZ6 -7.000000   ACZZ4ZZ6 -7.000000
    Z3ZZ4ZZ5 NCZZ4ZZ6 -18.000000
    Z4ZZ4ZZ5 OBJZZZZZ 1.000000   NCZZ1ZZ5 1.000000
    Z4ZZ4ZZ5 ACZZ4ZZ5 1.000000   NCZZ1ZZ6 -1.000000
    Z4ZZ4ZZ5 ACZZ4ZZ6 -1.000000
    Z1ZZ5ZZ5 CCZZ5ZZ5 1.000000
    Z2ZZ5ZZ5 OBJZZZZZ 15.000000   NCZZ2ZZ5 15.000000
    Z2ZZ5ZZ5 ACZZ5ZZ5 15.000000   CCZZ5ZZ5 1.000000
    Z2ZZ5ZZ5 NCZZ4ZZ6 -15.000000
    Z3ZZ5ZZ5 OBJZZZZZ 25.000000   NCZZ2ZZ5 25.000000
    Z3ZZ5ZZ5 ACZZ5ZZ5 25.000000   CCZZ5ZZ5 1.000000
    Z3ZZ5ZZ5 NCZZ2ZZ6 -7.000000   ACZZ5ZZ6 -7.000000
    Z3ZZ5ZZ5 NCZZ4ZZ6 -18.000000
    Z4ZZ5ZZ5 OBJZZZZZ 1.000000   NCZZ2ZZ5 1.000000
    Z4ZZ5ZZ5 ACZZ5ZZ5 1.000000   NCZZ2ZZ6 -1.000000
    Z4ZZ5ZZ5 ACZZ5ZZ6 -1.000000
    Z1ZZ6ZZ5 CCZZ6ZZ5 1.000000
    Z2ZZ6ZZ5 OBJZZZZZ 10.000000   NCZZ2ZZ5 10.000000
    Z2ZZ6ZZ5 ACZZ6ZZ5 10.000000   CCZZ6ZZ5 1.000000
    Z2ZZ6ZZ5 NCZZ5ZZ6 -10.000000
    Z3ZZ6ZZ5 OBJZZZZZ 20.000000   NCZZ2ZZ5 20.000000
    Z3ZZ6ZZ5 ACZZ6ZZ5 20.000000   CCZZ6ZZ5 1.000000
    Z3ZZ6ZZ5 NCZZ2ZZ6 -5.000000   ACZZ6ZZ6 -5.000000
    Z3ZZ6ZZ5 NCZZ5ZZ6 -15.000000
    Z4ZZ6ZZ5 OBJZZZZZ 1.000000   NCZZ2ZZ5 1.000000
    Z4ZZ6ZZ5 ACZZ6ZZ5 1.000000   NCZZ2ZZ6 -1.000000
    Z4ZZ6ZZ5 ACZZ6ZZ6 -1.000000
    Z1ZZ7ZZ5 CCZZ7ZZ5 1.000000
    Z2ZZ7ZZ5 OBJZZZZZ 10.000000   NCZZ3ZZ5 10.000000
    Z2ZZ7ZZ5 ACZZ7ZZ5 10.000000   CCZZ7ZZ5 1.000000
    Z2ZZ7ZZ5 NCZZ5ZZ6 -10.000000
    Z3ZZ7ZZ5 OBJZZZZZ 20.000000   NCZZ3ZZ5 20.000000
    Z3ZZ7ZZ5 ACZZ7ZZ5 20.000000   CCZZ7ZZ5 1.000000
    Z3ZZ7ZZ5 NCZZ3ZZ6 -5.000000   ACZZ7ZZ6 -5.000000
    Z3ZZ7ZZ5 NCZZ5ZZ6 -15.000000
    Z4ZZ7ZZ5 OBJZZZZZ 1.000000   NCZZ3ZZ5 1.000000
    Z4ZZ7ZZ5 ACZZ7ZZ5 1.000000   NCZZ3ZZ6 -1.000000
    Z4ZZ7ZZ5 ACZZ7ZZ6 -1.000000
    Z1ZZ8ZZ5 CCZZ8ZZ5 1.000000
    Z2ZZ8ZZ5 OBJZZZZZ 30.000000   NCZZ4ZZ5 30.000000
    Z2ZZ8ZZ5 ACZZ8ZZ5 30.000000   CCZZ8ZZ5 1.000000
    Z2ZZ8ZZ5 NCZZ5ZZ6 -30.000000
    Z3ZZ8ZZ5 OBJZZZZZ 40.000000   NCZZ4ZZ5 40.000000
    Z3ZZ8ZZ5 ACZZ8ZZ5 40.000000   CCZZ8ZZ5 1.000000
    Z3ZZ8ZZ5 NCZZ4ZZ6 -7.000000   ACZZ8ZZ6 -7.000000
    Z3ZZ8ZZ5 NCZZ5ZZ6 -33.000000
    Z4ZZ8ZZ5 OBJZZZZZ 1.000000   NCZZ4ZZ5 1.000000
    Z4ZZ8ZZ5 ACZZ8ZZ5 1.000000   NCZZ4ZZ6 -1.000000
    Z4ZZ8ZZ5 ACZZ8ZZ6 -1.000000
    Z1ZZ9ZZ5 CCZZ9ZZ5 1.000000
    Z2ZZ9ZZ5 OBJZZZZZ 30.000000   NCZZ5ZZ5 30.000000
    Z2ZZ9ZZ5 ACZZ9ZZ5 30.000000   CCZZ9ZZ5 1.000000
    Z2ZZ9ZZ5 NCZZ4ZZ6 -30.000000
    Z3ZZ9ZZ5 OBJZZZZZ 40.000000   NCZZ5ZZ5 40.000000
    Z3ZZ9ZZ5 ACZZ9ZZ5 40.000000   CCZZ9ZZ5 1.000000
    Z3ZZ9ZZ5 NCZZ5ZZ6 -7.000000   ACZZ9ZZ6 -7.000000
    Z3ZZ9ZZ5 NCZZ4ZZ6 -33.000000
    Z4ZZ9ZZ5 OBJZZZZZ 1.000000   NCZZ5ZZ5 1.000000
    Z4ZZ9ZZ5 ACZZ9ZZ5 1.000000   NCZZ5ZZ6 -1.000000
    Z4ZZ9ZZ5 ACZZ9ZZ6 -1.000000
    Z1Z10ZZ5 CCZ10ZZ5 1.000000
    Z2Z10ZZ5 OBJZZZZZ 10.000000   NCZZ4ZZ5 10.000000
    Z2Z10ZZ5 ACZ10ZZ5 10.000000   CCZ10ZZ5 1.000000
    Z2Z10ZZ5 NCZZ6ZZ6 -10.000000
    Z3Z10ZZ5 OBJZZZZZ 20.000000   NCZZ4ZZ5 20.000000
    Z3Z10ZZ5 ACZ10ZZ5 20.000000   CCZ10ZZ5 1.000000
    Z3Z10ZZ5 NCZZ4ZZ6 -5.000000   ACZ10ZZ6 -5.000000
    Z3Z10ZZ5 NCZZ6ZZ6 -15.000000
    Z4Z10ZZ5 OBJZZZZZ 1.000000   NCZZ4ZZ5 1.000000
    Z4Z10ZZ5 ACZ10ZZ5 1.000000   NCZZ4ZZ6 -1.000000
    Z4Z10ZZ5 ACZ10ZZ6 -1.000000
    Z1Z11ZZ5 CCZ11ZZ5 1.000000
    Z2Z11ZZ5 OBJZZZZZ 15.000000   NCZZ6ZZ5 15.000000
    Z2Z11ZZ5 ACZ11ZZ5 15.000000   CCZ11ZZ5 1.000000
    Z3Z11ZZ5 OBJZZZZZ 25.000000   NCZZ6ZZ5 25.000000
    Z3Z11ZZ5 ACZ11ZZ5 25.000000   CCZ11ZZ5 1.000000
    Z3Z11ZZ5 NCZZ6ZZ6 -7.000000   ACZ11ZZ6 -7.000000
    Z4Z11ZZ5 OBJZZZZZ 1.000000   NCZZ6ZZ5 1.000000
    Z4Z11ZZ5 ACZ11ZZ5 1.000000   NCZZ6ZZ6 -1.000000
    Z4Z11ZZ5 ACZ11ZZ6 -1.000000
    Z1Z12ZZ5 CCZ12ZZ5 1.000000
    Z2Z12ZZ5 OBJZZZZZ 50.000000   NCZZ5ZZ5 50.000000
    Z2Z12ZZ5 ACZ12ZZ5 50.000000   CCZ12ZZ5 1.000000
    Z3Z12ZZ5 OBJZZZZZ 80.000000   NCZZ5ZZ5 80.000000
    Z3Z12ZZ5 ACZ12ZZ5 80.000000   CCZ12ZZ5 1.000000
    Z3Z12ZZ5 NCZZ5ZZ6 -15.000000   ACZ12ZZ6 -15.000000
    Z4Z12ZZ5 OBJZZZZZ 1.000000   NCZZ5ZZ5 1.000000
    Z4Z12ZZ5 ACZ12ZZ5 1.000000   NCZZ5ZZ6 -1.000000
    Z4Z12ZZ5 ACZ12ZZ6 -1.000000
    Z1ZZ1ZZ6 CCZZ1ZZ6 1.000000
    Z2ZZ1ZZ6 OBJZZZZZ 10.000000   NCZZ1ZZ6 10.000000
    Z2ZZ1ZZ6 ACZZ1ZZ6 10.000000   CCZZ1ZZ6 1.000000
    Z2ZZ1ZZ6 NCZZ2ZZ7 -10.000000
    Z3ZZ1ZZ6 OBJZZZZZ 20.000000   NCZZ1ZZ6 20.000000
    Z3ZZ1ZZ6 ACZZ1ZZ6 20.000000   CCZZ1ZZ6 1.000000
    Z3ZZ1ZZ6 NCZZ1ZZ7 -5.000000   ACZZ1ZZ7 -5.000000
    Z3ZZ1ZZ6 NCZZ2ZZ7 -15.000000
    Z4ZZ1ZZ6 OBJZZZZZ 1.000000   NCZZ1ZZ6 1.000000
    Z4ZZ1ZZ6 ACZZ1ZZ6 1.000000   NCZZ1ZZ7 -1.000000
    Z4ZZ1ZZ6 ACZZ1ZZ7 -1.000000
    Z1ZZ2ZZ6 CCZZ2ZZ6 1.000000
    Z2ZZ2ZZ6 OBJZZZZZ 15.000000   NCZZ2ZZ6 15.000000
    Z2ZZ2ZZ6 ACZZ2ZZ6 15.000000   CCZZ2ZZ6 1.000000
    Z2ZZ2ZZ6 NCZZ3ZZ7 -15.000000
    Z3ZZ2ZZ6 OBJZZZZZ 25.000000   NCZZ2ZZ6 25.000000
    Z3ZZ2ZZ6 ACZZ2ZZ6 25.000000   CCZZ2ZZ6 1.000000
    Z3ZZ2ZZ6 NCZZ2ZZ7 -7.000000   ACZZ2ZZ7 -7.000000
    Z3ZZ2ZZ6 NCZZ3ZZ7 -18.000000
    Z4ZZ2ZZ6 OBJZZZZZ 1.000000   NCZZ2ZZ6 1.000000
    Z4ZZ2ZZ6 ACZZ2ZZ6 1.000000   NCZZ2ZZ7 -1.000000
    Z4ZZ2ZZ6 ACZZ2ZZ7 -1.000000
    Z1ZZ3ZZ6 CCZZ3ZZ6 1.000000
    Z2ZZ3ZZ6 OBJZZZZZ 10.000000   NCZZ2ZZ6 10.000000
    Z2ZZ3ZZ6 ACZZ3ZZ6 10.000000   CCZZ3ZZ6 1.000000
    Z2ZZ3ZZ6 NCZZ1ZZ7 -10.000000
    Z3ZZ3ZZ6 OBJZZZZZ 20.000000   NCZZ2ZZ6 20.000000
    Z3ZZ3ZZ6 ACZZ3ZZ6 20.000000   CCZZ3ZZ6 1.000000
    Z3ZZ3ZZ6 NCZZ2ZZ7 -5.000000   ACZZ3ZZ7 -5.000000
    Z3ZZ3ZZ6 NCZZ1ZZ7 -15.000000
    Z4ZZ3ZZ6 OBJZZZZZ 1.000000   NCZZ2ZZ6 1.000000
    Z4ZZ3ZZ6 ACZZ3ZZ6 1.000000   NCZZ2ZZ7 -1.000000
    Z4ZZ3ZZ6 ACZZ3ZZ7 -1.000000
    Z1ZZ4ZZ6 CCZZ4ZZ6 1.000000
    Z2ZZ4ZZ6 OBJZZZZZ 15.000000   NCZZ1ZZ6 15.000000
    Z2ZZ4ZZ6 ACZZ4ZZ6 15.000000   CCZZ4ZZ6 1.000000
    Z2ZZ4ZZ6 NCZZ4ZZ7 -15.000000
    Z3ZZ4ZZ6 OBJZZZZZ 25.000000   NCZZ1ZZ6 25.000000
    Z3ZZ4ZZ6 ACZZ4ZZ6 25.000000   CCZZ4ZZ6 1.000000
    Z3ZZ4ZZ6 NCZZ1ZZ7 -7.000000   ACZZ4ZZ7 -7.000000
    Z3ZZ4ZZ6 NCZZ4ZZ7 -18.000000
    Z4ZZ4ZZ6 OBJZZZZZ 1.000000   NCZZ1ZZ6 1.000000
    Z4ZZ4ZZ6 ACZZ4ZZ6 1.000000   NCZZ1ZZ7 -1.000000
    Z4ZZ4ZZ6 ACZZ4ZZ7 -1.000000
    Z1ZZ5ZZ6 CCZZ5ZZ6 1.000000
    Z2ZZ5ZZ6 OBJZZZZZ 15.000000   NCZZ2ZZ6 15.000000
    Z2ZZ5ZZ6 ACZZ5ZZ6 15.000000   CCZZ5ZZ6 1.000000
    Z2ZZ5ZZ6 NCZZ4ZZ7 -15.000000
    Z3ZZ5ZZ6 OBJZZZZZ 25.000000   NCZZ2ZZ6 25.000000
    Z3ZZ5ZZ6 ACZZ5ZZ6 25.000000   CCZZ5ZZ6 1.000000
    Z3ZZ5ZZ6 NCZZ2ZZ7 -7.000000   ACZZ5ZZ7 -7.000000
    Z3ZZ5ZZ6 NCZZ4ZZ7 -18.000000
    Z4ZZ5ZZ6 OBJZZZZZ 1.000000   NCZZ2ZZ6 1.000000
    Z4ZZ5ZZ6 ACZZ5ZZ6 1.000000   NCZZ2ZZ7 -1.000000
    Z4ZZ5ZZ6 ACZZ5ZZ7 -1.000000
    Z1ZZ6ZZ6 CCZZ6ZZ6 1.000000
    Z2ZZ6ZZ6 OBJZZZZZ 10.000000   NCZZ2ZZ6 10.000000
    Z2ZZ6ZZ6 ACZZ6ZZ6 10.000000   CCZZ6ZZ6 1.000000
    Z2ZZ6ZZ6 NCZZ5ZZ7 -10.000000
    Z3ZZ6ZZ6 OBJZZZZZ 20.000000   NCZZ2ZZ6 20.000000
    Z3ZZ6ZZ6 ACZZ6ZZ6 20.000000   CCZZ6ZZ6 1.000000
    Z3ZZ6ZZ6 NCZZ2ZZ7 -5.000000   ACZZ6ZZ7 -5.000000
    Z3ZZ6ZZ6 NCZZ5ZZ7 -15.000000
    Z4ZZ6ZZ6 OBJZZZZZ 1.000000   NCZZ2ZZ6 1.000000
    Z4ZZ6ZZ6 ACZZ6ZZ6 1.000000   NCZZ2ZZ7 -1.000000
    Z4ZZ6ZZ6 ACZZ6ZZ7 -1.000000
    Z1ZZ7ZZ6 CCZZ7ZZ6 1.000000
    Z2ZZ7ZZ6 OBJZZZZZ 10.000000   NCZZ3ZZ6 10.000000
    Z2ZZ7ZZ6 ACZZ7ZZ6 10.000000   CCZZ7ZZ6 1.000000
    Z2ZZ7ZZ6 NCZZ5ZZ7 -10.000000
    Z3ZZ7ZZ6 OBJZZZZZ 20.000000   NCZZ3ZZ6 20.000000
    Z3ZZ7ZZ6 ACZZ7ZZ6 20.000000   CCZZ7ZZ6 1.000000
    Z3ZZ7ZZ6 NCZZ3ZZ7 -5.000000   ACZZ7ZZ7 -5.000000
    Z3ZZ7ZZ6 NCZZ5ZZ7 -15.000000
    Z4ZZ7ZZ6 OBJZZZZZ 1.000000   NCZZ3ZZ6 1.000000
    Z4ZZ7ZZ6 ACZZ7ZZ6 1.000000   NCZZ3ZZ7 -1.000000
    Z4ZZ7ZZ6 ACZZ7ZZ7 -1.000000
    Z1ZZ8ZZ6 CCZZ8ZZ6 1.000000
    Z2ZZ8ZZ6 OBJZZZZZ 30.000000   NCZZ4ZZ6 30.000000
    Z2ZZ8ZZ6 ACZZ8ZZ6 30.000000   CCZZ8ZZ6 1.000000
    Z2ZZ8ZZ6 NCZZ5ZZ7 -30.000000
    Z3ZZ8ZZ6 OBJZZZZZ 40.000000   NCZZ4ZZ6 40.000000
    Z3ZZ8ZZ6 ACZZ8ZZ6 40.000000   CCZZ8ZZ6 1.000000
    Z3ZZ8ZZ6 NCZZ4ZZ7 -7.000000   ACZZ8ZZ7 -7.000000
    Z3ZZ8ZZ6 NCZZ5ZZ7 -33.000000
    Z4ZZ8ZZ6 OBJZZZZZ 1.000000   NCZZ4ZZ6 1.000000
    Z4ZZ8ZZ6 ACZZ8ZZ6 1.000000   NCZZ4ZZ7 -1.000000
    Z4ZZ8ZZ6 ACZZ8ZZ7 -1.000000
    Z1ZZ9ZZ6 CCZZ9ZZ6 1.000000
    Z2ZZ9ZZ6 OBJZZZZZ 30.000000   NCZZ5ZZ6 30.000000
    Z2ZZ9ZZ6 ACZZ9ZZ6 30.000000   CCZZ9ZZ6 1.000000
    Z2ZZ9ZZ6 NCZZ4ZZ7 -30.000000
    Z3ZZ9ZZ6 OBJZZZZZ 40.000000   NCZZ5ZZ6 40.000000
    Z3ZZ9ZZ6 ACZZ9ZZ6 40.000000   CCZZ9ZZ6 1.000000
    Z3ZZ9ZZ6 NCZZ5ZZ7 -7.000000   ACZZ9ZZ7 -7.000000
    Z3ZZ9ZZ6 NCZZ4ZZ7 -33.000000
    Z4ZZ9ZZ6 OBJZZZZZ 1.000000   NCZZ5ZZ6 1.000000
    Z4ZZ9ZZ6 ACZZ9ZZ6 1.000000   NCZZ5ZZ7 -1.000000
    Z4ZZ9ZZ6 ACZZ9ZZ7 -1.000000
    Z1Z10ZZ6 CCZ10ZZ6 1.000000
    Z2Z10ZZ6 OBJZZZZZ 10.000000   NCZZ4ZZ6 10.000000
    Z2Z10ZZ6 ACZ10ZZ6 10.000000   CCZ10ZZ6 1.000000
    Z2Z10ZZ6 NCZZ6ZZ7 -10.000000
    Z3Z10ZZ6 OBJZZZZZ 20.000000   NCZZ4ZZ6 20.000000
    Z3Z10ZZ6 ACZ10ZZ6 20.000000   CCZ10ZZ6 1.000000
    Z3Z10ZZ6 NCZZ4ZZ7 -5.000000   ACZ10ZZ7 -5.000000
    Z3Z10ZZ6 NCZZ6ZZ7 -15.000000
    Z4Z10ZZ6 OBJZZZZZ 1.000000   NCZZ4ZZ6 1.000000
    Z4Z10ZZ6 ACZ10ZZ6 1.000000   NCZZ4ZZ7 -1.000000
    Z4Z10ZZ6 ACZ10ZZ7 -1.000000
    Z1Z11ZZ6 CCZ11ZZ6 1.000000
    Z2Z11ZZ6 OBJZZZZZ 15.000000   NCZZ6ZZ6 15.000000
    Z2Z11ZZ6 ACZ11ZZ6 15.000000   CCZ11ZZ6 1.000000
    Z3Z11ZZ6 OBJZZZZZ 25.000000   NCZZ6ZZ6 25.000000
    Z3Z11ZZ6 ACZ11ZZ6 25.000000   CCZ11ZZ6 1.000000
    Z3Z11ZZ6 NCZZ6ZZ7 -7.000000   ACZ11ZZ7 -7.000000
    Z4Z11ZZ6 OBJZZZZZ 1.000000   NCZZ6ZZ6 1.000000
    Z4Z11ZZ6 ACZ11ZZ6 1.000000   NCZZ6ZZ7 -1.000000
    Z4Z11ZZ6 ACZ11ZZ7 -1.000000
    Z1Z12ZZ6 CCZ12ZZ6 1.000000
    Z2Z12ZZ6 OBJZZZZZ 50.000000   NCZZ5ZZ6 50.000000
    Z2Z12ZZ6 ACZ12ZZ6 50.000000   CCZ12ZZ6 1.000000
    Z3Z12ZZ6 OBJZZZZZ 80.000000   NCZZ5ZZ6 80.000000
    Z3Z12ZZ6 ACZ12ZZ6 80.000000   CCZ12ZZ6 1.000000
    Z3Z12ZZ6 NCZZ5ZZ7 -15.000000   ACZ12ZZ7 -15.000000
    Z4Z12ZZ6 OBJZZZZZ 1.000000   NCZZ5ZZ6 1.000000
    Z4Z12ZZ6 ACZ12ZZ6 1.000000   NCZZ5ZZ7 -1.000000
    Z4Z12ZZ6 ACZ12ZZ7 -1.000000
    Z1ZZ1ZZ7 CCZZ1ZZ7 1.000000
    Z2ZZ1ZZ7 OBJZZZZZ 10.000000   NCZZ1ZZ7 10.000000
    Z2ZZ1ZZ7 ACZZ1ZZ7 10.000000   CCZZ1ZZ7 1.000000
    Z2ZZ1ZZ7 NCZZ2ZZ8 -10.000000
    Z3ZZ1ZZ7 OBJZZZZZ 20.000000   NCZZ1ZZ7 20.000000
    Z3ZZ1ZZ7 ACZZ1ZZ7 20.000000   CCZZ1ZZ7 1.000000
    Z3ZZ1ZZ7 NCZZ1ZZ8 -5.000000   ACZZ1ZZ8 -5.000000
    Z3ZZ1ZZ7 NCZZ2ZZ8 -15.000000
    Z4ZZ1ZZ7 OBJZZZZZ 1.000000   NCZZ1ZZ7 1.000000
    Z4ZZ1ZZ7 ACZZ1ZZ7 1.000000   NCZZ1ZZ8 -1.000000
    Z4ZZ1ZZ7 ACZZ1ZZ8 -1.000000
    Z1ZZ2ZZ7 CCZZ2ZZ7 1.000000
    Z2ZZ2ZZ7 OBJZZZZZ 15.000000   NCZZ2ZZ7 15.000000
    Z2ZZ2ZZ7 ACZZ2ZZ7 15.000000   CCZZ2ZZ7 1.000000
    Z2ZZ2ZZ7 NCZZ3ZZ8 -15.000000
    Z3ZZ2ZZ7 OBJZZZZZ 25.000000   NCZZ2ZZ7 25.000000
    Z3ZZ2ZZ7 ACZZ2ZZ7 25.000000   CCZZ2ZZ7 1.000000
    Z3ZZ2ZZ7 NCZZ2ZZ8 -7.000000   ACZZ2ZZ8 -7.000000
    Z3ZZ2ZZ7 NCZZ3ZZ8 -18.000000
    Z4ZZ2ZZ7 OBJZZZZZ 1.000000   NCZZ2ZZ7 1.000000
    Z4ZZ2ZZ7 ACZZ2ZZ7 1.000000   NCZZ2ZZ8 -1.000000
    Z4ZZ2ZZ7 ACZZ2ZZ8 -1.000000
    Z1ZZ3ZZ7 CCZZ3ZZ7 1.000000
    Z2ZZ3ZZ7 OBJZZZZZ 10.000000   NCZZ2ZZ7 10.000000
    Z2ZZ3ZZ7 ACZZ3ZZ7 10.000000   CCZZ3ZZ7 1.000000
    Z2ZZ3ZZ7 NCZZ1ZZ8 -10.000000
    Z3ZZ3ZZ7 OBJZZZZZ 20.000000   NCZZ2ZZ7 20.000000
    Z3ZZ3ZZ7 ACZZ3ZZ7 20.000000   CCZZ3ZZ7 1.000000
    Z3ZZ3ZZ7 NCZZ2ZZ8 -5.000000   ACZZ3ZZ8 -5.000000
    Z3ZZ3ZZ7 NCZZ1ZZ8 -15.000000
    Z4ZZ3ZZ7 OBJZZZZZ 1.000000   NCZZ2ZZ7 1.000000
    Z4ZZ3ZZ7 ACZZ3ZZ7 1.000000   NCZZ2ZZ8 -1.000000
    Z4ZZ3ZZ7 ACZZ3ZZ8 -1.000000
    Z1ZZ4ZZ7 CCZZ4ZZ7 1.000000
    Z2ZZ4ZZ7 OBJZZZZZ 15.000000   NCZZ1ZZ7 15.000000
    Z2ZZ4ZZ7 ACZZ4ZZ7 15.000000   CCZZ4ZZ7 1.000000
    Z2ZZ4ZZ7 NCZZ4ZZ8 -15.000000
    Z3ZZ4ZZ7 OBJZZZZZ 25.000000   NCZZ1ZZ7 25.000000
    Z3ZZ4ZZ7 ACZZ4ZZ7 25.000000   CCZZ4ZZ7 1.000000
    Z3ZZ4ZZ7 NCZZ1ZZ8 -7.000000   ACZZ4ZZ8 -7.000000
    Z3ZZ4ZZ7 NCZZ4ZZ8 -18.000000
    Z4ZZ4ZZ7 OBJZZZZZ 1.000000   NCZZ1ZZ7 1.000000
    Z4ZZ4ZZ7 ACZZ4ZZ7 1.000000   NCZZ1ZZ8 -1.000000
    Z4ZZ4ZZ7 ACZZ4ZZ8 -1.000000
    Z1ZZ5ZZ7 CCZZ5ZZ7 1.000000
    Z2ZZ5ZZ7 OBJZZZZZ 15.000000   NCZZ2ZZ7 15.000000
    Z2ZZ5ZZ7 ACZZ5ZZ7 15.000000   CCZZ5ZZ7 1.000000
    Z2ZZ5ZZ7 NCZZ4ZZ8 -15.000000
    Z3ZZ5ZZ7 OBJZZZZZ 25.000000   NCZZ2ZZ7 25.000000
    Z3ZZ5ZZ7 ACZZ5ZZ7 25.000000   CCZZ5ZZ7 1.000000
    Z3ZZ5ZZ7 NCZZ2ZZ8 -7.000000   ACZZ5ZZ8 -7.000000
    Z3ZZ5ZZ7 NCZZ4ZZ8 -18.000000
    Z4ZZ5ZZ7 OBJZZZZZ 1.000000   NCZZ2ZZ7 1.000000
    Z4ZZ5ZZ7 ACZZ5ZZ7 1.000000   NCZZ2ZZ8 -1.000000
    Z4ZZ5ZZ7 ACZZ5ZZ8 -1.000000
    Z1ZZ6ZZ7 CCZZ6ZZ7 1.000000
    Z2ZZ6ZZ7 OBJZZZZZ 10.000000   NCZZ2ZZ7 10.000000
    Z2ZZ6ZZ7 ACZZ6ZZ7 10.000000   CCZZ6ZZ7 1.000000
    Z2ZZ6ZZ7 NCZZ5ZZ8 -10.000000
    Z3ZZ6ZZ7 OBJZZZZZ 20.000000   NCZZ2ZZ7 20.000000
    Z3ZZ6ZZ7 ACZZ6ZZ7 20.000000   CCZZ6ZZ7 1.000000
    Z3ZZ6ZZ7 NCZZ2ZZ8 -5.000000   ACZZ6ZZ8 -5.000000
    Z3ZZ6ZZ7 NCZZ5ZZ8 -15.000000
    Z4ZZ6ZZ7 OBJZZZZZ 1.000000   NCZZ2ZZ7 1.000000
    Z4ZZ6ZZ7 ACZZ6ZZ7 1.000000   NCZZ2ZZ8 -1.000000
    Z4ZZ6ZZ7 ACZZ6ZZ8 -1.000000
    Z1ZZ7ZZ7 CCZZ7ZZ7 1.000000
    Z2ZZ7ZZ7 OBJZZZZZ 10.000000   NCZZ3ZZ7 10.000000
    Z2ZZ7ZZ7 ACZZ7ZZ7 10.000000   CCZZ7ZZ7 1.000000
    Z2ZZ7ZZ7 NCZZ5ZZ8 -10.000000
    Z3ZZ7ZZ7 OBJZZZZZ 20.000000   NCZZ3ZZ7 20.000000
    Z3ZZ7ZZ7 ACZZ7ZZ7 20.000000   CCZZ7ZZ7 1.000000
    Z3ZZ7ZZ7 NCZZ3ZZ8 -5.000000   ACZZ7ZZ8 -5.000000
    Z3ZZ7ZZ7 NCZZ5ZZ8 -15.000000
    Z4ZZ7ZZ7 OBJZZZZZ 1.000000   NCZZ3ZZ7 1.000000
    Z4ZZ7ZZ7 ACZZ7ZZ7 1.000000   NCZZ3ZZ8 -1.000000
    Z4ZZ7ZZ7 ACZZ7ZZ8 -1.000000
    Z1ZZ8ZZ7 CCZZ8ZZ7 1.000000
    Z2ZZ8ZZ7 OBJZZZZZ 30.000000   NCZZ4ZZ7 30.000000
    Z2ZZ8ZZ7 ACZZ8ZZ7 30.000000   CCZZ8ZZ7 1.000000
    Z2ZZ8ZZ7 NCZZ5ZZ8 -30.000000
    Z3ZZ8ZZ7 OBJZZZZZ 40.000000   NCZZ4ZZ7 40.000000
    Z3ZZ8ZZ7 ACZZ8ZZ7 40.000000   CCZZ8ZZ7 1.000000
    Z3ZZ8ZZ7 NCZZ4ZZ8 -7.000000   ACZZ8ZZ8 -7.000000
    Z3ZZ8ZZ7 NCZZ5ZZ8 -33.000000
    Z4ZZ8ZZ7 OBJZZZZZ 1.000000   NCZZ4ZZ7 1.000000
    Z4ZZ8ZZ7 ACZZ8ZZ7 1.000000   NCZZ4ZZ8 -1.000000
    Z4ZZ8ZZ7 ACZZ8ZZ8 -1.000000
    Z1ZZ9ZZ7 CCZZ9ZZ7 1.000000
    Z2ZZ9ZZ7 OBJZZZZZ 30.000000   NCZZ5ZZ7 30.000000
    Z2ZZ9ZZ7 ACZZ9ZZ7 30.000000   CCZZ9ZZ7 1.000000
    Z2ZZ9ZZ7 NCZZ4ZZ8 -30.000000
    Z3ZZ9ZZ7 OBJZZZZZ 40.000000   NCZZ5ZZ7 40.000000
    Z3ZZ9ZZ7 ACZZ9ZZ7 40.000000   CCZZ9ZZ7 1.000000
    Z3ZZ9ZZ7 NCZZ5ZZ8 -7.000000   ACZZ9ZZ8 -7.000000
    Z3ZZ9ZZ7 NCZZ4ZZ8 -33.000000
    Z4ZZ9ZZ7 OBJZZZZZ 1.000000   NCZZ5ZZ7 1.000000
    Z4ZZ9ZZ7 ACZZ9ZZ7 1.000000   NCZZ5ZZ8 -1.000000
    Z4ZZ9ZZ7 ACZZ9ZZ8 -1.000000
    Z1Z10ZZ7 CCZ10ZZ7 1.000000
    Z2Z10ZZ7 OBJZZZZZ 10.000000   NCZZ4ZZ7 10.000000
    Z2Z10ZZ7 ACZ10ZZ7 10.000000   CCZ10ZZ7 1.000000
    Z2Z10ZZ7 NCZZ6ZZ8 -10.000000
    Z3Z10ZZ7 OBJZZZZZ 20.000000   NCZZ4ZZ7 20.000000
    Z3Z10ZZ7 ACZ10ZZ7 20.000000   CCZ10ZZ7 1.000000
    Z3Z10ZZ7 NCZZ4ZZ8 -5.000000   ACZ10ZZ8 -5.000000
    Z3Z10ZZ7 NCZZ6ZZ8 -15.000000
    Z4Z10ZZ7 OBJZZZZZ 1.000000   NCZZ4ZZ7 1.000000
    Z4Z10ZZ7 ACZ10ZZ7 1.000000   NCZZ4ZZ8 -1.000000
    Z4Z10ZZ7 ACZ10ZZ8 -1.000000
    Z1Z11ZZ7 CCZ11ZZ7 1.000000
    Z2Z11ZZ7 OBJZZZZZ 15.000000   NCZZ6ZZ7 15.000000
    Z2Z11ZZ7 ACZ11ZZ7 15.000000   CCZ11ZZ7 1.000000
    Z3Z11ZZ7 OBJZZZZZ 25.000000   NCZZ6ZZ7 25.000000
    Z3Z11ZZ7 ACZ11ZZ7 25.000000   CCZ11ZZ7 1.000000
    Z3Z11ZZ7 NCZZ6ZZ8 -7.000000   ACZ11ZZ8 -7.000000
    Z4Z11ZZ7 OBJZZZZZ 1.000000   NCZZ6ZZ7 1.000000
    Z4Z11ZZ7 ACZ11ZZ7 1.000000   NCZZ6ZZ8 -1.000000
    Z4Z11ZZ7 ACZ11ZZ8 -1.000000
    Z1Z12ZZ7 CCZ12ZZ7 1.000000
    Z2Z12ZZ7 OBJZZZZZ 50.000000   NCZZ5ZZ7 50.000000
    Z2Z12ZZ7 ACZ12ZZ7 50.000000   CCZ12ZZ7 1.000000
    Z3Z12ZZ7 OBJZZZZZ 80.000000   NCZZ5ZZ7 80.000000
    Z3Z12ZZ7 ACZ12ZZ7 80.000000   CCZ12ZZ7 1.000000
    Z3Z12ZZ7 NCZZ5ZZ8 -15.000000   ACZ12ZZ8 -15.000000
    Z4Z12ZZ7 OBJZZZZZ 1.000000   NCZZ5ZZ7 1.000000
    Z4Z12ZZ7 ACZ12ZZ7 1.000000   NCZZ5ZZ8 -1.000000
    Z4Z12ZZ7 ACZ12ZZ8 -1.000000
    Z1ZZ1ZZ8 CCZZ1ZZ8 1.000000
    Z2ZZ1ZZ8 OBJZZZZZ 10.000000   NCZZ1ZZ8 10.000000
    Z2ZZ1ZZ8 ACZZ1ZZ8 10.000000   CCZZ1ZZ8 1.000000
    Z2ZZ1ZZ8 NCZZ2ZZ9 -10.000000
    Z3ZZ1ZZ8 OBJZZZZZ 20.000000   NCZZ1ZZ8 20.000000
    Z3ZZ1ZZ8 ACZZ1ZZ8 20.000000   CCZZ1ZZ8 1.000000
    Z3ZZ1ZZ8 NCZZ1ZZ9 -5.000000   ACZZ1ZZ9 -5.000000
    Z3ZZ1ZZ8 NCZZ2ZZ9 -15.000000
    Z4ZZ1ZZ8 OBJZZZZZ 1.000000   NCZZ1ZZ8 1.000000
    Z4ZZ1ZZ8 ACZZ1ZZ8 1.000000   NCZZ1ZZ9 -1.000000
    Z4ZZ1ZZ8 ACZZ1ZZ9 -1.000000
    Z1ZZ2ZZ8 CCZZ2ZZ8 1.000000
    Z2ZZ2ZZ8 OBJZZZZZ 15.000000   NCZZ2ZZ8 15.000000
    Z2ZZ2ZZ8 ACZZ2ZZ8 15.000000   CCZZ2ZZ8 1.000000
    Z2ZZ2ZZ8 NCZZ3ZZ9 -15.000000
    Z3ZZ2ZZ8 OBJZZZZZ 25.000000   NCZZ2ZZ8 25.000000
    Z3ZZ2ZZ8 ACZZ2ZZ8 25.000000   CCZZ2ZZ8 1.000000
    Z3ZZ2ZZ8 NCZZ2ZZ9 -7.000000   ACZZ2ZZ9 -7.000000
    Z3ZZ2ZZ8 NCZZ3ZZ9 -18.000000
    Z4ZZ2ZZ8 OBJZZZZZ 1.000000   NCZZ2ZZ8 1.000000
    Z4ZZ2ZZ8 ACZZ2ZZ8 1.000000   NCZZ2ZZ9 -1.000000
    Z4ZZ2ZZ8 ACZZ2ZZ9 -1.000000
    Z1ZZ3ZZ8 CCZZ3ZZ8 1.000000
    Z2ZZ3ZZ8 OBJZZZZZ 10.000000   NCZZ2ZZ8 10.000000
    Z2ZZ3ZZ8 ACZZ3ZZ8 10.000000   CCZZ3ZZ8 1.000000
    Z2ZZ3ZZ8 NCZZ1ZZ9 -10.000000
    Z3ZZ3ZZ8 OBJZZZZZ 20.000000   NCZZ2ZZ8 20.000000
    Z3ZZ3ZZ8 ACZZ3ZZ8 20.000000   CCZZ3ZZ8 1.000000
    Z3ZZ3ZZ8 NCZZ2ZZ9 -5.000000   ACZZ3ZZ9 -5.000000
    Z3ZZ3ZZ8 NCZZ1ZZ9 -15.000000
    Z4ZZ3ZZ8 OBJZZZZZ 1.000000   NCZZ2ZZ8 1.000000
    Z4ZZ3ZZ8 ACZZ3ZZ8 1.000000   NCZZ2ZZ9 -1.000000
    Z4ZZ3ZZ8 ACZZ3ZZ9 -1.000000
    Z1ZZ4ZZ8 CCZZ4ZZ8 1.000000
    Z2ZZ4ZZ8 OBJZZZZZ 15.000000   NCZZ1ZZ8 15.000000
    Z2ZZ4ZZ8 ACZZ4ZZ8 15.000000   CCZZ4ZZ8 1.000000
    Z2ZZ4ZZ8 NCZZ4ZZ9 -15.000000
    Z3ZZ4ZZ8 OBJZZZZZ 25.000000   NCZZ1ZZ8 25.000000
    Z3ZZ4ZZ8 ACZZ4ZZ8 25.000000   CCZZ4ZZ8 1.000000
    Z3ZZ4ZZ8 NCZZ1ZZ9 -7.000000   ACZZ4ZZ9 -7.000000
    Z3ZZ4ZZ8 NCZZ4ZZ9 -18.000000
    Z4ZZ4ZZ8 OBJZZZZZ 1.000000   NCZZ1ZZ8 1.000000
    Z4ZZ4ZZ8 ACZZ4ZZ8 1.000000   NCZZ1ZZ9 -1.000000
    Z4ZZ4ZZ8 ACZZ4ZZ9 -1.000000
    Z1ZZ5ZZ8 CCZZ5ZZ8 1.000000
    Z2ZZ5ZZ8 OBJZZZZZ 15.000000   NCZZ2ZZ8 15.000000
    Z2ZZ5ZZ8 ACZZ5ZZ8 15.000000   CCZZ5ZZ8 1.000000
    Z2ZZ5ZZ8 NCZZ4ZZ9 -15.000000
    Z3ZZ5ZZ8 OBJZZZZZ 25.000000   NCZZ2ZZ8 25.000000
    Z3ZZ5ZZ8 ACZZ5ZZ8 25.000000   CCZZ5ZZ8 1.000000
    Z3ZZ5ZZ8 NCZZ2ZZ9 -7.000000   ACZZ5ZZ9 -7.000000
    Z3ZZ5ZZ8 NCZZ4ZZ9 -18.000000
    Z4ZZ5ZZ8 OBJZZZZZ 1.000000   NCZZ2ZZ8 1.000000
    Z4ZZ5ZZ8 ACZZ5ZZ8 1.000000   NCZZ2ZZ9 -1.000000
    Z4ZZ5ZZ8 ACZZ5ZZ9 -1.000000
    Z1ZZ6ZZ8 CCZZ6ZZ8 1.000000
    Z2ZZ6ZZ8 OBJZZZZZ 10.000000   NCZZ2ZZ8 10.000000
    Z2ZZ6ZZ8 ACZZ6ZZ8 10.000000   CCZZ6ZZ8 1.000000
    Z2ZZ6ZZ8 NCZZ5ZZ9 -10.000000
    Z3ZZ6ZZ8 OBJZZZZZ 20.000000   NCZZ2ZZ8 20.000000
    Z3ZZ6ZZ8 ACZZ6ZZ8 20.000000   CCZZ6ZZ8 1.000000
    Z3ZZ6ZZ8 NCZZ2ZZ9 -5.000000   ACZZ6ZZ9 -5.000000
    Z3ZZ6ZZ8 NCZZ5ZZ9 -15.000000
    Z4ZZ6ZZ8 OBJZZZZZ 1.000000   NCZZ2ZZ8 1.000000
    Z4ZZ6ZZ8 ACZZ6ZZ8 1.000000   NCZZ2ZZ9 -1.000000
    Z4ZZ6ZZ8 ACZZ6ZZ9 -1.000000
    Z1ZZ7ZZ8 CCZZ7ZZ8 1.000000
    Z2ZZ7ZZ8 OBJZZZZZ 10.000000   NCZZ3ZZ8 10.000000
    Z2ZZ7ZZ8 ACZZ7ZZ8 10.000000   CCZZ7ZZ8 1.000000
    Z2ZZ7ZZ8 NCZZ5ZZ9 -10.000000
    Z3ZZ7ZZ8 OBJZZZZZ 20.000000   NCZZ3ZZ8 20.000000
    Z3ZZ7ZZ8 ACZZ7ZZ8 20.000000   CCZZ7ZZ8 1.000000
    Z3ZZ7ZZ8 NCZZ3ZZ9 -5.000000   ACZZ7ZZ9 -5.000000
    Z3ZZ7ZZ8 NCZZ5ZZ9 -15.000000
    Z4ZZ7ZZ8 OBJZZZZZ 1.000000   NCZZ3ZZ8 1.000000
    Z4ZZ7ZZ8 ACZZ7ZZ8 1.000000   NCZZ3ZZ9 -1.000000
    Z4ZZ7ZZ8 ACZZ7ZZ9 -1.000000
    Z1ZZ8ZZ8 CCZZ8ZZ8 1.000000
    Z2ZZ8ZZ8 OBJZZZZZ 30.000000   NCZZ4ZZ8 30.000000
    Z2ZZ8ZZ8 ACZZ8ZZ8 30.000000   CCZZ8ZZ8 1.000000
    Z2ZZ8ZZ8 NCZZ5ZZ9 -30.000000
    Z3ZZ8ZZ8 OBJZZZZZ 40.000000   NCZZ4ZZ8 40.000000
    Z3ZZ8ZZ8 ACZZ8ZZ8 40.000000   CCZZ8ZZ8 1.000000
    Z3ZZ8ZZ8 NCZZ4ZZ9 -7.000000   ACZZ8ZZ9 -7.000000
    Z3ZZ8ZZ8 NCZZ5ZZ9 -33.000000
    Z4ZZ8ZZ8 OBJZZZZZ 1.000000   NCZZ4ZZ8 1.000000
    Z4ZZ8ZZ8 ACZZ8ZZ8 1.000000   NCZZ4ZZ9 -1.000000
    Z4ZZ8ZZ8 ACZZ8ZZ9 -1.000000
    Z1ZZ9ZZ8 CCZZ9ZZ8 1.000000
    Z2ZZ9ZZ8 OBJZZZZZ 30.000000   NCZZ5ZZ8 30.000000
    Z2ZZ9ZZ8 ACZZ9ZZ8 30.000000   CCZZ9ZZ8 1.000000
    Z2ZZ9ZZ8 NCZZ4ZZ9 -30.000000
    Z3ZZ9ZZ8 OBJZZZZZ 40.000000   NCZZ5ZZ8 40.000000
    Z3ZZ9ZZ8 ACZZ9ZZ8 40.000000   CCZZ9ZZ8 1.000000
    Z3ZZ9ZZ8 NCZZ5ZZ9 -7.000000   ACZZ9ZZ9 -7.000000
    Z3ZZ9ZZ8 NCZZ4ZZ9 -33.000000
    Z4ZZ9ZZ8 OBJZZZZZ 1.000000   NCZZ5ZZ8 1.000000
    Z4ZZ9ZZ8 ACZZ9ZZ8 1.000000   NCZZ5ZZ9 -1.000000
    Z4ZZ9ZZ8 ACZZ9ZZ9 -1.000000
    Z1Z10ZZ8 CCZ10ZZ8 1.000000
    Z2Z10ZZ8 OBJZZZZZ 10.000000   NCZZ4ZZ8 10.000000
    Z2Z10ZZ8 ACZ10ZZ8 10.000000   CCZ10ZZ8 1.000000
    Z2Z10ZZ8 NCZZ6ZZ9 -10.000000
    Z3Z10ZZ8 OBJZZZZZ 20.000000   NCZZ4ZZ8 20.000000
    Z3Z10ZZ8 ACZ10ZZ8 20.000000   CCZ10ZZ8 1.000000
    Z3Z10ZZ8 NCZZ4ZZ9 -5.000000   ACZ10ZZ9 -5.000000
    Z3Z10ZZ8 NCZZ6ZZ9 -15.000000
    Z4Z10ZZ8 OBJZZZZZ 1.000000   NCZZ4ZZ8 1.000000
    Z4Z10ZZ8 ACZ10ZZ8 1.000000   NCZZ4ZZ9 -1.000000
    Z4Z10ZZ8 ACZ10ZZ9 -1.000000
    Z1Z11ZZ8 CCZ11ZZ8 1.000000
    Z2Z11ZZ8 OBJZZZZZ 15.000000   NCZZ6ZZ8 15.000000
    Z2Z11ZZ8 ACZ11ZZ8 15.000000   CCZ11ZZ8 1.000000
    Z3Z11ZZ8 OBJZZZZZ 25.000000   NCZZ6ZZ8 25.000000
    Z3Z11ZZ8 ACZ11ZZ8 25.000000   CCZ11ZZ8 1.000000
    Z3Z11ZZ8 NCZZ6ZZ9 -7.000000   ACZ11ZZ9 -7.000000
    Z4Z11ZZ8 OBJZZZZZ 1.000000   NCZZ6ZZ8 1.000000
    Z4Z11ZZ8 ACZ11ZZ8 1.000000   NCZZ6ZZ9 -1.000000
    Z4Z11ZZ8 ACZ11ZZ9 -1.000000
    Z1Z12ZZ8 CCZ12ZZ8 1.000000
    Z2Z12ZZ8 OBJZZZZZ 50.000000   NCZZ5ZZ8 50.000000
    Z2Z12ZZ8 ACZ12ZZ8 50.000000   CCZ12ZZ8 1.000000
    Z3Z12ZZ8 OBJZZZZZ 80.000000   NCZZ5ZZ8 80.000000
    Z3Z12ZZ8 ACZ12ZZ8 80.000000   CCZ12ZZ8 1.000000
    Z3Z12ZZ8 NCZZ5ZZ9 -15.000000   ACZ12ZZ9 -15.000000
    Z4Z12ZZ8 OBJZZZZZ 1.000000   NCZZ5ZZ8 1.000000
    Z4Z12ZZ8 ACZ12ZZ8 1.000000   NCZZ5ZZ9 -1.000000
    Z4Z12ZZ8 ACZ12ZZ9 -1.000000
    Z1ZZ1ZZ9 CCZZ1ZZ9 1.000000
    Z2ZZ1ZZ9 OBJZZZZZ 10.000000   NCZZ1ZZ9 10.000000
    Z2ZZ1ZZ9 ACZZ1ZZ9 10.000000   CCZZ1ZZ9 1.000000
    Z2ZZ1ZZ9 NCZZ2Z10 -10.000000
    Z3ZZ1ZZ9 OBJZZZZZ 20.000000   NCZZ1ZZ9 20.000000
    Z3ZZ1ZZ9 ACZZ1ZZ9 20.000000   CCZZ1ZZ9 1.000000
    Z3ZZ1ZZ9 NCZZ1Z10 -5.000000   ACZZ1Z10 -5.000000
    Z3ZZ1ZZ9 NCZZ2Z10 -15.000000
    Z4ZZ1ZZ9 OBJZZZZZ 1.000000   NCZZ1ZZ9 1.000000
    Z4ZZ1ZZ9 ACZZ1ZZ9 1.000000   NCZZ1Z10 -1.000000
    Z4ZZ1ZZ9 ACZZ1Z10 -1.000000
    Z1ZZ2ZZ9 CCZZ2ZZ9 1.000000
    Z2ZZ2ZZ9 OBJZZZZZ 15.000000   NCZZ2ZZ9 15.000000
    Z2ZZ2ZZ9 ACZZ2ZZ9 15.000000   CCZZ2ZZ9 1.000000
    Z2ZZ2ZZ9 NCZZ3Z10 -15.000000
    Z3ZZ2ZZ9 OBJZZZZZ 25.000000   NCZZ2ZZ9 25.000000
    Z3ZZ2ZZ9 ACZZ2ZZ9 25.000000   CCZZ2ZZ9 1.000000
    Z3ZZ2ZZ9 NCZZ2Z10 -7.000000   ACZZ2Z10 -7.000000
    Z3ZZ2ZZ9 NCZZ3Z10 -18.000000
    Z4ZZ2ZZ9 OBJZZZZZ 1.000000   NCZZ2ZZ9 1.000000
    Z4ZZ2ZZ9 ACZZ2ZZ9 1.000000   NCZZ2Z10 -1.000000
    Z4ZZ2ZZ9 ACZZ2Z10 -1.000000
    Z1ZZ3ZZ9 CCZZ3ZZ9 1.000000
    Z2ZZ3ZZ9 OBJZZZZZ 10.000000   NCZZ2ZZ9 10.000000
    Z2ZZ3ZZ9 ACZZ3ZZ9 10.000000   CCZZ3ZZ9 1.000000
    Z2ZZ3ZZ9 NCZZ1Z10 -10.000000
    Z3ZZ3ZZ9 OBJZZZZZ 20.000000   NCZZ2ZZ9 20.000000
    Z3ZZ3ZZ9 ACZZ3ZZ9 20.000000   CCZZ3ZZ9 1.000000
    Z3ZZ3ZZ9 NCZZ2Z10 -5.000000   ACZZ3Z10 -5.000000
    Z3ZZ3ZZ9 NCZZ1Z10 -15.000000
    Z4ZZ3ZZ9 OBJZZZZZ 1.000000   NCZZ2ZZ9 1.000000
    Z4ZZ3ZZ9 ACZZ3ZZ9 1.000000   NCZZ2Z10 -1.000000
    Z4ZZ3ZZ9 ACZZ3Z10 -1.000000
    Z1ZZ4ZZ9 CCZZ4ZZ9 1.000000
    Z2ZZ4ZZ9 OBJZZZZZ 15.000000   NCZZ1ZZ9 15.000000
    Z2ZZ4ZZ9 ACZZ4ZZ9 15.000000   CCZZ4ZZ9 1.000000
    Z2ZZ4ZZ9 NCZZ4Z10 -15.000000
    Z3ZZ4ZZ9 OBJZZZZZ 25.000000   NCZZ1ZZ9 25.000000
    Z3ZZ4ZZ9 ACZZ4ZZ9 25.000000   CCZZ4ZZ9 1.000000
    Z3ZZ4ZZ9 NCZZ1Z10 -7.000000   ACZZ4Z10 -7.000000
    Z3ZZ4ZZ9 NCZZ4Z10 -18.000000
    Z4ZZ4ZZ9 OBJZZZZZ 1.000000   NCZZ1ZZ9 1.000000
    Z4ZZ4ZZ9 ACZZ4ZZ9 1.000000   NCZZ1Z10 -1.000000
    Z4ZZ4ZZ9 ACZZ4Z10 -1.000000
    Z1ZZ5ZZ9 CCZZ5ZZ9 1.000000
    Z2ZZ5ZZ9 OBJZZZZZ 15.000000   NCZZ2ZZ9 15.000000
    Z2ZZ5ZZ9 ACZZ5ZZ9 15.000000   CCZZ5ZZ9 1.000000
    Z2ZZ5ZZ9 NCZZ4Z10 -15.000000
    Z3ZZ5ZZ9 OBJZZZZZ 25.000000   NCZZ2ZZ9 25.000000
    Z3ZZ5ZZ9 ACZZ5ZZ9 25.000000   CCZZ5ZZ9 1.000000
    Z3ZZ5ZZ9 NCZZ2Z10 -7.000000   ACZZ5Z10 -7.000000
    Z3ZZ5ZZ9 NCZZ4Z10 -18.000000
    Z4ZZ5ZZ9 OBJZZZZZ 1.000000   NCZZ2ZZ9 1.000000
    Z4ZZ5ZZ9 ACZZ5ZZ9 1.000000   NCZZ2Z10 -1.000000
    Z4ZZ5ZZ9 ACZZ5Z10 -1.000000
    Z1ZZ6ZZ9 CCZZ6ZZ9 1.000000
    Z2ZZ6ZZ9 OBJZZZZZ 10.000000   NCZZ2ZZ9 10.000000
    Z2ZZ6ZZ9 ACZZ6ZZ9 10.000000   CCZZ6ZZ9 1.000000
    Z2ZZ6ZZ9 NCZZ5Z10 -10.000000
    Z3ZZ6ZZ9 OBJZZZZZ 20.000000   NCZZ2ZZ9 20.000000
    Z3ZZ6ZZ9 ACZZ6ZZ9 20.000000   CCZZ6ZZ9 1.000000
    Z3ZZ6ZZ9 NCZZ2Z10 -5.000000   ACZZ6Z10 -5.000000
    Z3ZZ6ZZ9 NCZZ5Z10 -15.000000
    Z4ZZ6ZZ9 OBJZZZZZ 1.000000   NCZZ2ZZ9 1.000000
    Z4ZZ6ZZ9 ACZZ6ZZ9 1.000000   NCZZ2Z10 -1.000000
    Z4ZZ6ZZ9 ACZZ6Z10 -1.000000
    Z1ZZ7ZZ9 CCZZ7ZZ9 1.000000
    Z2ZZ7ZZ9 OBJZZZZZ 10.000000   NCZZ3ZZ9 10.000000
    Z2ZZ7ZZ9 ACZZ7ZZ9 10.000000   CCZZ7ZZ9 1.000000
    Z2ZZ7ZZ9 NCZZ5Z10 -10.000000
    Z3ZZ7ZZ9 OBJZZZZZ 20.000000   NCZZ3ZZ9 20.000000
    Z3ZZ7ZZ9 ACZZ7ZZ9 20.000000   CCZZ7ZZ9 1.000000
    Z3ZZ7ZZ9 NCZZ3Z10 -5.000000   ACZZ7Z10 -5.000000
    Z3ZZ7ZZ9 NCZZ5Z10 -15.000000
    Z4ZZ7ZZ9 OBJZZZZZ 1.000000   NCZZ3ZZ9 1.000000
    Z4ZZ7ZZ9 ACZZ7ZZ9 1.000000   NCZZ3Z10 -1.000000
    Z4ZZ7ZZ9 ACZZ7Z10 -1.000000
    Z1ZZ8ZZ9 CCZZ8ZZ9 1.000000
    Z2ZZ8ZZ9 OBJZZZZZ 30.000000   NCZZ4ZZ9 30.000000
    Z2ZZ8ZZ9 ACZZ8ZZ9 30.000000   CCZZ8ZZ9 1.000000
    Z2ZZ8ZZ9 NCZZ5Z10 -30.000000
    Z3ZZ8ZZ9 OBJZZZZZ 40.000000   NCZZ4ZZ9 40.000000
    Z3ZZ8ZZ9 ACZZ8ZZ9 40.000000   CCZZ8ZZ9 1.000000
    Z3ZZ8ZZ9 NCZZ4Z10 -7.000000   ACZZ8Z10 -7.000000
    Z3ZZ8ZZ9 NCZZ5Z10 -33.000000
    Z4ZZ8ZZ9 OBJZZZZZ 1.000000   NCZZ4ZZ9 1.000000
    Z4ZZ8ZZ9 ACZZ8ZZ9 1.000000   NCZZ4Z10 -1.000000
    Z4ZZ8ZZ9 ACZZ8Z10 -1.000000
    Z1ZZ9ZZ9 CCZZ9ZZ9 1.000000
    Z2ZZ9ZZ9 OBJZZZZZ 30.000000   NCZZ5ZZ9 30.000000
    Z2ZZ9ZZ9 ACZZ9ZZ9 30.000000   CCZZ9ZZ9 1.000000
    Z2ZZ9ZZ9 NCZZ4Z10 -30.000000
    Z3ZZ9ZZ9 OBJZZZZZ 40.000000   NCZZ5ZZ9 40.000000
    Z3ZZ9ZZ9 ACZZ9ZZ9 40.000000   CCZZ9ZZ9 1.000000
    Z3ZZ9ZZ9 NCZZ5Z10 -7.000000   ACZZ9Z10 -7.000000
    Z3ZZ9ZZ9 NCZZ4Z10 -33.000000
    Z4ZZ9ZZ9 OBJZZZZZ 1.000000   NCZZ5ZZ9 1.000000
    Z4ZZ9ZZ9 ACZZ9ZZ9 1.000000   NCZZ5Z10 -1.000000
    Z4ZZ9ZZ9 ACZZ9Z10 -1.000000
    Z1Z10ZZ9 CCZ10ZZ9 1.000000
    Z2Z10ZZ9 OBJZZZZZ 10.000000   NCZZ4ZZ9 10.000000
    Z2Z10ZZ9 ACZ10ZZ9 10.000000   CCZ10ZZ9 1.000000
    Z2Z10ZZ9 NCZZ6Z10 -10.000000
    Z3Z10ZZ9 OBJZZZZZ 20.000000   NCZZ4ZZ9 20.000000
    Z3Z10ZZ9 ACZ10ZZ9 20.000000   CCZ10ZZ9 1.000000
    Z3Z10ZZ9 NCZZ4Z10 -5.000000   ACZ10Z10 -5.000000
    Z3Z10ZZ9 NCZZ6Z10 -15.000000
    Z4Z10ZZ9 OBJZZZZZ 1.000000   NCZZ4ZZ9 1.000000
    Z4Z10ZZ9 ACZ10ZZ9 1.000000   NCZZ4Z10 -1.000000
    Z4Z10ZZ9 ACZ10Z10 -1.000000
    Z1Z11ZZ9 CCZ11ZZ9 1.000000
    Z2Z11ZZ9 OBJZZZZZ 15.000000   NCZZ6ZZ9 15.000000
    Z2Z11ZZ9 ACZ11ZZ9 15.000000   CCZ11ZZ9 1.000000
    Z3Z11ZZ9 OBJZZZZZ 25.000000   NCZZ6ZZ9 25.000000
    Z3Z11ZZ9 ACZ11ZZ9 25.000000   CCZ11ZZ9 1.000000
    Z3Z11ZZ9 NCZZ6Z10 -7.000000   ACZ11Z10 -7.000000
    Z4Z11ZZ9 OBJZZZZZ 1.000000   NCZZ6ZZ9 1.000000
    Z4Z11ZZ9 ACZ11ZZ9 1.000000   NCZZ6Z10 -1.000000
    Z4Z11ZZ9 ACZ11Z10 -1.000000
    Z1Z12ZZ9 CCZ12ZZ9 1.000000
    Z2Z12ZZ9 OBJZZZZZ 50.000000   NCZZ5ZZ9 50.000000
    Z2Z12ZZ9 ACZ12ZZ9 50.000000   CCZ12ZZ9 1.000000
    Z3Z12ZZ9 OBJZZZZZ 80.000000   NCZZ5ZZ9 80.000000
    Z3Z12ZZ9 ACZ12ZZ9 80.000000   CCZ12ZZ9 1.000000
    Z3Z12ZZ9 NCZZ5Z10 -15.000000   ACZ12Z10 -15.000000
    Z4Z12ZZ9 OBJZZZZZ 1.000000   NCZZ5ZZ9 1.000000
    Z4Z12ZZ9 ACZ12ZZ9 1.000000   NCZZ5Z10 -1.000000
    Z4Z12ZZ9 ACZ12Z10 -1.000000
    Z1ZZ1Z10 CCZZ1Z10 1.000000
    Z2ZZ1Z10 OBJZZZZZ 10.000000   NCZZ1Z10 10.000000
    Z2ZZ1Z10 ACZZ1Z10 10.000000   CCZZ1Z10 1.000000
    Z3ZZ1Z10 OBJZZZZZ 20.000000   NCZZ1Z10 20.000000
    Z3ZZ1Z10 ACZZ1Z10 20.000000   CCZZ1Z10 1.000000
    Z4ZZ1Z10 OBJZZZZZ 1.000000   NCZZ1Z10 1.000000
    Z4ZZ1Z10 ACZZ1Z10 1.000000
    Z1ZZ2Z10 CCZZ2Z10 1.000000
    Z2ZZ2Z10 OBJZZZZZ 15.000000   NCZZ2Z10 15.000000
    Z2ZZ2Z10 ACZZ2Z10 15.000000   CCZZ2Z10 1.000000
    Z3ZZ2Z10 OBJZZZZZ 25.000000   NCZZ2Z10 25.000000
    Z3ZZ2Z10 ACZZ2Z10 25.000000   CCZZ2Z10 1.000000
    Z4ZZ2Z10 OBJZZZZZ 1.000000   NCZZ2Z10 1.000000
    Z4ZZ2Z10 ACZZ2Z10 1.000000
    Z1ZZ3Z10 CCZZ3Z10 1.000000
    Z2ZZ3Z10 OBJZZZZZ 10.000000   NCZZ2Z10 10.000000
    Z2ZZ3Z10 ACZZ3Z10 10.000000   CCZZ3Z10 1.000000
    Z3ZZ3Z10 OBJZZZZZ 20.000000   NCZZ2Z10 20.000000
    Z3ZZ3Z10 ACZZ3Z10 20.000000   CCZZ3Z10 1.000000
    Z4ZZ3Z10 OBJZZZZZ 1.000000   NCZZ2Z10 1.000000
    Z4ZZ3Z10 ACZZ3Z10 1.000000
    Z1ZZ4Z10 CCZZ4Z10 1.000000
    Z2ZZ4Z10 OBJZZZZZ 15.000000   NCZZ1Z10 15.000000
    Z2ZZ4Z10 ACZZ4Z10 15.000000   CCZZ4Z10 1.000000
    Z3ZZ4Z10 OBJZZZZZ 25.000000   NCZZ1Z10 25.000000
    Z3ZZ4Z10 ACZZ4Z10 25.000000   CCZZ4Z10 1.000000
    Z4ZZ4Z10 OBJZZZZZ 1.000000   NCZZ1Z10 1.000000
    Z4ZZ4Z10 ACZZ4Z10 1.000000
    Z1ZZ5Z10 CCZZ5Z10 1.000000
    Z2ZZ5Z10 OBJZZZZZ 15.000000   NCZZ2Z10 15.000000
    Z2ZZ5Z10 ACZZ5Z10 15.000000   CCZZ5Z10 1.000000
    Z3ZZ5Z10 OBJZZZZZ 25.000000   NCZZ2Z10 25.000000
    Z3ZZ5Z10 ACZZ5Z10 25.000000   CCZZ5Z10 1.000000
    Z4ZZ5Z10 OBJZZZZZ 1.000000   NCZZ2Z10 1.000000
    Z4ZZ5Z10 ACZZ5Z10 1.000000
    Z1ZZ6Z10 CCZZ6Z10 1.000000
    Z2ZZ6Z10 OBJZZZZZ 10.000000   NCZZ2Z10 10.000000
    Z2ZZ6Z10 ACZZ6Z10 10.000000   CCZZ6Z10 1.000000
    Z3ZZ6Z10 OBJZZZZZ 20.000000   NCZZ2Z10 20.000000
    Z3ZZ6Z10 ACZZ6Z10 20.000000   CCZZ6Z10 1.000000
    Z4ZZ6Z10 OBJZZZZZ 1.000000   NCZZ2Z10 1.000000
    Z4ZZ6Z10 ACZZ6Z10 1.000000
    Z1ZZ7Z10 CCZZ7Z10 1.000000
    Z2ZZ7Z10 OBJZZZZZ 10.000000   NCZZ3Z10 10.000000
    Z2ZZ7Z10 ACZZ7Z10 10.000000   CCZZ7Z10 1.000000
    Z3ZZ7Z10 OBJZZZZZ 20.000000   NCZZ3Z10 20.000000
    Z3ZZ7Z10 ACZZ7Z10 20.000000   CCZZ7Z10 1.000000
    Z4ZZ7Z10 OBJZZZZZ 1.000000   NCZZ3Z10 1.000000
    Z4ZZ7Z10 ACZZ7Z10 1.000000
    Z1ZZ8Z10 CCZZ8Z10 1.000000
    Z2ZZ8Z10 OBJZZZZZ 30.000000   NCZZ4Z10 30.000000
    Z2ZZ8Z10 ACZZ8Z10 30.000000   CCZZ8Z10 1.000000
    Z3ZZ8Z10 OBJZZZZZ 40.000000   NCZZ4Z10 40.000000
    Z3ZZ8Z10 ACZZ8Z10 40.000000   CCZZ8Z10 1.000000
    Z4ZZ8Z10 OBJZZZZZ 1.000000   NCZZ4Z10 1.000000
    Z4ZZ8Z10 ACZZ8Z10 1.000000
    Z1ZZ9Z10 CCZZ9Z10 1.000000
    Z2ZZ9Z10 OBJZZZZZ 30.000000   NCZZ5Z10 30.000000
    Z2ZZ9Z10 ACZZ9Z10 30.000000   CCZZ9Z10 1.000000
    Z3ZZ9Z10 OBJZZZZZ 40.000000   NCZZ5Z10 40.000000
    Z3ZZ9Z10 ACZZ9Z10 40.000000   CCZZ9Z10 1.000000
    Z4ZZ9Z10 OBJZZZZZ 1.000000   NCZZ5Z10 1.000000
    Z4ZZ9Z10 ACZZ9Z10 1.000000
    Z1Z10Z10 CCZ10Z10 1.000000
    Z2Z10Z10 OBJZZZZZ 10.000000   NCZZ4Z10 10.000000
    Z2Z10Z10 ACZ10Z10 10.000000   CCZ10Z10 1.000000
    Z3Z10Z10 OBJZZZZZ 20.000000   NCZZ4Z10 20.000000
    Z3Z10Z10 ACZ10Z10 20.000000   CCZ10Z10 1.000000
    Z4Z10Z10 OBJZZZZZ 1.000000   NCZZ4Z10 1.000000
    Z4Z10Z10 ACZ10Z10 1.000000
    Z1Z11Z10 CCZ11Z10 1.000000
    Z2Z11Z10 OBJZZZZZ 15.000000   NCZZ6Z10 15.000000
    Z2Z11Z10 ACZ11Z10 15.000000   CCZ11Z10 1.000000
    Z3Z11Z10 OBJZZZZZ 25.000000   NCZZ6Z10 25.000000
    Z3Z11Z10 ACZ11Z10 25.000000   CCZ11Z10 1.000000
    Z4Z11Z10 OBJZZZZZ 1.000000   NCZZ6Z10 1.000000
    Z4Z11Z10 ACZ11Z10 1.000000
    Z1Z12Z10 CCZ12Z10 1.000000
    Z2Z12Z10 OBJZZZZZ 50.000000   NCZZ5Z10 50.000000
    Z2Z12Z10 ACZ12Z10 50.000000   CCZ12Z10 1.000000
    Z3Z12Z10 OBJZZZZZ 80.000000   NCZZ5Z10 80.000000
    Z3Z12Z10 ACZ12Z10 80.000000   CCZ12Z10 1.000000
    Z4Z12Z10 OBJZZZZZ 1.000000   NCZZ5Z10 1.000000
    Z4Z12Z10 ACZ12Z10 1.000000
    SLACK38827 NCZZ1ZZ1 -1.000000
    SLACK38828 NCZZ2ZZ1 -1.000000
    SLACK38829 NCZZ3ZZ1 -1.000000
    SLACK38830 NCZZ4ZZ1 -1.000000
    SLACK38831 NCZZ5ZZ1 -1.000000
    SLACK38832 NCZZ6ZZ1 -1.000000
    SLACK38833 ACZZ1ZZ1 -1.000000
    SLACK38834 ACZZ2ZZ1 -1.000000
    SLACK38835 ACZZ3ZZ1 -1.000000
    SLACK38836 ACZZ4ZZ1 -1.000000
    SLACK38837 ACZZ5ZZ1 -1.000000
    SLACK38838 ACZZ6ZZ1 -1.000000
    SLACK38839 ACZZ7ZZ1 -1.000000
    SLACK38840 ACZZ8ZZ1 -1.000000
    SLACK38841 ACZZ9ZZ1 -1.000000
    SLACK38842 ACZ10ZZ1 -1.000000
    SLACK38843 ACZ11ZZ1 -1.000000
    SLACK38844 ACZ12ZZ1 -1.000000
    SLACK38845 NCZZ1ZZ2 -1.000000
    SLACK38846 NCZZ2ZZ2 -1.000000
    SLACK38847 NCZZ3ZZ2 -1.000000
    SLACK38848 NCZZ4ZZ2 -1.000000
    SLACK38849 NCZZ5ZZ2 -1.000000
    SLACK38850 NCZZ6ZZ2 -1.000000
    SLACK38851 ACZZ1ZZ2 -1.000000
    SLACK38852 ACZZ2ZZ2 -1.000000
    SLACK38853 ACZZ3ZZ2 -1.000000
    SLACK38854 ACZZ4ZZ2 -1.000000
    SLACK38855 ACZZ5ZZ2 -1.000000
    SLACK38856 ACZZ6ZZ2 -1.000000
    SLACK38857 ACZZ7ZZ2 -1.000000
    SLACK38858 ACZZ8ZZ2 -1.000000
    SLACK38859 ACZZ9ZZ2 -1.000000
    SLACK38860 ACZ10ZZ2 -1.000000
    SLACK38861 ACZ11ZZ2 -1.000000
    SLACK38862 ACZ12ZZ2 -1.000000
    SLACK38863 NCZZ1ZZ3 -1.000000
    SLACK38864 NCZZ2ZZ3 -1.000000
    SLACK38865 NCZZ3ZZ3 -1.000000
    SLACK38866 NCZZ4ZZ3 -1.000000
    SLACK38867 NCZZ5ZZ3 -1.000000
    SLACK38868 NCZZ6ZZ3 -1.000000
    SLACK38869 ACZZ1ZZ3 -1.000000
    SLACK38870 ACZZ2ZZ3 -1.000000
    SLACK38871 ACZZ3ZZ3 -1.000000
    SLACK38872 ACZZ4ZZ3 -1.000000
    SLACK38873 ACZZ5ZZ3 -1.000000
    SLACK38874 ACZZ6ZZ3 -1.000000
    SLACK38875 ACZZ7ZZ3 -1.000000
    SLACK38876 ACZZ8ZZ3 -1.000000
    SLACK38877 ACZZ9ZZ3 -1.000000
    SLACK38878 ACZ10ZZ3 -1.000000
    SLACK38879 ACZ11ZZ3 -1.000000
    SLACK38880 ACZ12ZZ3 -1.000000
    SLACK38881 NCZZ1ZZ4 -1.000000
    SLACK38882 NCZZ2ZZ4 -1.000000
    SLACK38883 NCZZ3ZZ4 -1.000000
    SLACK38884 NCZZ4ZZ4 -1.000000
    SLACK38885 NCZZ5ZZ4 -1.000000
    SLACK38886 NCZZ6ZZ4 -1.000000
    SLACK38887 ACZZ1ZZ4 -1.000000
    SLACK38888 ACZZ2ZZ4 -1.000000
    SLACK38889 ACZZ3ZZ4 -1.000000
    SLACK38890 ACZZ4ZZ4 -1.000000
    SLACK38891 ACZZ5ZZ4 -1.000000
    SLACK38892 ACZZ6ZZ4 -1.000000
    SLACK38893 ACZZ7ZZ4 -1.000000
    SLACK38894 ACZZ8ZZ4 -1.000000
    SLACK38895 ACZZ9ZZ4 -1.000000
    SLACK38896 ACZ10ZZ4 -1.000000
    SLACK38897 ACZ11ZZ4 -1.000000
    SLACK38898 ACZ12ZZ4 -1.000000
    SLACK38899 NCZZ1ZZ5 -1.000000
    SLACK38900 NCZZ2ZZ5 -1.000000
    SLACK38901 NCZZ3ZZ5 -1.000000
    SLACK38902 NCZZ4ZZ5 -1.000000
    SLACK38903 NCZZ5ZZ5 -1.000000
    SLACK38904 NCZZ6ZZ5 -1.000000
    SLACK38905 ACZZ1ZZ5 -1.000000
    SLACK38906 ACZZ2ZZ5 -1.000000
    SLACK38907 ACZZ3ZZ5 -1.000000
    SLACK38908 ACZZ4ZZ5 -1.000000
    SLACK38909 ACZZ5ZZ5 -1.000000
    SLACK38910 ACZZ6ZZ5 -1.000000
    SLACK38911 ACZZ7ZZ5 -1.000000
    SLACK38912 ACZZ8ZZ5 -1.000000
    SLACK38913 ACZZ9ZZ5 -1.000000
    SLACK38914 ACZ10ZZ5 -1.000000
    SLACK38915 ACZ11ZZ5 -1.000000
    SLACK38916 ACZ12ZZ5 -1.000000
    SLACK38917 NCZZ1ZZ6 -1.000000
    SLACK38918 NCZZ2ZZ6 -1.000000
    SLACK38919 NCZZ3ZZ6 -1.000000
    SLACK38920 NCZZ4ZZ6 -1.000000
    SLACK38921 NCZZ5ZZ6 -1.000000
    SLACK38922 NCZZ6ZZ6 -1.000000
    SLACK38923 ACZZ1ZZ6 -1.000000
    SLACK38924 ACZZ2ZZ6 -1.000000
    SLACK38925 ACZZ3ZZ6 -1.000000
    SLACK38926 ACZZ4ZZ6 -1.000000
    SLACK38927 ACZZ5ZZ6 -1.000000
    SLACK38928 ACZZ6ZZ6 -1.000000
    SLACK38929 ACZZ7ZZ6 -1.000000
    SLACK38930 ACZZ8ZZ6 -1.000000
    SLACK38931 ACZZ9ZZ6 -1.000000
    SLACK38932 ACZ10ZZ6 -1.000000
    SLACK38933 ACZ11ZZ6 -1.000000
    SLACK38934 ACZ12ZZ6 -1.000000
    SLACK38935 NCZZ1ZZ7 -1.000000
    SLACK38936 NCZZ2ZZ7 -1.000000
    SLACK38937 NCZZ3ZZ7 -1.000000
    SLACK38938 NCZZ4ZZ7 -1.000000
    SLACK38939 NCZZ5ZZ7 -1.000000
    SLACK38940 NCZZ6ZZ7 -1.000000
    SLACK38941 ACZZ1ZZ7 -1.000000
    SLACK38942 ACZZ2ZZ7 -1.000000
    SLACK38943 ACZZ3ZZ7 -1.000000
    SLACK38944 ACZZ4ZZ7 -1.000000
    SLACK38945 ACZZ5ZZ7 -1.000000
    SLACK38946 ACZZ6ZZ7 -1.000000
    SLACK38947 ACZZ7ZZ7 -1.000000
    SLACK38948 ACZZ8ZZ7 -1.000000
    SLACK38949 ACZZ9ZZ7 -1.000000
    SLACK38950 ACZ10ZZ7 -1.000000
    SLACK38951 ACZ11ZZ7 -1.000000
    SLACK38952 ACZ12ZZ7 -1.000000
    SLACK38953 NCZZ1ZZ8 -1.000000
    SLACK38954 NCZZ2ZZ8 -1.000000
    SLACK38955 NCZZ3ZZ8 -1.000000
    SLACK38956 NCZZ4ZZ8 -1.000000
    SLACK38957 NCZZ5ZZ8 -1.000000
    SLACK38958 NCZZ6ZZ8 -1.000000
    SLACK38959 ACZZ1ZZ8 -1.000000
    SLACK38960 ACZZ2ZZ8 -1.000000
    SLACK38961 ACZZ3ZZ8 -1.000000
    SLACK38962 ACZZ4ZZ8 -1.000000
    SLACK38963 ACZZ5ZZ8 -1.000000
    SLACK38964 ACZZ6ZZ8 -1.000000
    SLACK38965 ACZZ7ZZ8 -1.000000
    SLACK38966 ACZZ8ZZ8 -1.000000
    SLACK38967 ACZZ9ZZ8 -1.000000
    SLACK38968 ACZ10ZZ8 -1.000000
    SLACK38969 ACZ11ZZ8 -1.000000
    SLACK38970 ACZ12ZZ8 -1.000000
    SLACK38971 NCZZ1ZZ9 -1.000000
    SLACK38972 NCZZ2ZZ9 -1.000000
    SLACK38973 NCZZ3ZZ9 -1.000000
    SLACK38974 NCZZ4ZZ9 -1.000000
    SLACK38975 NCZZ5ZZ9 -1.000000
    SLACK38976 NCZZ6ZZ9 -1.000000
    SLACK38977 ACZZ1ZZ9 -1.000000
    SLACK38978 ACZZ2ZZ9 -1.000000
    SLACK38979 ACZZ3ZZ9 -1.000000
    SLACK38980 ACZZ4ZZ9 -1.000000
    SLACK38981 ACZZ5ZZ9 -1.000000
    SLACK38982 ACZZ6ZZ9 -1.000000
    SLACK38983 ACZZ7ZZ9 -1.000000
    SLACK38984 ACZZ8ZZ9 -1.000000
    SLACK38985 ACZZ9ZZ9 -1.000000
    SLACK38986 ACZ10ZZ9 -1.000000
    SLACK38987 ACZ11ZZ9 -1.000000
    SLACK38988 ACZ12ZZ9 -1.000000
    SLACK38989 NCZZ1Z10 -1.000000
    SLACK38990 NCZZ2Z10 -1.000000
    SLACK38991 NCZZ3Z10 -1.000000
    SLACK38992 NCZZ4Z10 -1.000000
    SLACK38993 NCZZ5Z10 -1.000000
    SLACK38994 NCZZ6Z10 -1.000000
    SLACK38995 ACZZ1Z10 -1.000000
    SLACK38996 ACZZ2Z10 -1.000000
    SLACK38997 ACZZ3Z10 -1.000000
    SLACK38998 ACZZ4Z10 -1.000000
    SLACK38999 ACZZ5Z10 -1.000000
    SLACK39000 ACZZ6Z10 -1.000000
    SLACK39001 ACZZ7Z10 -1.000000
    SLACK39002 ACZZ8Z10 -1.000000
    SLACK39003 ACZZ9Z10 -1.000000
    SLACK39004 ACZ10Z10 -1.000000
    SLACK39005 ACZ11Z10 -1.000000
    SLACK39006 ACZ12Z10 -1.000000
RHS
    RHS      NCZZ1ZZ1 5.000000
    RHS      NCZZ2ZZ1 5.000000
    RHS      CCZZ1ZZ1 1.000000
    RHS      CCZZ2ZZ1 1.000000
    RHS      CCZZ3ZZ1 1.000000
    RHS      CCZZ4ZZ1 1.000000
    RHS      CCZZ5ZZ1 1.000000
    RHS      CCZZ6ZZ1 1.000000
    RHS      CCZZ7ZZ1 1.000000
    RHS      CCZZ8ZZ1 1.000000
    RHS      CCZZ9ZZ1 1.000000
    RHS      CCZ10ZZ1 1.000000
    RHS      CCZ11ZZ1 1.000000
    RHS      CCZ12ZZ1 1.000000
    RHS      NCZZ1ZZ2 10.000000
    RHS      NCZZ2ZZ2 30.000000
    RHS      NCZZ3ZZ2 10.000000
    RHS      NCZZ4ZZ2 5.000000
    RHS      CCZZ1ZZ2 1.000000
    RHS      CCZZ2ZZ2 1.000000
    RHS      CCZZ3ZZ2 1.000000
    RHS      CCZZ4ZZ2 1.000000
    RHS      CCZZ5ZZ2 1.000000
    RHS      CCZZ6ZZ2 1.000000
    RHS      CCZZ7ZZ2 1.000000
    RHS      CCZZ8ZZ2 1.000000
    RHS      CCZZ9ZZ2 1.000000
    RHS      CCZ10ZZ2 1.000000
    RHS      CCZ11ZZ2 1.000000
    RHS      CCZ12ZZ2 1.000000
    RHS      NCZZ1ZZ3 20.000000
    RHS      NCZZ2ZZ3 40.000000
    RHS      NCZZ3ZZ3 25.000000
    RHS      NCZZ4ZZ3 10.000000
    RHS      NCZZ5ZZ3 15.000000
    RHS      CCZZ1ZZ3 1.000000
    RHS      CCZZ2ZZ3 1.000000
    RHS      CCZZ3ZZ3 1.000000
    RHS      CCZZ4ZZ3 1.000000
    RHS      CCZZ5ZZ3 1.000000
    RHS      CCZZ6ZZ3 1.000000
    RHS      CCZZ7ZZ3 1.000000
    RHS      CCZZ8ZZ3 1.000000
    RHS      CCZZ9ZZ3 1.000000
    RHS      CCZ10ZZ3 1.000000
    RHS      CCZ11ZZ3 1.000000
    RHS      CCZ12ZZ3 1.000000
    RHS      NCZZ1ZZ4 10.000000
    RHS      NCZZ2ZZ4 30.000000
    RHS      NCZZ3ZZ4 20.000000
    RHS      NCZZ4ZZ4 20.000000
    RHS      NCZZ5ZZ4 40.000000
    RHS      CCZZ1ZZ4 1.000000
    RHS      CCZZ2ZZ4 1.000000
    RHS      CCZZ3ZZ4 1.000000
    RHS      CCZZ4ZZ4 1.000000
    RHS      CCZZ5ZZ4 1.000000
    RHS      CCZZ6ZZ4 1.000000
    RHS      CCZZ7ZZ4 1.000000
    RHS      CCZZ8ZZ4 1.000000
    RHS      CCZZ9ZZ4 1.000000
    RHS      CCZ10ZZ4 1.000000
    RHS      CCZ11ZZ4 1.000000
    RHS      CCZ12ZZ4 1.000000
    RHS      NCZZ1ZZ5 3.000000
    RHS      NCZZ2ZZ5 25.000000
    RHS      NCZZ3ZZ5 15.000000
    RHS      NCZZ4ZZ5 15.000000
    RHS      NCZZ5ZZ5 30.000000
    RHS      NCZZ6ZZ5 5.000000
    RHS      CCZZ1ZZ5 1.000000
    RHS      CCZZ2ZZ5 1.000000
    RHS      CCZZ3ZZ5 1.000000
    RHS      CCZZ4ZZ5 1.000000
    RHS      CCZZ5ZZ5 1.000000
    RHS      CCZZ6ZZ5 1.000000
    RHS      CCZZ7ZZ5 1.000000
    RHS      CCZZ8ZZ5 1.000000
    RHS      CCZZ9ZZ5 1.000000
    RHS      CCZ10ZZ5 1.000000
    RHS      CCZ11ZZ5 1.000000
    RHS      CCZ12ZZ5 1.000000
    RHS      NCZZ2ZZ6 20.000000
    RHS      NCZZ3ZZ6 10.000000
    RHS      NCZZ4ZZ6 10.000000
    RHS      NCZZ5ZZ6 20.000000
    RHS      NCZZ6ZZ6 15.000000
    RHS      CCZZ1ZZ6 1.000000
    RHS      CCZZ2ZZ6 1.000000
    RHS      CCZZ3ZZ6 1.000000
    RHS      CCZZ4ZZ6 1.000000
    RHS      CCZZ5ZZ6 1.000000
    RHS      CCZZ6ZZ6 1.000000
    RHS      CCZZ7ZZ6 1.000000
    RHS      CCZZ8ZZ6 1.000000
    RHS      CCZZ9ZZ6 1.000000
    RHS      CCZ10ZZ6 1.000000
    RHS      CCZ11ZZ6 1.000000
    RHS      CCZ12ZZ6 1.000000
    RHS      NCZZ2ZZ7 10.000000
    RHS      NCZZ4ZZ7 10.000000
    RHS      NCZZ5ZZ7 10.000000
    RHS      NCZZ6ZZ7 20.000000
    RHS      CCZZ1ZZ7 1.000000
    RHS      CCZZ2ZZ7 1.000000
    RHS      CCZZ3ZZ7 1.000000
    RHS      CCZZ4ZZ7 1.000000
    RHS      CCZZ5ZZ7 1.000000
    RHS      CCZZ6ZZ7 1.000000
    RHS      CCZZ7ZZ7 1.000000
    RHS      CCZZ8ZZ7 1.000000
    RHS      CCZZ9ZZ7 1.000000
    RHS      CCZ10ZZ7 1.000000
    RHS      CCZ11ZZ7 1.000000
    RHS      CCZ12ZZ7 1.000000
    RHS      NCZZ4ZZ8 5.000000
    RHS      NCZZ6ZZ8 10.000000
    RHS      CCZZ1ZZ8 1.000000
    RHS      CCZZ2ZZ8 1.000000
    RHS      CCZZ3ZZ8 1.000000
    RHS      CCZZ4ZZ8 1.000000
    RHS      CCZZ5ZZ8 1.000000
    RHS      CCZZ6ZZ8 1.000000
    RHS      CCZZ7ZZ8 1.000000
    RHS      CCZZ8ZZ8 1.000000
    RHS      CCZZ9ZZ8 1.000000
    RHS      CCZ10ZZ8 1.000000
    RHS      CCZ11ZZ8 1.000000
    RHS      CCZ12ZZ8 1.000000
    RHS      NCZZ6ZZ9 5.000000
    RHS      CCZZ1ZZ9 1.000000
    RHS      CCZZ2ZZ9 1.000000
    RHS      CCZZ3ZZ9 1.000000
    RHS      CCZZ4ZZ9 1.000000
    RHS      CCZZ5ZZ9 1.000000
    RHS      CCZZ6ZZ9 1.000000
    RHS      CCZZ7ZZ9 1.000000
    RHS      CCZZ8ZZ9 1.000000
    RHS      CCZZ9ZZ9 1.000000
    RHS      CCZ10ZZ9 1.000000
    RHS      CCZ11ZZ9 1.000000
    RHS      CCZ12ZZ9 1.000000
    RHS      CCZZ1Z10 1.000000
    RHS      CCZZ2Z10 1.000000
    RHS      CCZZ3Z10 1.000000
    RHS      CCZZ4Z10 1.000000
    RHS      CCZZ5Z10 1.000000
    RHS      CCZZ6Z10 1.000000
    RHS      CCZZ7Z10 1.000000
    RHS      CCZZ8Z10 1.000000
    RHS      CCZZ9Z10 1.000000
    RHS      CCZ10Z10 1.000000
    RHS      CCZ11Z10 1.000000
    RHS      CCZ12Z10 1.000000
BOUNDS
ENDATA
