NAME          SEBA
ROWS
 N  00000000
 E  20001000
 E  20002000
 E  20003000
 E  20043000
 E  20046000
 E  20063000
 E  20107000
 E  20113000
 E  20119000
 E  20120000
 E  20124000
 E  20126000
 E  20130000
 E  20140000
 E  20141000
 E  20142000
 E  20144000
 E  20145000
 E  20149000
 E  20154000
 E  20164900
 E  20165900
 E  20166000
 E  20168000
 E  20169000
 E  20171000
 E  20172000
 E  20173000
 E  20176000
 E  20177000
 E  20179000
 E  20181000
 E  20186000
 E  20190000
 E  20192000
 E  20194000
 E  20197000
 E  20198000
 E  20202000
 E  20208000
 E  20213000
 E  20221000
 E  20225000
 E  20226000
 E  20228000
 E  20229000
 E  20242000
 E  20285000
 E  20290000
 E  20291000
 E  20304000
 E  20307000
 E  20318000
 E  20344000
 E  20410000
 E  20413011
 E  20416000
 E  20471000
 E  20472000
 E  20474000
 E  20475000
 E  20476000
 E  20478000
 E  20482000
 E  20484000
 E  20485000
 E  20490000
 E  20495000
 E  20496000
 E  20497000
 E  20498000
 E  20499000
 E  20505000
 E  20507000
 E  20508000
 E  20509000
 E  20522000
 E  20523000
 E  20561000
 E  20562000
 E  20570000
 E  20580000
 E  20662000
 E  20664000
 E  20665000
 E  20668000
 E  20692000
 E  20695000
 E  20700000
 E  20701000
 E  20702000
 E  20703000
 E  20728000
 E  20742000
 E  20743000
 E  20864000
 E  20938000
 E  20955001
 E  20956000
 E  21078000
 E  21141000
 E  21179000
 E  21186000
 E  21221000
 E  21223000
 E  21246001
 E  21254000
 E  21258000
 E  21343000
 E  21354000
 E  21377001
 E  21377002
 E  21379000
 E  21380000
 E  21382000
 E  21391000
 E  21392000
 E  21422000
 E  21423000
 E  21425000
 E  21426000
 E  21447000
 E  21452000
 E  21453000
 E  21454000
 E  21456000
 E  21457000
 E  21458000
 E  21496000
 E  21519000
 E  21523000
 E  21527000
 E  21528000
 E  21536000
 E  21548000
 E  21553000
 E  21573000
 E  21597000
 E  21615000
 E  21640000
 E  21714900
 E  21726900
 E  21733001
 E  21733007
 E  21745001
 E  21777000
 E  21813000
 E  21818000
 E  21904000
 E  21920000
 E  21932000
 E  21973000
 E  22004000
 E  22038000
 E  22081000
 E  22171000
 E  22174000
 E  22186000
 E  22190000
 E  22196000
 E  22339000
 E  22342000
 E  22384000
 E  22386000
 E  22393000
 E  22420000
 E  22425000
 E  22439000
 E  22447000
 E  22471000
 E  22472000
 E  22473000
 E  22475000
 E  22477000
 E  22479000
 E  22481000
 E  22483000
 E  22491000
 E  22498000
 E  22503000
 E  22505000
 E  22507000
 E  22529000
 E  22530000
 E  22531000
 E  22539000
 E  22576000
 E  22577000
 E  22616900
 E  22624000
 E  22628000
 E  22642000
 E  22658000
 E  22689000
 E  22690000
 E  22691000
 E  22868000
 E  22896000
 E  22905000
 E  22922000
 E  22987000
 E  22989000
 E  22991000
 E  22995000
 E  23002000
 E  23012000
 E  23013000
 E  23013999
 E  23022000
 E  23038000
 E  23044000
 E  23115001
 E  23125000
 E  23130000
 E  23131000
 E  23132000
 E  23136000
 E  23140000
 E  23146000
 E  23148000
 E  23151000
 E  23152000
 E  23154000
 E  23156000
 E  23157000
 E  23168000
 E  23170000
 E  23190001
 E  23197000
 E  23238000
 E  23239000
 E  23240000
 E  23241000
 E  23242000
 E  23243000
 E  23244000
 E  23250000
 E  23251000
 E  23253000
 E  23256000
 E  23261000
 E  23278000
 E  23279000
 E  23280000
 E  23295000
 E  23297000
 E  23306000
 E  23477000
 E  23494000
 E  23497000
 E  23498000
 E  23624000
 E  23627001
 E  23627002
 E  23627005
 E  23652001
 E  23670002
 E  23713000
 E  23719000
 E  23775000
 E  23776000
 E  23779000
 E  23781000
 E  23801000
 E  23872095
 E  23872110
 E  23872220
 E  23891000
 E  23893000
 E  23895000
 E  23908000
 E  23918000
 E  23993000
 E  24169000
 E  24195001
 E  24200001
 E  24257002
 E  24259001
 E  24259002
 E  24272000
 E  24274000
 E  24275000
 E  24278002
 E  24317000
 E  24319000
 E  24409000
 E  24426000
 E  24443000
 E  24453000
 E  24535000
 E  24541000
 E  24577000
 E  24627000
 E  24700000
 E  24703000
 E  24773000
 E  24828000
 E  24851000
 E  24905011
 E  24921000
 E  24928000
 E  24985000
 E  24988000
 E  25147000
 E  25180000
 E  25245008
 E  25247008
 E  25247011
 E  25259000
 E  25269000
 E  25270000
 E  25327000
 E  25346000
 E  25349000
 E  25351000
 E  25430000
 E  25439000
 E  25440000
 E  25446000
 E  25499000
 E  25500000
 E  25522000
 E  25543002
 E  25546003
 E  25557001
 E  25557002
 E  25557003
 E  25557006
 E  25617000
 E  25637000
 E  25668001
 E  25682000
 E  25695000
 E  25725001
 E  25725002
 E  25725003
 E  25725004
 E  25725005
 E  25786000
 E  25804001
 E  25804002
 E  25835000
 E  25896000
 E  25898000
 E  25959000
 E  25961000
 E  26003000
 E  26032000
 E  26047000
 E  26111001
 E  26112001
 E  26173000
 E  26206008
 E  26213000
 E  26243000
 E  26246900
 E  26249900
 E  26361000
 E  26413000
 E  26414000
 E  26567000
 E  26619001
 E  26619002
 E  26619004
 E  26620900
 E  26633000
 E  26874000
 E  26924000
 E  26937008
 E  26960000
 E  26965000
 E  27100000
 E  27123008
 E  27240000
 E  27287000
 E  27322000
 E  27323000
 E  27360000
 E  27394000
 E  27481900
 E  27482900
 E  27612000
 E  27709000
 E  27710000
 E  27711000
 E  27750000
 E  27753000
 E  27799000
 E  27832000
 E  27834000
 E  27840000
 E  27841000
 E  27843000
 E  27868000
 E  27881000
 E  27884000
 E  27890008
 E  27981000
 E  28026000
 E  28170008
 E  28171001
 E  28172008
 E  28173001
 E  28175008
 E  28176001
 E  28187000
 E  28237000
 E  28238000
 E  28239000
 E  28241000
 E  28309000
 E  28343008
 E  28344000
 E  28353008
 E  28387000
 E  28480000
 E  28510000
 E  28511000
 E  28512000
 E  28583000
 E  28667000
 E  28930000
 E  28953000
 E  28954000
 E  28955000
 E  28957000
 E  29008000
 E  29009000
 E  29039000
 E  29041000
 E  29042000
 E  29153900
 E  29171000
 E  29185000
 E  29186001
 E  29186002
 E  29188000
 E  29219000
 E  29297001
 E  29332000
 E  29333000
 E  29354000
 E  29394001
 E  29470000
 E  29492000
 E  29506000
 E  29516000
 E  29520000
 E  29541001
 E  29556000
 E  29646000
 E  29648001
 E  29696000
 E  29697000
 E  29699000
 E  29701006
 E  29732001
 E  29741000
 E  29824008
 E  29887000
 E  29939001
 E  33034002
 E  33035002
 E  33062000
 E  33066000
 E  33098000
 E  33100001
 E  33129000
 E  33131000
 E  33133000
 E  33144000
 E  33160220
 E  33201008
 E  33209008
 E  33210001
 E  34381000
 E  34394000
 E  34395000
 E  34403000
 E  34404000
 E  34474008
 E  34476008
 E  34511000
 E  34524001
 E  34528008
 E  34529008
 E  34530000
 E  34533008
 E  34534008
 E  34544008
 E  34545008
 E  34551000
 E  34598000
 E  34599000
 E  34602000
 E  34613000
 E  34614000
 E  34636000
 E  34647000
 E  34678000
 E  34689000
 E  34811108
 E  35000008
 E  35182000
 E  35189000
 E  35214220
 E  VILLKOR1
 E  VILLKOR2
 E  VILLKOR3
 E  VILLKOR4
 E  VILLKOR5
 E  VILLKOR6
 E  VILLKOR7
 E  VILLKOR8
 E  VILLKOR9
 E  LOBROW29314
 E  UPBROW29315
 E  LOBROW29316
 E  UPBROW29317
 E  LOBROW29318
 E  UPBROW29319
 E  LOBROW29320
 E  UPBROW29321
 E  LOBROW29322
 E  UPBROW29323
 E  LOBROW29324
 E  UPBROW29325
 E  LOBROW29326
 E  UPBROW29327
 E  LOBROW29328
 E  UPBROW29329
 E  LOBROW29330
 E  UPBROW29331
 E  LOBROW29332
 E  UPBROW29333
 E  LOBROW29334
 E  UPBROW29335
 E  LOBROW29336
 E  UPBROW29337
 E  LOBROW29338
 E  UPBROW29339
 E  LOBROW29340
 E  UPBROW29341
 E  LOBROW29342
 E  UPBROW29343
 E  LOBROW29344
 E  UPBROW29345
 E  LOBROW29346
 E  UPBROW29347
 E  LOBROW29348
 E  UPBROW29349
 E  LOBROW29350
 E  UPBROW29351
 E  LOBROW29352
 E  UPBROW29353
 E  LOBROW29354
 E  UPBROW29355
 E  LOBROW29356
 E  UPBROW29357
 E  LOBROW29358
 E  UPBROW29359
 E  LOBROW29360
 E  UPBROW29361
 E  LOBROW29362
 E  UPBROW29363
 E  LOBROW29364
 E  UPBROW29365
 E  LOBROW29366
 E  UPBROW29367
 E  LOBROW29368
 E  UPBROW29369
 E  LOBROW29370
 E  UPBROW29371
 E  LOBROW29372
 E  UPBROW29373
 E  LOBROW29374
 E  UPBROW29375
 E  LOBROW29376
 E  UPBROW29377
 E  LOBROW29378
 E  UPBROW29379
 E  LOBROW29380
 E  UPBROW29381
 E  LOBROW29382
 E  UPBROW29383
 E  LOBROW29384
 E  UPBROW29385
 E  LOBROW29386
 E  UPBROW29387
 E  LOBROW29388
 E  UPBROW29389
 E  LOBROW29390
 E  UPBROW29391
 E  LOBROW29392
 E  UPBROW29393
 E  LOBROW29394
 E  UPBROW29395
 E  LOBROW29396
 E  UPBROW29397
 E  LOBROW29398
 E  UPBROW29399
 E  LOBROW29400
 E  UPBROW29401
 E  LOBROW29402
 E  UPBROW29403
 E  LOBROW29404
 E  UPBROW29405
 E  LOBROW29406
 E  UPBROW29407
 E  LOBROW29408
 E  UPBROW29409
 E  LOBROW29410
 E  UPBROW29411
 E  LOBROW29412
 E  UPBROW29413
 E  LOBROW29414
 E  UPBROW29415
 E  LOBROW29416
 E  UPBROW29417
 E  LOBROW29418
 E  UPBROW29419
 E  LOBROW29420
 E  UPBROW29421
 E  LOBROW29422
 E  UPBROW29423
 E  LOBROW29424
 E  UPBROW29425
 E  LOBROW29426
 E  UPBROW29427
 E  LOBROW29428
 E  UPBROW29429
 E  LOBROW29430
 E  UPBROW29431
 E  LOBROW29432
 E  UPBROW29433
 E  LOBROW29434
 E  UPBROW29435
 E  LOBROW29436
 E  UPBROW29437
 E  LOBROW29438
 E  UPBROW29439
 E  LOBROW29440
 E  UPBROW29441
 E  LOBROW29442
 E  UPBROW29443
 E  LOBROW29444
 E  UPBROW29445
 E  LOBROW29446
 E  UPBROW29447
 E  LOBROW29448
 E  UPBROW29449
 E  LOBROW29450
 E  UPBROW29451
 E  LOBROW29452
 E  UPBROW29453
 E  LOBROW29454
 E  UPBROW29455
 E  LOBROW29456
 E  UPBROW29457
 E  LOBROW29458
 E  UPBROW29459
 E  LOBROW29460
 E  UPBROW29461
 E  LOBROW29462
 E  UPBROW29463
 E  LOBROW29464
 E  UPBROW29465
 E  LOBROW29466
 E  UPBROW29467
 E  LOBROW29468
 E  UPBROW29469
 E  LOBROW29470
 E  UPBROW29471
 E  LOBROW29472
 E  UPBROW29473
 E  LOBROW29474
 E  UPBROW29475
 E  LOBROW29476
 E  UPBROW29477
 E  LOBROW29478
 E  UPBROW29479
 E  LOBROW29480
 E  UPBROW29481
 E  LOBROW29482
 E  UPBROW29483
 E  LOBROW29484
 E  UPBROW29485
 E  LOBROW29486
 E  UPBROW29487
 E  LOBROW29488
 E  UPBROW29489
 E  LOBROW29490
 E  UPBROW29491
 E  LOBROW29492
 E  UPBROW29493
 E  LOBROW29494
 E  UPBROW29495
 E  LOBROW29496
 E  UPBROW29497
 E  LOBROW29498
 E  UPBROW29499
 E  LOBROW29500
 E  UPBROW29501
 E  LOBROW29502
 E  UPBROW29503
 E  LOBROW29504
 E  UPBROW29505
 E  LOBROW29506
 E  UPBROW29507
 E  LOBROW29508
 E  UPBROW29509
 E  LOBROW29510
 E  UPBROW29511
 E  LOBROW29512
 E  UPBROW29513
 E  LOBROW29514
 E  UPBROW29515
 E  LOBROW29516
 E  UPBROW29517
 E  LOBROW29518
 E  UPBROW29519
 E  LOBROW29520
 E  UPBROW29521
 E  LOBROW29522
 E  UPBROW29523
 E  LOBROW29524
 E  UPBROW29525
 E  LOBROW29526
 E  UPBROW29527
 E  LOBROW29528
 E  UPBROW29529
 E  LOBROW29530
 E  UPBROW29531
 E  LOBROW29532
 E  UPBROW29533
 E  LOBROW29534
 E  UPBROW29535
 E  LOBROW29536
 E  UPBROW29537
 E  LOBROW29538
 E  UPBROW29539
 E  LOBROW29540
 E  UPBROW29541
 E  LOBROW29542
 E  UPBROW29543
 E  LOBROW29544
 E  UPBROW29545
 E  LOBROW29546
 E  UPBROW29547
 E  LOBROW29548
 E  UPBROW29549
 E  LOBROW29550
 E  UPBROW29551
 E  LOBROW29552
 E  UPBROW29553
 E  LOBROW29554
 E  UPBROW29555
 E  LOBROW29556
 E  UPBROW29557
 E  LOBROW29558
 E  UPBROW29559
 E  LOBROW29560
 E  UPBROW29561
 E  LOBROW29562
 E  UPBROW29563
 E  LOBROW29564
 E  UPBROW29565
 E  LOBROW29566
 E  UPBROW29567
 E  LOBROW29568
 E  UPBROW29569
 E  LOBROW29570
 E  UPBROW29571
 E  LOBROW29572
 E  UPBROW29573
 E  LOBROW29574
 E  UPBROW29575
 E  LOBROW29576
 E  UPBROW29577
 E  LOBROW29578
 E  UPBROW29579
 E  LOBROW29580
 E  UPBROW29581
 E  LOBROW29582
 E  UPBROW29583
 E  LOBROW29584
 E  UPBROW29585
 E  LOBROW29586
 E  UPBROW29587
 E  LOBROW29588
 E  UPBROW29589
 E  LOBROW29590
 E  UPBROW29591
 E  LOBROW29592
 E  UPBROW29593
 E  LOBROW29594
 E  UPBROW29595
 E  LOBROW29596
 E  UPBROW29597
 E  LOBROW29598
 E  UPBROW29599
 E  LOBROW29600
 E  UPBROW29601
 E  LOBROW29602
 E  UPBROW29603
 E  LOBROW29604
 E  UPBROW29605
 E  LOBROW29606
 E  UPBROW29607
 E  LOBROW29608
 E  UPBROW29609
 E  LOBROW29610
 E  UPBROW29611
 E  LOBROW29612
 E  UPBROW29613
 E  LOBROW29614
 E  UPBROW29615
 E  LOBROW29616
 E  UPBROW29617
 E  LOBROW29618
 E  UPBROW29619
 E  LOBROW29620
 E  UPBROW29621
 E  LOBROW29622
 E  UPBROW29623
 E  LOBROW29624
 E  UPBROW29625
 E  LOBROW29626
 E  UPBROW29627
 E  LOBROW29628
 E  UPBROW29629
 E  LOBROW29630
 E  UPBROW29631
 E  LOBROW29632
 E  UPBROW29633
 E  LOBROW29634
 E  UPBROW29635
 E  LOBROW29636
 E  UPBROW29637
 E  LOBROW29638
 E  UPBROW29639
 E  LOBROW29640
 E  UPBROW29641
 E  LOBROW29642
 E  UPBROW29643
 E  LOBROW29644
 E  UPBROW29645
 E  LOBROW29646
 E  UPBROW29647
 E  LOBROW29648
 E  UPBROW29649
 E  LOBROW29650
 E  UPBROW29651
 E  LOBROW29652
 E  UPBROW29653
 E  LOBROW29654
 E  UPBROW29655
 E  LOBROW29656
 E  UPBROW29657
 E  LOBROW29658
 E  UPBROW29659
 E  LOBROW29660
 E  UPBROW29661
 E  LOBROW29662
 E  UPBROW29663
 E  LOBROW29664
 E  UPBROW29665
 E  LOBROW29666
 E  UPBROW29667
 E  LOBROW29668
 E  UPBROW29669
 E  LOBROW29670
 E  UPBROW29671
 E  LOBROW29672
 E  UPBROW29673
 E  LOBROW29674
 E  UPBROW29675
 E  LOBROW29676
 E  UPBROW29677
 E  LOBROW29678
 E  UPBROW29679
 E  LOBROW29680
 E  UPBROW29681
 E  LOBROW29682
 E  UPBROW29683
 E  LOBROW29684
 E  UPBROW29685
 E  LOBROW29686
 E  UPBROW29687
 E  LOBROW29688
 E  UPBROW29689
 E  LOBROW29690
 E  UPBROW29691
 E  LOBROW29692
 E  UPBROW29693
 E  LOBROW29694
 E  UPBROW29695
 E  LOBROW29696
 E  UPBROW29697
 E  LOBROW29698
 E  UPBROW29699
 E  LOBROW29700
 E  UPBROW29701
 E  LOBROW29702
 E  UPBROW29703
 E  LOBROW29704
 E  UPBROW29705
 E  LOBROW29706
 E  UPBROW29707
 E  LOBROW29708
 E  UPBROW29709
 E  LOBROW29710
 E  UPBROW29711
 E  LOBROW29712
 E  UPBROW29713
 E  LOBROW29714
 E  UPBROW29715
 E  LOBROW29716
 E  UPBROW29717
 E  LOBROW29718
 E  UPBROW29719
 E  LOBROW29720
 E  UPBROW29721
 E  LOBROW29722
 E  UPBROW29723
 E  LOBROW29724
 E  UPBROW29725
 E  LOBROW29726
 E  UPBROW29727
 E  LOBROW29728
 E  UPBROW29729
 E  LOBROW29730
 E  UPBROW29731
 E  LOBROW29732
 E  UPBROW29733
 E  LOBROW29734
 E  UPBROW29735
 E  LOBROW29736
 E  UPBROW29737
 E  LOBROW29738
 E  UPBROW29739
 E  LOBROW29740
 E  UPBROW29741
 E  LOBROW29742
 E  UPBROW29743
 E  LOBROW29744
 E  UPBROW29745
 E  LOBROW29746
 E  UPBROW29747
 E  LOBROW29748
 E  UPBROW29749
 E  LOBROW29750
 E  UPBROW29751
 E  LOBROW29752
 E  UPBROW29753
 E  LOBROW29754
 E  UPBROW29755
 E  LOBROW29756
 E  UPBROW29757
 E  LOBROW29758
 E  UPBROW29759
 E  LOBROW29760
 E  UPBROW29761
 E  LOBROW29762
 E  UPBROW29763
 E  LOBROW29764
 E  UPBROW29765
 E  LOBROW29766
 E  UPBROW29767
 E  LOBROW29768
 E  UPBROW29769
 E  LOBROW29770
 E  UPBROW29771
 E  LOBROW29772
 E  UPBROW29773
 E  LOBROW29774
 E  UPBROW29775
 E  LOBROW29776
 E  UPBROW29777
 E  LOBROW29778
 E  UPBROW29779
 E  LOBROW29780
 E  UPBROW29781
 E  LOBROW29782
 E  UPBROW29783
 E  LOBROW29784
 E  UPBROW29785
 E  LOBROW29786
 E  UPBROW29787
 E  LOBROW29788
 E  UPBROW29789
 E  LOBROW29790
 E  UPBROW29791
 E  LOBROW29792
 E  UPBROW29793
 E  LOBROW29794
 E  UPBROW29795
 E  LOBROW29796
 E  UPBROW29797
 E  LOBROW29798
 E  UPBROW29799
 E  LOBROW29800
 E  UPBROW29801
 E  LOBROW29802
 E  UPBROW29803
 E  LOBROW29804
 E  UPBROW29805
 E  LOBROW29806
 E  UPBROW29807
 E  LOBROW29808
 E  UPBROW29809
 E  LOBROW29810
 E  UPBROW29811
 E  LOBROW29812
 E  UPBROW29813
 E  LOBROW29814
 E  UPBROW29815
 E  LOBROW29816
 E  UPBROW29817
 E  LOBROW29818
 E  UPBROW29819
 E  LOBROW29820
 E  UPBROW29821
 E  LOBROW29822
 E  UPBROW29823
 E  LOBROW29824
 E  UPBROW29825
 E  LOBROW29826
 E  UPBROW29827
 E  LOBROW29828
 E  UPBROW29829
 E  LOBROW29830
 E  UPBROW29831
 E  LOBROW29832
 E  UPBROW29833
 E  LOBROW29834
 E  UPBROW29835
 E  LOBROW29836
 E  UPBROW29837
 E  LOBROW29838
 E  UPBROW29839
 E  LOBROW29840
 E  UPBROW29841
 E  LOBROW29842
 E  UPBROW29843
 E  LOBROW29844
 E  UPBROW29845
 E  LOBROW29846
 E  UPBROW29847
 E  LOBROW29848
 E  UPBROW29849
 E  LOBROW29850
 E  UPBROW29851
 E  LOBROW29852
 E  UPBROW29853
 E  LOBROW29854
 E  UPBROW29855
 E  LOBROW29856
 E  UPBROW29857
 E  LOBROW29858
 E  UPBROW29859
 E  LOBROW29860
 E  UPBROW29861
 E  LOBROW29862
 E  UPBROW29863
 E  LOBROW29864
 E  UPBROW29865
 E  LOBROW29866
 E  UPBROW29867
 E  LOBROW29868
 E  UPBROW29869
 E  LOBROW29870
 E  UPBROW29871
 E  LOBROW29872
 E  UPBROW29873
 E  LOBROW29874
 E  UPBROW29875
 E  LOBROW29876
 E  UPBROW29877
 E  LOBROW29878
 E  UPBROW29879
 E  LOBROW29880
 E  UPBROW29881
 E  LOBROW29882
 E  UPBROW29883
 E  LOBROW29884
 E  UPBROW29885
 E  LOBROW29886
 E  UPBROW29887
 E  LOBROW29888
 E  UPBROW29889
 E  LOBROW29890
 E  UPBROW29891
 E  LOBROW29892
 E  UPBROW29893
 E  LOBROW29894
 E  UPBROW29895
 E  LOBROW29896
 E  UPBROW29897
 E  LOBROW29898
 E  UPBROW29899
 E  LOBROW29900
 E  UPBROW29901
 E  LOBROW29902
 E  UPBROW29903
 E  LOBROW29904
 E  UPBROW29905
 E  LOBROW29906
 E  UPBROW29907
 E  LOBROW29908
 E  UPBROW29909
 E  LOBROW29910
 E  UPBROW29911
 E  LOBROW29912
 E  UPBROW29913
 E  LOBROW29914
 E  UPBROW29915
 E  LOBROW29916
 E  UPBROW29917
 E  LOBROW29918
 E  UPBROW29919
 E  LOBROW29920
 E  UPBROW29921
 E  LOBROW29922
 E  UPBROW29923
 E  LOBROW29924
 E  UPBROW29925
 E  LOBROW29926
 E  UPBROW29927
 E  LOBROW29928
 E  UPBROW29929
 E  LOBROW29930
 E  UPBROW29931
 E  LOBROW29932
 E  UPBROW29933
 E  LOBROW29934
 E  UPBROW29935
 E  LOBROW29936
 E  UPBROW29937
 E  LOBROW29938
 E  UPBROW29939
 E  LOBROW29940
 E  UPBROW29941
 E  LOBROW29942
 E  UPBROW29943
 E  LOBROW29944
 E  UPBROW29945
 E  LOBROW29946
 E  UPBROW29947
 E  LOBROW29948
 E  UPBROW29949
 E  LOBROW29950
 E  UPBROW29951
 E  LOBROW29952
 E  UPBROW29953
 E  LOBROW29954
 E  UPBROW29955
 E  LOBROW29956
 E  UPBROW29957
 E  LOBROW29958
 E  UPBROW29959
 E  LOBROW29960
 E  UPBROW29961
 E  LOBROW29962
 E  UPBROW29963
 E  LOBROW29964
 E  UPBROW29965
 E  LOBROW29966
 E  UPBROW29967
 E  LOBROW29968
 E  UPBROW29969
 E  LOBROW29970
 E  UPBROW29971
 E  LOBROW29972
 E  UPBROW29973
 E  LOBROW29974
 E  UPBROW29975
 E  LOBROW29976
 E  UPBROW29977
 E  LOBROW29978
 E  UPBROW29979
 E  LOBROW29980
 E  UPBROW29981
 E  LOBROW29982
 E  UPBROW29983
 E  LOBROW29984
 E  UPBROW29985
 E  LOBROW29986
 E  UPBROW29987
 E  LOBROW29988
 E  UPBROW29989
 E  LOBROW29990
 E  UPBROW29991
 E  LOBROW29992
 E  UPBROW29993
 E  LOBROW29994
 E  UPBROW29995
 E  LOBROW29996
 E  UPBROW29997
 E  LOBROW29998
 E  UPBROW29999
 E  LOBROW30000
 E  UPBROW30001
 E  LOBROW30002
 E  UPBROW30003
 E  LOBROW30004
 E  UPBROW30005
 E  LOBROW30006
 E  UPBROW30007
 E  LOBROW30008
 E  UPBROW30009
 E  LOBROW30010
 E  UPBROW30011
 E  LOBROW30012
 E  UPBROW30013
 E  LOBROW30014
 E  UPBROW30015
 E  LOBROW30016
 E  UPBROW30017
 E  LOBROW30018
 E  UPBROW30019
 E  LOBROW30020
 E  UPBROW30021
 E  LOBROW30022
 E  UPBROW30023
 E  LOBROW30024
 E  UPBROW30025
 E  LOBROW30026
 E  UPBROW30027
 E  LOBROW30028
 E  UPBROW30029
 E  LOBROW30030
 E  UPBROW30031
 E  LOBROW30032
 E  UPBROW30033
 E  LOBROW30034
 E  UPBROW30035
 E  LOBROW30036
 E  UPBROW30037
 E  LOBROW30038
 E  UPBROW30039
 E  LOBROW30040
 E  UPBROW30041
 E  LOBROW30042
 E  UPBROW30043
 E  LOBROW30044
 E  UPBROW30045
 E  LOBROW30046
 E  UPBROW30047
 E  LOBROW30048
 E  UPBROW30049
 E  LOBROW30050
 E  UPBROW30051
 E  LOBROW30052
 E  UPBROW30053
 E  LOBROW30054
 E  UPBROW30055
 E  LOBROW30056
 E  UPBROW30057
 E  LOBROW30058
 E  UPBROW30059
 E  LOBROW30060
 E  UPBROW30061
 E  LOBROW30062
 E  UPBROW30063
 E  LOBROW30064
 E  UPBROW30065
 E  LOBROW30066
 E  UPBROW30067
 E  LOBROW30068
 E  UPBROW30069
 E  LOBROW30070
 E  UPBROW30071
 E  LOBROW30072
 E  UPBROW30073
 E  LOBROW30074
 E  UPBROW30075
 E  LOBROW30076
 E  UPBROW30077
 E  LOBROW30078
 E  UPBROW30079
 E  LOBROW30080
 E  UPBROW30081
 E  LOBROW30082
 E  UPBROW30083
 E  LOBROW30084
 E  UPBROW30085
 E  LOBROW30086
 E  UPBROW30087
 E  LOBROW30088
 E  UPBROW30089
 E  LOBROW30090
 E  UPBROW30091
 E  LOBROW30092
 E  UPBROW30093
 E  LOBROW30094
 E  UPBROW30095
 E  LOBROW30096
 E  UPBROW30097
 E  LOBROW30098
 E  UPBROW30099
 E  LOBROW30100
 E  UPBROW30101
 E  LOBROW30102
 E  UPBROW30103
 E  LOBROW30104
 E  UPBROW30105
 E  LOBROW30106
 E  UPBROW30107
 E  LOBROW30108
 E  UPBROW30109
 E  LOBROW30110
 E  UPBROW30111
 E  LOBROW30112
 E  UPBROW30113
 E  LOBROW30114
 E  UPBROW30115
 E  LOBROW30116
 E  UPBROW30117
 E  LOBROW30118
 E  UPBROW30119
 E  LOBROW30120
 E  UPBROW30121
 E  LOBROW30122
 E  UPBROW30123
 E  LOBROW30124
 E  UPBROW30125
 E  LOBROW30126
 E  UPBROW30127
 E  LOBROW30128
 E  UPBROW30129
 E  LOBROW30130
 E  UPBROW30131
 E  LOBROW30132
 E  UPBROW30133
 E  LOBROW30134
 E  UPBROW30135
 E  LOBROW30136
 E  UPBROW30137
 E  LOBROW30138
 E  UPBROW30139
 E  LOBROW30140
 E  UPBROW30141
 E  LOBROW30142
 E  UPBROW30143
 E  LOBROW30144
 E  UPBROW30145
 E  LOBROW30146
 E  UPBROW30147
 E  LOBROW30148
 E  UPBROW30149
 E  LOBROW30150
 E  UPBROW30151
 E  LOBROW30152
 E  UPBROW30153
 E  LOBROW30154
 E  UPBROW30155
 E  LOBROW30156
 E  UPBROW30157
 E  LOBROW30158
 E  UPBROW30159
 E  LOBROW30160
 E  UPBROW30161
 E  LOBROW30162
 E  UPBROW30163
 E  LOBROW30164
 E  UPBROW30165
 E  LOBROW30166
 E  UPBROW30167
 E  LOBROW30168
 E  UPBROW30169
 E  LOBROW30170
 E  UPBROW30171
 E  LOBROW30172
 E  UPBROW30173
 E  LOBROW30174
 E  UPBROW30175
 E  LOBROW30176
 E  UPBROW30177
 E  LOBROW30178
 E  UPBROW30179
 E  LOBROW30180
 E  UPBROW30181
 E  LOBROW30182
 E  UPBROW30183
 E  LOBROW30184
 E  UPBROW30185
 E  LOBROW30186
 E  UPBROW30187
 E  LOBROW30188
 E  UPBROW30189
 E  LOBROW30190
 E  UPBROW30191
 E  LOBROW30192
 E  UPBROW30193
 E  LOBROW30194
 E  UPBROW30195
 E  LOBROW30196
 E  UPBROW30197
 E  LOBROW30198
 E  UPBROW30199
 E  LOBROW30200
 E  UPBROW30201
 E  LOBROW30202
 E  UPBROW30203
 E  LOBROW30204
 E  UPBROW30205
 E  LOBROW30206
 E  UPBROW30207
 E  LOBROW30208
 E  UPBROW30209
 E  LOBROW30210
 E  UPBROW30211
 E  LOBROW30212
 E  UPBROW30213
 E  LOBROW30214
 E  UPBROW30215
 E  LOBROW30216
 E  UPBROW30217
 E  LOBROW30218
 E  UPBROW30219
 E  LOBROW30220
 E  UPBROW30221
 E  LOBROW30222
 E  UPBROW30223
 E  LOBROW30224
 E  UPBROW30225
 E  LOBROW30226
 E  UPBROW30227
 E  LOBROW30228
 E  UPBROW30229
 E  LOBROW30230
 E  UPBROW30231
 E  LOBROW30232
 E  UPBROW30233
 E  LOBROW30234
 E  UPBROW30235
 E  LOBROW30236
 E  UPBROW30237
 E  LOBROW30238
 E  UPBROW30239
 E  LOBROW30240
 E  UPBROW30241
 E  LOBROW30242
 E  UPBROW30243
 E  LOBROW30244
 E  UPBROW30245
 E  LOBROW30246
 E  UPBROW30247
 E  LOBROW30248
 E  UPBROW30249
 E  LOBROW30250
 E  UPBROW30251
 E  LOBROW30252
 E  UPBROW30253
 E  LOBROW30254
 E  UPBROW30255
 E  LOBROW30256
 E  UPBROW30257
 E  LOBROW30258
 E  UPBROW30259
 E  LOBROW30260
 E  UPBROW30261
 E  LOBROW30262
 E  UPBROW30263
 E  LOBROW30264
 E  UPBROW30265
 E  LOBROW30266
 E  UPBROW30267
 E  LOBROW30268
 E  UPBROW30269
 E  LOBROW30270
 E  UPBROW30271
 E  LOBROW30272
 E  UPBROW30273
 E  LOBROW30274
 E  UPBROW30275
 E  LOBROW30276
 E  UPBROW30277
 E  LOBROW30278
 E  UPBROW30279
 E  LOBROW30280
 E  UPBROW30281
 E  LOBROW30282
 E  UPBROW30283
 E  LOBROW30284
 E  UPBROW30285
 E  LOBROW30286
 E  UPBROW30287
 E  LOBROW30288
 E  UPBROW30289
 E  LOBROW30290
 E  UPBROW30291
 E  LOBROW30292
 E  UPBROW30293
 E  LOBROW30294
 E  UPBROW30295
 E  LOBROW30296
 E  UPBROW30297
 E  LOBROW30298
 E  UPBROW30299
 E  LOBROW30300
 E  UPBROW30301
 E  LOBROW30302
 E  UPBROW30303
 E  LOBROW30304
 E  UPBROW30305
 E  LOBROW30306
 E  UPBROW30307
 E  LOBROW30308
 E  UPBROW30309
 E  LOBROW30310
 E  UPBROW30311
 E  LOBROW30312
 E  UPBROW30313
 E  LOBROW30314
 E  UPBROW30315
 E  LOBROW30316
 E  UPBROW30317
 E  LOBROW30318
 E  UPBROW30319
 E  LOBROW30320
 E  UPBROW30321
 E  LOBROW30322
 E  UPBROW30323
 E  LOBROW30324
 E  UPBROW30325
 E  LOBROW30326
 E  UPBROW30327
COLUMNS
    10018000 VILLKOR1 1.000000   VILLKOR6 1.000000
    10018000 00000000 303.600000   20107000 2.000000
    10018000 20154000 1.000000   20164900 1.000000
    10018000 20165900 1.000000   20166000 3.000000
    10018000 20186000 4.000000   20190000 5.000000
    10018000 20192000 3.000000   20213000 1.000000
    10018000 20221000 1.000000   20225000 1.000000
    10018000 20226000 1.000000   20228000 1.000000
    10018000 20229000 1.000000   20242000 5.000000
    10018000 20285000 2.000000   20290000 1.000000
    10018000 20304000 1.000000   20307000 1.000000
    10018000 20318000 2.000000   20344000 5.000000
    10018000 20471000 11.000000   20478000 1.000000
    10018000 20485000 2.000000   20490000 5.000000
    10018000 20495000 3.000000   20496000 1.000000
    10018000 20497000 3.000000   20498000 9.000000
    10018000 20499000 9.000000   20505000 9.000000
    10018000 20508000 14.000000   20522000 1.000000
    10018000 20523000 1.000000   20561000 1.000000
    10018000 20570000 1.000000   20692000 1.000000
    10018000 20695000 8.000000   20700000 1.000000
    10018000 21254000 1.000000   21258000 1.000000
    10018000 21343000 1.000000   21377001 1.000000
    10018000 21380000 2.000000   21382000 2.000000
    10018000 21391000 13.000000   21392000 12.000000
    10018000 21422000 108.000000   21423000 156.000000
    10018000 21425000 10.000000   21426000 11.000000
    10018000 21447000 1.000000   21456000 27.000000
    10018000 21457000 27.000000   21458000 27.000000
    10018000 21496000 1.000000   21519000 12.000000
    10018000 21523000 1.000000   21527000 5.000000
    10018000 21528000 5.000000   21536000 1.000000
    10018000 21548000 10.000000   21553000 1.000000
    10018000 21573000 6.000000   21597000 31.000000
    10018000 21640000 2.000000   21714900 8.000000
    10018000 21726900 5.000000   21733001 1.000000
    10018000 21733007 1.000000   21745001 9.000000
    10018000 21777000 2.000000   21813000 1.000000
    10018000 21818000 1.000000   21904000 1.000000
    10018000 21920000 1.000000   22004000 1.000000
    10018000 22038000 1.000000   22081000 1.000000
    10018000 22171000 1.000000   22339000 1.000000
    10018000 22342000 1.000000   22384000 1.000000
    10018000 22393000 1.000000   22425000 1.000000
    10018000 22439000 1.000000   22447000 1.000000
    10018000 22471000 2.000000   22475000 2.000000
    10018000 22477000 2.000000   22479000 2.000000
    10018000 22481000 1.000000   22483000 1.000000
    10018000 22491000 1.000000   22498000 1.000000
    10018000 22529000 1.000000   22539000 7.000000
    10018000 22576000 1.000000   22624000 1.000000
    10018000 22628000 1.000000   22642000 1.000000
    10018000 22689000 2.000000   22690000 9.000000
    10018000 22691000 1.000000   22868000 1.000000
    10018000 22896000 1.000000   22922000 1.000000
    10018000 22987000 1.000000   22989000 9.000000
    10018000 23044000 1.000000   23115001 2.000000
    10018000 23261000 1.000000   23295000 1.000000
    10018000 23624000 2.000000   23627001 14.000000
    10018000 23627002 16.000000   23627005 6.000000
    10018000 23652001 1.000000   23670002 15.000000
    10018000 23713000 1.000000   23779000 1.000000
    10018000 23872110 1.000000   23918000 1.000000
    10018000 24169000 1.000000   24195001 12.000000
    10018000 24200001 9.000000   24257002 8.000000
    10018000 24259001 5.000000   24259002 3.000000
    10018000 24272000 10.000000   24274000 13.000000
    10018000 24275000 11.000000   24278002 13.000000
    10018000 24317000 13.000000   24319000 7.000000
    10018000 24541000 1.000000   24577000 1.000000
    10018000 24985000 1.000000   24988000 1.000000
    10018000 25147000 1.000000   25269000 1.000000
    10018000 25637000 1.000000   25896000 1.000000
    10018000 25898000 7.000000   25959000 1.000000
    10018000 26003000 3.000000   26047000 1.000000
    10018000 26111001 1.000000   26213000 56.000000
    10018000 26361000 14.000000   26633000 11.000000
    10018000 26874000 1.000000   26924000 1.000000
    10018000 26937008 1.000000   27322000 1.000000
    10018000 27323000 1.000000   27360000 1.000000
    10018000 27482900 1.000000   27709000 1.000000
    10018000 27710000 1.000000   27750000 1.000000
    10018000 27832000 1.000000   27840000 1.000000
    10018000 28343008 1.000000   28387000 1.000000
    10018000 28510000 1.000000   28953000 9.000000
    10018000 29008000 12.000000   29009000 1.000000
    10018000 29039000 1.000000   29041000 1.000000
    10018000 29354000 1.000000   29470000 96.000000
    10018000 29506000 1.000000   29516000 1.000000
    10018000 29520000 1.000000   29556000 1.000000
    10018000 29701006 2.000000   29741000 1.000000
    10018000 33034002 2.000000   33062000 1.000000
    10018000 33098000 3.000000   33129000 14.000000
    10018000 33131000 10.000000   33133000 1.000000
    10018000 33144000 1.000000   34381000 1.000000
    10018000 34394000 1.000000   34404000 1.000000
    10018000 34599000 1.000000   34602000 1.000000
    10018000 34647000 56.000000   34678000 1.000000
    10035000 VILLKOR1 1.000000   VILLKOR2 1.000000
    10035000 VILLKOR9 1.000000   00000000 237.600000
    10035000 20107000 2.000000   20149000 1.000000
    10035000 20154000 1.000000   20164900 1.000000
    10035000 20165900 1.000000   20186000 4.000000
    10035000 20190000 4.000000   20221000 1.000000
    10035000 20225000 1.000000   20226000 1.000000
    10035000 20228000 1.000000   20229000 1.000000
    10035000 20242000 4.000000   20285000 2.000000
    10035000 20290000 1.000000   20304000 1.000000
    10035000 20307000 1.000000   20471000 11.000000
    10035000 20495000 3.000000   20496000 3.000000
    10035000 20497000 3.000000   20498000 7.000000
    10035000 20499000 7.000000   20505000 6.000000
    10035000 20508000 17.000000   20522000 1.000000
    10035000 20523000 1.000000   20570000 1.000000
    10035000 20692000 1.000000   20695000 8.000000
    10035000 20700000 1.000000   20701000 1.000000
    10035000 20703000 1.000000   20728000 2.000000
    10035000 20742000 3.000000   20743000 2.000000
    10035000 20864000 1.000000   20955001 3.000000
    10035000 21078000 1.000000   21141000 1.000000
    10035000 21179000 1.000000   21186000 1.000000
    10035000 21221000 4.000000   21223000 4.000000
    10035000 21246001 7.000000   21254000 1.000000
    10035000 21258000 1.000000   21343000 1.000000
    10035000 21379000 1.000000   21380000 1.000000
    10035000 21382000 2.000000   21391000 11.000000
    10035000 21392000 10.000000   21422000 81.000000
    10035000 21423000 117.000000   21425000 8.000000
    10035000 21426000 8.000000   21447000 1.000000
    10035000 21456000 22.000000   21457000 18.000000
    10035000 21458000 18.000000   21496000 1.000000
    10035000 21519000 5.000000   21523000 1.000000
    10035000 21527000 4.000000   21528000 3.000000
    10035000 21536000 1.000000   21548000 10.000000
    10035000 21553000 1.000000   21573000 2.000000
    10035000 21597000 30.000000   21615000 1.000000
    10035000 21640000 2.000000   21714900 6.000000
    10035000 21726900 3.000000   21733001 2.000000
    10035000 21733007 1.000000   21745001 6.000000
    10035000 21777000 2.000000   21813000 1.000000
    10035000 21818000 1.000000   21920000 1.000000
    10035000 22004000 1.000000   22038000 1.000000
    10035000 22081000 1.000000   22171000 1.000000
    10035000 22186000 1.000000   22190000 1.000000
    10035000 22196000 1.000000   22339000 1.000000
    10035000 22342000 1.000000   22384000 1.000000
    10035000 22393000 1.000000   22425000 1.000000
    10035000 22439000 1.000000   22471000 2.000000
    10035000 22475000 2.000000   22481000 1.000000
    10035000 22483000 1.000000   22539000 6.000000
    10035000 22576000 1.000000   22624000 1.000000
    10035000 22628000 1.000000   22689000 2.000000
    10035000 22690000 6.000000   22691000 1.000000
    10035000 22896000 1.000000   22922000 1.000000
    10035000 22989000 7.000000   22995000 1.000000
    10035000 23038000 1.000000   23044000 1.000000
    10035000 23130000 1.000000   23131000 3.000000
    10035000 23132000 5.000000   23136000 1.000000
    10035000 23146000 1.000000   23148000 2.000000
    10035000 23151000 1.000000   23152000 1.000000
    10035000 23154000 1.000000   23156000 1.000000
    10035000 23157000 1.000000   23168000 1.000000
    10035000 23170000 1.000000   23190001 1.000000
    10035000 23197000 1.000000   23240000 4.000000
    10035000 23241000 2.000000   23250000 3.000000
    10035000 23251000 4.000000   23253000 1.000000
    10035000 23256000 3.000000   23295000 1.000000
    10035000 23297000 3.000000   23306000 1.000000
    10035000 23477000 1.000000   23494000 1.000000
    10035000 23497000 1.000000   23801000 1.000000
    10035000 23872220 1.000000   23908000 1.000000
    10035000 23993000 1.000000   24317000 6.000000
    10035000 24319000 3.000000   24828000 4.000000
    10035000 24928000 2.000000   24985000 1.000000
    10035000 24988000 1.000000   25147000 1.000000
    10035000 25247008 1.000000   25259000 1.000000
    10035000 25269000 1.000000   25351000 1.000000
    10035000 25499000 4.000000   25500000 4.000000
    10035000 25522000 1.000000   25637000 1.000000
    10035000 25725001 2.000000   25725002 1.000000
    10035000 25786000 1.000000   25896000 1.000000
    10035000 25898000 7.000000   25959000 1.000000
    10035000 25961000 3.000000   26003000 2.000000
    10035000 26032000 1.000000   26047000 1.000000
    10035000 26111001 1.000000   26213000 68.000000
    10035000 26361000 17.000000   26413000 1.000000
    10035000 26414000 1.000000   26619002 1.000000
    10035000 26633000 8.000000   26874000 1.000000
    10035000 26924000 1.000000   27360000 1.000000
    10035000 27481900 1.000000   27709000 1.000000
    10035000 27711000 1.000000   27834000 1.000000
    10035000 27841000 1.000000   27843000 1.000000
    10035000 27890008 1.000000   28026000 1.000000
    10035000 28187000 1.000000   28510000 1.000000
    10035000 28953000 7.000000   28957000 1.000000
    10035000 29008000 10.000000   29009000 1.000000
    10035000 29039000 1.000000   29041000 1.000000
    10035000 29470000 72.000000   29506000 1.000000
    10035000 29516000 1.000000   29520000 1.000000
    10035000 29556000 1.000000   29741000 1.000000
    10035000 29887000 1.000000   33034002 2.000000
    10035000 33100001 1.000000   33129000 17.000000
    10035000 33131000 8.000000   33133000 1.000000
    10035000 33144000 1.000000   34395000 1.000000
    10035000 34599000 1.000000   34602000 1.000000
    10035000 34613000 1.000000   34647000 68.000000
    10192032 VILLKOR1 1.000000   VILLKOR2 1.000000
    10192032 VILLKOR9 1.000000   00000000 235.500000
    10192032 20107000 2.000000   20149000 1.000000
    10192032 20154000 1.000000   20164900 1.000000
    10192032 20165900 1.000000   20186000 5.000000
    10192032 20190000 5.000000   20221000 1.000000
    10192032 20225000 1.000000   20226000 1.000000
    10192032 20228000 1.000000   20229000 1.000000
    10192032 20242000 5.000000   20285000 2.000000
    10192032 20290000 1.000000   20304000 1.000000
    10192032 20307000 1.000000   20471000 11.000000
    10192032 20495000 3.000000   20496000 3.000000
    10192032 20497000 3.000000   20498000 7.000000
    10192032 20499000 7.000000   20505000 3.000000
    10192032 20508000 3.000000   20522000 1.000000
    10192032 20523000 1.000000   20570000 1.000000
    10192032 20692000 1.000000   20695000 8.000000
    10192032 20700000 1.000000   20701000 1.000000
    10192032 20703000 1.000000   20728000 2.000000
    10192032 20742000 3.000000   20743000 2.000000
    10192032 20864000 1.000000   20955001 3.000000
    10192032 21141000 1.000000   21179000 1.000000
    10192032 21186000 1.000000   21221000 4.000000
    10192032 21223000 4.000000   21246001 7.000000
    10192032 21254000 1.000000   21258000 1.000000
    10192032 21343000 1.000000   21379000 1.000000
    10192032 21380000 1.000000   21382000 2.000000
    10192032 21391000 11.000000   21392000 10.000000
    10192032 21422000 63.000000   21423000 91.000000
    10192032 21425000 8.000000   21426000 6.000000
    10192032 21447000 1.000000   21456000 18.000000
    10192032 21457000 12.000000   21458000 12.000000
    10192032 21496000 1.000000   21519000 9.000000
    10192032 21523000 1.000000   21527000 2.000000
    10192032 21528000 1.000000   21536000 1.000000
    10192032 21553000 1.000000   21573000 9.000000
    10192032 21597000 30.000000   21615000 1.000000
    10192032 21640000 2.000000   21714900 5.000000
    10192032 21726900 1.000000   21733001 2.000000
    10192032 21733007 1.000000   21745001 4.000000
    10192032 21777000 2.000000   21813000 1.000000
    10192032 21818000 1.000000   21920000 1.000000
    10192032 22004000 1.000000   22038000 1.000000
    10192032 22081000 1.000000   22171000 1.000000
    10192032 22186000 1.000000   22190000 1.000000
    10192032 22196000 1.000000   22339000 1.000000
    10192032 22342000 1.000000   22384000 1.000000
    10192032 22393000 1.000000   22425000 1.000000
    10192032 22439000 1.000000   22471000 2.000000
    10192032 22475000 2.000000   22481000 1.000000
    10192032 22483000 1.000000   22539000 5.000000
    10192032 22576000 1.000000   22624000 1.000000
    10192032 22628000 1.000000   22689000 2.000000
    10192032 22690000 4.000000   22691000 1.000000
    10192032 22896000 1.000000   22922000 1.000000
    10192032 22989000 7.000000   22995000 1.000000
    10192032 23038000 1.000000   23044000 1.000000
    10192032 23130000 1.000000   23131000 3.000000
    10192032 23132000 5.000000   23136000 1.000000
    10192032 23146000 1.000000   23148000 2.000000
    10192032 23151000 1.000000   23152000 1.000000
    10192032 23154000 1.000000   23156000 1.000000
    10192032 23157000 1.000000   23168000 1.000000
    10192032 23170000 1.000000   23197000 1.000000
    10192032 23240000 4.000000   23241000 2.000000
    10192032 23250000 4.000000   23251000 5.000000
    10192032 23253000 1.000000   23256000 2.000000
    10192032 23295000 1.000000   23297000 3.000000
    10192032 23306000 1.000000   23477000 1.000000
    10192032 23494000 1.000000   23497000 1.000000
    10192032 23801000 1.000000   23908000 1.000000
    10192032 23993000 1.000000   24317000 9.000000
    10192032 24319000 8.000000   24928000 2.000000
    10192032 24985000 1.000000   24988000 1.000000
    10192032 25147000 1.000000   25247008 1.000000
    10192032 25259000 1.000000   25269000 1.000000
    10192032 25351000 1.000000   25499000 6.000000
    10192032 25500000 6.000000   25522000 1.000000
    10192032 25543002 2.000000   25557002 1.000000
    10192032 25617000 1.000000   25637000 1.000000
    10192032 25725003 1.000000   25786000 1.000000
    10192032 25896000 1.000000   25898000 7.000000
    10192032 25959000 1.000000   25961000 3.000000
    10192032 26003000 2.000000   26032000 1.000000
    10192032 26047000 1.000000   26111001 1.000000
    10192032 26112001 1.000000   26213000 12.000000
    10192032 26361000 3.000000   26413000 1.000000
    10192032 26414000 1.000000   26619002 1.000000
    10192032 26633000 6.000000   26874000 1.000000
    10192032 26924000 1.000000   27360000 1.000000
    10192032 27481900 1.000000   27709000 1.000000
    10192032 27711000 1.000000   27799000 1.000000
    10192032 27834000 1.000000   27841000 1.000000
    10192032 27843000 1.000000   27890008 1.000000
    10192032 28026000 1.000000   28187000 1.000000
    10192032 28510000 1.000000   28953000 7.000000
    10192032 28957000 1.000000   29008000 10.000000
    10192032 29009000 1.000000   29039000 1.000000
    10192032 29041000 1.000000   29470000 56.000000
    10192032 29506000 1.000000   29516000 1.000000
    10192032 29520000 1.000000   29556000 1.000000
    10192032 29741000 1.000000   29887000 1.000000
    10192032 33034002 2.000000   33100001 1.000000
    10192032 33129000 3.000000   33131000 5.000000
    10192032 33133000 1.000000   33144000 1.000000
    10192032 34395000 1.000000   34599000 1.000000
    10192032 34602000 1.000000   34613000 1.000000
    10192032 34647000 12.000000
    10198000 VILLKOR1 1.000000   VILLKOR5 1.000000
    10198000 00000000 368.600000   20107000 2.000000
    10198000 20149000 1.000000   20154000 1.000000
    10198000 20164900 1.000000   20165900 1.000000
    10198000 20166000 3.000000   20186000 5.000000
    10198000 20190000 5.000000   20192000 3.000000
    10198000 20213000 2.000000   20221000 1.000000
    10198000 20225000 1.000000   20226000 1.000000
    10198000 20228000 1.000000   20229000 1.000000
    10198000 20242000 5.000000   20285000 2.000000
    10198000 20290000 1.000000   20304000 1.000000
    10198000 20307000 1.000000   20318000 2.000000
    10198000 20344000 5.000000   20471000 13.000000
    10198000 20478000 1.000000   20490000 5.000000
    10198000 20495000 3.000000   20496000 3.000000
    10198000 20497000 3.000000   20498000 9.000000
    10198000 20499000 9.000000   20505000 9.000000
    10198000 20508000 27.000000   20522000 1.000000
    10198000 20523000 1.000000   20561000 1.000000
    10198000 20570000 1.000000   20692000 1.000000
    10198000 20695000 8.000000   20700000 1.000000
    10198000 21254000 1.000000   21258000 1.000000
    10198000 21343000 2.000000   21379000 1.000000
    10198000 21380000 1.000000   21382000 2.000000
    10198000 21391000 13.000000   21392000 12.000000
    10198000 21422000 99.000000   21423000 143.000000
    10198000 21425000 9.000000   21426000 11.000000
    10198000 21447000 1.000000   21456000 33.000000
    10198000 21457000 24.000000   21458000 24.000000
    10198000 21496000 1.000000   21519000 10.000000
    10198000 21523000 1.000000   21527000 4.000000
    10198000 21528000 6.000000   21536000 1.000000
    10198000 21553000 1.000000   21573000 4.000000
    10198000 21597000 31.000000   21615000 1.000000
    10198000 21640000 3.000000   21714900 4.000000
    10198000 21726900 3.000000   21733001 2.000000
    10198000 21733007 1.000000   21745001 8.000000
    10198000 21777000 2.000000   21813000 1.000000
    10198000 21818000 1.000000   21904000 1.000000
    10198000 21920000 1.000000   22004000 1.000000
    10198000 22038000 1.000000   22081000 1.000000
    10198000 22171000 1.000000   22186000 1.000000
    10198000 22190000 1.000000   22196000 1.000000
    10198000 22339000 1.000000   22342000 1.000000
    10198000 22384000 1.000000   22393000 1.000000
    10198000 22420000 1.000000   22425000 1.000000
    10198000 22439000 1.000000   22471000 2.000000
    10198000 22475000 2.000000   22477000 2.000000
    10198000 22479000 2.000000   22481000 1.000000
    10198000 22483000 1.000000   22491000 1.000000
    10198000 22539000 8.000000   22576000 1.000000
    10198000 22624000 1.000000   22628000 1.000000
    10198000 22642000 1.000000   22689000 3.000000
    10198000 22690000 8.000000   22868000 1.000000
    10198000 22896000 1.000000   22922000 1.000000
    10198000 22987000 1.000000   22989000 9.000000
    10198000 23044000 1.000000   23115001 3.000000
    10198000 23261000 1.000000   23295000 1.000000
    10198000 23624000 2.000000   23627001 18.000000
    10198000 23627002 8.000000   23627005 6.000000
    10198000 23670002 18.000000   23713000 1.000000
    10198000 23779000 1.000000   23872110 1.000000
    10198000 24195001 12.000000   24200001 12.000000
    10198000 24257002 5.000000   24259001 6.000000
    10198000 24259002 4.000000   24272000 10.000000
    10198000 24274000 13.000000   24275000 15.000000
    10198000 24278002 16.000000   24317000 10.000000
    10198000 24319000 4.000000   24409000 1.000000
    10198000 24426000 1.000000   24443000 1.000000
    10198000 24453000 1.000000   24535000 1.000000
    10198000 24541000 1.000000   24577000 1.000000
    10198000 24700000 1.000000   24703000 1.000000
    10198000 24985000 1.000000   24988000 1.000000
    10198000 25147000 1.000000   25269000 1.000000
    10198000 25327000 1.000000   25499000 9.000000
    10198000 25500000 9.000000   25637000 1.000000
    10198000 25896000 1.000000   25898000 7.000000
    10198000 25959000 1.000000   26003000 3.000000
    10198000 26047000 1.000000   26111001 1.000000
    10198000 26173000 1.000000   26206008 1.000000
    10198000 26213000 108.000000   26361000 27.000000
    10198000 26619004 1.000000   26633000 10.000000
    10198000 26874000 1.000000   26924000 1.000000
    10198000 26960000 1.000000   26965000 1.000000
    10198000 27240000 1.000000   27287000 1.000000
    10198000 27322000 1.000000   27323000 1.000000
    10198000 27482900 1.000000   27612000 1.000000
    10198000 27709000 1.000000   27710000 1.000000
    10198000 27750000 1.000000   27753000 1.000000
    10198000 27832000 1.000000   27840000 1.000000
    10198000 28237000 1.000000   28241000 1.000000
    10198000 28309000 1.000000   28387000 1.000000
    10198000 28510000 1.000000   28953000 9.000000
    10198000 29008000 12.000000   29009000 1.000000
    10198000 29039000 1.000000   29041000 1.000000
    10198000 29354000 1.000000   29394001 1.000000
    10198000 29470000 88.000000   29506000 1.000000
    10198000 29516000 1.000000   29520000 1.000000
    10198000 29556000 1.000000   29701006 2.000000
    10198000 29732001 1.000000   29741000 1.000000
    10198000 33034002 2.000000   33098000 2.000000
    10198000 33129000 27.000000   33131000 10.000000
    10198000 33133000 1.000000   33144000 1.000000
    10198000 34381000 1.000000   34394000 1.000000
    10198000 34404000 1.000000   34528008 1.000000
    10198000 34530000 2.000000   34551000 1.000000
    10198000 34599000 1.000000   34602000 1.000000
    10198000 34647000 108.000000   34678000 1.000000
    10209000 VILLKOR1 1.000000   VILLKOR4 1.000000
    10209000 VILLKOR9 1.000000   00000000 481.200000
    10209000 20063000 1.000000   20107000 2.000000
    10209000 20154000 1.000000   20164900 1.000000
    10209000 20165900 1.000000   20166000 1.000000
    10209000 20186000 5.000000   20190000 5.000000
    10209000 20192000 3.000000   20221000 1.000000
    10209000 20225000 1.000000   20226000 1.000000
    10209000 20228000 1.000000   20229000 1.000000
    10209000 20242000 1.000000   20285000 2.000000
    10209000 20290000 1.000000   20304000 1.000000
    10209000 20307000 1.000000   20318000 2.000000
    10209000 20344000 5.000000   20471000 13.000000
    10209000 20478000 1.000000   20490000 5.000000
    10209000 20495000 3.000000   20496000 3.000000
    10209000 20497000 3.000000   20498000 9.000000
    10209000 20499000 9.000000   20505000 2.000000
    10209000 20508000 2.000000   20522000 1.000000
    10209000 20523000 1.000000   20561000 1.000000
    10209000 20570000 1.000000   20692000 1.000000
    10209000 20695000 8.000000   20700000 1.000000
    10209000 20701000 1.000000   20703000 1.000000
    10209000 20728000 2.000000   20742000 3.000000
    10209000 20743000 2.000000   20864000 1.000000
    10209000 20955001 3.000000   21078000 1.000000
    10209000 21141000 1.000000   21179000 1.000000
    10209000 21186000 1.000000   21221000 4.000000
    10209000 21223000 4.000000   21246001 7.000000
    10209000 21254000 1.000000   21258000 1.000000
    10209000 21343000 1.000000   21379000 1.000000
    10209000 21380000 1.000000   21382000 2.000000
    10209000 21391000 13.000000   21392000 12.000000
    10209000 21422000 63.000000   21423000 91.000000
    10209000 21425000 10.000000   21426000 7.000000
    10209000 21447000 1.000000   21456000 20.000000
    10209000 21457000 15.000000   21458000 15.000000
    10209000 21496000 1.000000   21519000 11.000000
    10209000 21523000 1.000000   21527000 6.000000
    10209000 21528000 2.000000   21536000 1.000000
    10209000 21548000 10.000000   21553000 1.000000
    10209000 21573000 2.000000   21597000 31.000000
    10209000 21615000 1.000000   21640000 2.000000
    10209000 21714900 6.000000   21726900 7.000000
    10209000 21733001 1.000000   21745001 5.000000
    10209000 21777000 2.000000   21813000 1.000000
    10209000 21818000 1.000000   21904000 1.000000
    10209000 21920000 1.000000   22004000 1.000000
    10209000 22038000 1.000000   22081000 1.000000
    10209000 22171000 1.000000   22186000 1.000000
    10209000 22190000 1.000000   22196000 1.000000
    10209000 22339000 1.000000   22342000 1.000000
    10209000 22384000 1.000000   22386000 1.000000
    10209000 22393000 1.000000   22425000 1.000000
    10209000 22439000 1.000000   22447000 1.000000
    10209000 22471000 2.000000   22475000 2.000000
    10209000 22477000 2.000000   22479000 2.000000
    10209000 22481000 1.000000   22483000 1.000000
    10209000 22491000 1.000000   22498000 1.000000
    10209000 22529000 1.000000   22539000 7.000000
    10209000 22576000 1.000000   22624000 1.000000
    10209000 22628000 1.000000   22642000 1.000000
    10209000 22689000 2.000000   22690000 5.000000
    10209000 22868000 1.000000   22896000 1.000000
    10209000 22922000 1.000000   22987000 1.000000
    10209000 22989000 9.000000   23044000 1.000000
    10209000 23115001 1.000000   23261000 1.000000
    10209000 23278000 1.000000   23279000 1.000000
    10209000 23280000 1.000000   23295000 1.000000
    10209000 23872110 1.000000   24317000 11.000000
    10209000 24319000 9.000000   24828000 3.000000
    10209000 24985000 1.000000   24988000 1.000000
    10209000 25147000 1.000000   25245008 1.000000
    10209000 25269000 1.000000   25499000 5.000000
    10209000 25500000 3.000000   25522000 1.000000
    10209000 25637000 1.000000   25786000 1.000000
    10209000 25896000 1.000000   25898000 7.000000
    10209000 25959000 1.000000   26003000 3.000000
    10209000 26047000 1.000000   26111001 1.000000
    10209000 26213000 8.000000   26361000 2.000000
    10209000 26619004 1.000000   26633000 7.000000
    10209000 26874000 1.000000   26924000 1.000000
    10209000 27360000 1.000000   27482900 1.000000
    10209000 27709000 1.000000   27710000 1.000000
    10209000 27832000 1.000000   27840000 1.000000
    10209000 27890008 1.000000   28187000 1.000000
    10209000 28237000 1.000000   28241000 1.000000
    10209000 28510000 1.000000   28667000 1.000000
    10209000 28953000 9.000000   29008000 12.000000
    10209000 29009000 1.000000   29039000 1.000000
    10209000 29041000 1.000000   29470000 56.000000
    10209000 29506000 1.000000   29516000 1.000000
    10209000 29520000 1.000000   29556000 1.000000
    10209000 29741000 1.000000   33034002 2.000000
    10209000 33100001 1.000000   33129000 2.000000
    10209000 33131000 6.000000   33133000 1.000000
    10209000 33144000 1.000000   34381000 1.000000
    10209000 34394000 1.000000   34403000 1.000000
    10209000 34599000 1.000000   34602000 1.000000
    10209000 34647000 8.000000
    10216002 VILLKOR1 1.000000   VILLKOR3 1.000000
    10216002 00000000 265.300000
    10253000 VILLKOR1 1.000000   00000000 160.700000
    10253000 20107000 2.000000   20154000 1.000000
    10253000 20164900 1.000000   20165900 1.000000
    10253000 20186000 2.000000   20190000 3.000000
    10253000 20221000 1.000000   20225000 1.000000
    10253000 20226000 1.000000   20228000 1.000000
    10253000 20229000 1.000000   20242000 3.000000
    10253000 20285000 2.000000   20290000 1.000000
    10253000 20304000 1.000000   20307000 1.000000
    10253000 20471000 9.000000   20485000 2.000000
    10253000 20495000 3.000000   20496000 1.000000
    10253000 20497000 3.000000   20498000 7.000000
    10253000 20499000 7.000000   20505000 7.000000
    10253000 20508000 9.000000   20522000 1.000000
    10253000 20523000 1.000000   20570000 1.000000
    10253000 20692000 1.000000   20695000 8.000000
    10253000 20700000 1.000000   21254000 1.000000
    10253000 21258000 1.000000   21343000 1.000000
    10253000 21380000 2.000000   21382000 2.000000
    10253000 21391000 11.000000   21392000 10.000000
    10253000 21422000 90.000000   21423000 130.000000
    10253000 21425000 8.000000   21426000 9.000000
    10253000 21447000 1.000000   21456000 27.000000
    10253000 21457000 21.000000   21458000 21.000000
    10253000 21496000 1.000000   21519000 12.000000
    10253000 21523000 1.000000   21527000 5.000000
    10253000 21528000 4.000000   21536000 1.000000
    10253000 21548000 10.000000   21553000 1.000000
    10253000 21573000 6.000000   21597000 30.000000
    10253000 21640000 2.000000   21714900 8.000000
    10253000 21726900 4.000000   21733007 2.000000
    10253000 21745001 7.000000   21777000 2.000000
    10253000 21813000 1.000000   21818000 1.000000
    10253000 21920000 1.000000   22004000 1.000000
    10253000 22038000 1.000000   22081000 1.000000
    10253000 22171000 1.000000   22339000 1.000000
    10253000 22342000 1.000000   22384000 1.000000
    10253000 22393000 1.000000   22425000 1.000000
    10253000 22439000 1.000000   22471000 2.000000
    10253000 22475000 2.000000   22481000 1.000000
    10253000 22483000 1.000000   22498000 1.000000
    10253000 22529000 1.000000   22539000 5.000000
    10253000 22576000 1.000000   22624000 1.000000
    10253000 22628000 1.000000   22689000 2.000000
    10253000 22690000 7.000000   22691000 1.000000
    10253000 22868000 1.000000   22896000 1.000000
    10253000 22922000 1.000000   22989000 7.000000
    10253000 22995000 1.000000   23044000 1.000000
    10253000 23130000 1.000000   23131000 3.000000
    10253000 23132000 5.000000   23136000 1.000000
    10253000 23146000 1.000000   23148000 2.000000
    10253000 23151000 1.000000   23152000 1.000000
    10253000 23154000 1.000000   23156000 1.000000
    10253000 23157000 1.000000   23170000 1.000000
    10253000 23240000 4.000000   23241000 2.000000
    10253000 23250000 1.000000   23251000 3.000000
    10253000 23256000 2.000000   23295000 1.000000
    10253000 23297000 3.000000   23306000 1.000000
    10253000 23477000 1.000000   23494000 1.000000
    10253000 23624000 2.000000   23627001 13.000000
    10253000 23627002 15.000000   23627005 5.000000
    10253000 23652001 1.000000   23670002 15.000000
    10253000 23713000 1.000000   23801000 1.000000
    10253000 23872220 1.000000   23918000 1.000000
    10253000 23993000 1.000000   24169000 1.000000
    10253000 24195001 12.000000   24200001 9.000000
    10253000 24257002 3.000000   24259001 4.000000
    10253000 24259002 3.000000   24272000 10.000000
    10253000 24274000 11.000000   24275000 11.000000
    10253000 24278002 13.000000   24317000 13.000000
    10253000 24319000 8.000000   24541000 1.000000
    10253000 24577000 1.000000   24921000 1.000000
    10253000 24928000 2.000000   24985000 1.000000
    10253000 24988000 1.000000   25147000 1.000000
    10253000 25259000 1.000000   25269000 1.000000
    10253000 25327000 1.000000   25351000 1.000000
    10253000 25439000 1.000000   25499000 6.000000
    10253000 25500000 6.000000   25637000 1.000000
    10253000 25668001 1.000000   25725005 1.000000
    10253000 25835000 1.000000   25896000 1.000000
    10253000 25898000 7.000000   25959000 1.000000
    10253000 26003000 2.000000   26047000 1.000000
    10253000 26111001 1.000000   26213000 36.000000
    10253000 26361000 9.000000   26413000 1.000000
    10253000 26414000 1.000000   26619002 1.000000
    10253000 26633000 9.000000   26874000 1.000000
    10253000 26924000 1.000000   26937008 1.000000
    10253000 26960000 1.000000   27322000 1.000000
    10253000 27323000 1.000000   27360000 1.000000
    10253000 27481900 1.000000   27709000 1.000000
    10253000 27711000 1.000000   27750000 1.000000
    10253000 27753000 1.000000   27834000 1.000000
    10253000 27841000 1.000000   27843000 1.000000
    10253000 28309000 1.000000   28387000 1.000000
    10253000 28510000 1.000000   28953000 7.000000
    10253000 28957000 1.000000   29008000 10.000000
    10253000 29009000 1.000000   29039000 1.000000
    10253000 29041000 1.000000   29354000 1.000000
    10253000 29470000 80.000000   29506000 1.000000
    10253000 29516000 1.000000   29520000 1.000000
    10253000 29556000 1.000000   29701006 2.000000
    10253000 29741000 1.000000   29887000 1.000000
    10253000 33034002 2.000000   33098000 2.000000
    10253000 33100001 1.000000   33129000 9.000000
    10253000 33131000 8.000000   33133000 1.000000
    10253000 33144000 1.000000   34395000 1.000000
    10253000 34599000 1.000000   34602000 1.000000
    10253000 34613000 1.000000   34647000 36.000000
    10253000 34678000 1.000000   LOBROW29314 1.000000
    10253000 UPBROW29315 1.000000
    10359001 VILLKOR1 1.000000   VILLKOR4 1.000000
    10359001 VILLKOR9 1.000000   00000000 442.800000
    10359001 20063000 1.000000   20107000 2.000000
    10359001 20149000 1.000000   20154000 1.000000
    10359001 20164900 1.000000   20165900 1.000000
    10359001 20166000 3.000000   20186000 5.000000
    10359001 20190000 5.000000   20192000 3.000000
    10359001 20213000 2.000000   20221000 1.000000
    10359001 20225000 1.000000   20226000 1.000000
    10359001 20228000 1.000000   20229000 1.000000
    10359001 20242000 5.000000   20285000 2.000000
    10359001 20290000 1.000000   20304000 1.000000
    10359001 20307000 1.000000   20318000 2.000000
    10359001 20344000 5.000000   20471000 13.000000
    10359001 20478000 1.000000   20490000 5.000000
    10359001 20495000 3.000000   20496000 3.000000
    10359001 20497000 3.000000   20498000 9.000000
    10359001 20499000 9.000000   20505000 9.000000
    10359001 20508000 27.000000   20522000 1.000000
    10359001 20523000 1.000000   20561000 1.000000
    10359001 20570000 1.000000   20692000 1.000000
    10359001 20695000 8.000000   20700000 1.000000
    10359001 20701000 1.000000   20703000 1.000000
    10359001 20728000 2.000000   20742000 3.000000
    10359001 20743000 2.000000   20864000 1.000000
    10359001 20955001 3.000000   21078000 1.000000
    10359001 21141000 1.000000   21179000 1.000000
    10359001 21186000 1.000000   21221000 4.000000
    10359001 21223000 4.000000   21246001 7.000000
    10359001 21254000 1.000000   21258000 1.000000
    10359001 21343000 1.000000   21379000 1.000000
    10359001 21380000 1.000000   21382000 2.000000
    10359001 21391000 13.000000   21392000 12.000000
    10359001 21422000 54.000000   21423000 78.000000
    10359001 21425000 9.000000   21426000 6.000000
    10359001 21447000 1.000000   21456000 18.000000
    10359001 21457000 9.000000   21458000 9.000000
    10359001 21496000 1.000000   21528000 3.000000
    10359001 21536000 1.000000   21553000 1.000000
    10359001 21573000 6.000000   21597000 31.000000
    10359001 21615000 1.000000   21640000 3.000000
    10359001 21714900 6.000000   21733001 2.000000
    10359001 21733007 1.000000   21745001 3.000000
    10359001 21777000 2.000000   21813000 1.000000
    10359001 21904000 1.000000   21920000 1.000000
    10359001 22004000 1.000000   22038000 1.000000
    10359001 22081000 1.000000   22171000 1.000000
    10359001 22186000 1.000000   22190000 1.000000
    10359001 22196000 1.000000   22339000 1.000000
    10359001 22342000 1.000000   22384000 1.000000
    10359001 22386000 1.000000   22393000 1.000000
    10359001 22420000 1.000000   22425000 1.000000
    10359001 22439000 1.000000   22471000 2.000000
    10359001 22475000 2.000000   22477000 2.000000
    10359001 22479000 2.000000   22481000 1.000000
    10359001 22483000 1.000000   22491000 1.000000
    10359001 22539000 8.000000   22576000 1.000000
    10359001 22624000 1.000000   22628000 1.000000
    10359001 22642000 1.000000   22689000 3.000000
    10359001 22690000 3.000000   22868000 1.000000
    10359001 22896000 1.000000   22922000 1.000000
    10359001 22987000 1.000000   22989000 9.000000
    10359001 23044000 1.000000   23115001 3.000000
    10359001 23261000 1.000000   23295000 1.000000
    10359001 23872110 1.000000   24319000 6.000000
    10359001 24985000 1.000000   24988000 1.000000
    10359001 25147000 1.000000   25245008 1.000000
    10359001 25269000 1.000000   25499000 9.000000
    10359001 25500000 9.000000   25522000 1.000000
    10359001 25637000 1.000000   25786000 1.000000
    10359001 25896000 1.000000   25898000 7.000000
    10359001 25959000 1.000000   26003000 3.000000
    10359001 26047000 1.000000   26111001 1.000000
    10359001 26213000 108.000000   26361000 27.000000
    10359001 26619004 1.000000   26633000 5.000000
    10359001 26874000 1.000000   26924000 1.000000
    10359001 27360000 1.000000   27482900 1.000000
    10359001 27709000 1.000000   27710000 1.000000
    10359001 27832000 1.000000   27840000 1.000000
    10359001 27890008 1.000000   28187000 1.000000
    10359001 28237000 1.000000   28241000 1.000000
    10359001 28510000 1.000000   28953000 9.000000
    10359001 29008000 12.000000   29009000 1.000000
    10359001 29039000 1.000000   29041000 1.000000
    10359001 29470000 48.000000   29506000 1.000000
    10359001 29516000 1.000000   29520000 1.000000
    10359001 29556000 1.000000   29741000 1.000000
    10359001 33034002 2.000000   33100001 1.000000
    10359001 33129000 27.000000   33131000 10.000000
    10359001 33133000 1.000000   33144000 1.000000
    10359001 34381000 1.000000   34394000 1.000000
    10359001 34403000 1.000000   34599000 1.000000
    10359001 34602000 1.000000   34647000 108.000000
    10422001 VILLKOR1 1.000000   VILLKOR3 1.000000
    10422001 00000000 174.200000
    10475000 VILLKOR1 1.000000   VILLKOR6 1.000000
    10475000 00000000 375.700000   20107000 2.000000
    10475000 20154000 1.000000   20164900 1.000000
    10475000 20165900 1.000000   20166000 3.000000
    10475000 20186000 3.000000   20190000 4.000000
    10475000 20192000 3.000000   20221000 1.000000
    10475000 20225000 1.000000   20226000 1.000000
    10475000 20228000 1.000000   20229000 1.000000
    10475000 20242000 4.000000   20285000 2.000000
    10475000 20290000 1.000000   20304000 1.000000
    10475000 20307000 1.000000   20318000 2.000000
    10475000 20344000 4.000000   20471000 10.000000
    10475000 20478000 1.000000   20485000 3.000000
    10475000 20490000 5.000000   20495000 3.000000
    10475000 20496000 1.000000   20497000 3.000000
    10475000 20498000 9.000000   20499000 9.000000
    10475000 20505000 9.000000   20508000 19.000000
    10475000 20522000 1.000000   20523000 1.000000
    10475000 20561000 1.000000   20570000 1.000000
    10475000 20692000 1.000000   20695000 8.000000
    10475000 20700000 1.000000   21254000 1.000000
    10475000 21258000 1.000000   21343000 1.000000
    10475000 21377001 1.000000   21380000 2.000000
    10475000 21382000 2.000000   21391000 13.000000
    10475000 21392000 12.000000   21422000 108.000000
    10475000 21423000 156.000000   21425000 9.000000
    10475000 21426000 12.000000   21447000 1.000000
    10475000 21456000 33.000000   21457000 27.000000
    10475000 21458000 27.000000   21496000 1.000000
    10475000 21519000 12.000000   21523000 1.000000
    10475000 21527000 5.000000   21528000 4.000000
    10475000 21536000 1.000000   21548000 10.000000
    10475000 21553000 1.000000   21573000 3.000000
    10475000 21597000 31.000000   21640000 3.000000
    10475000 21714900 8.000000   21726900 5.000000
    10475000 21733001 1.000000   21733007 1.000000
    10475000 21745001 9.000000   21777000 1.000000
    10475000 21813000 1.000000   21818000 1.000000
    10475000 21904000 1.000000   21920000 1.000000
    10475000 22004000 1.000000   22038000 1.000000
    10475000 22081000 1.000000   22171000 1.000000
    10475000 22190000 1.000000   22339000 1.000000
    10475000 22342000 1.000000   22384000 1.000000
    10475000 22393000 1.000000   22425000 1.000000
    10475000 22439000 1.000000   22447000 1.000000
    10475000 22471000 2.000000   22475000 2.000000
    10475000 22477000 2.000000   22479000 2.000000
    10475000 22481000 1.000000   22483000 1.000000
    10475000 22491000 1.000000   22498000 1.000000
    10475000 22529000 1.000000   22539000 7.000000
    10475000 22576000 1.000000   22624000 1.000000
    10475000 22628000 1.000000   22642000 1.000000
    10475000 22689000 3.000000   22690000 9.000000
    10475000 22868000 1.000000   22896000 1.000000
    10475000 22922000 1.000000   22987000 1.000000
    10475000 22989000 9.000000   23044000 1.000000
    10475000 23115001 3.000000   23261000 1.000000
    10475000 23295000 1.000000   23624000 2.000000
    10475000 23627001 14.000000   23627002 16.000000
    10475000 23627005 6.000000   23652001 1.000000
    10475000 23670002 15.000000   23713000 1.000000
    10475000 23779000 1.000000   23872220 1.000000
    10475000 23918000 1.000000   24169000 1.000000
    10475000 24195001 12.000000   24200001 9.000000
    10475000 24257002 8.000000   24259001 5.000000
    10475000 24259002 3.000000   24272000 10.000000
    10475000 24274000 13.000000   24275000 11.000000
    10475000 24278002 13.000000   24317000 13.000000
    10475000 24319000 8.000000   24541000 1.000000
    10475000 24577000 1.000000   24985000 1.000000
    10475000 24988000 1.000000   25147000 1.000000
    10475000 25269000 1.000000   25499000 6.000000
    10475000 25500000 7.000000   25637000 1.000000
    10475000 25896000 1.000000   25898000 7.000000
    10475000 25959000 1.000000   26003000 4.000000
    10475000 26047000 1.000000   26111001 1.000000
    10475000 26213000 76.000000   26361000 19.000000
    10475000 26633000 11.000000   26874000 1.000000
    10475000 26924000 1.000000   26937008 1.000000
    10475000 27322000 1.000000   27323000 1.000000
    10475000 27482900 1.000000   27709000 1.000000
    10475000 27710000 1.000000   27750000 1.000000
    10475000 27832000 1.000000   27840000 1.000000
    10475000 28343008 1.000000   28387000 1.000000
    10475000 28510000 1.000000   28953000 9.000000
    10475000 29008000 12.000000   29009000 1.000000
    10475000 29039000 1.000000   29041000 1.000000
    10475000 29354000 1.000000   29470000 95.000000
    10475000 29506000 1.000000   29516000 1.000000
    10475000 29520000 1.000000   29556000 1.000000
    10475000 29701006 2.000000   29741000 1.000000
    10475000 33034002 2.000000   33062000 1.000000
    10475000 33098000 3.000000   33129000 19.000000
    10475000 33131000 10.000000   33133000 1.000000
    10475000 33144000 1.000000   34381000 1.000000
    10475000 34394000 1.000000   34404000 1.000000
    10475000 34599000 1.000000   34602000 1.000000
    10475000 34647000 76.000000   34678000 1.000000
    10541000 VILLKOR1 1.000000   VILLKOR2 1.000000
    10541000 VILLKOR9 1.000000   00000000 438.500000
    10541000 20107000 2.000000   20149000 1.000000
    10541000 20154000 1.000000   20164900 1.000000
    10541000 20165900 1.000000   20186000 5.000000
    10541000 20190000 5.000000   20221000 1.000000
    10541000 20225000 1.000000   20226000 1.000000
    10541000 20228000 1.000000   20229000 1.000000
    10541000 20242000 1.000000   20285000 2.000000
    10541000 20290000 1.000000   20304000 1.000000
    10541000 20307000 1.000000   20471000 11.000000
    10541000 20495000 3.000000   20496000 3.000000
    10541000 20497000 3.000000   20498000 7.000000
    10541000 20499000 7.000000   20522000 1.000000
    10541000 20523000 1.000000   20570000 1.000000
    10541000 20692000 1.000000   20695000 8.000000
    10541000 20700000 1.000000   20701000 1.000000
    10541000 20703000 1.000000   20728000 2.000000
    10541000 20742000 3.000000   20743000 2.000000
    10541000 20864000 1.000000   20955001 3.000000
    10541000 21141000 1.000000   21179000 1.000000
    10541000 21186000 1.000000   21221000 4.000000
    10541000 21223000 4.000000   21246001 7.000000
    10541000 21254000 1.000000   21258000 1.000000
    10541000 21343000 1.000000   21379000 1.000000
    10541000 21380000 1.000000   21382000 2.000000
    10541000 21391000 11.000000   21392000 10.000000
    10541000 21422000 63.000000   21423000 91.000000
    10541000 21425000 8.000000   21426000 7.000000
    10541000 21447000 1.000000   21456000 19.000000
    10541000 21457000 15.000000   21458000 15.000000
    10541000 21496000 1.000000   21528000 1.000000
    10541000 21536000 1.000000   21553000 1.000000
    10541000 21573000 3.000000   21597000 30.000000
    10541000 21615000 1.000000   21640000 1.000000
    10541000 21714900 2.000000   21733001 1.000000
    10541000 21745001 5.000000   21777000 2.000000
    10541000 21813000 1.000000   21920000 1.000000
    10541000 22004000 1.000000   22038000 1.000000
    10541000 22081000 1.000000   22171000 1.000000
    10541000 22186000 1.000000   22190000 1.000000
    10541000 22196000 1.000000   22339000 1.000000
    10541000 22342000 1.000000   22384000 1.000000
    10541000 22393000 1.000000   22425000 1.000000
    10541000 22439000 1.000000   22471000 2.000000
    10541000 22475000 2.000000   22481000 1.000000
    10541000 22483000 1.000000   22539000 6.000000
    10541000 22576000 1.000000   22624000 1.000000
    10541000 22628000 1.000000   22689000 2.000000
    10541000 22690000 5.000000   22896000 1.000000
    10541000 22922000 1.000000   22989000 7.000000
    10541000 22995000 1.000000   23038000 1.000000
    10541000 23044000 1.000000   23130000 1.000000
    10541000 23131000 3.000000   23132000 5.000000
    10541000 23136000 1.000000   23146000 1.000000
    10541000 23148000 2.000000   23151000 1.000000
    10541000 23152000 1.000000   23154000 1.000000
    10541000 23156000 1.000000   23157000 1.000000
    10541000 23168000 1.000000   23170000 1.000000
    10541000 23240000 4.000000   23241000 2.000000
    10541000 23250000 1.000000   23251000 5.000000
    10541000 23253000 1.000000   23256000 1.000000
    10541000 23295000 1.000000   23297000 3.000000
    10541000 23477000 1.000000   23494000 1.000000
    10541000 23498000 1.000000   23801000 1.000000
    10541000 23872220 1.000000   23908000 1.000000
    10541000 23993000 1.000000   24319000 3.000000
    10541000 24627000 1.000000   24928000 2.000000
    10541000 24985000 1.000000   24988000 1.000000
    10541000 25147000 1.000000   25247008 1.000000
    10541000 25259000 1.000000   25269000 1.000000
    10541000 25351000 1.000000   25499000 4.000000
    10541000 25500000 4.000000   25522000 1.000000
    10541000 25637000 1.000000   25786000 1.000000
    10541000 25896000 1.000000   25898000 7.000000
    10541000 25959000 1.000000   25961000 3.000000
    10541000 26003000 2.000000   26032000 1.000000
    10541000 26047000 1.000000   26413000 1.000000
    10541000 26414000 1.000000   26619002 1.000000
    10541000 26633000 7.000000   26874000 1.000000
    10541000 26924000 1.000000   27360000 1.000000
    10541000 27481900 1.000000   27709000 1.000000
    10541000 27711000 1.000000   27799000 1.000000
    10541000 27834000 1.000000   27841000 1.000000
    10541000 27843000 1.000000   27890008 1.000000
    10541000 28026000 1.000000   28187000 1.000000
    10541000 28510000 1.000000   28930000 1.000000
    10541000 28953000 7.000000   28957000 1.000000
    10541000 29008000 10.000000   29009000 1.000000
    10541000 29039000 1.000000   29041000 1.000000
    10541000 29470000 56.000000   29506000 1.000000
    10541000 29516000 1.000000   29520000 1.000000
    10541000 29556000 1.000000   29741000 1.000000
    10541000 29887000 1.000000   33034002 2.000000
    10541000 33100001 1.000000   33131000 2.000000
    10541000 33133000 1.000000   33144000 1.000000
    10541000 34395000 1.000000   34599000 1.000000
    10541000 34602000 1.000000   34613000 1.000000
    10645000 VILLKOR1 1.000000   VILLKOR5 1.000000
    10645000 00000000 438.300000   20107000 2.000000
    10645000 20149000 1.000000   20154000 1.000000
    10645000 20164900 1.000000   20165900 1.000000
    10645000 20166000 1.000000   20186000 5.000000
    10645000 20190000 5.000000   20192000 1.000000
    10645000 20221000 1.000000   20225000 1.000000
    10645000 20226000 1.000000   20228000 1.000000
    10645000 20229000 1.000000   20242000 1.000000
    10645000 20285000 2.000000   20290000 1.000000
    10645000 20304000 1.000000   20307000 1.000000
    10645000 20318000 2.000000   20344000 5.000000
    10645000 20471000 13.000000   20478000 1.000000
    10645000 20490000 5.000000   20495000 3.000000
    10645000 20496000 4.000000   20497000 3.000000
    10645000 20498000 9.000000   20499000 9.000000
    10645000 20505000 8.000000   20508000 8.000000
    10645000 20522000 1.000000   20523000 1.000000
    10645000 20561000 1.000000   20570000 1.000000
    10645000 20692000 1.000000   20695000 8.000000
    10645000 20700000 1.000000   21254000 1.000000
    10645000 21258000 1.000000   21343000 1.000000
    10645000 21379000 1.000000   21380000 1.000000
    10645000 21382000 2.000000   21391000 13.000000
    10645000 21392000 12.000000   21422000 36.000000
    10645000 21423000 52.000000   21425000 2.000000
    10645000 21426000 3.000000   21447000 1.000000
    10645000 21456000 12.000000   21457000 3.000000
    10645000 21458000 3.000000   21496000 1.000000
    10645000 21528000 1.000000   21536000 1.000000
    10645000 21553000 1.000000   21573000 1.000000
    10645000 21597000 31.000000   21615000 1.000000
    10645000 21640000 1.000000   21714900 6.000000
    10645000 21733001 1.000000   21733007 1.000000
    10645000 21745001 1.000000   21777000 2.000000
    10645000 21813000 1.000000   21904000 1.000000
    10645000 21920000 1.000000   22004000 1.000000
    10645000 22038000 1.000000   22081000 1.000000
    10645000 22171000 1.000000   22186000 1.000000
    10645000 22190000 1.000000   22196000 1.000000
    10645000 22339000 1.000000   22342000 1.000000
    10645000 22384000 1.000000   22393000 1.000000
    10645000 22425000 1.000000   22439000 1.000000
    10645000 22471000 2.000000   22475000 2.000000
    10645000 22477000 2.000000   22479000 2.000000
    10645000 22481000 1.000000   22483000 1.000000
    10645000 22491000 1.000000   22539000 8.000000
    10645000 22576000 1.000000   22624000 1.000000
    10645000 22628000 1.000000   22642000 1.000000
    10645000 22689000 2.000000   22690000 1.000000
    10645000 22691000 1.000000   22868000 1.000000
    10645000 22896000 1.000000   22922000 1.000000
    10645000 22987000 1.000000   22989000 9.000000
    10645000 23044000 1.000000   23115001 1.000000
    10645000 23261000 1.000000   23278000 1.000000
    10645000 23279000 1.000000   23280000 1.000000
    10645000 23295000 1.000000   23624000 2.000000
    10645000 23627001 14.000000   23627002 24.000000
    10645000 23627005 6.000000   23652001 1.000000
    10645000 23670002 18.000000   23713000 1.000000
    10645000 23779000 1.000000   23872110 1.000000
    10645000 24195001 14.000000   24200001 9.000000
    10645000 24257002 5.000000   24259001 6.000000
    10645000 24259002 4.000000   24272000 10.000000
    10645000 24274000 13.000000   24275000 13.000000
    10645000 24278002 16.000000   24319000 6.000000
    10645000 24409000 1.000000   24426000 1.000000
    10645000 24443000 1.000000   24535000 1.000000
    10645000 24541000 1.000000   24577000 1.000000
    10645000 24700000 1.000000   24703000 1.000000
    10645000 24828000 2.000000   24985000 1.000000
    10645000 24988000 1.000000   25147000 1.000000
    10645000 25269000 1.000000   25327000 1.000000
    10645000 25346000 1.000000   25499000 8.000000
    10645000 25500000 6.000000   25637000 1.000000
    10645000 25896000 1.000000   25898000 7.000000
    10645000 25959000 1.000000   26003000 2.000000
    10645000 26047000 1.000000   26111001 1.000000
    10645000 26173000 1.000000   26206008 1.000000
    10645000 26213000 32.000000   26361000 8.000000
    10645000 26619002 1.000000   26633000 7.000000
    10645000 26874000 1.000000   26924000 1.000000
    10645000 26937008 1.000000   26960000 1.000000
    10645000 26965000 1.000000   27240000 1.000000
    10645000 27287000 1.000000   27322000 1.000000
    10645000 27323000 1.000000   27482900 1.000000
    10645000 27709000 1.000000   27710000 1.000000
    10645000 27750000 1.000000   27753000 1.000000
    10645000 27832000 1.000000   27840000 1.000000
    10645000 28237000 1.000000   28241000 1.000000
    10645000 28309000 1.000000   28387000 1.000000
    10645000 28510000 1.000000   28667000 1.000000
    10645000 28953000 9.000000   29008000 12.000000
    10645000 29009000 1.000000   29039000 1.000000
    10645000 29041000 1.000000   29354000 1.000000
    10645000 29394001 1.000000   29470000 32.000000
    10645000 29506000 1.000000   29516000 1.000000
    10645000 29520000 1.000000   29556000 1.000000
    10645000 29701006 2.000000   29732001 1.000000
    10645000 29741000 1.000000   33034002 2.000000
    10645000 33098000 2.000000   33129000 8.000000
    10645000 33131000 10.000000   33133000 1.000000
    10645000 33144000 1.000000   34381000 1.000000
    10645000 34394000 1.000000   34404000 1.000000
    10645000 34528008 1.000000   34551000 1.000000
    10645000 34599000 1.000000   34602000 1.000000
    10645000 34647000 32.000000   34678000 1.000000
    20001018 VILLKOR1 1.000000   VILLKOR7 1.000000
    20001018 VILLKOR9 1.000000   00000000 131.900000
    20001018 20107000 2.000000   20154000 1.000000
    20001018 20164900 1.000000   20165900 1.000000
    20001018 20186000 4.000000   20190000 4.000000
    20001018 20221000 1.000000   20225000 1.000000
    20001018 20226000 1.000000   20228000 1.000000
    20001018 20229000 1.000000   20242000 2.000000
    20001018 20285000 2.000000   20290000 1.000000
    20001018 20304000 1.000000   20307000 1.000000
    20001018 20471000 11.000000   20495000 3.000000
    20001018 20496000 3.000000   20497000 3.000000
    20001018 20498000 7.000000   20499000 7.000000
    20001018 20505000 7.000000   20508000 9.000000
    20001018 20522000 1.000000   20523000 1.000000
    20001018 20570000 1.000000   20692000 1.000000
    20001018 20695000 8.000000   20700000 1.000000
    20001018 20701000 1.000000   20703000 1.000000
    20001018 20728000 2.000000   20742000 3.000000
    20001018 20743000 2.000000   20864000 1.000000
    20001018 20955001 3.000000   21078000 1.000000
    20001018 21141000 1.000000   21179000 1.000000
    20001018 21186000 1.000000   21221000 4.000000
    20001018 21223000 4.000000   21246001 7.000000
    20001018 21254000 1.000000   21258000 1.000000
    20001018 21343000 1.000000   21379000 1.000000
    20001018 21380000 1.000000   21382000 2.000000
    20001018 21391000 11.000000   21392000 10.000000
    20001018 21422000 72.000000   21423000 104.000000
    20001018 21425000 8.000000   21426000 7.000000
    20001018 21447000 1.000000   21453000 1.000000
    20001018 21456000 19.000000   21457000 15.000000
    20001018 21458000 15.000000   21496000 1.000000
    20001018 21519000 14.000000   21523000 1.000000
    20001018 21527000 5.000000   21528000 1.000000
    20001018 21536000 1.000000   21548000 10.000000
    20001018 21553000 1.000000   21573000 1.000000
    20001018 21597000 30.000000   21615000 1.000000
    20001018 21640000 1.000000   21714900 8.000000
    20001018 21726900 5.000000   21733007 1.000000
    20001018 21745001 5.000000   21813000 1.000000
    20001018 21818000 1.000000   21920000 1.000000
    20001018 22004000 1.000000   22038000 1.000000
    20001018 22081000 1.000000   22171000 1.000000
    20001018 22186000 1.000000   22190000 1.000000
    20001018 22196000 1.000000   22339000 1.000000
    20001018 22342000 1.000000   22393000 1.000000
    20001018 22425000 1.000000   22439000 1.000000
    20001018 22471000 2.000000   22475000 2.000000
    20001018 22481000 1.000000   22483000 1.000000
    20001018 22498000 1.000000   22529000 1.000000
    20001018 22539000 5.000000   22576000 1.000000
    20001018 22624000 1.000000   22628000 1.000000
    20001018 22689000 2.000000   22690000 5.000000
    20001018 22691000 1.000000   22896000 1.000000
    20001018 22922000 1.000000   22989000 7.000000
    20001018 22995000 1.000000   23038000 1.000000
    20001018 23044000 1.000000   23130000 1.000000
    20001018 23131000 3.000000   23132000 5.000000
    20001018 23136000 1.000000   23146000 1.000000
    20001018 23148000 2.000000   23151000 1.000000
    20001018 23152000 1.000000   23154000 1.000000
    20001018 23156000 1.000000   23157000 1.000000
    20001018 23168000 1.000000   23170000 1.000000
    20001018 23190001 1.000000   23197000 1.000000
    20001018 23240000 4.000000   23241000 2.000000
    20001018 23250000 2.000000   23251000 4.000000
    20001018 23253000 1.000000   23256000 2.000000
    20001018 23295000 1.000000   23297000 3.000000
    20001018 23306000 1.000000   23477000 1.000000
    20001018 23494000 1.000000   23497000 1.000000
    20001018 23801000 1.000000   23872110 1.000000
    20001018 23908000 1.000000   23993000 1.000000
    20001018 24317000 15.000000   24319000 13.000000
    20001018 24773000 1.000000   24828000 3.000000
    20001018 24921000 1.000000   24928000 2.000000
    20001018 24985000 1.000000   24988000 1.000000
    20001018 25147000 1.000000   25247008 1.000000
    20001018 25259000 1.000000   25269000 1.000000
    20001018 25351000 1.000000   25499000 2.000000
    20001018 25500000 3.000000   25522000 1.000000
    20001018 25637000 1.000000   25725003 1.000000
    20001018 25725004 1.000000   25786000 1.000000
    20001018 25896000 1.000000   25898000 7.000000
    20001018 25959000 1.000000   25961000 1.000000
    20001018 26003000 4.000000   26047000 1.000000
    20001018 26111001 1.000000   26213000 36.000000
    20001018 26361000 9.000000   26413000 1.000000
    20001018 26414000 1.000000   26567000 1.000000
    20001018 26619002 1.000000   26633000 7.000000
    20001018 26874000 1.000000   26924000 1.000000
    20001018 27481900 1.000000   27709000 1.000000
    20001018 27711000 1.000000   27834000 1.000000
    20001018 27841000 1.000000   27843000 1.000000
    20001018 28026000 1.000000   28175008 1.000000
    20001018 28187000 1.000000   28480000 1.000000
    20001018 28510000 1.000000   28953000 7.000000
    20001018 28957000 1.000000   29008000 10.000000
    20001018 29009000 1.000000   29039000 1.000000
    20001018 29041000 1.000000   29470000 64.000000
    20001018 29506000 1.000000   29516000 1.000000
    20001018 29520000 1.000000   29556000 1.000000
    20001018 29741000 1.000000   29887000 1.000000
    20001018 33034002 2.000000   33100001 1.000000
    20001018 33129000 9.000000   33131000 8.000000
    20001018 33133000 1.000000   33144000 1.000000
    20001018 34395000 1.000000   34598000 1.000000
    20001018 34602000 1.000000   34613000 1.000000
    20001018 34647000 36.000000
    20006015 VILLKOR1 1.000000   VILLKOR8 1.000000
    20006015 00000000 164.400000   20107000 2.000000
    20006015 20149000 1.000000   20154000 1.000000
    20006015 20164900 1.000000   20165900 1.000000
    20006015 20186000 4.000000   20190000 4.000000
    20006015 20221000 1.000000   20225000 1.000000
    20006015 20226000 1.000000   20228000 1.000000
    20006015 20229000 1.000000   20242000 4.000000
    20006015 20285000 2.000000   20290000 1.000000
    20006015 20304000 1.000000   20307000 1.000000
    20006015 20471000 11.000000   20495000 3.000000
    20006015 20496000 3.000000   20497000 3.000000
    20006015 20498000 7.000000   20499000 7.000000
    20006015 20505000 7.000000   20508000 10.000000
    20006015 20522000 1.000000   20523000 1.000000
    20006015 20570000 1.000000   20692000 1.000000
    20006015 20695000 8.000000   20700000 1.000000
    20006015 21254000 1.000000   21258000 1.000000
    20006015 21343000 1.000000   21379000 1.000000
    20006015 21380000 1.000000   21382000 2.000000
    20006015 21391000 11.000000   21392000 10.000000
    20006015 21422000 72.000000   21423000 104.000000
    20006015 21425000 8.000000   21426000 7.000000
    20006015 21447000 1.000000   21456000 18.000000
    20006015 21457000 15.000000   21458000 15.000000
    20006015 21496000 1.000000   21553000 1.000000
    20006015 21597000 30.000000   21615000 1.000000
    20006015 21640000 2.000000   21714900 5.000000
    20006015 21733001 1.000000   21733007 1.000000
    20006015 21745001 5.000000   21813000 1.000000
    20006015 21920000 1.000000   22004000 1.000000
    20006015 22038000 1.000000   22081000 1.000000
    20006015 22171000 1.000000   22186000 1.000000
    20006015 22190000 1.000000   22196000 1.000000
    20006015 22339000 1.000000   22342000 1.000000
    20006015 22393000 1.000000   22425000 1.000000
    20006015 22439000 1.000000   22471000 2.000000
    20006015 22475000 2.000000   22481000 1.000000
    20006015 22483000 1.000000   22539000 6.000000
    20006015 22576000 1.000000   22624000 1.000000
    20006015 22628000 1.000000   22689000 2.000000
    20006015 22690000 5.000000   22691000 1.000000
    20006015 22868000 1.000000   22896000 1.000000
    20006015 22922000 1.000000   22989000 7.000000
    20006015 22995000 1.000000   23044000 1.000000
    20006015 23130000 1.000000   23131000 3.000000
    20006015 23132000 5.000000   23136000 1.000000
    20006015 23146000 1.000000   23148000 2.000000
    20006015 23151000 1.000000   23152000 1.000000
    20006015 23154000 1.000000   23156000 1.000000
    20006015 23157000 1.000000   23168000 1.000000
    20006015 23170000 1.000000   23197000 1.000000
    20006015 23240000 4.000000   23241000 2.000000
    20006015 23250000 2.000000   23251000 4.000000
    20006015 23253000 1.000000   23256000 2.000000
    20006015 23295000 1.000000   23297000 3.000000
    20006015 23306000 1.000000   23477000 1.000000
    20006015 23494000 1.000000   23497000 1.000000
    20006015 23624000 2.000000   23627001 14.000000
    20006015 23627002 16.000000   23627005 5.000000
    20006015 23652001 1.000000   23670002 15.000000
    20006015 23713000 1.000000   23801000 1.000000
    20006015 23872220 1.000000   23993000 1.000000
    20006015 24195001 12.000000   24200001 9.000000
    20006015 24257002 5.000000   24259001 4.000000
    20006015 24259002 3.000000   24272000 10.000000
    20006015 24274000 11.000000   24275000 11.000000
    20006015 24278002 16.000000   24319000 5.000000
    20006015 24409000 1.000000   24453000 1.000000
    20006015 24535000 1.000000   24541000 1.000000
    20006015 24577000 1.000000   24700000 1.000000
    20006015 24703000 1.000000   24773000 1.000000
    20006015 24828000 4.000000   24928000 2.000000
    20006015 24985000 1.000000   24988000 1.000000
    20006015 25147000 1.000000   25259000 1.000000
    20006015 25269000 1.000000   25327000 1.000000
    20006015 25351000 1.000000   25439000 1.000000
    20006015 25499000 4.000000   25500000 4.000000
    20006015 25637000 1.000000   25668001 1.000000
    20006015 25725003 1.000000   25725005 1.000000
    20006015 25835000 1.000000   25896000 1.000000
    20006015 25898000 7.000000   25959000 1.000000
    20006015 26003000 4.000000   26047000 1.000000
    20006015 26173000 1.000000   26206008 1.000000
    20006015 26213000 40.000000   26361000 10.000000
    20006015 26413000 1.000000   26414000 1.000000
    20006015 26619002 1.000000   26633000 7.000000
    20006015 26874000 1.000000   26924000 1.000000
    20006015 26937008 1.000000   26960000 1.000000
    20006015 26965000 1.000000   27240000 1.000000
    20006015 27287000 1.000000   27322000 1.000000
    20006015 27323000 1.000000   27360000 1.000000
    20006015 27481900 1.000000   27709000 1.000000
    20006015 27711000 1.000000   27750000 1.000000
    20006015 27753000 1.000000   27834000 1.000000
    20006015 27841000 1.000000   27843000 1.000000
    20006015 28026000 1.000000   28309000 1.000000
    20006015 28387000 1.000000   28510000 1.000000
    20006015 28953000 7.000000   28957000 1.000000
    20006015 29008000 10.000000   29009000 1.000000
    20006015 29039000 1.000000   29041000 1.000000
    20006015 29354000 1.000000   29394001 1.000000
    20006015 29470000 64.000000   29506000 1.000000
    20006015 29516000 1.000000   29520000 1.000000
    20006015 29556000 1.000000   29701006 2.000000
    20006015 29741000 1.000000   29887000 1.000000
    20006015 33034002 2.000000   33098000 2.000000
    20006015 33100001 1.000000   33129000 10.000000
    20006015 33131000 8.000000   33133000 1.000000
    20006015 33144000 1.000000   34395000 1.000000
    20006015 34529008 1.000000   34530000 2.000000
    20006015 34551000 1.000000   34598000 1.000000
    20006015 34602000 1.000000   34613000 1.000000
    20006015 34647000 40.000000   34678000 1.000000
    20010000 VILLKOR1 1.000000   VILLKOR8 1.000000
    20010000 00000000 111.500000   20107000 2.000000
    20010000 20149000 1.000000   20154000 1.000000
    20010000 20164900 1.000000   20165900 1.000000
    20010000 20186000 3.000000   20190000 3.000000
    20010000 20221000 1.000000   20225000 1.000000
    20010000 20226000 1.000000   20228000 1.000000
    20010000 20229000 1.000000   20242000 3.000000
    20010000 20285000 2.000000   20290000 1.000000
    20010000 20304000 1.000000   20307000 1.000000
    20010000 20471000 11.000000   20495000 3.000000
    20010000 20496000 3.000000   20497000 3.000000
    20010000 20498000 7.000000   20499000 7.000000
    20010000 20522000 1.000000   20523000 1.000000
    20010000 20570000 1.000000   20692000 1.000000
    20010000 20695000 8.000000   20700000 1.000000
    20010000 21254000 1.000000   21258000 1.000000
    20010000 21343000 1.000000   21379000 1.000000
    20010000 21380000 1.000000   21382000 2.000000
    20010000 21391000 11.000000   21392000 10.000000
    20010000 21422000 81.000000   21423000 117.000000
    20010000 21425000 8.000000   21426000 8.000000
    20010000 21447000 1.000000   21456000 24.000000
    20010000 21457000 18.000000   21458000 18.000000
    20010000 21496000 1.000000   21519000 9.000000
    20010000 21523000 1.000000   21527000 3.000000
    20010000 21528000 3.000000   21536000 1.000000
    20010000 21548000 10.000000   21553000 1.000000
    20010000 21573000 2.000000   21597000 30.000000
    20010000 21615000 1.000000   21640000 2.000000
    20010000 21714900 6.000000   21726900 3.000000
    20010000 21733001 2.000000   21733007 1.000000
    20010000 21745001 6.000000   21777000 2.000000
    20010000 21813000 1.000000   21818000 1.000000
    20010000 21920000 1.000000   22004000 1.000000
    20010000 22038000 1.000000   22081000 1.000000
    20010000 22171000 1.000000   22186000 1.000000
    20010000 22190000 1.000000   22196000 1.000000
    20010000 22339000 1.000000   22342000 1.000000
    20010000 22393000 1.000000   22425000 1.000000
    20010000 22439000 1.000000   22471000 2.000000
    20010000 22475000 2.000000   22481000 1.000000
    20010000 22483000 1.000000   22539000 6.000000
    20010000 22576000 1.000000   22624000 1.000000
    20010000 22628000 1.000000   22689000 2.000000
    20010000 22690000 6.000000   22691000 1.000000
    20010000 22868000 1.000000   22896000 1.000000
    20010000 22922000 1.000000   22989000 7.000000
    20010000 22995000 1.000000   23044000 1.000000
    20010000 23130000 1.000000   23131000 3.000000
    20010000 23132000 5.000000   23136000 1.000000
    20010000 23146000 1.000000   23148000 2.000000
    20010000 23151000 1.000000   23152000 1.000000
    20010000 23154000 1.000000   23156000 1.000000
    20010000 23157000 1.000000   23168000 1.000000
    20010000 23170000 1.000000   23197000 1.000000
    20010000 23240000 4.000000   23241000 2.000000
    20010000 23250000 2.000000   23251000 3.000000
    20010000 23256000 2.000000   23295000 1.000000
    20010000 23297000 3.000000   23477000 1.000000
    20010000 23494000 1.000000   23497000 1.000000
    20010000 23624000 2.000000   23627001 18.000000
    20010000 23627002 8.000000   23627005 5.000000
    20010000 23670002 15.000000   23713000 1.000000
    20010000 23801000 1.000000   23872220 1.000000
    20010000 23993000 1.000000   24195001 12.000000
    20010000 24200001 12.000000   24257002 5.000000
    20010000 24259001 4.000000   24259002 3.000000
    20010000 24272000 10.000000   24274000 11.000000
    20010000 24275000 11.000000   24278002 16.000000
    20010000 24317000 10.000000   24319000 6.000000
    20010000 24409000 1.000000   24443000 1.000000
    20010000 24453000 1.000000   24535000 1.000000
    20010000 24541000 1.000000   24577000 1.000000
    20010000 24627000 1.000000   24700000 1.000000
    20010000 24703000 1.000000   24773000 1.000000
    20010000 24928000 2.000000   24985000 1.000000
    20010000 24988000 1.000000   25147000 1.000000
    20010000 25259000 1.000000   25269000 1.000000
    20010000 25327000 1.000000   25349000 1.000000
    20010000 25351000 1.000000   25439000 1.000000
    20010000 25499000 6.000000   25500000 6.000000
    20010000 25637000 1.000000   25835000 1.000000
    20010000 25896000 1.000000   25898000 7.000000
    20010000 25959000 1.000000   26003000 2.000000
    20010000 26047000 1.000000   26173000 1.000000
    20010000 26206008 1.000000   26413000 1.000000
    20010000 26414000 1.000000   26619002 1.000000
    20010000 26633000 8.000000   26874000 1.000000
    20010000 26924000 1.000000   26937008 1.000000
    20010000 26960000 1.000000   26965000 1.000000
    20010000 27240000 1.000000   27287000 1.000000
    20010000 27322000 1.000000   27323000 1.000000
    20010000 27481900 1.000000   27612000 1.000000
    20010000 27709000 1.000000   27711000 1.000000
    20010000 27750000 1.000000   27753000 1.000000
    20010000 27834000 1.000000   27841000 1.000000
    20010000 27843000 1.000000   28026000 1.000000
    20010000 28309000 1.000000   28387000 1.000000
    20010000 28480000 1.000000   28510000 1.000000
    20010000 28953000 7.000000   28957000 1.000000
    20010000 29008000 10.000000   29009000 1.000000
    20010000 29039000 1.000000   29041000 1.000000
    20010000 29354000 1.000000   29394001 1.000000
    20010000 29470000 72.000000   29506000 1.000000
    20010000 29516000 1.000000   29520000 1.000000
    20010000 29556000 1.000000   29701006 2.000000
    20010000 29732001 1.000000   29741000 1.000000
    20010000 29887000 1.000000   33034002 2.000000
    20010000 33098000 2.000000   33100001 1.000000
    20010000 33131000 2.000000   33133000 1.000000
    20010000 33144000 1.000000   34395000 1.000000
    20010000 34529008 1.000000   34530000 2.000000
    20010000 34551000 1.000000   34598000 1.000000
    20010000 34602000 1.000000   34613000 1.000000
    20010000 34678000 1.000000
    20016015 VILLKOR1 1.000000   VILLKOR7 1.000000
    20016015 VILLKOR9 1.000000   00000000 175.100000
    20016015 20107000 2.000000   20149000 1.000000
    20016015 20154000 1.000000   20164900 1.000000
    20016015 20165900 1.000000   20186000 3.000000
    20016015 20190000 3.000000   20221000 1.000000
    20016015 20225000 1.000000   20226000 1.000000
    20016015 20228000 1.000000   20229000 1.000000
    20016015 20242000 3.000000   20285000 2.000000
    20016015 20290000 1.000000   20304000 1.000000
    20016015 20307000 1.000000   20471000 11.000000
    20016015 20495000 3.000000   20496000 3.000000
    20016015 20497000 3.000000   20498000 7.000000
    20016015 20499000 7.000000   20505000 7.000000
    20016015 20508000 18.000000   20522000 1.000000
    20016015 20523000 1.000000   20570000 1.000000
    20016015 20692000 1.000000   20695000 8.000000
    20016015 20700000 1.000000   20701000 1.000000
    20016015 20703000 1.000000   20728000 2.000000
    20016015 20742000 3.000000   20743000 2.000000
    20016015 20864000 1.000000   20955001 3.000000
    20016015 21078000 1.000000   21141000 1.000000
    20016015 21179000 1.000000   21186000 1.000000
    20016015 21221000 4.000000   21223000 4.000000
    20016015 21246001 7.000000   21254000 1.000000
    20016015 21258000 1.000000   21343000 1.000000
    20016015 21379000 1.000000   21380000 1.000000
    20016015 21382000 2.000000   21391000 11.000000
    20016015 21392000 10.000000   21422000 63.000000
    20016015 21423000 91.000000   21425000 8.000000
    20016015 21426000 7.000000   21447000 1.000000
    20016015 21456000 21.000000   21457000 15.000000
    20016015 21458000 15.000000   21496000 1.000000
    20016015 21519000 4.000000   21523000 1.000000
    20016015 21527000 3.000000   21528000 1.000000
    20016015 21536000 1.000000   21553000 1.000000
    20016015 21573000 3.000000   21597000 30.000000
    20016015 21615000 1.000000   21640000 2.000000
    20016015 21714900 6.000000   21726900 2.000000
    20016015 21733001 2.000000   21745001 5.000000
    20016015 21777000 2.000000   21813000 1.000000
    20016015 21818000 1.000000   21920000 1.000000
    20016015 22004000 1.000000   22038000 1.000000
    20016015 22081000 1.000000   22171000 1.000000
    20016015 22186000 1.000000   22190000 1.000000
    20016015 22196000 1.000000   22339000 1.000000
    20016015 22342000 1.000000   22393000 1.000000
    20016015 22425000 1.000000   22439000 1.000000
    20016015 22471000 2.000000   22475000 2.000000
    20016015 22481000 1.000000   22483000 1.000000
    20016015 22539000 6.000000   22576000 1.000000
    20016015 22624000 1.000000   22628000 1.000000
    20016015 22689000 2.000000   22690000 5.000000
    20016015 22896000 1.000000   22922000 1.000000
    20016015 22989000 7.000000   22995000 1.000000
    20016015 23038000 1.000000   23044000 1.000000
    20016015 23130000 1.000000   23131000 3.000000
    20016015 23132000 5.000000   23136000 1.000000
    20016015 23146000 1.000000   23148000 2.000000
    20016015 23151000 1.000000   23152000 1.000000
    20016015 23154000 1.000000   23156000 1.000000
    20016015 23157000 1.000000   23168000 1.000000
    20016015 23170000 1.000000   23190001 1.000000
    20016015 23197000 1.000000   23240000 4.000000
    20016015 23241000 2.000000   23250000 1.000000
    20016015 23251000 3.000000   23253000 1.000000
    20016015 23256000 2.000000   23295000 1.000000
    20016015 23297000 3.000000   23306000 1.000000
    20016015 23477000 1.000000   23494000 1.000000
    20016015 23498000 1.000000   23801000 1.000000
    20016015 23872095 1.000000   23908000 1.000000
    20016015 23993000 1.000000   24317000 4.000000
    20016015 24319000 3.000000   24773000 1.000000
    20016015 24928000 2.000000   24985000 1.000000
    20016015 24988000 1.000000   25147000 1.000000
    20016015 25247008 1.000000   25259000 1.000000
    20016015 25269000 1.000000   25351000 1.000000
    20016015 25499000 6.000000   25500000 6.000000
    20016015 25522000 1.000000   25637000 1.000000
    20016015 25668001 1.000000   25725002 1.000000
    20016015 25725005 1.000000   25786000 1.000000
    20016015 25896000 1.000000   25898000 7.000000
    20016015 25959000 1.000000   25961000 1.000000
    20016015 26003000 2.000000   26047000 1.000000
    20016015 26112001 1.000000   26213000 72.000000
    20016015 26361000 18.000000   26413000 1.000000
    20016015 26414000 1.000000   26567000 1.000000
    20016015 26619002 1.000000   26633000 7.000000
    20016015 26874000 1.000000   26924000 1.000000
    20016015 27360000 1.000000   27481900 1.000000
    20016015 27709000 1.000000   27711000 1.000000
    20016015 27834000 1.000000   27841000 1.000000
    20016015 27843000 1.000000   27890008 1.000000
    20016015 28026000 1.000000   28187000 1.000000
    20016015 28480000 1.000000   28510000 1.000000
    20016015 28953000 7.000000   28957000 1.000000
    20016015 29008000 10.000000   29009000 1.000000
    20016015 29039000 1.000000   29041000 1.000000
    20016015 29470000 56.000000   29506000 1.000000
    20016015 29516000 1.000000   29520000 1.000000
    20016015 29556000 1.000000   29741000 1.000000
    20016015 29887000 1.000000   33034002 2.000000
    20016015 33100001 1.000000   33129000 18.000000
    20016015 33131000 8.000000   33133000 1.000000
    20016015 33144000 1.000000   34395000 1.000000
    20016015 34598000 1.000000   34602000 1.000000
    20016015 34613000 1.000000   34647000 72.000000
    C0001000 20001000 -1.000000   20002000 1.000000
    C0001000 20003000 1.000000   20046000 1.000000
    C0002000 20002000 -1.000000
    C0003000 20003000 -1.000000
    C0043000 20043000 -1.000000   20046000 1.000000
    C0046000 20046000 -1.000000
    C0063000 20063000 -1.000000
    C0107000 20107000 -1.000000
    C0113000 20113000 -1.000000
    C0119000 20119000 -1.000000
    C0120000 20120000 -1.000000
    C0124000 20124000 -1.000000
    C0126000 20126000 -1.000000
    C0130000 20130000 -1.000000
    C0140000 20140000 -1.000000   20141000 1.000000
    C0140000 20142000 1.000000
    C0141000 20141000 -1.000000
    C0142000 20142000 -1.000000
    C0144000 20144000 -1.000000   20145000 1.000000
    C0145000 20145000 -1.000000
    C0149000 20124000 5.000000   20149000 -1.000000
    C0149000 22507000 1.000000   22530000 1.000000
    C0154000 20154000 -1.000000
    C0164900 20164900 -1.000000
    C0165900 20165900 -1.000000
    C0166000 20166000 -1.000000   20168000 10.000000
    C0166000 20169000 9.000000   20171000 9.000000
    C0166000 20172000 81.000000   20173000 81.000000
    C0166000 20176000 3.000000   20177000 8.000000
    C0166000 20179000 8.000000   20181000 8.000000
    C0166000 34689000 1.000000
    C0168000 20168000 -1.000000
    C0169000 20169000 -1.000000
    C0171000 20171000 -1.000000
    C0172000 20172000 -1.000000
    C0173000 20173000 -1.000000
    C0176000 20176000 -1.000000
    C0177000 20177000 -1.000000
    C0179000 20179000 -1.000000
    C0181000 20181000 -1.000000
    C0186000 20186000 -1.000000
    C0190000 20190000 -1.000000
    C0192000 20192000 -1.000000
    C0194000 20194000 -1.000000   20197000 1.000000
    C0197000 20197000 -1.000000
    C0198000 20198000 -1.000000
    C0202000 20202000 -1.000000
    C0208000 20208000 -1.000000
    C0213000 20168000 10.000000   20169000 9.000000
    C0213000 20171000 9.000000   20172000 9.000000
    C0213000 20173000 9.000000   20176000 3.000000
    C0213000 20177000 8.000000   20179000 8.000000
    C0213000 20181000 8.000000   20213000 -1.000000
    C0213000 34689000 1.000000
    C0221000 20221000 -1.000000
    C0225000 20225000 -1.000000
    C0226000 20226000 -1.000000
    C0228000 20228000 -1.000000
    C0229000 20229000 -1.000000
    C0242000 20242000 -1.000000
    C0285000 20285000 -1.000000
    C0290000 20290000 -1.000000   20291000 1.000000
    C0291000 20291000 -1.000000
    C0304000 20304000 -1.000000
    C0307000 20307000 -1.000000
    C0318000 20318000 -1.000000
    C0344000 20344000 -1.000000
    C0410000 20410000 -1.000000
    C0413011 20413011 -1.000000
    C0416000 20416000 -1.000000
    C0471000 20471000 -1.000000   20472000 2.000000
    C0471000 20475000 1.000000   20476000 2.000000
    C0471000 20478000 1.000000   22905000 1.000000
    C0471000 26243000 2.000000
    C0472000 20472000 -1.000000   20474000 1.000000
    C0474000 20474000 -1.000000
    C0475000 20475000 -1.000000
    C0476000 20476000 -1.000000
    C0478000 20478000 -1.000000
    C0482000 20482000 -1.000000
    C0484000 20484000 -1.000000
    C0485000 20472000 2.000000   20475000 1.000000
    C0485000 20476000 1.000000   20478000 1.000000
    C0485000 20485000 -1.000000   22905000 1.000000
    C0485000 26243000 2.000000
    C0490000 20490000 -1.000000
    C0495000 20495000 -1.000000
    C0496000 20496000 -1.000000
    C0497000 20497000 -1.000000
    C0498000 20498000 -1.000000
    C0499000 20499000 -1.000000
    C0505000 20505000 -1.000000   20507000 1.000000
    C0507000 20507000 -1.000000
    C0508000 20508000 -1.000000   20509000 1.000000
    C0509000 20509000 -1.000000
    C0522000 20522000 -1.000000
    C0523000 20523000 -1.000000
    C0561000 20561000 -1.000000   20562000 9.000000
    C0562000 20562000 -1.000000
    C0570000 20570000 -1.000000
    C0580000 20580000 -1.000000
    C0662000 20662000 -1.000000
    C0664000 20664000 -1.000000
    C0665000 20665000 -1.000000
    C0668000 20668000 -1.000000
    C0692000 20692000 -1.000000
    C0695000 20695000 -1.000000
    C0700000 20700000 -1.000000
    C0701000 20701000 -1.000000
    C0702000 20702000 -1.000000
    C0703000 20702000 1.000000   20703000 -1.000000
    C0728000 20728000 -1.000000
    C0742000 20742000 -1.000000
    C0743000 20743000 -1.000000
    C0864000 20864000 -1.000000
    C0938000 20938000 -1.000000
    C0955001 20955001 -1.000000
    C0956000 20956000 -1.000000
    C1078000 21078000 -1.000000
    C1141000 21141000 -1.000000
    C1179000 21179000 -1.000000
    C1186000 21186000 -1.000000   27394000 1.000000
    C1221000 20956000 1.000000   21221000 -1.000000
    C1223000 20938000 1.000000   21223000 -1.000000
    C1246001 21246001 -1.000000
    C1254000 21254000 -1.000000
    C1258000 21258000 -1.000000
    C1343000 21343000 -1.000000
    C1354000 21354000 -1.000000
    C1377001 20662000 10.000000   20664000 9.000000
    C1377001 20665000 12.000000   20668000 9.000000
    C1377001 21377001 -1.000000
    C1377002 20662000 11.000000   20664000 9.000000
    C1377002 20665000 13.000000   20668000 9.000000
    C1377002 21377002 -1.000000
    C1379000 21379000 -1.000000   21380000 1.000000
    C1380000 21380000 -1.000000
    C1382000 21382000 -1.000000
    C1391000 21391000 -1.000000
    C1392000 21392000 -1.000000
    C1422000 21422000 -1.000000
    C1423000 21423000 -1.000000
    C1425000 21425000 -1.000000
    C1426000 21426000 -1.000000
    C1447000 21447000 -1.000000
    C1452000 21452000 -1.000000
    C1453000 21453000 -1.000000
    C1454000 21454000 -1.000000
    C1456000 21456000 -1.000000
    C1457000 21457000 -1.000000
    C1458000 21458000 -1.000000
    C1496000 21496000 -1.000000
    C1519000 21519000 -1.000000
    C1523000 21523000 -1.000000
    C1527000 21527000 -1.000000
    C1528000 21528000 -1.000000
    C1536000 21536000 -1.000000
    C1548000 21548000 -1.000000
    C1553000 21553000 -1.000000
    C1573000 21573000 -1.000000
    C1597000 21597000 -1.000000
    C1615000 21615000 -1.000000
    C1640000 21640000 -1.000000
    C1714900 21714900 -1.000000
    C1726900 21726900 -1.000000
    C1733001 21733001 -1.000000
    C1733007 21733007 -1.000000
    C1745001 21745001 -1.000000
    C1777000 21777000 -1.000000
    C1813000 21813000 -1.000000
    C1818000 21818000 -1.000000
    C1904000 21904000 -1.000000
    C1920000 21920000 -1.000000   21932000 1.000000
    C1932000 21932000 -1.000000
    C1973000 21973000 -1.000000
    C2004000 22004000 -1.000000
    C2038000 22038000 -1.000000
    C2081000 22081000 -1.000000
    C2171000 22171000 -1.000000
    C2174000 22174000 -1.000000
    C2186000 22186000 -1.000000
    C2190000 22190000 -1.000000
    C2196000 22196000 -1.000000
    C2339000 22339000 -1.000000
    C2342000 22342000 -1.000000
    C2384000 22174000 1.000000   22384000 -1.000000
    C2386000 22386000 -1.000000
    C2393000 22393000 -1.000000
    C2420000 20662000 12.000000   20664000 11.000000
    C2420000 20665000 14.000000   20668000 11.000000
    C2420000 22420000 -1.000000
    C2425000 22425000 -1.000000
    C2439000 22439000 -1.000000
    C2447000 20177000 8.000000   20179000 8.000000
    C2447000 20194000 18.000000   20198000 9.000000
    C2447000 20202000 11.000000   20208000 9.000000
    C2447000 22447000 -1.000000   34689000 1.000000
    C2471000 22471000 -1.000000   22473000 1.000000
    C2472000 22472000 -1.000000
    C2473000 22473000 -1.000000
    C2475000 22472000 1.000000   22475000 -1.000000
    C2477000 22472000 1.000000   22477000 -1.000000
    C2479000 22472000 1.000000   22479000 -1.000000
    C2481000 22472000 1.000000   22481000 -1.000000
    C2483000 22483000 -1.000000
    C2491000 21354000 2.000000   22491000 -1.000000
    C2498000 20124000 5.000000   20126000 1.000000
    C2498000 20130000 5.000000   20140000 1.000000
    C2498000 20144000 5.000000   22498000 -1.000000
    C2498000 22503000 1.000000   22505000 1.000000
    C2498000 22507000 1.000000   22530000 1.000000
    C2503000 22503000 -1.000000
    C2505000 22505000 -1.000000
    C2507000 20113000 1.000000   22507000 -1.000000
    C2507000 34636000 1.000000
    C2529000 20124000 5.000000   20126000 1.000000
    C2529000 20130000 1.000000   20140000 1.000000
    C2529000 20144000 1.000000   22503000 1.000000
    C2529000 22505000 1.000000   22529000 -1.000000
    C2529000 22530000 1.000000   22531000 1.000000
    C2530000 20119000 1.000000   20120000 5.000000
    C2530000 22530000 -1.000000
    C2531000 20113000 1.000000   22531000 -1.000000
    C2531000 34636000 1.000000
    C2539000 20124000 5.000000   20126000 1.000000
    C2539000 20130000 5.000000   20140000 1.000000
    C2539000 20144000 5.000000   22503000 1.000000
    C2539000 22505000 1.000000   22507000 1.000000
    C2539000 22530000 1.000000   22539000 -1.000000
    C2576000 22576000 -1.000000   22577000 1.000000
    C2577000 22577000 -1.000000
    C2616900 22616900 -1.000000
    C2624000 22624000 -1.000000
    C2628000 22628000 -1.000000
    C2642000 22642000 -1.000000
    C2658000 22658000 -1.000000
    C2689000 22689000 -1.000000
    C2690000 22690000 -1.000000
    C2691000 22691000 -1.000000
    C2868000 22868000 -1.000000
    C2896000 22896000 -1.000000
    C2905000 20482000 2.000000   20484000 1.000000
    C2905000 22905000 -1.000000
    C2922000 22922000 -1.000000
    C2987000 22987000 -1.000000
    C2989000 22989000 -1.000000   22991000 1.000000
    C2991000 22991000 -1.000000
    C2995000 22995000 -1.000000   23140000 1.000000
    C3002000 23002000 -1.000000
    C3012000 20003000 1.000000   20046000 1.000000
    C3012000 23012000 -1.000000   23013000 1.000000
    C3013000 23013000 -1.000000   23013999 1.000000
    C3013999 23013999 -1.000000
    C3022000 20046000 1.000000   23022000 -1.000000
    C3038000 23038000 -1.000000
    C3044000 23044000 -1.000000
    C3115001 20580000 9.000000   23115001 -1.000000
    C3125000 23125000 -1.000000
    C3130000 23130000 -1.000000
    C3131000 23131000 -1.000000
    C3132000 23132000 -1.000000
    C3136000 23136000 -1.000000
    C3140000 23140000 -1.000000
    C3146000 23146000 -1.000000
    C3148000 23148000 -1.000000
    C3151000 23151000 -1.000000
    C3152000 23152000 -1.000000
    C3154000 23154000 -1.000000
    C3156000 23156000 -1.000000
    C3157000 23157000 -1.000000
    C3168000 23168000 -1.000000
    C3170000 23170000 -1.000000
    C3190001 23190001 -1.000000
    C3197000 20662000 10.000000   20664000 9.000000
    C3197000 20665000 12.000000   20668000 9.000000
    C3197000 23197000 -1.000000
    C3238000 23238000 -1.000000
    C3239000 23239000 -1.000000
    C3240000 23240000 -1.000000
    C3241000 23241000 -1.000000
    C3242000 23242000 -1.000000
    C3243000 23243000 -1.000000
    C3244000 23244000 -1.000000
    C3250000 23250000 -1.000000
    C3251000 23242000 1.000000   23251000 -1.000000
    C3253000 20168000 7.000000   20169000 7.000000
    C3253000 20171000 7.000000   20172000 7.000000
    C3253000 20173000 7.000000   20177000 6.000000
    C3253000 20179000 6.000000   20181000 6.000000
    C3253000 23243000 1.000000   23244000 3.000000
    C3253000 23253000 -1.000000   34689000 1.000000
    C3256000 20168000 7.000000   20169000 7.000000
    C3256000 20171000 7.000000   20172000 63.000000
    C3256000 20173000 63.000000   20177000 6.000000
    C3256000 20179000 6.000000   20181000 6.000000
    C3256000 23243000 1.000000   23244000 3.000000
    C3256000 23256000 -1.000000   34689000 1.000000
    C3261000 23261000 -1.000000
    C3278000 20168000 9.000000   20169000 9.000000
    C3278000 20171000 9.000000   20172000 81.000000
    C3278000 20173000 81.000000   20176000 3.000000
    C3278000 20177000 8.000000   20179000 8.000000
    C3278000 20181000 8.000000   23278000 -1.000000
    C3279000 20168000 9.000000   20169000 9.000000
    C3279000 20171000 9.000000   20172000 81.000000
    C3279000 20173000 81.000000   20176000 3.000000
    C3279000 20177000 8.000000   20179000 8.000000
    C3279000 20181000 8.000000   23279000 -1.000000
    C3280000 20168000 9.000000   20169000 9.000000
    C3280000 20171000 9.000000   20172000 81.000000
    C3280000 20173000 81.000000   20176000 3.000000
    C3280000 20177000 8.000000   20179000 8.000000
    C3280000 20181000 8.000000   23280000 -1.000000
    C3295000 23295000 -1.000000
    C3297000 23297000 -1.000000
    C3306000 20562000 7.000000   23306000 -1.000000
    C3477000 23477000 -1.000000
    C3494000 23494000 -1.000000
    C3497000 23497000 -1.000000   23498000 1.000000
    C3498000 23498000 -1.000000
    C3624000 23624000 -1.000000
    C3627001 23627001 -1.000000
    C3627002 23627002 -1.000000
    C3627005 23627005 -1.000000
    C3652001 23652001 -1.000000
    C3670002 23670002 -1.000000
    C3713000 23713000 -1.000000   23719000 1.000000
    C3719000 23719000 -1.000000
    C3775000 20002000 1.000000   20003000 1.000000
    C3775000 23775000 -1.000000   23776000 1.000000
    C3776000 20046000 1.000000   23776000 -1.000000
    C3779000 23779000 -1.000000   23781000 1.000000
    C3781000 23781000 -1.000000
    C3801000 23125000 2.000000   23801000 -1.000000
    C3872095 23872095 -1.000000
    C3872110 23872110 -1.000000
    C3872220 23872220 -1.000000
    C3891000 23891000 -1.000000
    C3893000 23893000 -1.000000
    C3895000 23895000 -1.000000
    C3908000 23238000 1.000000   23239000 1.000000
    C3908000 23908000 -1.000000
    C3918000 23918000 -1.000000
    C3993000 23993000 -1.000000
    C4169000 24169000 -1.000000
    C4195001 24195001 -1.000000
    C4200001 24200001 -1.000000
    C4257002 24257002 -1.000000
    C4259001 24259001 -1.000000
    C4259002 24259002 -1.000000
    C4272000 24272000 -1.000000
    C4274000 24274000 -1.000000
    C4275000 24275000 -1.000000
    C4278002 24278002 -1.000000
    C4317000 24317000 -1.000000
    C4319000 24319000 -1.000000
    C4409000 24409000 -1.000000
    C4426000 24426000 -1.000000
    C4443000 24443000 -1.000000
    C4453000 24453000 -1.000000
    C4535000 24535000 -1.000000
    C4541000 24541000 -1.000000
    C4577000 24577000 -1.000000
    C4627000 20562000 1.000000   24627000 -1.000000
    C4700000 24700000 -1.000000
    C4703000 24703000 -1.000000
    C4773000 22174000 1.000000   24773000 -1.000000
    C4828000 24828000 -1.000000
    C4851000 24851000 -1.000000
    C4905011 24905011 -1.000000
    C4921000 20177000 6.000000   20179000 6.000000
    C4921000 20194000 14.000000   20198000 7.000000
    C4921000 20202000 9.000000   20208000 7.000000
    C4921000 23243000 1.000000   24921000 -1.000000
    C4921000 34689000 1.000000
    C4928000 22472000 1.000000   24928000 -1.000000
    C4985000 24985000 -1.000000   33066000 1.000000
    C4988000 24988000 -1.000000
    C5147000 25147000 -1.000000
    C5180000 20662000 9.000000   20664000 7.000000
    C5180000 20665000 11.000000   20668000 7.000000
    C5180000 25180000 -1.000000
    C5245008 20001000 1.000000   25245008 -1.000000
    C5245008 26246900 1.000000   26249900 1.000000
    C5247008 23002000 2.000000   23012000 1.000000
    C5247008 25247008 -1.000000   26246900 1.000000
    C5247008 26249900 1.000000
    C5247011 23002000 2.000000   23022000 1.000000
    C5247011 25247011 -1.000000   26246900 1.000000
    C5247011 26249900 1.000000
    C5259000 25259000 -1.000000
    C5269000 25269000 -1.000000   25270000 1.000000
    C5270000 25270000 -1.000000
    C5327000 25327000 -1.000000
    C5346000 20176000 3.000000   20177000 8.000000
    C5346000 20179000 8.000000   20194000 18.000000
    C5346000 20198000 9.000000   20202000 10.000000
    C5346000 20208000 9.000000   25346000 -1.000000
    C5346000 34689000 1.000000
    C5349000 20177000 6.000000   20179000 6.000000
    C5349000 20194000 14.000000   20198000 7.000000
    C5349000 20202000 8.000000   20208000 7.000000
    C5349000 23243000 1.000000   23244000 3.000000
    C5349000 25349000 -1.000000   34689000 1.000000
    C5351000 21354000 2.000000   25351000 -1.000000
    C5430000 20003000 1.000000   23013000 1.000000
    C5430000 23776000 1.000000   25430000 -1.000000
    C5439000 25439000 -1.000000   25440000 1.000000
    C5440000 25440000 -1.000000
    C5446000 25446000 -1.000000
    C5499000 25499000 -1.000000
    C5500000 25500000 -1.000000
    C5522000 25522000 -1.000000
    C5543002 20168000 7.000000   20169000 7.000000
    C5543002 20171000 7.000000   20172000 63.000000
    C5543002 20173000 63.000000   20177000 3.000000
    C5543002 20179000 3.000000   20181000 2.000000
    C5543002 23243000 1.000000   23244000 3.000000
    C5543002 25543002 -1.000000   34689000 1.000000
    C5546003 20168000 9.000000   20169000 9.000000
    C5546003 20171000 9.000000   20172000 81.000000
    C5546003 20173000 81.000000   20176000 3.000000
    C5546003 20177000 4.000000   20179000 4.000000
    C5546003 20181000 3.000000   25546003 -1.000000
    C5546003 34689000 1.000000
    C5557001 20124000 5.000000   20126000 1.000000
    C5557001 20130000 5.000000   20140000 1.000000
    C5557001 20144000 5.000000   22503000 1.000000
    C5557001 22505000 1.000000   22507000 1.000000
    C5557001 22530000 1.000000   25557001 -1.000000
    C5557002 20124000 5.000000   20126000 1.000000
    C5557002 20130000 5.000000   20140000 1.000000
    C5557002 20144000 5.000000   22503000 1.000000
    C5557002 22505000 1.000000   22507000 1.000000
    C5557002 22530000 1.000000   25557002 -1.000000
    C5557003 20124000 5.000000   20126000 1.000000
    C5557003 20130000 5.000000   20140000 1.000000
    C5557003 20144000 5.000000   22503000 1.000000
    C5557003 22505000 1.000000   22507000 1.000000
    C5557003 22530000 1.000000   25557003 -1.000000
    C5557006 20124000 5.000000   20126000 1.000000
    C5557006 20130000 5.000000   20140000 1.000000
    C5557006 20144000 5.000000   22503000 1.000000
    C5557006 22505000 1.000000   22507000 1.000000
    C5557006 22530000 1.000000   25557006 -1.000000
    C5617000 25617000 -1.000000
    C5637000 25637000 -1.000000
    C5668001 20580000 1.000000   25668001 -1.000000
    C5682000 20509000 1.000000   25682000 -1.000000
    C5695000 25695000 -1.000000   27394000 1.000000
    C5725001 20580000 7.000000   25725001 -1.000000
    C5725002 20580000 7.000000   25725002 -1.000000
    C5725003 20580000 2.000000   25725003 -1.000000
    C5725004 20580000 7.000000   25725004 -1.000000
    C5725005 20580000 6.000000   25725005 -1.000000
    C5786000 25786000 -1.000000
    C5804001 24851000 1.000000   25804001 -1.000000
    C5804002 24851000 2.000000   25804002 -1.000000
    C5835000 25835000 -1.000000
    C5896000 25896000 -1.000000
    C5898000 25898000 -1.000000
    C5959000 25959000 -1.000000
    C5961000 25961000 -1.000000
    C6003000 26003000 -1.000000
    C6032000 26032000 -1.000000
    C6047000 26047000 -1.000000
    C6111001 26111001 -1.000000
    C6112001 20580000 2.000000   26112001 -1.000000
    C6173000 26173000 -1.000000
    C6206008 26206008 -1.000000
    C6213000 26213000 -1.000000
    C6243000 26243000 -1.000000
    C6246900 26246900 -1.000000
    C6249900 26249900 -1.000000
    C6361000 26361000 -1.000000
    C6413000 26413000 -1.000000
    C6414000 26414000 -1.000000
    C6567000 26567000 -1.000000
    C6619001 26619001 -1.000000   26620900 1.000000
    C6619002 26619002 -1.000000   26620900 1.000000
    C6619004 26619004 -1.000000   26620900 1.000000
    C6620900 26620900 -1.000000
    C6633000 26633000 -1.000000
    C6874000 26874000 -1.000000
    C6924000 26924000 -1.000000
    C6937008 26937008 -1.000000
    C6960000 26960000 -1.000000
    C6965000 26965000 -1.000000
    C7100000 20002000 1.000000   20003000 1.000000
    C7100000 23776000 1.000000   27100000 -1.000000
    C7123008 27123008 -1.000000   29541001 1.000000
    C7240000 27240000 -1.000000
    C7287000 27287000 -1.000000
    C7322000 27322000 -1.000000
    C7323000 27323000 -1.000000
    C7360000 27360000 -1.000000
    C7394000 27394000 -1.000000
    C7481900 27481900 -1.000000
    C7482900 27482900 -1.000000
    C7612000 27612000 -1.000000
    C7709000 27709000 -1.000000
    C7710000 27710000 -1.000000
    C7711000 27711000 -1.000000
    C7750000 27750000 -1.000000
    C7753000 27753000 -1.000000
    C7799000 21078000 1.000000   27799000 -1.000000
    C7832000 25446000 9.000000   27832000 -1.000000
    C7834000 25446000 7.000000   27834000 -1.000000
    C7840000 27840000 -1.000000
    C7841000 27841000 -1.000000
    C7843000 27843000 -1.000000
    C7868000 25446000 6.000000   27868000 -1.000000
    C7881000 27881000 -1.000000
    C7884000 27884000 -1.000000
    C7890008 27890008 -1.000000   28171001 1.000000
    C7981000 20003000 1.000000   20046000 1.000000
    C7981000 23013000 1.000000   27981000 -1.000000
    C8026000 21973000 1.000000   28026000 -1.000000
    C8170008 28170008 -1.000000   28171001 1.000000
    C8171001 27881000 1.000000   27884000 1.000000
    C8171001 28171001 -1.000000
    C8172008 28172008 -1.000000   28173001 1.000000
    C8173001 27881000 1.000000   27884000 1.000000
    C8173001 28173001 -1.000000
    C8175008 28175008 -1.000000   28176001 1.000000
    C8176001 27881000 1.000000   27884000 1.000000
    C8176001 28176001 -1.000000
    C8187000 28187000 -1.000000
    C8237000 21973000 1.000000   28237000 -1.000000
    C8237000 28239000 1.000000
    C8238000 28238000 -1.000000
    C8239000 28238000 1.000000   28239000 -1.000000
    C8241000 28241000 -1.000000
    C8309000 28309000 -1.000000
    C8343008 23775000 1.000000   26246900 1.000000
    C8343008 26249900 1.000000   28343008 -1.000000
    C8343008 28344000 1.000000
    C8344000 28344000 -1.000000
    C8353008 23775000 1.000000   26246900 1.000000
    C8353008 26249900 1.000000   28353008 -1.000000
    C8387000 28387000 -1.000000
    C8480000 28480000 -1.000000
    C8510000 28510000 -1.000000   28511000 1.000000
    C8510000 28512000 1.000000
    C8511000 28511000 -1.000000
    C8512000 28512000 -1.000000
    C8583000 25270000 1.000000   28583000 -1.000000
    C8667000 20662000 10.000000   20664000 9.000000
    C8667000 20665000 12.000000   20668000 9.000000
    C8667000 28667000 -1.000000
    C8930000 20662000 8.000000   20664000 7.000000
    C8930000 20665000 10.000000   20668000 7.000000
    C8930000 28930000 -1.000000
    C8953000 28953000 -1.000000   28954000 1.000000
    C8953000 28955000 1.000000
    C8954000 28954000 -1.000000
    C8955000 28955000 -1.000000
    C8957000 28957000 -1.000000
    C9008000 29008000 -1.000000
    C9009000 29009000 -1.000000
    C9039000 29039000 -1.000000
    C9041000 29041000 -1.000000   29042000 6.000000
    C9042000 29042000 -1.000000
    C9153900 29153900 -1.000000
    C9171000 29171000 -1.000000
    C9185000 29185000 -1.000000
    C9186001 29186001 -1.000000
    C9186002 29186002 -1.000000
    C9188000 29188000 -1.000000
    C9219000 29219000 -1.000000
    C9297001 20002000 1.000000   23776000 1.000000
    C9297001 29297001 -1.000000
    C9332000 23779000 1.000000   29332000 -1.000000
    C9333000 20063000 1.000000   29333000 -1.000000
    C9354000 29354000 -1.000000
    C9394001 29394001 -1.000000
    C9470000 29470000 -1.000000
    C9492000 29492000 -1.000000
    C9506000 29506000 -1.000000
    C9516000 29516000 -1.000000
    C9520000 29520000 -1.000000
    C9541001 29541001 -1.000000
    C9556000 29556000 -1.000000
    C9646000 29646000 -1.000000
    C9648001 29648001 -1.000000
    C9696000 29696000 -1.000000
    C9697000 29697000 -1.000000
    C9699000 29699000 -1.000000
    C9701006 29646000 1.000000   29701006 -1.000000
    C9732001 29732001 -1.000000
    C9741000 29741000 -1.000000
    C9824008 26249900 1.000000   29824008 -1.000000
    C9824008 34474008 1.000000   34476008 1.000000
    C9887000 29887000 -1.000000
    C9939001 20002000 1.000000   23776000 1.000000
    C9939001 29939001 -1.000000
    D3034002 33034002 -1.000000
    D3035002 33035002 -1.000000
    D3062000 28238000 1.000000   33062000 -1.000000
    D3066000 33066000 -1.000000
    D3098000 33098000 -1.000000
    D3100001 33100001 -1.000000
    D3129000 33129000 -1.000000
    D3131000 33131000 -1.000000
    D3133000 33133000 -1.000000
    D3144000 29696000 1.000000   29697000 1.000000
    D3144000 29699000 1.000000   33144000 -1.000000
    D3160220 33160220 -1.000000
    D3201008 26249900 1.000000   33201008 -1.000000
    D3209008 23002000 2.000000   26249900 1.000000
    D3209008 33209008 -1.000000   33210001 1.000000
    D3210001 20046000 1.000000   23013000 1.000000
    D3210001 33210001 -1.000000
    D4381000 34381000 -1.000000
    D4394000 21354000 2.000000   34394000 -1.000000
    D4395000 21354000 2.000000   34395000 -1.000000
    D4403000 34403000 -1.000000
    D4404000 34404000 -1.000000
    D4474008 29648001 1.000000   34474008 -1.000000
    D4476008 34476008 -1.000000
    D4511000 34511000 -1.000000
    D4524001 34524001 -1.000000
    D4528008 23775000 1.000000   26246900 1.000000
    D4528008 26249900 1.000000   34524001 1.000000
    D4528008 34528008 -1.000000
    D4529008 23002000 2.000000   25430000 1.000000
    D4529008 26246900 1.000000   26249900 1.000000
    D4529008 34524001 1.000000   34529008 -1.000000
    D4530000 34530000 -1.000000
    D4533008 26249900 1.000000   29297001 1.000000
    D4533008 34524001 1.000000   34533008 -1.000000
    D4534008 26249900 1.000000   29939001 1.000000
    D4534008 34524001 1.000000   34534008 -1.000000
    D4544008 26246900 1.000000   26249900 1.000000
    D4544008 27100000 1.000000   34524001 1.000000
    D4544008 34544008 -1.000000
    D4545008 23775000 1.000000   26246900 1.000000
    D4545008 26249900 1.000000   34545008 -1.000000
    D4551000 34551000 -1.000000
    D4598000 29492000 1.000000   34598000 -1.000000
    D4599000 29492000 1.000000   34599000 -1.000000
    D4602000 34602000 -1.000000
    D4613000 34613000 -1.000000   34614000 1.000000
    D4614000 34614000 -1.000000
    D4636000 34636000 -1.000000
    D4647000 34647000 -1.000000
    D4678000 34678000 -1.000000
    D4689000 34689000 -1.000000
    D4811108 23002000 2.000000   23012000 1.000000
    D4811108 26246900 1.000000   26249900 1.000000
    D4811108 34811108 -1.000000
    D5000008 35000008 -1.000000
    D5182000 35182000 -1.000000
    D5189000 35189000 -1.000000
    D5214220 35000008 1.000000   35182000 1.000000
    D5214220 35189000 1.000000   35214220 -1.000000
    M0001000 00000000 5.200000   20001000 -1.000000
    M0001000 LOBROW29316 1.000000   UPBROW29317 1.000000
    M0002000 00000000 1.560000   20002000 -1.000000
    M0002000 LOBROW29318 1.000000   UPBROW29319 1.000000
    M0003000 00000000 0.270000   20003000 -1.000000
    M0003000 LOBROW29320 1.000000   UPBROW29321 1.000000
    M0043000 00000000 8.900000   20043000 -1.000000
    M0043000 LOBROW29322 1.000000   UPBROW29323 1.000000
    M0046000 00000000 0.470000   20046000 -1.000000
    M0046000 LOBROW29324 1.000000   UPBROW29325 1.000000
    M0063000 00000000 5.742000   20063000 -1.000000
    M0063000 LOBROW29326 1.000000   UPBROW29327 1.000000
    M0107000 00000000 0.146000   20107000 -1.000000
    M0107000 LOBROW29328 1.000000   UPBROW29329 1.000000
    M0113000 00000000 0.029000   20113000 -1.000000
    M0113000 LOBROW29330 1.000000   UPBROW29331 1.000000
    M0119000 00000000 0.137000   20119000 -1.000000
    M0119000 LOBROW29332 1.000000   UPBROW29333 1.000000
    M0120000 00000000 0.015000   20120000 -1.000000
    M0120000 LOBROW29334 1.000000   UPBROW29335 1.000000
    M0124000 00000000 0.033000   20124000 -1.000000
    M0124000 LOBROW29336 1.000000   UPBROW29337 1.000000
    M0126000 00000000 0.097000   20126000 -1.000000
    M0126000 LOBROW29338 1.000000   UPBROW29339 1.000000
    M0130000 00000000 0.010000   20130000 -1.000000
    M0130000 LOBROW29340 1.000000   UPBROW29341 1.000000
    M0140000 00000000 0.210000   20140000 -1.000000
    M0140000 LOBROW29342 1.000000   UPBROW29343 1.000000
    M0141000 00000000 0.124000   20141000 -1.000000
    M0141000 LOBROW29344 1.000000   UPBROW29345 1.000000
    M0142000 00000000 0.055000   20142000 -1.000000
    M0142000 LOBROW29346 1.000000   UPBROW29347 1.000000
    M0144000 00000000 0.037000   20144000 -1.000000
    M0144000 LOBROW29348 1.000000   UPBROW29349 1.000000
    M0145000 00000000 0.007000   20145000 -1.000000
    M0145000 LOBROW29350 1.000000   UPBROW29351 1.000000
    M0149000 00000000 1.040000   20149000 -1.000000
    M0149000 LOBROW29352 1.000000   UPBROW29353 1.000000
    M0154000 00000000 0.204000   20154000 -1.000000
    M0154000 LOBROW29354 1.000000   UPBROW29355 1.000000
    M0164900 00000000 0.245000   20164900 -1.000000
    M0164900 LOBROW29356 1.000000   UPBROW29357 1.000000
    M0165900 00000000 0.303000   20165900 -1.000000
    M0165900 LOBROW29358 1.000000   UPBROW29359 1.000000
    M0166000 00000000 5.032000   20166000 -1.000000
    M0166000 LOBROW29360 1.000000   UPBROW29361 1.000000
    M0168000 00000000 0.021000   20168000 -1.000000
    M0168000 LOBROW29362 1.000000   UPBROW29363 1.000000
    M0169000 00000000 0.041000   20169000 -1.000000
    M0169000 LOBROW29364 1.000000   UPBROW29365 1.000000
    M0171000 00000000 0.008000   20171000 -1.000000
    M0171000 LOBROW29366 1.000000   UPBROW29367 1.000000
    M0172000 00000000 0.013000   20172000 -1.000000
    M0172000 LOBROW29368 1.000000   UPBROW29369 1.000000
    M0173000 00000000 0.011000   20173000 -1.000000
    M0173000 LOBROW29370 1.000000   UPBROW29371 1.000000
    M0176000 00000000 0.062000   20176000 -1.000000
    M0176000 LOBROW29372 1.000000   UPBROW29373 1.000000
    M0177000 00000000 0.013000   20177000 -1.000000
    M0177000 LOBROW29374 1.000000   UPBROW29375 1.000000
    M0179000 00000000 0.038000   20179000 -1.000000
    M0179000 LOBROW29376 1.000000   UPBROW29377 1.000000
    M0181000 00000000 0.011000   20181000 -1.000000
    M0181000 LOBROW29378 1.000000   UPBROW29379 1.000000
    M0186000 00000000 0.078000   20186000 -1.000000
    M0186000 LOBROW29380 1.000000   UPBROW29381 1.000000
    M0190000 00000000 0.083000   20190000 -1.000000
    M0190000 LOBROW29382 1.000000   UPBROW29383 1.000000
    M0192000 00000000 0.156000   20192000 -1.000000
    M0192000 LOBROW29384 1.000000   UPBROW29385 1.000000
    M0194000 00000000 0.179000   20194000 -1.000000
    M0194000 LOBROW29386 1.000000   UPBROW29387 1.000000
    M0197000 00000000 0.024000   20197000 -1.000000
    M0197000 LOBROW29388 1.000000   UPBROW29389 1.000000
    M0198000 00000000 0.091000   20198000 -1.000000
    M0198000 LOBROW29390 1.000000   UPBROW29391 1.000000
    M0202000 00000000 0.040000   20202000 -1.000000
    M0202000 LOBROW29392 1.000000   UPBROW29393 1.000000
    M0208000 00000000 0.115000   20208000 -1.000000
    M0208000 LOBROW29394 1.000000   UPBROW29395 1.000000
    M0213000 00000000 2.856000   20213000 -1.000000
    M0213000 LOBROW29396 1.000000   UPBROW29397 1.000000
    M0221000 00000000 0.197000   20221000 -1.000000
    M0221000 LOBROW29398 1.000000   UPBROW29399 1.000000
    M0225000 00000000 0.150000   20225000 -1.000000
    M0225000 LOBROW29400 1.000000   UPBROW29401 1.000000
    M0226000 00000000 0.211000   20226000 -1.000000
    M0226000 LOBROW29402 1.000000   UPBROW29403 1.000000
    M0228000 00000000 0.128000   20228000 -1.000000
    M0228000 LOBROW29404 1.000000   UPBROW29405 1.000000
    M0229000 00000000 0.221000   20229000 -1.000000
    M0229000 LOBROW29406 1.000000   UPBROW29407 1.000000
    M0242000 00000000 0.204000   20242000 -1.000000
    M0242000 LOBROW29408 1.000000   UPBROW29409 1.000000
    M0285000 00000000 0.112000   20285000 -1.000000
    M0285000 LOBROW29410 1.000000   UPBROW29411 1.000000
    M0290000 00000000 0.388000   20290000 -1.000000
    M0290000 LOBROW29412 1.000000   UPBROW29413 1.000000
    M0291000 00000000 0.250000   20291000 -1.000000
    M0291000 LOBROW29414 1.000000   UPBROW29415 1.000000
    M0304000 00000000 0.408000   20304000 -1.000000
    M0304000 LOBROW29416 1.000000   UPBROW29417 1.000000
    M0307000 00000000 0.544000   20307000 -1.000000
    M0307000 LOBROW29418 1.000000   UPBROW29419 1.000000
    M0318000 00000000 0.211000   20318000 -1.000000
    M0318000 LOBROW29420 1.000000   UPBROW29421 1.000000
    M0344000 00000000 0.469000   20344000 -1.000000
    M0344000 LOBROW29422 1.000000   UPBROW29423 1.000000
    M0410000 00000000 0.140000   20410000 -1.000000
    M0410000 LOBROW29424 1.000000   UPBROW29425 1.000000
    M0413011 00000000 4.785000   20413011 -1.000000
    M0413011 LOBROW29426 1.000000   UPBROW29427 1.000000
    M0416000 00000000 0.138000   20416000 -1.000000
    M0416000 LOBROW29428 1.000000   UPBROW29429 1.000000
    M0471000 00000000 0.435000   20471000 -1.000000
    M0471000 LOBROW29430 1.000000   UPBROW29431 1.000000
    M0472000 00000000 0.031000   20472000 -1.000000
    M0472000 LOBROW29432 1.000000   UPBROW29433 1.000000
    M0474000 00000000 0.022000   20474000 -1.000000
    M0474000 LOBROW29434 1.000000   UPBROW29435 1.000000
    M0475000 00000000 0.070000   20475000 -1.000000
    M0475000 LOBROW29436 1.000000   UPBROW29437 1.000000
    M0476000 00000000 0.044000   20476000 -1.000000
    M0476000 LOBROW29438 1.000000   UPBROW29439 1.000000
    M0478000 00000000 0.038000   20478000 -1.000000
    M0478000 LOBROW29440 1.000000   UPBROW29441 1.000000
    M0482000 00000000 0.035000   20482000 -1.000000
    M0482000 LOBROW29442 1.000000   UPBROW29443 1.000000
    M0484000 00000000 0.023000   20484000 -1.000000
    M0484000 LOBROW29444 1.000000   UPBROW29445 1.000000
    M0485000 00000000 0.600000   20485000 -1.000000
    M0485000 LOBROW29446 1.000000   UPBROW29447 1.000000
    M0490000 00000000 0.250000   20490000 -1.000000
    M0490000 LOBROW29448 1.000000   UPBROW29449 1.000000
    M0495000 00000000 0.095000   20495000 -1.000000
    M0495000 LOBROW29450 1.000000   UPBROW29451 1.000000
    M0496000 00000000 0.110000   20496000 -1.000000
    M0496000 LOBROW29452 1.000000   UPBROW29453 1.000000
    M0497000 00000000 0.107000   20497000 -1.000000
    M0497000 LOBROW29454 1.000000   UPBROW29455 1.000000
    M0498000 00000000 0.190000   20498000 -1.000000
    M0498000 LOBROW29456 1.000000   UPBROW29457 1.000000
    M0499000 00000000 0.135000   20499000 -1.000000
    M0499000 LOBROW29458 1.000000   UPBROW29459 1.000000
    M0505000 00000000 0.129000   20505000 -1.000000
    M0505000 LOBROW29460 1.000000   UPBROW29461 1.000000
    M0507000 00000000 0.063000   20507000 -1.000000
    M0507000 LOBROW29462 1.000000   UPBROW29463 1.000000
    M0508000 00000000 0.073000   20508000 -1.000000
    M0508000 LOBROW29464 1.000000   UPBROW29465 1.000000
    M0509000 00000000 0.032000   20509000 -1.000000
    M0509000 LOBROW29466 1.000000   UPBROW29467 1.000000
    M0522000 00000000 0.128000   20522000 -1.000000
    M0522000 LOBROW29468 1.000000   UPBROW29469 1.000000
    M0523000 00000000 0.135000   20523000 -1.000000
    M0523000 LOBROW29470 1.000000   UPBROW29471 1.000000
    M0561000 00000000 0.891000   20561000 -1.000000
    M0561000 LOBROW29472 1.000000   UPBROW29473 1.000000
    M0562000 00000000 0.043000   20562000 -1.000000
    M0562000 LOBROW29474 1.000000   UPBROW29475 1.000000
    M0570000 00000000 0.170000   20570000 -1.000000
    M0570000 LOBROW29476 1.000000   UPBROW29477 1.000000
    M0580000 00000000 0.046000   20580000 -1.000000
    M0580000 LOBROW29478 1.000000   UPBROW29479 1.000000
    M0662000 00000000 0.062000   20662000 -1.000000
    M0662000 LOBROW29480 1.000000   UPBROW29481 1.000000
    M0664000 00000000 0.126000   20664000 -1.000000
    M0664000 LOBROW29482 1.000000   UPBROW29483 1.000000
    M0665000 00000000 0.135000   20665000 -1.000000
    M0665000 LOBROW29484 1.000000   UPBROW29485 1.000000
    M0668000 00000000 0.068000   20668000 -1.000000
    M0668000 LOBROW29486 1.000000   UPBROW29487 1.000000
    M0692000 00000000 0.170000   20692000 -1.000000
    M0692000 LOBROW29488 1.000000   UPBROW29489 1.000000
    M0695000 00000000 0.022000   20695000 -1.000000
    M0695000 LOBROW29490 1.000000   UPBROW29491 1.000000
    M0700000 00000000 0.503000   20700000 -1.000000
    M0700000 LOBROW29492 1.000000   UPBROW29493 1.000000
    M0701000 00000000 0.820000   20701000 -1.000000
    M0701000 LOBROW29494 1.000000   UPBROW29495 1.000000
    M0702000 00000000 1.010000   20702000 -1.000000
    M0702000 LOBROW29496 1.000000   UPBROW29497 1.000000
    M0703000 00000000 1.210000   20703000 -1.000000
    M0703000 LOBROW29498 1.000000   UPBROW29499 1.000000
    M0728000 00000000 0.155000   20728000 -1.000000
    M0728000 LOBROW29500 1.000000   UPBROW29501 1.000000
    M0742000 00000000 0.165000   20742000 -1.000000
    M0742000 LOBROW29502 1.000000   UPBROW29503 1.000000
    M0743000 00000000 0.141000   20743000 -1.000000
    M0743000 LOBROW29504 1.000000   UPBROW29505 1.000000
    M0864000 00000000 0.335000   20864000 -1.000000
    M0864000 LOBROW29506 1.000000   UPBROW29507 1.000000
    M0938000 00000000 0.069000   20938000 -1.000000
    M0938000 LOBROW29508 1.000000   UPBROW29509 1.000000
    M0955001 00000000 0.098000   20955001 -1.000000
    M0955001 LOBROW29510 1.000000   UPBROW29511 1.000000
    M0956000 00000000 0.096000   20956000 -1.000000
    M0956000 LOBROW29512 1.000000   UPBROW29513 1.000000
    M1078000 00000000 0.300000   21078000 -1.000000
    M1078000 LOBROW29514 1.000000   UPBROW29515 1.000000
    M1141000 00000000 0.265000   21141000 -1.000000
    M1141000 LOBROW29516 1.000000   UPBROW29517 1.000000
    M1179000 00000000 0.860000   21179000 -1.000000
    M1179000 LOBROW29518 1.000000   UPBROW29519 1.000000
    M1186000 00000000 0.950000   21186000 -1.000000
    M1186000 LOBROW29520 1.000000   UPBROW29521 1.000000
    M1221000 00000000 0.149000   21221000 -1.000000
    M1221000 LOBROW29522 1.000000   UPBROW29523 1.000000
    M1223000 00000000 0.225000   21223000 -1.000000
    M1223000 LOBROW29524 1.000000   UPBROW29525 1.000000
    M1246001 00000000 0.066000   21246001 -1.000000
    M1246001 LOBROW29526 1.000000   UPBROW29527 1.000000
    M1254000 00000000 0.214000   21254000 -1.000000
    M1254000 LOBROW29528 1.000000   UPBROW29529 1.000000
    M1258000 00000000 0.197000   21258000 -1.000000
    M1258000 LOBROW29530 1.000000   UPBROW29531 1.000000
    M1343000 00000000 0.354000   21343000 -1.000000
    M1343000 LOBROW29532 1.000000   UPBROW29533 1.000000
    M1354000 00000000 0.057000   21354000 -1.000000
    M1354000 LOBROW29534 1.000000   UPBROW29535 1.000000
    M1377001 00000000 7.548000   21377001 -1.000000
    M1377001 LOBROW29536 1.000000   UPBROW29537 1.000000
    M1377002 00000000 6.188000   21377002 -1.000000
    M1377002 LOBROW29538 1.000000   UPBROW29539 1.000000
    M1379000 00000000 0.272000   21379000 -1.000000
    M1379000 LOBROW29540 1.000000   UPBROW29541 1.000000
    M1380000 00000000 0.153000   21380000 -1.000000
    M1380000 LOBROW29542 1.000000   UPBROW29543 1.000000
    M1382000 00000000 0.065000   21382000 -1.000000
    M1382000 LOBROW29544 1.000000   UPBROW29545 1.000000
    M1391000 00000000 0.097000   21391000 -1.000000
    M1391000 LOBROW29546 1.000000   UPBROW29547 1.000000
    M1392000 00000000 0.075000   21392000 -1.000000
    M1392000 LOBROW29548 1.000000   UPBROW29549 1.000000
    M1422000 00000000 0.005000   21422000 -1.000000
    M1422000 LOBROW29550 1.000000   UPBROW29551 1.000000
    M1423000 00000000 0.002000   21423000 -1.000000
    M1423000 LOBROW29552 1.000000   UPBROW29553 1.000000
    M1425000 00000000 0.064000   21425000 -1.000000
    M1425000 LOBROW29554 1.000000   UPBROW29555 1.000000
    M1426000 00000000 0.031000   21426000 -1.000000
    M1426000 LOBROW29556 1.000000   UPBROW29557 1.000000
    M1447000 00000000 0.218000   21447000 -1.000000
    M1447000 LOBROW29558 1.000000   UPBROW29559 1.000000
    M1452000 00000000 0.163000   21452000 -1.000000
    M1452000 LOBROW29560 1.000000   UPBROW29561 1.000000
    M1453000 00000000 0.160000   21453000 -1.000000
    M1453000 LOBROW29562 1.000000   UPBROW29563 1.000000
    M1454000 00000000 0.012000   21454000 -1.000000
    M1454000 LOBROW29564 1.000000   UPBROW29565 1.000000
    M1456000 00000000 0.030000   21456000 -1.000000
    M1456000 LOBROW29566 1.000000   UPBROW29567 1.000000
    M1457000 00000000 0.044000   21457000 -1.000000
    M1457000 LOBROW29568 1.000000   UPBROW29569 1.000000
    M1458000 00000000 0.045000   21458000 -1.000000
    M1458000 LOBROW29570 1.000000   UPBROW29571 1.000000
    M1496000 00000000 0.150000   21496000 -1.000000
    M1496000 LOBROW29572 1.000000   UPBROW29573 1.000000
    M1519000 00000000 0.023000   21519000 -1.000000
    M1519000 LOBROW29574 1.000000   UPBROW29575 1.000000
    M1523000 00000000 0.374000   21523000 -1.000000
    M1523000 LOBROW29576 1.000000   UPBROW29577 1.000000
    M1527000 00000000 0.058000   21527000 -1.000000
    M1527000 LOBROW29578 1.000000   UPBROW29579 1.000000
    M1528000 00000000 0.124000   21528000 -1.000000
    M1528000 LOBROW29580 1.000000   UPBROW29581 1.000000
    M1536000 00000000 0.139000   21536000 -1.000000
    M1536000 LOBROW29582 1.000000   UPBROW29583 1.000000
    M1548000 00000000 0.022000   21548000 -1.000000
    M1548000 LOBROW29584 1.000000   UPBROW29585 1.000000
    M1553000 00000000 0.214000   21553000 -1.000000
    M1553000 LOBROW29586 1.000000   UPBROW29587 1.000000
    M1573000 00000000 0.087000   21573000 -1.000000
    M1573000 LOBROW29588 1.000000   UPBROW29589 1.000000
    M1597000 00000000 0.010000   21597000 -1.000000
    M1597000 LOBROW29590 1.000000   UPBROW29591 1.000000
    M1615000 00000000 0.160000   21615000 -1.000000
    M1615000 LOBROW29592 1.000000   UPBROW29593 1.000000
    M1640000 00000000 0.099000   21640000 -1.000000
    M1640000 LOBROW29594 1.000000   UPBROW29595 1.000000
    M1714900 00000000 0.066000   21714900 -1.000000
    M1714900 LOBROW29596 1.000000   UPBROW29597 1.000000
    M1726900 00000000 0.055000   21726900 -1.000000
    M1726900 LOBROW29598 1.000000   UPBROW29599 1.000000
    M1733001 00000000 0.194000   21733001 -1.000000
    M1733001 LOBROW29600 1.000000   UPBROW29601 1.000000
    M1733007 00000000 0.177000   21733007 -1.000000
    M1733007 LOBROW29602 1.000000   UPBROW29603 1.000000
    M1745001 00000000 0.128000   21745001 -1.000000
    M1745001 LOBROW29604 1.000000   UPBROW29605 1.000000
    M1777000 00000000 0.150000   21777000 -1.000000
    M1777000 LOBROW29606 1.000000   UPBROW29607 1.000000
    M1813000 00000000 0.214000   21813000 -1.000000
    M1813000 LOBROW29608 1.000000   UPBROW29609 1.000000
    M1818000 00000000 0.177000   21818000 -1.000000
    M1818000 LOBROW29610 1.000000   UPBROW29611 1.000000
    M1904000 00000000 0.456000   21904000 -1.000000
    M1904000 LOBROW29612 1.000000   UPBROW29613 1.000000
    M1920000 00000000 0.700000   21920000 -1.000000
    M1920000 LOBROW29614 1.000000   UPBROW29615 1.000000
    M1932000 00000000 0.265000   21932000 -1.000000
    M1932000 LOBROW29616 1.000000   UPBROW29617 1.000000
    M1973000 00000000 0.220000   21973000 -1.000000
    M1973000 LOBROW29618 1.000000   UPBROW29619 1.000000
    M2004000 00000000 0.517000   22004000 -1.000000
    M2004000 LOBROW29620 1.000000   UPBROW29621 1.000000
    M2038000 00000000 0.177000   22038000 -1.000000
    M2038000 LOBROW29622 1.000000   UPBROW29623 1.000000
    M2081000 00000000 0.619000   22081000 -1.000000
    M2081000 LOBROW29624 1.000000   UPBROW29625 1.000000
    M2171000 00000000 0.367000   22171000 -1.000000
    M2171000 LOBROW29626 1.000000   UPBROW29627 1.000000
    M2174000 00000000 0.220000   22174000 -1.000000
    M2174000 LOBROW29628 1.000000   UPBROW29629 1.000000
    M2186000 00000000 0.150000   22186000 -1.000000
    M2186000 LOBROW29630 1.000000   UPBROW29631 1.000000
    M2190000 00000000 0.173000   22190000 -1.000000
    M2190000 LOBROW29632 1.000000   UPBROW29633 1.000000
    M2196000 00000000 0.207000   22196000 -1.000000
    M2196000 LOBROW29634 1.000000   UPBROW29635 1.000000
    M2339000 00000000 0.153000   22339000 -1.000000
    M2339000 LOBROW29636 1.000000   UPBROW29637 1.000000
    M2342000 00000000 0.150000   22342000 -1.000000
    M2342000 LOBROW29638 1.000000   UPBROW29639 1.000000
    M2384000 00000000 0.469000   22384000 -1.000000
    M2384000 LOBROW29640 1.000000   UPBROW29641 1.000000
    M2386000 00000000 4.216000   22386000 -1.000000
    M2386000 LOBROW29642 1.000000   UPBROW29643 1.000000
    M2393000 00000000 0.262000   22393000 -1.000000
    M2393000 LOBROW29644 1.000000   UPBROW29645 1.000000
    M2420000 00000000 5.100000   22420000 -1.000000
    M2420000 LOBROW29646 1.000000   UPBROW29647 1.000000
    M2425000 00000000 0.170000   22425000 -1.000000
    M2425000 LOBROW29648 1.000000   UPBROW29649 1.000000
    M2439000 00000000 0.163000   22439000 -1.000000
    M2439000 LOBROW29650 1.000000   UPBROW29651 1.000000
    M2447000 00000000 8.704000   22447000 -1.000000
    M2447000 LOBROW29652 1.000000   UPBROW29653 1.000000
    M2471000 00000000 0.180000   22471000 -1.000000
    M2471000 LOBROW29654 1.000000   UPBROW29655 1.000000
    M2472000 00000000 0.076000   22472000 -1.000000
    M2472000 LOBROW29656 1.000000   UPBROW29657 1.000000
    M2473000 00000000 0.095000   22473000 -1.000000
    M2473000 LOBROW29658 1.000000   UPBROW29659 1.000000
    M2475000 00000000 0.190000   22475000 -1.000000
    M2475000 LOBROW29660 1.000000   UPBROW29661 1.000000
    M2477000 00000000 0.197000   22477000 -1.000000
    M2477000 LOBROW29662 1.000000   UPBROW29663 1.000000
    M2479000 00000000 0.228000   22479000 -1.000000
    M2479000 LOBROW29664 1.000000   UPBROW29665 1.000000
    M2481000 00000000 0.190000   22481000 -1.000000
    M2481000 LOBROW29666 1.000000   UPBROW29667 1.000000
    M2483000 00000000 0.194000   22483000 -1.000000
    M2483000 LOBROW29668 1.000000   UPBROW29669 1.000000
    M2491000 00000000 0.816000   22491000 -1.000000
    M2491000 LOBROW29670 1.000000   UPBROW29671 1.000000
    M2498000 00000000 2.652000   22498000 -1.000000
    M2498000 LOBROW29672 1.000000   UPBROW29673 1.000000
    M2503000 00000000 0.110000   22503000 -1.000000
    M2503000 LOBROW29674 1.000000   UPBROW29675 1.000000
    M2505000 00000000 0.037000   22505000 -1.000000
    M2505000 LOBROW29676 1.000000   UPBROW29677 1.000000
    M2507000 00000000 0.185000   22507000 -1.000000
    M2507000 LOBROW29678 1.000000   UPBROW29679 1.000000
    M2529000 00000000 1.904000   22529000 -1.000000
    M2529000 LOBROW29680 1.000000   UPBROW29681 1.000000
    M2530000 00000000 0.315000   22530000 -1.000000
    M2530000 LOBROW29682 1.000000   UPBROW29683 1.000000
    M2531000 00000000 0.255000   22531000 -1.000000
    M2531000 LOBROW29684 1.000000   UPBROW29685 1.000000
    M2539000 00000000 1.802000   22539000 -1.000000
    M2539000 LOBROW29686 1.000000   UPBROW29687 1.000000
    M2576000 00000000 0.850000   22576000 -1.000000
    M2576000 LOBROW29688 1.000000   UPBROW29689 1.000000
    M2577000 00000000 0.305000   22577000 -1.000000
    M2577000 LOBROW29690 1.000000   UPBROW29691 1.000000
    M2616900 00000000 0.029000   22616900 -1.000000
    M2616900 LOBROW29692 1.000000   UPBROW29693 1.000000
    M2624000 00000000 0.279000   22624000 -1.000000
    M2624000 LOBROW29694 1.000000   UPBROW29695 1.000000
    M2628000 00000000 0.129000   22628000 -1.000000
    M2628000 LOBROW29696 1.000000   UPBROW29697 1.000000
    M2642000 00000000 0.571000   22642000 -1.000000
    M2642000 LOBROW29698 1.000000   UPBROW29699 1.000000
    M2658000 00000000 0.167000   22658000 -1.000000
    M2658000 LOBROW29700 1.000000   UPBROW29701 1.000000
    M2689000 00000000 0.082000   22689000 -1.000000
    M2689000 LOBROW29702 1.000000   UPBROW29703 1.000000
    M2690000 00000000 0.087000   22690000 -1.000000
    M2690000 LOBROW29704 1.000000   UPBROW29705 1.000000
    M2691000 00000000 0.214000   22691000 -1.000000
    M2691000 LOBROW29706 1.000000   UPBROW29707 1.000000
    M2868000 00000000 1.285000   22868000 -1.000000
    M2868000 LOBROW29708 1.000000   UPBROW29709 1.000000
    M2896000 00000000 0.918000   22896000 -1.000000
    M2896000 LOBROW29710 1.000000   UPBROW29711 1.000000
    M2905000 00000000 0.112000   22905000 -1.000000
    M2905000 LOBROW29712 1.000000   UPBROW29713 1.000000
    M2922000 00000000 0.156000   22922000 -1.000000
    M2922000 LOBROW29714 1.000000   UPBROW29715 1.000000
    M2987000 00000000 0.653000   22987000 -1.000000
    M2987000 LOBROW29716 1.000000   UPBROW29717 1.000000
    M2989000 00000000 0.248000   22989000 -1.000000
    M2989000 LOBROW29718 1.000000   UPBROW29719 1.000000
    M2991000 00000000 0.056000   22991000 -1.000000
    M2991000 LOBROW29720 1.000000   UPBROW29721 1.000000
    M2995000 00000000 0.483000   22995000 -1.000000
    M2995000 LOBROW29722 1.000000   UPBROW29723 1.000000
    M3002000 00000000 0.135000   23002000 -1.000000
    M3002000 LOBROW29724 1.000000   UPBROW29725 1.000000
    M3012000 00000000 5.300000   23012000 -1.000000
    M3012000 LOBROW29726 1.000000   UPBROW29727 1.000000
    M3013000 00000000 1.640000   23013000 -1.000000
    M3013000 LOBROW29728 1.000000   UPBROW29729 1.000000
    M3013999 00000000 0.800000   23013999 -1.000000
    M3013999 LOBROW29730 1.000000   UPBROW29731 1.000000
    M3022000 00000000 8.400000   23022000 -1.000000
    M3022000 LOBROW29732 1.000000   UPBROW29733 1.000000
    M3038000 00000000 1.115000   23038000 -1.000000
    M3038000 LOBROW29734 1.000000   UPBROW29735 1.000000
    M3044000 00000000 0.143000   23044000 -1.000000
    M3044000 LOBROW29736 1.000000   UPBROW29737 1.000000
    M3115001 00000000 0.986000   23115001 -1.000000
    M3115001 LOBROW29738 1.000000   UPBROW29739 1.000000
    M3125000 00000000 0.215000   23125000 -1.000000
    M3125000 LOBROW29740 1.000000   UPBROW29741 1.000000
    M3130000 00000000 0.367000   23130000 -1.000000
    M3130000 LOBROW29742 1.000000   UPBROW29743 1.000000
    M3131000 00000000 0.080000   23131000 -1.000000
    M3131000 LOBROW29744 1.000000   UPBROW29745 1.000000
    M3132000 00000000 0.173000   23132000 -1.000000
    M3132000 LOBROW29746 1.000000   UPBROW29747 1.000000
    M3136000 00000000 0.422000   23136000 -1.000000
    M3136000 LOBROW29748 1.000000   UPBROW29749 1.000000
    M3140000 00000000 0.315000   23140000 -1.000000
    M3140000 LOBROW29750 1.000000   UPBROW29751 1.000000
    M3146000 00000000 0.401000   23146000 -1.000000
    M3146000 LOBROW29752 1.000000   UPBROW29753 1.000000
    M3148000 00000000 0.180000   23148000 -1.000000
    M3148000 LOBROW29754 1.000000   UPBROW29755 1.000000
    M3151000 00000000 0.238000   23151000 -1.000000
    M3151000 LOBROW29756 1.000000   UPBROW29757 1.000000
    M3152000 00000000 0.394000   23152000 -1.000000
    M3152000 LOBROW29758 1.000000   UPBROW29759 1.000000
    M3154000 00000000 0.490000   23154000 -1.000000
    M3154000 LOBROW29760 1.000000   UPBROW29761 1.000000
    M3156000 00000000 0.320000   23156000 -1.000000
    M3156000 LOBROW29762 1.000000   UPBROW29763 1.000000
    M3157000 00000000 0.262000   23157000 -1.000000
    M3157000 LOBROW29764 1.000000   UPBROW29765 1.000000
    M3168000 00000000 0.456000   23168000 -1.000000
    M3168000 LOBROW29766 1.000000   UPBROW29767 1.000000
    M3170000 00000000 0.252000   23170000 -1.000000
    M3170000 LOBROW29768 1.000000   UPBROW29769 1.000000
    M3190001 00000000 0.282000   23190001 -1.000000
    M3190001 LOBROW29770 1.000000   UPBROW29771 1.000000
    M3197000 00000000 4.488000   23197000 -1.000000
    M3197000 LOBROW29772 1.000000   UPBROW29773 1.000000
    M3238000 00000000 3.020000   23238000 -1.000000
    M3238000 LOBROW29774 1.000000   UPBROW29775 1.000000
    M3239000 00000000 0.860000   23239000 -1.000000
    M3239000 LOBROW29776 1.000000   UPBROW29777 1.000000
    M3240000 00000000 0.081000   23240000 -1.000000
    M3240000 LOBROW29778 1.000000   UPBROW29779 1.000000
    M3241000 00000000 0.201000   23241000 -1.000000
    M3241000 LOBROW29780 1.000000   UPBROW29781 1.000000
    M3242000 00000000 0.103000   23242000 -1.000000
    M3242000 LOBROW29782 1.000000   UPBROW29783 1.000000
    M3243000 00000000 0.122000   23243000 -1.000000
    M3243000 LOBROW29784 1.000000   UPBROW29785 1.000000
    M3244000 00000000 0.063000   23244000 -1.000000
    M3244000 LOBROW29786 1.000000   UPBROW29787 1.000000
    M3250000 00000000 0.146000   23250000 -1.000000
    M3250000 LOBROW29788 1.000000   UPBROW29789 1.000000
    M3251000 00000000 0.462000   23251000 -1.000000
    M3251000 LOBROW29790 1.000000   UPBROW29791 1.000000
    M3253000 00000000 2.448000   23253000 -1.000000
    M3253000 LOBROW29792 1.000000   UPBROW29793 1.000000
    M3256000 00000000 4.216000   23256000 -1.000000
    M3256000 LOBROW29794 1.000000   UPBROW29795 1.000000
    M3261000 00000000 0.694000   23261000 -1.000000
    M3261000 LOBROW29796 1.000000   UPBROW29797 1.000000
    M3278000 00000000 5.032000   23278000 -1.000000
    M3278000 LOBROW29798 1.000000   UPBROW29799 1.000000
    M3279000 00000000 5.168000   23279000 -1.000000
    M3279000 LOBROW29800 1.000000   UPBROW29801 1.000000
    M3280000 00000000 4.964000   23280000 -1.000000
    M3280000 LOBROW29802 1.000000   UPBROW29803 1.000000
    M3295000 00000000 0.238000   23295000 -1.000000
    M3295000 LOBROW29804 1.000000   UPBROW29805 1.000000
    M3297000 00000000 0.139000   23297000 -1.000000
    M3297000 LOBROW29806 1.000000   UPBROW29807 1.000000
    M3306000 00000000 0.870000   23306000 -1.000000
    M3306000 LOBROW29808 1.000000   UPBROW29809 1.000000
    M3477000 00000000 0.558000   23477000 -1.000000
    M3477000 LOBROW29810 1.000000   UPBROW29811 1.000000
    M3494000 00000000 0.428000   23494000 -1.000000
    M3494000 LOBROW29812 1.000000   UPBROW29813 1.000000
    M3497000 00000000 0.449000   23497000 -1.000000
    M3497000 LOBROW29814 1.000000   UPBROW29815 1.000000
    M3498000 00000000 0.286000   23498000 -1.000000
    M3498000 LOBROW29816 1.000000   UPBROW29817 1.000000
    M3624000 00000000 0.248000   23624000 -1.000000
    M3624000 LOBROW29818 1.000000   UPBROW29819 1.000000
    M3627001 00000000 0.078000   23627001 -1.000000
    M3627001 LOBROW29820 1.000000   UPBROW29821 1.000000
    M3627002 00000000 0.079000   23627002 -1.000000
    M3627002 LOBROW29822 1.000000   UPBROW29823 1.000000
    M3627005 00000000 0.086000   23627005 -1.000000
    M3627005 LOBROW29824 1.000000   UPBROW29825 1.000000
    M3652001 00000000 1.306000   23652001 -1.000000
    M3652001 LOBROW29826 1.000000   UPBROW29827 1.000000
    M3670002 00000000 0.038000   23670002 -1.000000
    M3670002 LOBROW29828 1.000000   UPBROW29829 1.000000
    M3713000 00000000 0.782000   23713000 -1.000000
    M3713000 LOBROW29830 1.000000   UPBROW29831 1.000000
    M3719000 00000000 0.610000   23719000 -1.000000
    M3719000 LOBROW29832 1.000000   UPBROW29833 1.000000
    M3775000 00000000 5.500000   23775000 -1.000000
    M3775000 LOBROW29834 1.000000   UPBROW29835 1.000000
    M3776000 00000000 0.510000   23776000 -1.000000
    M3776000 LOBROW29836 1.000000   UPBROW29837 1.000000
    M3779000 00000000 7.221000   23779000 -1.000000
    M3779000 LOBROW29838 1.000000   UPBROW29839 1.000000
    M3781000 00000000 3.150000   23781000 -1.000000
    M3781000 LOBROW29840 1.000000   UPBROW29841 1.000000
    M3801000 00000000 2.006000   23801000 -1.000000
    M3801000 LOBROW29842 1.000000   UPBROW29843 1.000000
    M3872095 00000000 6.800000   23872095 -1.000000
    M3872095 LOBROW29844 1.000000   UPBROW29845 1.000000
    M3872110 00000000 6.800000   23872110 -1.000000
    M3872110 LOBROW29846 1.000000   UPBROW29847 1.000000
    M3872220 00000000 6.800000   23872220 -1.000000
    M3872220 LOBROW29848 1.000000   UPBROW29849 1.000000
    M3891000 00000000 0.122000   23891000 -1.000000
    M3891000 LOBROW29850 1.000000   UPBROW29851 1.000000
    M3893000 00000000 0.120000   23893000 -1.000000
    M3893000 LOBROW29852 1.000000   UPBROW29853 1.000000
    M3895000 00000000 0.124000   23895000 -1.000000
    M3895000 LOBROW29854 1.000000   UPBROW29855 1.000000
    M3908000 00000000 7.134000   23908000 -1.000000
    M3908000 LOBROW29856 1.000000   UPBROW29857 1.000000
    M3918000 00000000 2.448000   23918000 -1.000000
    M3918000 LOBROW29858 1.000000   UPBROW29859 1.000000
    M3993000 00000000 0.207000   23993000 -1.000000
    M3993000 LOBROW29860 1.000000   UPBROW29861 1.000000
    M4169000 00000000 2.584000   24169000 -1.000000
    M4169000 LOBROW29862 1.000000   UPBROW29863 1.000000
    M4195001 00000000 0.059000   24195001 -1.000000
    M4195001 LOBROW29864 1.000000   UPBROW29865 1.000000
    M4200001 00000000 0.059000   24200001 -1.000000
    M4200001 LOBROW29866 1.000000   UPBROW29867 1.000000
    M4257002 00000000 0.103000   24257002 -1.000000
    M4257002 LOBROW29868 1.000000   UPBROW29869 1.000000
    M4259001 00000000 0.126000   24259001 -1.000000
    M4259001 LOBROW29870 1.000000   UPBROW29871 1.000000
    M4259002 00000000 0.108000   24259002 -1.000000
    M4259002 LOBROW29872 1.000000   UPBROW29873 1.000000
    M4272000 00000000 0.053000   24272000 -1.000000
    M4272000 LOBROW29874 1.000000   UPBROW29875 1.000000
    M4274000 00000000 0.167000   24274000 -1.000000
    M4274000 LOBROW29876 1.000000   UPBROW29877 1.000000
    M4275000 00000000 0.067000   24275000 -1.000000
    M4275000 LOBROW29878 1.000000   UPBROW29879 1.000000
    M4278002 00000000 0.058000   24278002 -1.000000
    M4278002 LOBROW29880 1.000000   UPBROW29881 1.000000
    M4317000 00000000 0.046000   24317000 -1.000000
    M4317000 LOBROW29882 1.000000   UPBROW29883 1.000000
    M4319000 00000000 0.067000   24319000 -1.000000
    M4319000 LOBROW29884 1.000000   UPBROW29885 1.000000
    M4409000 00000000 0.435000   24409000 -1.000000
    M4409000 LOBROW29886 1.000000   UPBROW29887 1.000000
    M4426000 00000000 3.740000   24426000 -1.000000
    M4426000 LOBROW29888 1.000000   UPBROW29889 1.000000
    M4443000 00000000 0.517000   24443000 -1.000000
    M4443000 LOBROW29890 1.000000   UPBROW29891 1.000000
    M4453000 00000000 0.503000   24453000 -1.000000
    M4453000 LOBROW29892 1.000000   UPBROW29893 1.000000
    M4535000 00000000 0.669000   24535000 -1.000000
    M4535000 LOBROW29894 1.000000   UPBROW29895 1.000000
    M4541000 00000000 1.040000   24541000 -1.000000
    M4541000 LOBROW29896 1.000000   UPBROW29897 1.000000
    M4577000 00000000 0.585000   24577000 -1.000000
    M4577000 LOBROW29898 1.000000   UPBROW29899 1.000000
    M4627000 00000000 0.367000   24627000 -1.000000
    M4627000 LOBROW29900 1.000000   UPBROW29901 1.000000
    M4700000 00000000 0.510000   24700000 -1.000000
    M4700000 LOBROW29902 1.000000   UPBROW29903 1.000000
    M4703000 00000000 0.496000   24703000 -1.000000
    M4703000 LOBROW29904 1.000000   UPBROW29905 1.000000
    M4773000 00000000 0.435000   24773000 -1.000000
    M4773000 LOBROW29906 1.000000   UPBROW29907 1.000000
    M4828000 00000000 0.153000   24828000 -1.000000
    M4828000 LOBROW29908 1.000000   UPBROW29909 1.000000
    M4851000 00000000 0.045000   24851000 -1.000000
    M4851000 LOBROW29910 1.000000   UPBROW29911 1.000000
    M4905011 00000000 3.959000   24905011 -1.000000
    M4905011 LOBROW29912 1.000000   UPBROW29913 1.000000
    M4921000 00000000 7.072000   24921000 -1.000000
    M4921000 LOBROW29914 1.000000   UPBROW29915 1.000000
    M4928000 00000000 0.214000   24928000 -1.000000
    M4928000 LOBROW29916 1.000000   UPBROW29917 1.000000
    M4985000 00000000 0.340000   24985000 -1.000000
    M4985000 LOBROW29918 1.000000   UPBROW29919 1.000000
    M4988000 00000000 0.241000   24988000 -1.000000
    M4988000 LOBROW29920 1.000000   UPBROW29921 1.000000
    M5147000 00000000 0.194000   25147000 -1.000000
    M5147000 LOBROW29922 1.000000   UPBROW29923 1.000000
    M5180000 00000000 5.032000   25180000 -1.000000
    M5180000 LOBROW29924 1.000000   UPBROW29925 1.000000
    M5245008 00000000 9.135000   25245008 -1.000000
    M5245008 LOBROW29926 1.000000   UPBROW29927 1.000000
    M5247008 00000000 9.135000   25247008 -1.000000
    M5247008 LOBROW29928 1.000000   UPBROW29929 1.000000
    M5247011 00000000 19.923000   25247011 -1.000000
    M5247011 LOBROW29930 1.000000   UPBROW29931 1.000000
    M5259000 00000000 0.289000   25259000 -1.000000
    M5259000 LOBROW29932 1.000000   UPBROW29933 1.000000
    M5269000 00000000 0.323000   25269000 -1.000000
    M5269000 LOBROW29934 1.000000   UPBROW29935 1.000000
    M5270000 00000000 0.240000   25270000 -1.000000
    M5270000 LOBROW29936 1.000000   UPBROW29937 1.000000
    M5327000 00000000 0.299000   25327000 -1.000000
    M5327000 LOBROW29938 1.000000   UPBROW29939 1.000000
    M5346000 00000000 8.636000   25346000 -1.000000
    M5346000 LOBROW29940 1.000000   UPBROW29941 1.000000
    M5349000 00000000 7.004000   25349000 -1.000000
    M5349000 LOBROW29942 1.000000   UPBROW29943 1.000000
    M5351000 00000000 0.802000   25351000 -1.000000
    M5351000 LOBROW29944 1.000000   UPBROW29945 1.000000
    M5430000 00000000 5.500000   25430000 -1.000000
    M5430000 LOBROW29946 1.000000   UPBROW29947 1.000000
    M5439000 00000000 7.395000   25439000 -1.000000
    M5439000 LOBROW29948 1.000000   UPBROW29949 1.000000
    M5440000 00000000 3.090000   25440000 -1.000000
    M5440000 LOBROW29950 1.000000   UPBROW29951 1.000000
    M5446000 00000000 0.182000   25446000 -1.000000
    M5446000 LOBROW29952 1.000000   UPBROW29953 1.000000
    M5499000 00000000 0.045000   25499000 -1.000000
    M5499000 LOBROW29954 1.000000   UPBROW29955 1.000000
    M5500000 00000000 0.044000   25500000 -1.000000
    M5500000 LOBROW29956 1.000000   UPBROW29957 1.000000
    M5522000 00000000 0.610000   25522000 -1.000000
    M5522000 LOBROW29958 1.000000   UPBROW29959 1.000000
    M5543002 00000000 4.012000   25543002 -1.000000
    M5543002 LOBROW29960 1.000000   UPBROW29961 1.000000
    M5546003 00000000 4.828000   25546003 -1.000000
    M5546003 LOBROW29962 1.000000   UPBROW29963 1.000000
    M5557001 00000000 2.380000   25557001 -1.000000
    M5557001 LOBROW29964 1.000000   UPBROW29965 1.000000
    M5557002 00000000 2.380000   25557002 -1.000000
    M5557002 LOBROW29966 1.000000   UPBROW29967 1.000000
    M5557003 00000000 2.380000   25557003 -1.000000
    M5557003 LOBROW29968 1.000000   UPBROW29969 1.000000
    M5557006 00000000 2.380000   25557006 -1.000000
    M5557006 LOBROW29970 1.000000   UPBROW29971 1.000000
    M5617000 00000000 7.600000   25617000 -1.000000
    M5617000 LOBROW29972 1.000000   UPBROW29973 1.000000
    M5637000 00000000 0.650000   25637000 -1.000000
    M5637000 LOBROW29974 1.000000   UPBROW29975 1.000000
    M5668001 00000000 0.415000   25668001 -1.000000
    M5668001 LOBROW29976 1.000000   UPBROW29977 1.000000
    M5682000 00000000 0.082000   25682000 -1.000000
    M5682000 LOBROW29978 1.000000   UPBROW29979 1.000000
    M5695000 00000000 1.330000   25695000 -1.000000
    M5695000 LOBROW29980 1.000000   UPBROW29981 1.000000
    M5725001 00000000 0.483000   25725001 -1.000000
    M5725001 LOBROW29982 1.000000   UPBROW29983 1.000000
    M5725002 00000000 0.823000   25725002 -1.000000
    M5725002 LOBROW29984 1.000000   UPBROW29985 1.000000
    M5725003 00000000 0.401000   25725003 -1.000000
    M5725003 LOBROW29986 1.000000   UPBROW29987 1.000000
    M5725004 00000000 0.843000   25725004 -1.000000
    M5725004 LOBROW29988 1.000000   UPBROW29989 1.000000
    M5725005 00000000 0.836000   25725005 -1.000000
    M5725005 LOBROW29990 1.000000   UPBROW29991 1.000000
    M5786000 00000000 0.660000   25786000 -1.000000
    M5786000 LOBROW29992 1.000000   UPBROW29993 1.000000
    M5804001 00000000 0.296000   25804001 -1.000000
    M5804001 LOBROW29994 1.000000   UPBROW29995 1.000000
    M5804002 00000000 0.409000   25804002 -1.000000
    M5804002 LOBROW29996 1.000000   UPBROW29997 1.000000
    M5835000 00000000 3.400000   25835000 -1.000000
    M5835000 LOBROW29998 1.000000   UPBROW29999 1.000000
    M5896000 00000000 0.201000   25896000 -1.000000
    M5896000 LOBROW30000 1.000000   UPBROW30001 1.000000
    M5898000 00000000 0.051000   25898000 -1.000000
    M5898000 LOBROW30002 1.000000   UPBROW30003 1.000000
    M5959000 00000000 0.632000   25959000 -1.000000
    M5959000 LOBROW30004 1.000000   UPBROW30005 1.000000
    M5961000 00000000 0.265000   25961000 -1.000000
    M5961000 LOBROW30006 1.000000   UPBROW30007 1.000000
    M6003000 00000000 0.099000   26003000 -1.000000
    M6003000 LOBROW30008 1.000000   UPBROW30009 1.000000
    M6032000 00000000 3.740000   26032000 -1.000000
    M6032000 LOBROW30010 1.000000   UPBROW30011 1.000000
    M6047000 00000000 0.300000   26047000 -1.000000
    M6047000 LOBROW30012 1.000000   UPBROW30013 1.000000
    M6111001 00000000 1.006000   26111001 -1.000000
    M6111001 LOBROW30014 1.000000   UPBROW30015 1.000000
    M6112001 00000000 0.381000   26112001 -1.000000
    M6112001 LOBROW30016 1.000000   UPBROW30017 1.000000
    M6173000 00000000 1.537000   26173000 -1.000000
    M6173000 LOBROW30018 1.000000   UPBROW30019 1.000000
    M6206008 00000000 0.564000   26206008 -1.000000
    M6206008 LOBROW30020 1.000000   UPBROW30021 1.000000
    M6213000 00000000 0.007000   26213000 -1.000000
    M6213000 LOBROW30022 1.000000   UPBROW30023 1.000000
    M6243000 00000000 0.015000   26243000 -1.000000
    M6243000 LOBROW30024 1.000000   UPBROW30025 1.000000
    M6246900 00000000 0.270000   26246900 -1.000000
    M6246900 LOBROW30026 1.000000   UPBROW30027 1.000000
    M6249900 00000000 0.410000   26249900 -1.000000
    M6249900 LOBROW30028 1.000000   UPBROW30029 1.000000
    M6361000 00000000 0.036000   26361000 -1.000000
    M6361000 LOBROW30030 1.000000   UPBROW30031 1.000000
    M6413000 00000000 0.666000   26413000 -1.000000
    M6413000 LOBROW30032 1.000000   UPBROW30033 1.000000
    M6414000 00000000 0.292000   26414000 -1.000000
    M6414000 LOBROW30034 1.000000   UPBROW30035 1.000000
    M6567000 00000000 3.672000   26567000 -1.000000
    M6567000 LOBROW30036 1.000000   UPBROW30037 1.000000
    M6619001 00000000 0.367000   26619001 -1.000000
    M6619001 LOBROW30038 1.000000   UPBROW30039 1.000000
    M6619002 00000000 0.374000   26619002 -1.000000
    M6619002 LOBROW30040 1.000000   UPBROW30041 1.000000
    M6619004 00000000 0.381000   26619004 -1.000000
    M6619004 LOBROW30042 1.000000   UPBROW30043 1.000000
    M6620900 00000000 0.380000   26620900 -1.000000
    M6620900 LOBROW30044 1.000000   UPBROW30045 1.000000
    M6633000 00000000 0.027000   26633000 -1.000000
    M6633000 LOBROW30046 1.000000   UPBROW30047 1.000000
    M6874000 00000000 0.173000   26874000 -1.000000
    M6874000 LOBROW30048 1.000000   UPBROW30049 1.000000
    M6924000 00000000 0.150000   26924000 -1.000000
    M6924000 LOBROW30050 1.000000   UPBROW30051 1.000000
    M6937008 00000000 1.272000   26937008 -1.000000
    M6937008 LOBROW30052 1.000000   UPBROW30053 1.000000
    M6960000 00000000 0.428000   26960000 -1.000000
    M6960000 LOBROW30054 1.000000   UPBROW30055 1.000000
    M6965000 00000000 0.394000   26965000 -1.000000
    M6965000 LOBROW30056 1.000000   UPBROW30057 1.000000
    M7100000 00000000 11.300000   27100000 -1.000000
    M7100000 LOBROW30058 1.000000   UPBROW30059 1.000000
    M7123008 00000000 5.032000   27123008 -1.000000
    M7123008 LOBROW30060 1.000000   UPBROW30061 1.000000
    M7240000 00000000 0.891000   27240000 -1.000000
    M7240000 LOBROW30062 1.000000   UPBROW30063 1.000000
    M7287000 00000000 0.700000   27287000 -1.000000
    M7287000 LOBROW30064 1.000000   UPBROW30065 1.000000
    M7322000 00000000 0.388000   27322000 -1.000000
    M7322000 LOBROW30066 1.000000   UPBROW30067 1.000000
    M7323000 00000000 0.449000   27323000 -1.000000
    M7323000 LOBROW30068 1.000000   UPBROW30069 1.000000
    M7360000 00000000 0.187000   27360000 -1.000000
    M7360000 LOBROW30070 1.000000   UPBROW30071 1.000000
    M7394000 00000000 0.250000   27394000 -1.000000
    M7394000 LOBROW30072 1.000000   UPBROW30073 1.000000
    M7481900 00000000 0.503000   27481900 -1.000000
    M7481900 LOBROW30074 1.000000   UPBROW30075 1.000000
    M7482900 00000000 0.612000   27482900 -1.000000
    M7482900 LOBROW30076 1.000000   UPBROW30077 1.000000
    M7612000 00000000 1.428000   27612000 -1.000000
    M7612000 LOBROW30078 1.000000   UPBROW30079 1.000000
    M7709000 00000000 0.224000   27709000 -1.000000
    M7709000 LOBROW30080 1.000000   UPBROW30081 1.000000
    M7710000 00000000 0.700000   27710000 -1.000000
    M7710000 LOBROW30082 1.000000   UPBROW30083 1.000000
    M7711000 00000000 0.490000   27711000 -1.000000
    M7711000 LOBROW30084 1.000000   UPBROW30085 1.000000
    M7750000 00000000 0.632000   27750000 -1.000000
    M7750000 LOBROW30086 1.000000   UPBROW30087 1.000000
    M7753000 00000000 0.802000   27753000 -1.000000
    M7753000 LOBROW30088 1.000000   UPBROW30089 1.000000
    M7799000 00000000 0.380000   27799000 -1.000000
    M7799000 LOBROW30090 1.000000   UPBROW30091 1.000000
    M7832000 00000000 2.754000   27832000 -1.000000
    M7832000 LOBROW30092 1.000000   UPBROW30093 1.000000
    M7834000 00000000 2.278000   27834000 -1.000000
    M7834000 LOBROW30094 1.000000   UPBROW30095 1.000000
    M7840000 00000000 0.898000   27840000 -1.000000
    M7840000 LOBROW30096 1.000000   UPBROW30097 1.000000
    M7841000 00000000 0.843000   27841000 -1.000000
    M7841000 LOBROW30098 1.000000   UPBROW30099 1.000000
    M7843000 00000000 0.184000   27843000 -1.000000
    M7843000 LOBROW30100 1.000000   UPBROW30101 1.000000
    M7868000 00000000 2.278000   27868000 -1.000000
    M7868000 LOBROW30102 1.000000   UPBROW30103 1.000000
    M7881000 00000000 1.090000   27881000 -1.000000
    M7881000 LOBROW30104 1.000000   UPBROW30105 1.000000
    M7884000 00000000 0.315000   27884000 -1.000000
    M7884000 LOBROW30106 1.000000   UPBROW30107 1.000000
    M7890008 00000000 5.046000   27890008 -1.000000
    M7890008 LOBROW30108 1.000000   UPBROW30109 1.000000
    M7981000 00000000 9.900000   27981000 -1.000000
    M7981000 LOBROW30110 1.000000   UPBROW30111 1.000000
    M8026000 00000000 1.455000   28026000 -1.000000
    M8026000 LOBROW30112 1.000000   UPBROW30113 1.000000
    M8170008 00000000 8.439000   28170008 -1.000000
    M8170008 LOBROW30114 1.000000   UPBROW30115 1.000000
    M8171001 00000000 2.850000   28171001 -1.000000
    M8171001 LOBROW30116 1.000000   UPBROW30117 1.000000
    M8172008 00000000 7.743000   28172008 -1.000000
    M8172008 LOBROW30118 1.000000   UPBROW30119 1.000000
    M8173001 00000000 3.850000   28173001 -1.000000
    M8173001 LOBROW30120 1.000000   UPBROW30121 1.000000
    M8175008 00000000 10.962000   28175008 -1.000000
    M8175008 LOBROW30122 1.000000   UPBROW30123 1.000000
    M8176001 00000000 4.050000   28176001 -1.000000
    M8176001 LOBROW30124 1.000000   UPBROW30125 1.000000
    M8187000 00000000 0.570000   28187000 -1.000000
    M8187000 LOBROW30126 1.000000   UPBROW30127 1.000000
    M8237000 00000000 2.006000   28237000 -1.000000
    M8237000 LOBROW30128 1.000000   UPBROW30129 1.000000
    M8238000 00000000 0.800000   28238000 -1.000000
    M8238000 LOBROW30130 1.000000   UPBROW30131 1.000000
    M8239000 00000000 0.990000   28239000 -1.000000
    M8239000 LOBROW30132 1.000000   UPBROW30133 1.000000
    M8241000 00000000 2.822000   28241000 -1.000000
    M8241000 LOBROW30134 1.000000   UPBROW30135 1.000000
    M8309000 00000000 1.040000   28309000 -1.000000
    M8309000 LOBROW30136 1.000000   UPBROW30137 1.000000
    M8343008 00000000 32.190000   28343008 -1.000000
    M8343008 LOBROW30138 1.000000   UPBROW30139 1.000000
    M8344000 00000000 18.900000   28344000 -1.000000
    M8344000 LOBROW30140 1.000000   UPBROW30141 1.000000
    M8353008 00000000 32.799000   28353008 -1.000000
    M8353008 LOBROW30142 1.000000   UPBROW30143 1.000000
    M8387000 00000000 0.415000   28387000 -1.000000
    M8387000 LOBROW30144 1.000000   UPBROW30145 1.000000
    M8480000 00000000 0.286000   28480000 -1.000000
    M8480000 LOBROW30146 1.000000   UPBROW30147 1.000000
    M8510000 00000000 0.714000   28510000 -1.000000
    M8510000 LOBROW30148 1.000000   UPBROW30149 1.000000
    M8511000 00000000 0.235000   28511000 -1.000000
    M8511000 LOBROW30150 1.000000   UPBROW30151 1.000000
    M8512000 00000000 0.395000   28512000 -1.000000
    M8512000 LOBROW30152 1.000000   UPBROW30153 1.000000
    M8583000 00000000 0.374000   28583000 -1.000000
    M8583000 LOBROW30154 1.000000   UPBROW30155 1.000000
    M8667000 00000000 6.324000   28667000 -1.000000
    M8667000 LOBROW30156 1.000000   UPBROW30157 1.000000
    M8930000 00000000 5.372000   28930000 -1.000000
    M8930000 LOBROW30158 1.000000   UPBROW30159 1.000000
    M8953000 00000000 0.194000   28953000 -1.000000
    M8953000 LOBROW30160 1.000000   UPBROW30161 1.000000
    M8954000 00000000 0.120000   28954000 -1.000000
    M8954000 LOBROW30162 1.000000   UPBROW30163 1.000000
    M8955000 00000000 0.047000   28955000 -1.000000
    M8955000 LOBROW30164 1.000000   UPBROW30165 1.000000
    M8957000 00000000 0.381000   28957000 -1.000000
    M8957000 LOBROW30166 1.000000   UPBROW30167 1.000000
    M9008000 00000000 0.067000   29008000 -1.000000
    M9008000 LOBROW30168 1.000000   UPBROW30169 1.000000
    M9009000 00000000 0.163000   29009000 -1.000000
    M9009000 LOBROW30170 1.000000   UPBROW30171 1.000000
    M9039000 00000000 0.177000   29039000 -1.000000
    M9039000 LOBROW30172 1.000000   UPBROW30173 1.000000
    M9041000 00000000 0.809000   29041000 -1.000000
    M9041000 LOBROW30174 1.000000   UPBROW30175 1.000000
    M9042000 00000000 0.052000   29042000 -1.000000
    M9042000 LOBROW30176 1.000000   UPBROW30177 1.000000
    M9153900 00000000 0.105000   29153900 -1.000000
    M9153900 LOBROW30178 1.000000   UPBROW30179 1.000000
    M9171000 00000000 2.040000   29171000 -1.000000
    M9171000 LOBROW30180 1.000000   UPBROW30181 1.000000
    M9185000 00000000 0.264000   29185000 -1.000000
    M9185000 LOBROW30182 1.000000   UPBROW30183 1.000000
    M9186001 00000000 0.231000   29186001 -1.000000
    M9186001 LOBROW30184 1.000000   UPBROW30185 1.000000
    M9186002 00000000 0.231000   29186002 -1.000000
    M9186002 LOBROW30186 1.000000   UPBROW30187 1.000000
    M9188000 00000000 1.564000   29188000 -1.000000
    M9188000 LOBROW30188 1.000000   UPBROW30189 1.000000
    M9219000 00000000 5.100000   29219000 -1.000000
    M9219000 LOBROW30190 1.000000   UPBROW30191 1.000000
    M9297001 00000000 5.700000   29297001 -1.000000
    M9297001 LOBROW30192 1.000000   UPBROW30193 1.000000
    M9332000 00000000 8.526000   29332000 -1.000000
    M9332000 LOBROW30194 1.000000   UPBROW30195 1.000000
    M9333000 00000000 6.873000   29333000 -1.000000
    M9333000 LOBROW30196 1.000000   UPBROW30197 1.000000
    M9354000 00000000 0.241000   29354000 -1.000000
    M9354000 LOBROW30198 1.000000   UPBROW30199 1.000000
    M9394001 00000000 0.469000   29394001 -1.000000
    M9394001 LOBROW30200 1.000000   UPBROW30201 1.000000
    M9470000 00000000 0.009000   29470000 -1.000000
    M9470000 LOBROW30202 1.000000   UPBROW30203 1.000000
    M9492000 00000000 0.290000   29492000 -1.000000
    M9492000 LOBROW30204 1.000000   UPBROW30205 1.000000
    M9506000 00000000 0.184000   29506000 -1.000000
    M9506000 LOBROW30206 1.000000   UPBROW30207 1.000000
    M9516000 00000000 0.911000   29516000 -1.000000
    M9516000 LOBROW30208 1.000000   UPBROW30209 1.000000
    M9520000 00000000 0.228000   29520000 -1.000000
    M9520000 LOBROW30210 1.000000   UPBROW30211 1.000000
    M9541001 00000000 5.900000   29541001 -1.000000
    M9541001 LOBROW30212 1.000000   UPBROW30213 1.000000
    M9556000 00000000 0.524000   29556000 -1.000000
    M9556000 LOBROW30214 1.000000   UPBROW30215 1.000000
    M9646000 00000000 0.600000   29646000 -1.000000
    M9646000 LOBROW30216 1.000000   UPBROW30217 1.000000
    M9648001 00000000 5.700000   29648001 -1.000000
    M9648001 LOBROW30218 1.000000   UPBROW30219 1.000000
    M9696000 00000000 0.660000   29696000 -1.000000
    M9696000 LOBROW30220 1.000000   UPBROW30221 1.000000
    M9697000 00000000 0.320000   29697000 -1.000000
    M9697000 LOBROW30222 1.000000   UPBROW30223 1.000000
    M9699000 00000000 0.345000   29699000 -1.000000
    M9699000 LOBROW30224 1.000000   UPBROW30225 1.000000
    M9701006 00000000 0.972000   29701006 -1.000000
    M9701006 LOBROW30226 1.000000   UPBROW30227 1.000000
    M9732001 00000000 0.537000   29732001 -1.000000
    M9732001 LOBROW30228 1.000000   UPBROW30229 1.000000
    M9741000 00000000 0.211000   29741000 -1.000000
    M9741000 LOBROW30230 1.000000   UPBROW30231 1.000000
    M9824008 00000000 21.924000   29824008 -1.000000
    M9824008 LOBROW30232 1.000000   UPBROW30233 1.000000
    M9887000 00000000 1.163000   29887000 -1.000000
    M9887000 LOBROW30234 1.000000   UPBROW30235 1.000000
    M9939001 00000000 6.400000   29939001 -1.000000
    M9939001 LOBROW30236 1.000000   UPBROW30237 1.000000
    N3034002 00000000 0.116000   33034002 -1.000000
    N3034002 LOBROW30238 1.000000   UPBROW30239 1.000000
    N3035002 00000000 0.078000   33035002 -1.000000
    N3035002 LOBROW30240 1.000000   UPBROW30241 1.000000
    N3062000 00000000 1.353000   33062000 -1.000000
    N3062000 LOBROW30242 1.000000   UPBROW30243 1.000000
    N3066000 00000000 0.260000   33066000 -1.000000
    N3066000 LOBROW30244 1.000000   UPBROW30245 1.000000
    N3098000 00000000 0.316000   33098000 -1.000000
    N3098000 LOBROW30246 1.000000   UPBROW30247 1.000000
    N3100001 00000000 0.395000   33100001 -1.000000
    N3100001 LOBROW30248 1.000000   UPBROW30249 1.000000
    N3129000 00000000 0.120000   33129000 -1.000000
    N3129000 LOBROW30250 1.000000   UPBROW30251 1.000000
    N3131000 00000000 0.124000   33131000 -1.000000
    N3131000 LOBROW30252 1.000000   UPBROW30253 1.000000
    N3133000 00000000 0.218000   33133000 -1.000000
    N3133000 LOBROW30254 1.000000   UPBROW30255 1.000000
    N3144000 00000000 1.870000   33144000 -1.000000
    N3144000 LOBROW30256 1.000000   UPBROW30257 1.000000
    N3160220 00000000 10.800000   33160220 -1.000000
    N3160220 LOBROW30258 1.000000   UPBROW30259 1.000000
    N3201008 00000000 8.700000   33201008 -1.000000
    N3201008 LOBROW30260 1.000000   UPBROW30261 1.000000
    N3209008 00000000 8.961000   33209008 -1.000000
    N3209008 LOBROW30262 1.000000   UPBROW30263 1.000000
    N3210001 00000000 5.400000   33210001 -1.000000
    N3210001 LOBROW30264 1.000000   UPBROW30265 1.000000
    N4381000 00000000 0.605000   34381000 -1.000000
    N4381000 LOBROW30266 1.000000   UPBROW30267 1.000000
    N4394000 00000000 0.966000   34394000 -1.000000
    N4394000 LOBROW30268 1.000000   UPBROW30269 1.000000
    N4395000 00000000 0.843000   34395000 -1.000000
    N4395000 LOBROW30270 1.000000   UPBROW30271 1.000000
    N4403000 00000000 2.482000   34403000 -1.000000
    N4403000 LOBROW30272 1.000000   UPBROW30273 1.000000
    N4404000 00000000 2.550000   34404000 -1.000000
    N4404000 LOBROW30274 1.000000   UPBROW30275 1.000000
    N4474008 00000000 7.700000   34474008 -1.000000
    N4474008 LOBROW30276 1.000000   UPBROW30277 1.000000
    N4476008 00000000 7.500000   34476008 -1.000000
    N4476008 LOBROW30278 1.000000   UPBROW30279 1.000000
    N4511000 00000000 8.636000   34511000 -1.000000
    N4511000 LOBROW30280 1.000000   UPBROW30281 1.000000
    N4524001 00000000 2.700000   34524001 -1.000000
    N4524001 LOBROW30282 1.000000   UPBROW30283 1.000000
    N4528008 00000000 15.747000   34528008 -1.000000
    N4528008 LOBROW30284 1.000000   UPBROW30285 1.000000
    N4529008 00000000 15.747000   34529008 -1.000000
    N4529008 LOBROW30286 1.000000   UPBROW30287 1.000000
    N4530000 00000000 0.231000   34530000 -1.000000
    N4530000 LOBROW30288 1.000000   UPBROW30289 1.000000
    N4533008 00000000 15.660000   34533008 -1.000000
    N4533008 LOBROW30290 1.000000   UPBROW30291 1.000000
    N4534008 00000000 16.356000   34534008 -1.000000
    N4534008 LOBROW30292 1.000000   UPBROW30293 1.000000
    N4544008 00000000 21.924000   34544008 -1.000000
    N4544008 LOBROW30294 1.000000   UPBROW30295 1.000000
    N4545008 00000000 18.270000   34545008 -1.000000
    N4545008 LOBROW30296 1.000000   UPBROW30297 1.000000
    N4551000 00000000 0.993000   34551000 -1.000000
    N4551000 LOBROW30298 1.000000   UPBROW30299 1.000000
    N4598000 00000000 0.469000   34598000 -1.000000
    N4598000 LOBROW30300 1.000000   UPBROW30301 1.000000
    N4599000 00000000 0.585000   34599000 -1.000000
    N4599000 LOBROW30302 1.000000   UPBROW30303 1.000000
    N4602000 00000000 0.449000   34602000 -1.000000
    N4602000 LOBROW30304 1.000000   UPBROW30305 1.000000
    N4613000 00000000 0.598000   34613000 -1.000000
    N4613000 LOBROW30306 1.000000   UPBROW30307 1.000000
    N4614000 00000000 0.335000   34614000 -1.000000
    N4614000 LOBROW30308 1.000000   UPBROW30309 1.000000
    N4636000 00000000 0.100000   34636000 -1.000000
    N4636000 LOBROW30310 1.000000   UPBROW30311 1.000000
    N4647000 00000000 0.018000   34647000 -1.000000
    N4647000 LOBROW30312 1.000000   UPBROW30313 1.000000
    N4678000 00000000 0.483000   34678000 -1.000000
    N4678000 LOBROW30314 1.000000   UPBROW30315 1.000000
    N4689000 00000000 0.055000   34689000 -1.000000
    N4689000 LOBROW30316 1.000000   UPBROW30317 1.000000
    N4811108 00000000 9.135000   34811108 -1.000000
    N4811108 LOBROW30318 1.000000   UPBROW30319 1.000000
    N5000008 00000000 7.395000   35000008 -1.000000
    N5000008 LOBROW30320 1.000000   UPBROW30321 1.000000
    N5182000 00000000 2.856000   35182000 -1.000000
    N5182000 LOBROW30322 1.000000   UPBROW30323 1.000000
    N5189000 00000000 4.896000   35189000 -1.000000
    N5189000 LOBROW30324 1.000000   UPBROW30325 1.000000
    N5214220 00000000 72.080000   35214220 -1.000000
    N5214220 LOBROW30326 1.000000   UPBROW30327 1.000000
    SLACK41495 VILLKOR2 -1.000000
    SLACK41496 VILLKOR3 -1.000000
    SLACK41497 VILLKOR4 -1.000000
    SLACK41498 VILLKOR5 -1.000000
    SLACK41499 VILLKOR6 -1.000000
    SLACK41500 VILLKOR7 -1.000000
    SLACK41501 VILLKOR8 -1.000000
    SLACK41502 VILLKOR9 -1.000000
    SLACK41503 LOBROW29314 -1.000000
    SLACK41504 UPBROW29315 1.000000
    SLACK41505 LOBROW29316 -1.000000
    SLACK41506 UPBROW29317 1.000000
    SLACK41507 LOBROW29318 -1.000000
    SLACK41508 UPBROW29319 1.000000
    SLACK41509 LOBROW29320 -1.000000
    SLACK41510 UPBROW29321 1.000000
    SLACK41511 LOBROW29322 -1.000000
    SLACK41512 UPBROW29323 1.000000
    SLACK41513 LOBROW29324 -1.000000
    SLACK41514 UPBROW29325 1.000000
    SLACK41515 LOBROW29326 -1.000000
    SLACK41516 UPBROW29327 1.000000
    SLACK41517 LOBROW29328 -1.000000
    SLACK41518 UPBROW29329 1.000000
    SLACK41519 LOBROW29330 -1.000000
    SLACK41520 UPBROW29331 1.000000
    SLACK41521 LOBROW29332 -1.000000
    SLACK41522 UPBROW29333 1.000000
    SLACK41523 LOBROW29334 -1.000000
    SLACK41524 UPBROW29335 1.000000
    SLACK41525 LOBROW29336 -1.000000
    SLACK41526 UPBROW29337 1.000000
    SLACK41527 LOBROW29338 -1.000000
    SLACK41528 UPBROW29339 1.000000
    SLACK41529 LOBROW29340 -1.000000
    SLACK41530 UPBROW29341 1.000000
    SLACK41531 LOBROW29342 -1.000000
    SLACK41532 UPBROW29343 1.000000
    SLACK41533 LOBROW29344 -1.000000
    SLACK41534 UPBROW29345 1.000000
    SLACK41535 LOBROW29346 -1.000000
    SLACK41536 UPBROW29347 1.000000
    SLACK41537 LOBROW29348 -1.000000
    SLACK41538 UPBROW29349 1.000000
    SLACK41539 LOBROW29350 -1.000000
    SLACK41540 UPBROW29351 1.000000
    SLACK41541 LOBROW29352 -1.000000
    SLACK41542 UPBROW29353 1.000000
    SLACK41543 LOBROW29354 -1.000000
    SLACK41544 UPBROW29355 1.000000
    SLACK41545 LOBROW29356 -1.000000
    SLACK41546 UPBROW29357 1.000000
    SLACK41547 LOBROW29358 -1.000000
    SLACK41548 UPBROW29359 1.000000
    SLACK41549 LOBROW29360 -1.000000
    SLACK41550 UPBROW29361 1.000000
    SLACK41551 LOBROW29362 -1.000000
    SLACK41552 UPBROW29363 1.000000
    SLACK41553 LOBROW29364 -1.000000
    SLACK41554 UPBROW29365 1.000000
    SLACK41555 LOBROW29366 -1.000000
    SLACK41556 UPBROW29367 1.000000
    SLACK41557 LOBROW29368 -1.000000
    SLACK41558 UPBROW29369 1.000000
    SLACK41559 LOBROW29370 -1.000000
    SLACK41560 UPBROW29371 1.000000
    SLACK41561 LOBROW29372 -1.000000
    SLACK41562 UPBROW29373 1.000000
    SLACK41563 LOBROW29374 -1.000000
    SLACK41564 UPBROW29375 1.000000
    SLACK41565 LOBROW29376 -1.000000
    SLACK41566 UPBROW29377 1.000000
    SLACK41567 LOBROW29378 -1.000000
    SLACK41568 UPBROW29379 1.000000
    SLACK41569 LOBROW29380 -1.000000
    SLACK41570 UPBROW29381 1.000000
    SLACK41571 LOBROW29382 -1.000000
    SLACK41572 UPBROW29383 1.000000
    SLACK41573 LOBROW29384 -1.000000
    SLACK41574 UPBROW29385 1.000000
    SLACK41575 LOBROW29386 -1.000000
    SLACK41576 UPBROW29387 1.000000
    SLACK41577 LOBROW29388 -1.000000
    SLACK41578 UPBROW29389 1.000000
    SLACK41579 LOBROW29390 -1.000000
    SLACK41580 UPBROW29391 1.000000
    SLACK41581 LOBROW29392 -1.000000
    SLACK41582 UPBROW29393 1.000000
    SLACK41583 LOBROW29394 -1.000000
    SLACK41584 UPBROW29395 1.000000
    SLACK41585 LOBROW29396 -1.000000
    SLACK41586 UPBROW29397 1.000000
    SLACK41587 LOBROW29398 -1.000000
    SLACK41588 UPBROW29399 1.000000
    SLACK41589 LOBROW29400 -1.000000
    SLACK41590 UPBROW29401 1.000000
    SLACK41591 LOBROW29402 -1.000000
    SLACK41592 UPBROW29403 1.000000
    SLACK41593 LOBROW29404 -1.000000
    SLACK41594 UPBROW29405 1.000000
    SLACK41595 LOBROW29406 -1.000000
    SLACK41596 UPBROW29407 1.000000
    SLACK41597 LOBROW29408 -1.000000
    SLACK41598 UPBROW29409 1.000000
    SLACK41599 LOBROW29410 -1.000000
    SLACK41600 UPBROW29411 1.000000
    SLACK41601 LOBROW29412 -1.000000
    SLACK41602 UPBROW29413 1.000000
    SLACK41603 LOBROW29414 -1.000000
    SLACK41604 UPBROW29415 1.000000
    SLACK41605 LOBROW29416 -1.000000
    SLACK41606 UPBROW29417 1.000000
    SLACK41607 LOBROW29418 -1.000000
    SLACK41608 UPBROW29419 1.000000
    SLACK41609 LOBROW29420 -1.000000
    SLACK41610 UPBROW29421 1.000000
    SLACK41611 LOBROW29422 -1.000000
    SLACK41612 UPBROW29423 1.000000
    SLACK41613 LOBROW29424 -1.000000
    SLACK41614 UPBROW29425 1.000000
    SLACK41615 LOBROW29426 -1.000000
    SLACK41616 UPBROW29427 1.000000
    SLACK41617 LOBROW29428 -1.000000
    SLACK41618 UPBROW29429 1.000000
    SLACK41619 LOBROW29430 -1.000000
    SLACK41620 UPBROW29431 1.000000
    SLACK41621 LOBROW29432 -1.000000
    SLACK41622 UPBROW29433 1.000000
    SLACK41623 LOBROW29434 -1.000000
    SLACK41624 UPBROW29435 1.000000
    SLACK41625 LOBROW29436 -1.000000
    SLACK41626 UPBROW29437 1.000000
    SLACK41627 LOBROW29438 -1.000000
    SLACK41628 UPBROW29439 1.000000
    SLACK41629 LOBROW29440 -1.000000
    SLACK41630 UPBROW29441 1.000000
    SLACK41631 LOBROW29442 -1.000000
    SLACK41632 UPBROW29443 1.000000
    SLACK41633 LOBROW29444 -1.000000
    SLACK41634 UPBROW29445 1.000000
    SLACK41635 LOBROW29446 -1.000000
    SLACK41636 UPBROW29447 1.000000
    SLACK41637 LOBROW29448 -1.000000
    SLACK41638 UPBROW29449 1.000000
    SLACK41639 LOBROW29450 -1.000000
    SLACK41640 UPBROW29451 1.000000
    SLACK41641 LOBROW29452 -1.000000
    SLACK41642 UPBROW29453 1.000000
    SLACK41643 LOBROW29454 -1.000000
    SLACK41644 UPBROW29455 1.000000
    SLACK41645 LOBROW29456 -1.000000
    SLACK41646 UPBROW29457 1.000000
    SLACK41647 LOBROW29458 -1.000000
    SLACK41648 UPBROW29459 1.000000
    SLACK41649 LOBROW29460 -1.000000
    SLACK41650 UPBROW29461 1.000000
    SLACK41651 LOBROW29462 -1.000000
    SLACK41652 UPBROW29463 1.000000
    SLACK41653 LOBROW29464 -1.000000
    SLACK41654 UPBROW29465 1.000000
    SLACK41655 LOBROW29466 -1.000000
    SLACK41656 UPBROW29467 1.000000
    SLACK41657 LOBROW29468 -1.000000
    SLACK41658 UPBROW29469 1.000000
    SLACK41659 LOBROW29470 -1.000000
    SLACK41660 UPBROW29471 1.000000
    SLACK41661 LOBROW29472 -1.000000
    SLACK41662 UPBROW29473 1.000000
    SLACK41663 LOBROW29474 -1.000000
    SLACK41664 UPBROW29475 1.000000
    SLACK41665 LOBROW29476 -1.000000
    SLACK41666 UPBROW29477 1.000000
    SLACK41667 LOBROW29478 -1.000000
    SLACK41668 UPBROW29479 1.000000
    SLACK41669 LOBROW29480 -1.000000
    SLACK41670 UPBROW29481 1.000000
    SLACK41671 LOBROW29482 -1.000000
    SLACK41672 UPBROW29483 1.000000
    SLACK41673 LOBROW29484 -1.000000
    SLACK41674 UPBROW29485 1.000000
    SLACK41675 LOBROW29486 -1.000000
    SLACK41676 UPBROW29487 1.000000
    SLACK41677 LOBROW29488 -1.000000
    SLACK41678 UPBROW29489 1.000000
    SLACK41679 LOBROW29490 -1.000000
    SLACK41680 UPBROW29491 1.000000
    SLACK41681 LOBROW29492 -1.000000
    SLACK41682 UPBROW29493 1.000000
    SLACK41683 LOBROW29494 -1.000000
    SLACK41684 UPBROW29495 1.000000
    SLACK41685 LOBROW29496 -1.000000
    SLACK41686 UPBROW29497 1.000000
    SLACK41687 LOBROW29498 -1.000000
    SLACK41688 UPBROW29499 1.000000
    SLACK41689 LOBROW29500 -1.000000
    SLACK41690 UPBROW29501 1.000000
    SLACK41691 LOBROW29502 -1.000000
    SLACK41692 UPBROW29503 1.000000
    SLACK41693 LOBROW29504 -1.000000
    SLACK41694 UPBROW29505 1.000000
    SLACK41695 LOBROW29506 -1.000000
    SLACK41696 UPBROW29507 1.000000
    SLACK41697 LOBROW29508 -1.000000
    SLACK41698 UPBROW29509 1.000000
    SLACK41699 LOBROW29510 -1.000000
    SLACK41700 UPBROW29511 1.000000
    SLACK41701 LOBROW29512 -1.000000
    SLACK41702 UPBROW29513 1.000000
    SLACK41703 LOBROW29514 -1.000000
    SLACK41704 UPBROW29515 1.000000
    SLACK41705 LOBROW29516 -1.000000
    SLACK41706 UPBROW29517 1.000000
    SLACK41707 LOBROW29518 -1.000000
    SLACK41708 UPBROW29519 1.000000
    SLACK41709 LOBROW29520 -1.000000
    SLACK41710 UPBROW29521 1.000000
    SLACK41711 LOBROW29522 -1.000000
    SLACK41712 UPBROW29523 1.000000
    SLACK41713 LOBROW29524 -1.000000
    SLACK41714 UPBROW29525 1.000000
    SLACK41715 LOBROW29526 -1.000000
    SLACK41716 UPBROW29527 1.000000
    SLACK41717 LOBROW29528 -1.000000
    SLACK41718 UPBROW29529 1.000000
    SLACK41719 LOBROW29530 -1.000000
    SLACK41720 UPBROW29531 1.000000
    SLACK41721 LOBROW29532 -1.000000
    SLACK41722 UPBROW29533 1.000000
    SLACK41723 LOBROW29534 -1.000000
    SLACK41724 UPBROW29535 1.000000
    SLACK41725 LOBROW29536 -1.000000
    SLACK41726 UPBROW29537 1.000000
    SLACK41727 LOBROW29538 -1.000000
    SLACK41728 UPBROW29539 1.000000
    SLACK41729 LOBROW29540 -1.000000
    SLACK41730 UPBROW29541 1.000000
    SLACK41731 LOBROW29542 -1.000000
    SLACK41732 UPBROW29543 1.000000
    SLACK41733 LOBROW29544 -1.000000
    SLACK41734 UPBROW29545 1.000000
    SLACK41735 LOBROW29546 -1.000000
    SLACK41736 UPBROW29547 1.000000
    SLACK41737 LOBROW29548 -1.000000
    SLACK41738 UPBROW29549 1.000000
    SLACK41739 LOBROW29550 -1.000000
    SLACK41740 UPBROW29551 1.000000
    SLACK41741 LOBROW29552 -1.000000
    SLACK41742 UPBROW29553 1.000000
    SLACK41743 LOBROW29554 -1.000000
    SLACK41744 UPBROW29555 1.000000
    SLACK41745 LOBROW29556 -1.000000
    SLACK41746 UPBROW29557 1.000000
    SLACK41747 LOBROW29558 -1.000000
    SLACK41748 UPBROW29559 1.000000
    SLACK41749 LOBROW29560 -1.000000
    SLACK41750 UPBROW29561 1.000000
    SLACK41751 LOBROW29562 -1.000000
    SLACK41752 UPBROW29563 1.000000
    SLACK41753 LOBROW29564 -1.000000
    SLACK41754 UPBROW29565 1.000000
    SLACK41755 LOBROW29566 -1.000000
    SLACK41756 UPBROW29567 1.000000
    SLACK41757 LOBROW29568 -1.000000
    SLACK41758 UPBROW29569 1.000000
    SLACK41759 LOBROW29570 -1.000000
    SLACK41760 UPBROW29571 1.000000
    SLACK41761 LOBROW29572 -1.000000
    SLACK41762 UPBROW29573 1.000000
    SLACK41763 LOBROW29574 -1.000000
    SLACK41764 UPBROW29575 1.000000
    SLACK41765 LOBROW29576 -1.000000
    SLACK41766 UPBROW29577 1.000000
    SLACK41767 LOBROW29578 -1.000000
    SLACK41768 UPBROW29579 1.000000
    SLACK41769 LOBROW29580 -1.000000
    SLACK41770 UPBROW29581 1.000000
    SLACK41771 LOBROW29582 -1.000000
    SLACK41772 UPBROW29583 1.000000
    SLACK41773 LOBROW29584 -1.000000
    SLACK41774 UPBROW29585 1.000000
    SLACK41775 LOBROW29586 -1.000000
    SLACK41776 UPBROW29587 1.000000
    SLACK41777 LOBROW29588 -1.000000
    SLACK41778 UPBROW29589 1.000000
    SLACK41779 LOBROW29590 -1.000000
    SLACK41780 UPBROW29591 1.000000
    SLACK41781 LOBROW29592 -1.000000
    SLACK41782 UPBROW29593 1.000000
    SLACK41783 LOBROW29594 -1.000000
    SLACK41784 UPBROW29595 1.000000
    SLACK41785 LOBROW29596 -1.000000
    SLACK41786 UPBROW29597 1.000000
    SLACK41787 LOBROW29598 -1.000000
    SLACK41788 UPBROW29599 1.000000
    SLACK41789 LOBROW29600 -1.000000
    SLACK41790 UPBROW29601 1.000000
    SLACK41791 LOBROW29602 -1.000000
    SLACK41792 UPBROW29603 1.000000
    SLACK41793 LOBROW29604 -1.000000
    SLACK41794 UPBROW29605 1.000000
    SLACK41795 LOBROW29606 -1.000000
    SLACK41796 UPBROW29607 1.000000
    SLACK41797 LOBROW29608 -1.000000
    SLACK41798 UPBROW29609 1.000000
    SLACK41799 LOBROW29610 -1.000000
    SLACK41800 UPBROW29611 1.000000
    SLACK41801 LOBROW29612 -1.000000
    SLACK41802 UPBROW29613 1.000000
    SLACK41803 LOBROW29614 -1.000000
    SLACK41804 UPBROW29615 1.000000
    SLACK41805 LOBROW29616 -1.000000
    SLACK41806 UPBROW29617 1.000000
    SLACK41807 LOBROW29618 -1.000000
    SLACK41808 UPBROW29619 1.000000
    SLACK41809 LOBROW29620 -1.000000
    SLACK41810 UPBROW29621 1.000000
    SLACK41811 LOBROW29622 -1.000000
    SLACK41812 UPBROW29623 1.000000
    SLACK41813 LOBROW29624 -1.000000
    SLACK41814 UPBROW29625 1.000000
    SLACK41815 LOBROW29626 -1.000000
    SLACK41816 UPBROW29627 1.000000
    SLACK41817 LOBROW29628 -1.000000
    SLACK41818 UPBROW29629 1.000000
    SLACK41819 LOBROW29630 -1.000000
    SLACK41820 UPBROW29631 1.000000
    SLACK41821 LOBROW29632 -1.000000
    SLACK41822 UPBROW29633 1.000000
    SLACK41823 LOBROW29634 -1.000000
    SLACK41824 UPBROW29635 1.000000
    SLACK41825 LOBROW29636 -1.000000
    SLACK41826 UPBROW29637 1.000000
    SLACK41827 LOBROW29638 -1.000000
    SLACK41828 UPBROW29639 1.000000
    SLACK41829 LOBROW29640 -1.000000
    SLACK41830 UPBROW29641 1.000000
    SLACK41831 LOBROW29642 -1.000000
    SLACK41832 UPBROW29643 1.000000
    SLACK41833 LOBROW29644 -1.000000
    SLACK41834 UPBROW29645 1.000000
    SLACK41835 LOBROW29646 -1.000000
    SLACK41836 UPBROW29647 1.000000
    SLACK41837 LOBROW29648 -1.000000
    SLACK41838 UPBROW29649 1.000000
    SLACK41839 LOBROW29650 -1.000000
    SLACK41840 UPBROW29651 1.000000
    SLACK41841 LOBROW29652 -1.000000
    SLACK41842 UPBROW29653 1.000000
    SLACK41843 LOBROW29654 -1.000000
    SLACK41844 UPBROW29655 1.000000
    SLACK41845 LOBROW29656 -1.000000
    SLACK41846 UPBROW29657 1.000000
    SLACK41847 LOBROW29658 -1.000000
    SLACK41848 UPBROW29659 1.000000
    SLACK41849 LOBROW29660 -1.000000
    SLACK41850 UPBROW29661 1.000000
    SLACK41851 LOBROW29662 -1.000000
    SLACK41852 UPBROW29663 1.000000
    SLACK41853 LOBROW29664 -1.000000
    SLACK41854 UPBROW29665 1.000000
    SLACK41855 LOBROW29666 -1.000000
    SLACK41856 UPBROW29667 1.000000
    SLACK41857 LOBROW29668 -1.000000
    SLACK41858 UPBROW29669 1.000000
    SLACK41859 LOBROW29670 -1.000000
    SLACK41860 UPBROW29671 1.000000
    SLACK41861 LOBROW29672 -1.000000
    SLACK41862 UPBROW29673 1.000000
    SLACK41863 LOBROW29674 -1.000000
    SLACK41864 UPBROW29675 1.000000
    SLACK41865 LOBROW29676 -1.000000
    SLACK41866 UPBROW29677 1.000000
    SLACK41867 LOBROW29678 -1.000000
    SLACK41868 UPBROW29679 1.000000
    SLACK41869 LOBROW29680 -1.000000
    SLACK41870 UPBROW29681 1.000000
    SLACK41871 LOBROW29682 -1.000000
    SLACK41872 UPBROW29683 1.000000
    SLACK41873 LOBROW29684 -1.000000
    SLACK41874 UPBROW29685 1.000000
    SLACK41875 LOBROW29686 -1.000000
    SLACK41876 UPBROW29687 1.000000
    SLACK41877 LOBROW29688 -1.000000
    SLACK41878 UPBROW29689 1.000000
    SLACK41879 LOBROW29690 -1.000000
    SLACK41880 UPBROW29691 1.000000
    SLACK41881 LOBROW29692 -1.000000
    SLACK41882 UPBROW29693 1.000000
    SLACK41883 LOBROW29694 -1.000000
    SLACK41884 UPBROW29695 1.000000
    SLACK41885 LOBROW29696 -1.000000
    SLACK41886 UPBROW29697 1.000000
    SLACK41887 LOBROW29698 -1.000000
    SLACK41888 UPBROW29699 1.000000
    SLACK41889 LOBROW29700 -1.000000
    SLACK41890 UPBROW29701 1.000000
    SLACK41891 LOBROW29702 -1.000000
    SLACK41892 UPBROW29703 1.000000
    SLACK41893 LOBROW29704 -1.000000
    SLACK41894 UPBROW29705 1.000000
    SLACK41895 LOBROW29706 -1.000000
    SLACK41896 UPBROW29707 1.000000
    SLACK41897 LOBROW29708 -1.000000
    SLACK41898 UPBROW29709 1.000000
    SLACK41899 LOBROW29710 -1.000000
    SLACK41900 UPBROW29711 1.000000
    SLACK41901 LOBROW29712 -1.000000
    SLACK41902 UPBROW29713 1.000000
    SLACK41903 LOBROW29714 -1.000000
    SLACK41904 UPBROW29715 1.000000
    SLACK41905 LOBROW29716 -1.000000
    SLACK41906 UPBROW29717 1.000000
    SLACK41907 LOBROW29718 -1.000000
    SLACK41908 UPBROW29719 1.000000
    SLACK41909 LOBROW29720 -1.000000
    SLACK41910 UPBROW29721 1.000000
    SLACK41911 LOBROW29722 -1.000000
    SLACK41912 UPBROW29723 1.000000
    SLACK41913 LOBROW29724 -1.000000
    SLACK41914 UPBROW29725 1.000000
    SLACK41915 LOBROW29726 -1.000000
    SLACK41916 UPBROW29727 1.000000
    SLACK41917 LOBROW29728 -1.000000
    SLACK41918 UPBROW29729 1.000000
    SLACK41919 LOBROW29730 -1.000000
    SLACK41920 UPBROW29731 1.000000
    SLACK41921 LOBROW29732 -1.000000
    SLACK41922 UPBROW29733 1.000000
    SLACK41923 LOBROW29734 -1.000000
    SLACK41924 UPBROW29735 1.000000
    SLACK41925 LOBROW29736 -1.000000
    SLACK41926 UPBROW29737 1.000000
    SLACK41927 LOBROW29738 -1.000000
    SLACK41928 UPBROW29739 1.000000
    SLACK41929 LOBROW29740 -1.000000
    SLACK41930 UPBROW29741 1.000000
    SLACK41931 LOBROW29742 -1.000000
    SLACK41932 UPBROW29743 1.000000
    SLACK41933 LOBROW29744 -1.000000
    SLACK41934 UPBROW29745 1.000000
    SLACK41935 LOBROW29746 -1.000000
    SLACK41936 UPBROW29747 1.000000
    SLACK41937 LOBROW29748 -1.000000
    SLACK41938 UPBROW29749 1.000000
    SLACK41939 LOBROW29750 -1.000000
    SLACK41940 UPBROW29751 1.000000
    SLACK41941 LOBROW29752 -1.000000
    SLACK41942 UPBROW29753 1.000000
    SLACK41943 LOBROW29754 -1.000000
    SLACK41944 UPBROW29755 1.000000
    SLACK41945 LOBROW29756 -1.000000
    SLACK41946 UPBROW29757 1.000000
    SLACK41947 LOBROW29758 -1.000000
    SLACK41948 UPBROW29759 1.000000
    SLACK41949 LOBROW29760 -1.000000
    SLACK41950 UPBROW29761 1.000000
    SLACK41951 LOBROW29762 -1.000000
    SLACK41952 UPBROW29763 1.000000
    SLACK41953 LOBROW29764 -1.000000
    SLACK41954 UPBROW29765 1.000000
    SLACK41955 LOBROW29766 -1.000000
    SLACK41956 UPBROW29767 1.000000
    SLACK41957 LOBROW29768 -1.000000
    SLACK41958 UPBROW29769 1.000000
    SLACK41959 LOBROW29770 -1.000000
    SLACK41960 UPBROW29771 1.000000
    SLACK41961 LOBROW29772 -1.000000
    SLACK41962 UPBROW29773 1.000000
    SLACK41963 LOBROW29774 -1.000000
    SLACK41964 UPBROW29775 1.000000
    SLACK41965 LOBROW29776 -1.000000
    SLACK41966 UPBROW29777 1.000000
    SLACK41967 LOBROW29778 -1.000000
    SLACK41968 UPBROW29779 1.000000
    SLACK41969 LOBROW29780 -1.000000
    SLACK41970 UPBROW29781 1.000000
    SLACK41971 LOBROW29782 -1.000000
    SLACK41972 UPBROW29783 1.000000
    SLACK41973 LOBROW29784 -1.000000
    SLACK41974 UPBROW29785 1.000000
    SLACK41975 LOBROW29786 -1.000000
    SLACK41976 UPBROW29787 1.000000
    SLACK41977 LOBROW29788 -1.000000
    SLACK41978 UPBROW29789 1.000000
    SLACK41979 LOBROW29790 -1.000000
    SLACK41980 UPBROW29791 1.000000
    SLACK41981 LOBROW29792 -1.000000
    SLACK41982 UPBROW29793 1.000000
    SLACK41983 LOBROW29794 -1.000000
    SLACK41984 UPBROW29795 1.000000
    SLACK41985 LOBROW29796 -1.000000
    SLACK41986 UPBROW29797 1.000000
    SLACK41987 LOBROW29798 -1.000000
    SLACK41988 UPBROW29799 1.000000
    SLACK41989 LOBROW29800 -1.000000
    SLACK41990 UPBROW29801 1.000000
    SLACK41991 LOBROW29802 -1.000000
    SLACK41992 UPBROW29803 1.000000
    SLACK41993 LOBROW29804 -1.000000
    SLACK41994 UPBROW29805 1.000000
    SLACK41995 LOBROW29806 -1.000000
    SLACK41996 UPBROW29807 1.000000
    SLACK41997 LOBROW29808 -1.000000
    SLACK41998 UPBROW29809 1.000000
    SLACK41999 LOBROW29810 -1.000000
    SLACK42000 UPBROW29811 1.000000
    SLACK42001 LOBROW29812 -1.000000
    SLACK42002 UPBROW29813 1.000000
    SLACK42003 LOBROW29814 -1.000000
    SLACK42004 UPBROW29815 1.000000
    SLACK42005 LOBROW29816 -1.000000
    SLACK42006 UPBROW29817 1.000000
    SLACK42007 LOBROW29818 -1.000000
    SLACK42008 UPBROW29819 1.000000
    SLACK42009 LOBROW29820 -1.000000
    SLACK42010 UPBROW29821 1.000000
    SLACK42011 LOBROW29822 -1.000000
    SLACK42012 UPBROW29823 1.000000
    SLACK42013 LOBROW29824 -1.000000
    SLACK42014 UPBROW29825 1.000000
    SLACK42015 LOBROW29826 -1.000000
    SLACK42016 UPBROW29827 1.000000
    SLACK42017 LOBROW29828 -1.000000
    SLACK42018 UPBROW29829 1.000000
    SLACK42019 LOBROW29830 -1.000000
    SLACK42020 UPBROW29831 1.000000
    SLACK42021 LOBROW29832 -1.000000
    SLACK42022 UPBROW29833 1.000000
    SLACK42023 LOBROW29834 -1.000000
    SLACK42024 UPBROW29835 1.000000
    SLACK42025 LOBROW29836 -1.000000
    SLACK42026 UPBROW29837 1.000000
    SLACK42027 LOBROW29838 -1.000000
    SLACK42028 UPBROW29839 1.000000
    SLACK42029 LOBROW29840 -1.000000
    SLACK42030 UPBROW29841 1.000000
    SLACK42031 LOBROW29842 -1.000000
    SLACK42032 UPBROW29843 1.000000
    SLACK42033 LOBROW29844 -1.000000
    SLACK42034 UPBROW29845 1.000000
    SLACK42035 LOBROW29846 -1.000000
    SLACK42036 UPBROW29847 1.000000
    SLACK42037 LOBROW29848 -1.000000
    SLACK42038 UPBROW29849 1.000000
    SLACK42039 LOBROW29850 -1.000000
    SLACK42040 UPBROW29851 1.000000
    SLACK42041 LOBROW29852 -1.000000
    SLACK42042 UPBROW29853 1.000000
    SLACK42043 LOBROW29854 -1.000000
    SLACK42044 UPBROW29855 1.000000
    SLACK42045 LOBROW29856 -1.000000
    SLACK42046 UPBROW29857 1.000000
    SLACK42047 LOBROW29858 -1.000000
    SLACK42048 UPBROW29859 1.000000
    SLACK42049 LOBROW29860 -1.000000
    SLACK42050 UPBROW29861 1.000000
    SLACK42051 LOBROW29862 -1.000000
    SLACK42052 UPBROW29863 1.000000
    SLACK42053 LOBROW29864 -1.000000
    SLACK42054 UPBROW29865 1.000000
    SLACK42055 LOBROW29866 -1.000000
    SLACK42056 UPBROW29867 1.000000
    SLACK42057 LOBROW29868 -1.000000
    SLACK42058 UPBROW29869 1.000000
    SLACK42059 LOBROW29870 -1.000000
    SLACK42060 UPBROW29871 1.000000
    SLACK42061 LOBROW29872 -1.000000
    SLACK42062 UPBROW29873 1.000000
    SLACK42063 LOBROW29874 -1.000000
    SLACK42064 UPBROW29875 1.000000
    SLACK42065 LOBROW29876 -1.000000
    SLACK42066 UPBROW29877 1.000000
    SLACK42067 LOBROW29878 -1.000000
    SLACK42068 UPBROW29879 1.000000
    SLACK42069 LOBROW29880 -1.000000
    SLACK42070 UPBROW29881 1.000000
    SLACK42071 LOBROW29882 -1.000000
    SLACK42072 UPBROW29883 1.000000
    SLACK42073 LOBROW29884 -1.000000
    SLACK42074 UPBROW29885 1.000000
    SLACK42075 LOBROW29886 -1.000000
    SLACK42076 UPBROW29887 1.000000
    SLACK42077 LOBROW29888 -1.000000
    SLACK42078 UPBROW29889 1.000000
    SLACK42079 LOBROW29890 -1.000000
    SLACK42080 UPBROW29891 1.000000
    SLACK42081 LOBROW29892 -1.000000
    SLACK42082 UPBROW29893 1.000000
    SLACK42083 LOBROW29894 -1.000000
    SLACK42084 UPBROW29895 1.000000
    SLACK42085 LOBROW29896 -1.000000
    SLACK42086 UPBROW29897 1.000000
    SLACK42087 LOBROW29898 -1.000000
    SLACK42088 UPBROW29899 1.000000
    SLACK42089 LOBROW29900 -1.000000
    SLACK42090 UPBROW29901 1.000000
    SLACK42091 LOBROW29902 -1.000000
    SLACK42092 UPBROW29903 1.000000
    SLACK42093 LOBROW29904 -1.000000
    SLACK42094 UPBROW29905 1.000000
    SLACK42095 LOBROW29906 -1.000000
    SLACK42096 UPBROW29907 1.000000
    SLACK42097 LOBROW29908 -1.000000
    SLACK42098 UPBROW29909 1.000000
    SLACK42099 LOBROW29910 -1.000000
    SLACK42100 UPBROW29911 1.000000
    SLACK42101 LOBROW29912 -1.000000
    SLACK42102 UPBROW29913 1.000000
    SLACK42103 LOBROW29914 -1.000000
    SLACK42104 UPBROW29915 1.000000
    SLACK42105 LOBROW29916 -1.000000
    SLACK42106 UPBROW29917 1.000000
    SLACK42107 LOBROW29918 -1.000000
    SLACK42108 UPBROW29919 1.000000
    SLACK42109 LOBROW29920 -1.000000
    SLACK42110 UPBROW29921 1.000000
    SLACK42111 LOBROW29922 -1.000000
    SLACK42112 UPBROW29923 1.000000
    SLACK42113 LOBROW29924 -1.000000
    SLACK42114 UPBROW29925 1.000000
    SLACK42115 LOBROW29926 -1.000000
    SLACK42116 UPBROW29927 1.000000
    SLACK42117 LOBROW29928 -1.000000
    SLACK42118 UPBROW29929 1.000000
    SLACK42119 LOBROW29930 -1.000000
    SLACK42120 UPBROW29931 1.000000
    SLACK42121 LOBROW29932 -1.000000
    SLACK42122 UPBROW29933 1.000000
    SLACK42123 LOBROW29934 -1.000000
    SLACK42124 UPBROW29935 1.000000
    SLACK42125 LOBROW29936 -1.000000
    SLACK42126 UPBROW29937 1.000000
    SLACK42127 LOBROW29938 -1.000000
    SLACK42128 UPBROW29939 1.000000
    SLACK42129 LOBROW29940 -1.000000
    SLACK42130 UPBROW29941 1.000000
    SLACK42131 LOBROW29942 -1.000000
    SLACK42132 UPBROW29943 1.000000
    SLACK42133 LOBROW29944 -1.000000
    SLACK42134 UPBROW29945 1.000000
    SLACK42135 LOBROW29946 -1.000000
    SLACK42136 UPBROW29947 1.000000
    SLACK42137 LOBROW29948 -1.000000
    SLACK42138 UPBROW29949 1.000000
    SLACK42139 LOBROW29950 -1.000000
    SLACK42140 UPBROW29951 1.000000
    SLACK42141 LOBROW29952 -1.000000
    SLACK42142 UPBROW29953 1.000000
    SLACK42143 LOBROW29954 -1.000000
    SLACK42144 UPBROW29955 1.000000
    SLACK42145 LOBROW29956 -1.000000
    SLACK42146 UPBROW29957 1.000000
    SLACK42147 LOBROW29958 -1.000000
    SLACK42148 UPBROW29959 1.000000
    SLACK42149 LOBROW29960 -1.000000
    SLACK42150 UPBROW29961 1.000000
    SLACK42151 LOBROW29962 -1.000000
    SLACK42152 UPBROW29963 1.000000
    SLACK42153 LOBROW29964 -1.000000
    SLACK42154 UPBROW29965 1.000000
    SLACK42155 LOBROW29966 -1.000000
    SLACK42156 UPBROW29967 1.000000
    SLACK42157 LOBROW29968 -1.000000
    SLACK42158 UPBROW29969 1.000000
    SLACK42159 LOBROW29970 -1.000000
    SLACK42160 UPBROW29971 1.000000
    SLACK42161 LOBROW29972 -1.000000
    SLACK42162 UPBROW29973 1.000000
    SLACK42163 LOBROW29974 -1.000000
    SLACK42164 UPBROW29975 1.000000
    SLACK42165 LOBROW29976 -1.000000
    SLACK42166 UPBROW29977 1.000000
    SLACK42167 LOBROW29978 -1.000000
    SLACK42168 UPBROW29979 1.000000
    SLACK42169 LOBROW29980 -1.000000
    SLACK42170 UPBROW29981 1.000000
    SLACK42171 LOBROW29982 -1.000000
    SLACK42172 UPBROW29983 1.000000
    SLACK42173 LOBROW29984 -1.000000
    SLACK42174 UPBROW29985 1.000000
    SLACK42175 LOBROW29986 -1.000000
    SLACK42176 UPBROW29987 1.000000
    SLACK42177 LOBROW29988 -1.000000
    SLACK42178 UPBROW29989 1.000000
    SLACK42179 LOBROW29990 -1.000000
    SLACK42180 UPBROW29991 1.000000
    SLACK42181 LOBROW29992 -1.000000
    SLACK42182 UPBROW29993 1.000000
    SLACK42183 LOBROW29994 -1.000000
    SLACK42184 UPBROW29995 1.000000
    SLACK42185 LOBROW29996 -1.000000
    SLACK42186 UPBROW29997 1.000000
    SLACK42187 LOBROW29998 -1.000000
    SLACK42188 UPBROW29999 1.000000
    SLACK42189 LOBROW30000 -1.000000
    SLACK42190 UPBROW30001 1.000000
    SLACK42191 LOBROW30002 -1.000000
    SLACK42192 UPBROW30003 1.000000
    SLACK42193 LOBROW30004 -1.000000
    SLACK42194 UPBROW30005 1.000000
    SLACK42195 LOBROW30006 -1.000000
    SLACK42196 UPBROW30007 1.000000
    SLACK42197 LOBROW30008 -1.000000
    SLACK42198 UPBROW30009 1.000000
    SLACK42199 LOBROW30010 -1.000000
    SLACK42200 UPBROW30011 1.000000
    SLACK42201 LOBROW30012 -1.000000
    SLACK42202 UPBROW30013 1.000000
    SLACK42203 LOBROW30014 -1.000000
    SLACK42204 UPBROW30015 1.000000
    SLACK42205 LOBROW30016 -1.000000
    SLACK42206 UPBROW30017 1.000000
    SLACK42207 LOBROW30018 -1.000000
    SLACK42208 UPBROW30019 1.000000
    SLACK42209 LOBROW30020 -1.000000
    SLACK42210 UPBROW30021 1.000000
    SLACK42211 LOBROW30022 -1.000000
    SLACK42212 UPBROW30023 1.000000
    SLACK42213 LOBROW30024 -1.000000
    SLACK42214 UPBROW30025 1.000000
    SLACK42215 LOBROW30026 -1.000000
    SLACK42216 UPBROW30027 1.000000
    SLACK42217 LOBROW30028 -1.000000
    SLACK42218 UPBROW30029 1.000000
    SLACK42219 LOBROW30030 -1.000000
    SLACK42220 UPBROW30031 1.000000
    SLACK42221 LOBROW30032 -1.000000
    SLACK42222 UPBROW30033 1.000000
    SLACK42223 LOBROW30034 -1.000000
    SLACK42224 UPBROW30035 1.000000
    SLACK42225 LOBROW30036 -1.000000
    SLACK42226 UPBROW30037 1.000000
    SLACK42227 LOBROW30038 -1.000000
    SLACK42228 UPBROW30039 1.000000
    SLACK42229 LOBROW30040 -1.000000
    SLACK42230 UPBROW30041 1.000000
    SLACK42231 LOBROW30042 -1.000000
    SLACK42232 UPBROW30043 1.000000
    SLACK42233 LOBROW30044 -1.000000
    SLACK42234 UPBROW30045 1.000000
    SLACK42235 LOBROW30046 -1.000000
    SLACK42236 UPBROW30047 1.000000
    SLACK42237 LOBROW30048 -1.000000
    SLACK42238 UPBROW30049 1.000000
    SLACK42239 LOBROW30050 -1.000000
    SLACK42240 UPBROW30051 1.000000
    SLACK42241 LOBROW30052 -1.000000
    SLACK42242 UPBROW30053 1.000000
    SLACK42243 LOBROW30054 -1.000000
    SLACK42244 UPBROW30055 1.000000
    SLACK42245 LOBROW30056 -1.000000
    SLACK42246 UPBROW30057 1.000000
    SLACK42247 LOBROW30058 -1.000000
    SLACK42248 UPBROW30059 1.000000
    SLACK42249 LOBROW30060 -1.000000
    SLACK42250 UPBROW30061 1.000000
    SLACK42251 LOBROW30062 -1.000000
    SLACK42252 UPBROW30063 1.000000
    SLACK42253 LOBROW30064 -1.000000
    SLACK42254 UPBROW30065 1.000000
    SLACK42255 LOBROW30066 -1.000000
    SLACK42256 UPBROW30067 1.000000
    SLACK42257 LOBROW30068 -1.000000
    SLACK42258 UPBROW30069 1.000000
    SLACK42259 LOBROW30070 -1.000000
    SLACK42260 UPBROW30071 1.000000
    SLACK42261 LOBROW30072 -1.000000
    SLACK42262 UPBROW30073 1.000000
    SLACK42263 LOBROW30074 -1.000000
    SLACK42264 UPBROW30075 1.000000
    SLACK42265 LOBROW30076 -1.000000
    SLACK42266 UPBROW30077 1.000000
    SLACK42267 LOBROW30078 -1.000000
    SLACK42268 UPBROW30079 1.000000
    SLACK42269 LOBROW30080 -1.000000
    SLACK42270 UPBROW30081 1.000000
    SLACK42271 LOBROW30082 -1.000000
    SLACK42272 UPBROW30083 1.000000
    SLACK42273 LOBROW30084 -1.000000
    SLACK42274 UPBROW30085 1.000000
    SLACK42275 LOBROW30086 -1.000000
    SLACK42276 UPBROW30087 1.000000
    SLACK42277 LOBROW30088 -1.000000
    SLACK42278 UPBROW30089 1.000000
    SLACK42279 LOBROW30090 -1.000000
    SLACK42280 UPBROW30091 1.000000
    SLACK42281 LOBROW30092 -1.000000
    SLACK42282 UPBROW30093 1.000000
    SLACK42283 LOBROW30094 -1.000000
    SLACK42284 UPBROW30095 1.000000
    SLACK42285 LOBROW30096 -1.000000
    SLACK42286 UPBROW30097 1.000000
    SLACK42287 LOBROW30098 -1.000000
    SLACK42288 UPBROW30099 1.000000
    SLACK42289 LOBROW30100 -1.000000
    SLACK42290 UPBROW30101 1.000000
    SLACK42291 LOBROW30102 -1.000000
    SLACK42292 UPBROW30103 1.000000
    SLACK42293 LOBROW30104 -1.000000
    SLACK42294 UPBROW30105 1.000000
    SLACK42295 LOBROW30106 -1.000000
    SLACK42296 UPBROW30107 1.000000
    SLACK42297 LOBROW30108 -1.000000
    SLACK42298 UPBROW30109 1.000000
    SLACK42299 LOBROW30110 -1.000000
    SLACK42300 UPBROW30111 1.000000
    SLACK42301 LOBROW30112 -1.000000
    SLACK42302 UPBROW30113 1.000000
    SLACK42303 LOBROW30114 -1.000000
    SLACK42304 UPBROW30115 1.000000
    SLACK42305 LOBROW30116 -1.000000
    SLACK42306 UPBROW30117 1.000000
    SLACK42307 LOBROW30118 -1.000000
    SLACK42308 UPBROW30119 1.000000
    SLACK42309 LOBROW30120 -1.000000
    SLACK42310 UPBROW30121 1.000000
    SLACK42311 LOBROW30122 -1.000000
    SLACK42312 UPBROW30123 1.000000
    SLACK42313 LOBROW30124 -1.000000
    SLACK42314 UPBROW30125 1.000000
    SLACK42315 LOBROW30126 -1.000000
    SLACK42316 UPBROW30127 1.000000
    SLACK42317 LOBROW30128 -1.000000
    SLACK42318 UPBROW30129 1.000000
    SLACK42319 LOBROW30130 -1.000000
    SLACK42320 UPBROW30131 1.000000
    SLACK42321 LOBROW30132 -1.000000
    SLACK42322 UPBROW30133 1.000000
    SLACK42323 LOBROW30134 -1.000000
    SLACK42324 UPBROW30135 1.000000
    SLACK42325 LOBROW30136 -1.000000
    SLACK42326 UPBROW30137 1.000000
    SLACK42327 LOBROW30138 -1.000000
    SLACK42328 UPBROW30139 1.000000
    SLACK42329 LOBROW30140 -1.000000
    SLACK42330 UPBROW30141 1.000000
    SLACK42331 LOBROW30142 -1.000000
    SLACK42332 UPBROW30143 1.000000
    SLACK42333 LOBROW30144 -1.000000
    SLACK42334 UPBROW30145 1.000000
    SLACK42335 LOBROW30146 -1.000000
    SLACK42336 UPBROW30147 1.000000
    SLACK42337 LOBROW30148 -1.000000
    SLACK42338 UPBROW30149 1.000000
    SLACK42339 LOBROW30150 -1.000000
    SLACK42340 UPBROW30151 1.000000
    SLACK42341 LOBROW30152 -1.000000
    SLACK42342 UPBROW30153 1.000000
    SLACK42343 LOBROW30154 -1.000000
    SLACK42344 UPBROW30155 1.000000
    SLACK42345 LOBROW30156 -1.000000
    SLACK42346 UPBROW30157 1.000000
    SLACK42347 LOBROW30158 -1.000000
    SLACK42348 UPBROW30159 1.000000
    SLACK42349 LOBROW30160 -1.000000
    SLACK42350 UPBROW30161 1.000000
    SLACK42351 LOBROW30162 -1.000000
    SLACK42352 UPBROW30163 1.000000
    SLACK42353 LOBROW30164 -1.000000
    SLACK42354 UPBROW30165 1.000000
    SLACK42355 LOBROW30166 -1.000000
    SLACK42356 UPBROW30167 1.000000
    SLACK42357 LOBROW30168 -1.000000
    SLACK42358 UPBROW30169 1.000000
    SLACK42359 LOBROW30170 -1.000000
    SLACK42360 UPBROW30171 1.000000
    SLACK42361 LOBROW30172 -1.000000
    SLACK42362 UPBROW30173 1.000000
    SLACK42363 LOBROW30174 -1.000000
    SLACK42364 UPBROW30175 1.000000
    SLACK42365 LOBROW30176 -1.000000
    SLACK42366 UPBROW30177 1.000000
    SLACK42367 LOBROW30178 -1.000000
    SLACK42368 UPBROW30179 1.000000
    SLACK42369 LOBROW30180 -1.000000
    SLACK42370 UPBROW30181 1.000000
    SLACK42371 LOBROW30182 -1.000000
    SLACK42372 UPBROW30183 1.000000
    SLACK42373 LOBROW30184 -1.000000
    SLACK42374 UPBROW30185 1.000000
    SLACK42375 LOBROW30186 -1.000000
    SLACK42376 UPBROW30187 1.000000
    SLACK42377 LOBROW30188 -1.000000
    SLACK42378 UPBROW30189 1.000000
    SLACK42379 LOBROW30190 -1.000000
    SLACK42380 UPBROW30191 1.000000
    SLACK42381 LOBROW30192 -1.000000
    SLACK42382 UPBROW30193 1.000000
    SLACK42383 LOBROW30194 -1.000000
    SLACK42384 UPBROW30195 1.000000
    SLACK42385 LOBROW30196 -1.000000
    SLACK42386 UPBROW30197 1.000000
    SLACK42387 LOBROW30198 -1.000000
    SLACK42388 UPBROW30199 1.000000
    SLACK42389 LOBROW30200 -1.000000
    SLACK42390 UPBROW30201 1.000000
    SLACK42391 LOBROW30202 -1.000000
    SLACK42392 UPBROW30203 1.000000
    SLACK42393 LOBROW30204 -1.000000
    SLACK42394 UPBROW30205 1.000000
    SLACK42395 LOBROW30206 -1.000000
    SLACK42396 UPBROW30207 1.000000
    SLACK42397 LOBROW30208 -1.000000
    SLACK42398 UPBROW30209 1.000000
    SLACK42399 LOBROW30210 -1.000000
    SLACK42400 UPBROW30211 1.000000
    SLACK42401 LOBROW30212 -1.000000
    SLACK42402 UPBROW30213 1.000000
    SLACK42403 LOBROW30214 -1.000000
    SLACK42404 UPBROW30215 1.000000
    SLACK42405 LOBROW30216 -1.000000
    SLACK42406 UPBROW30217 1.000000
    SLACK42407 LOBROW30218 -1.000000
    SLACK42408 UPBROW30219 1.000000
    SLACK42409 LOBROW30220 -1.000000
    SLACK42410 UPBROW30221 1.000000
    SLACK42411 LOBROW30222 -1.000000
    SLACK42412 UPBROW30223 1.000000
    SLACK42413 LOBROW30224 -1.000000
    SLACK42414 UPBROW30225 1.000000
    SLACK42415 LOBROW30226 -1.000000
    SLACK42416 UPBROW30227 1.000000
    SLACK42417 LOBROW30228 -1.000000
    SLACK42418 UPBROW30229 1.000000
    SLACK42419 LOBROW30230 -1.000000
    SLACK42420 UPBROW30231 1.000000
    SLACK42421 LOBROW30232 -1.000000
    SLACK42422 UPBROW30233 1.000000
    SLACK42423 LOBROW30234 -1.000000
    SLACK42424 UPBROW30235 1.000000
    SLACK42425 LOBROW30236 -1.000000
    SLACK42426 UPBROW30237 1.000000
    SLACK42427 LOBROW30238 -1.000000
    SLACK42428 UPBROW30239 1.000000
    SLACK42429 LOBROW30240 -1.000000
    SLACK42430 UPBROW30241 1.000000
    SLACK42431 LOBROW30242 -1.000000
    SLACK42432 UPBROW30243 1.000000
    SLACK42433 LOBROW30244 -1.000000
    SLACK42434 UPBROW30245 1.000000
    SLACK42435 LOBROW30246 -1.000000
    SLACK42436 UPBROW30247 1.000000
    SLACK42437 LOBROW30248 -1.000000
    SLACK42438 UPBROW30249 1.000000
    SLACK42439 LOBROW30250 -1.000000
    SLACK42440 UPBROW30251 1.000000
    SLACK42441 LOBROW30252 -1.000000
    SLACK42442 UPBROW30253 1.000000
    SLACK42443 LOBROW30254 -1.000000
    SLACK42444 UPBROW30255 1.000000
    SLACK42445 LOBROW30256 -1.000000
    SLACK42446 UPBROW30257 1.000000
    SLACK42447 LOBROW30258 -1.000000
    SLACK42448 UPBROW30259 1.000000
    SLACK42449 LOBROW30260 -1.000000
    SLACK42450 UPBROW30261 1.000000
    SLACK42451 LOBROW30262 -1.000000
    SLACK42452 UPBROW30263 1.000000
    SLACK42453 LOBROW30264 -1.000000
    SLACK42454 UPBROW30265 1.000000
    SLACK42455 LOBROW30266 -1.000000
    SLACK42456 UPBROW30267 1.000000
    SLACK42457 LOBROW30268 -1.000000
    SLACK42458 UPBROW30269 1.000000
    SLACK42459 LOBROW30270 -1.000000
    SLACK42460 UPBROW30271 1.000000
    SLACK42461 LOBROW30272 -1.000000
    SLACK42462 UPBROW30273 1.000000
    SLACK42463 LOBROW30274 -1.000000
    SLACK42464 UPBROW30275 1.000000
    SLACK42465 LOBROW30276 -1.000000
    SLACK42466 UPBROW30277 1.000000
    SLACK42467 LOBROW30278 -1.000000
    SLACK42468 UPBROW30279 1.000000
    SLACK42469 LOBROW30280 -1.000000
    SLACK42470 UPBROW30281 1.000000
    SLACK42471 LOBROW30282 -1.000000
    SLACK42472 UPBROW30283 1.000000
    SLACK42473 LOBROW30284 -1.000000
    SLACK42474 UPBROW30285 1.000000
    SLACK42475 LOBROW30286 -1.000000
    SLACK42476 UPBROW30287 1.000000
    SLACK42477 LOBROW30288 -1.000000
    SLACK42478 UPBROW30289 1.000000
    SLACK42479 LOBROW30290 -1.000000
    SLACK42480 UPBROW30291 1.000000
    SLACK42481 LOBROW30292 -1.000000
    SLACK42482 UPBROW30293 1.000000
    SLACK42483 LOBROW30294 -1.000000
    SLACK42484 UPBROW30295 1.000000
    SLACK42485 LOBROW30296 -1.000000
    SLACK42486 UPBROW30297 1.000000
    SLACK42487 LOBROW30298 -1.000000
    SLACK42488 UPBROW30299 1.000000
    SLACK42489 LOBROW30300 -1.000000
    SLACK42490 UPBROW30301 1.000000
    SLACK42491 LOBROW30302 -1.000000
    SLACK42492 UPBROW30303 1.000000
    SLACK42493 LOBROW30304 -1.000000
    SLACK42494 UPBROW30305 1.000000
    SLACK42495 LOBROW30306 -1.000000
    SLACK42496 UPBROW30307 1.000000
    SLACK42497 LOBROW30308 -1.000000
    SLACK42498 UPBROW30309 1.000000
    SLACK42499 LOBROW30310 -1.000000
    SLACK42500 UPBROW30311 1.000000
    SLACK42501 LOBROW30312 -1.000000
    SLACK42502 UPBROW30313 1.000000
    SLACK42503 LOBROW30314 -1.000000
    SLACK42504 UPBROW30315 1.000000
    SLACK42505 LOBROW30316 -1.000000
    SLACK42506 UPBROW30317 1.000000
    SLACK42507 LOBROW30318 -1.000000
    SLACK42508 UPBROW30319 1.000000
    SLACK42509 LOBROW30320 -1.000000
    SLACK42510 UPBROW30321 1.000000
    SLACK42511 LOBROW30322 -1.000000
    SLACK42512 UPBROW30323 1.000000
    SLACK42513 LOBROW30324 -1.000000
    SLACK42514 UPBROW30325 1.000000
    SLACK42515 LOBROW30326 -1.000000
    SLACK42516 UPBROW30327 1.000000
RHS
    RHS1     VILLKOR1 90.000000
    RHS1     VILLKOR2 5.000000
    RHS1     VILLKOR3 4.000000
    RHS1     VILLKOR4 2.500000
    RHS1     VILLKOR5 10.000000
    RHS1     VILLKOR6 1.500000
    RHS1     VILLKOR7 20.000000
    RHS1     VILLKOR8 7.500000
    RHS1     VILLKOR9 40.000000
    RANGE1   VILLKOR2 7.000000
    RANGE1   VILLKOR3 7.000000
    RANGE1   VILLKOR4 3.500000
    RANGE1   VILLKOR5 10.000000
    RANGE1   VILLKOR6 2.500000
    RANGE1   VILLKOR7 30.000000
    RANGE1   VILLKOR8 7.500000
    BOUNDRHS LOBROW29314 0.500000
    BOUNDRHS UPBROW29315 2.000000
    BOUNDRHS LOBROW29316 0.000000
    BOUNDRHS UPBROW29317 3.010000
    BOUNDRHS LOBROW29318 0.000000
    BOUNDRHS UPBROW29319 6.520000
    BOUNDRHS LOBROW29320 0.000000
    BOUNDRHS UPBROW29321 34.020000
    BOUNDRHS LOBROW29322 0.000000
    BOUNDRHS UPBROW29323 0.580000
    BOUNDRHS LOBROW29324 0.000000
    BOUNDRHS UPBROW29325 25.680000
    BOUNDRHS LOBROW29326 0.000000
    BOUNDRHS UPBROW29327 2.590000
    BOUNDRHS LOBROW29328 0.000000
    BOUNDRHS UPBROW29329 61.210000
    BOUNDRHS LOBROW29330 0.000000
    BOUNDRHS UPBROW29331 294.900000
    BOUNDRHS LOBROW29332 0.000000
    BOUNDRHS UPBROW29333 303.760000
    BOUNDRHS LOBROW29334 0.000000
    BOUNDRHS UPBROW29335 309.000000
    BOUNDRHS LOBROW29336 0.000000
    BOUNDRHS UPBROW29337 145.250000
    BOUNDRHS LOBROW29338 0.000000
    BOUNDRHS UPBROW29339 296.890000
    BOUNDRHS LOBROW29340 0.000000
    BOUNDRHS UPBROW29341 303.980000
    BOUNDRHS LOBROW29342 0.000000
    BOUNDRHS UPBROW29343 198.350000
    BOUNDRHS LOBROW29344 0.000000
    BOUNDRHS UPBROW29345 305.100000
    BOUNDRHS LOBROW29346 0.000000
    BOUNDRHS UPBROW29347 203.830000
    BOUNDRHS LOBROW29348 0.000000
    BOUNDRHS UPBROW29349 271.130000
    BOUNDRHS LOBROW29350 0.000000
    BOUNDRHS UPBROW29351 757.000000
    BOUNDRHS LOBROW29352 0.000000
    BOUNDRHS UPBROW29353 10.000000
    BOUNDRHS LOBROW29354 0.000000
    BOUNDRHS UPBROW29355 52.550000
    BOUNDRHS LOBROW29356 0.000000
    BOUNDRHS UPBROW29357 24.330000
    BOUNDRHS LOBROW29358 0.000000
    BOUNDRHS UPBROW29359 26.840000
    BOUNDRHS LOBROW29360 0.000000
    BOUNDRHS UPBROW29361 15.150000
    BOUNDRHS LOBROW29362 0.000000
    BOUNDRHS UPBROW29363 149.150000
    BOUNDRHS LOBROW29364 0.000000
    BOUNDRHS UPBROW29365 578.450000
    BOUNDRHS LOBROW29366 0.000000
    BOUNDRHS UPBROW29367 614.280000
    BOUNDRHS LOBROW29368 0.000000
    BOUNDRHS UPBROW29369 595.800000
    BOUNDRHS LOBROW29370 0.000000
    BOUNDRHS UPBROW29371 604.240000
    BOUNDRHS LOBROW29372 0.000000
    BOUNDRHS UPBROW29373 164.860000
    BOUNDRHS LOBROW29374 0.000000
    BOUNDRHS UPBROW29375 23.260000
    BOUNDRHS LOBROW29376 0.000000
    BOUNDRHS UPBROW29377 985.410000
    BOUNDRHS LOBROW29378 0.000000
    BOUNDRHS UPBROW29379 682.360000
    BOUNDRHS LOBROW29380 0.000000
    BOUNDRHS UPBROW29381 111.960000
    BOUNDRHS LOBROW29382 0.000000
    BOUNDRHS UPBROW29383 82.330000
    BOUNDRHS LOBROW29384 0.000000
    BOUNDRHS UPBROW29385 35.900000
    BOUNDRHS LOBROW29386 0.000000
    BOUNDRHS UPBROW29387 578.340000
    BOUNDRHS LOBROW29388 0.000000
    BOUNDRHS UPBROW29389 537.900000
    BOUNDRHS LOBROW29390 0.000000
    BOUNDRHS UPBROW29391 106.410000
    BOUNDRHS LOBROW29392 0.000000
    BOUNDRHS UPBROW29393 226.010000
    BOUNDRHS LOBROW29394 0.000000
    BOUNDRHS UPBROW29395 218.250000
    BOUNDRHS LOBROW29396 0.000000
    BOUNDRHS UPBROW29397 8.000000
    BOUNDRHS LOBROW29398 0.000000
    BOUNDRHS UPBROW29399 33.580000
    BOUNDRHS LOBROW29400 0.000000
    BOUNDRHS UPBROW29401 35.270000
    BOUNDRHS LOBROW29402 0.000000
    BOUNDRHS UPBROW29403 21.410000
    BOUNDRHS LOBROW29404 0.000000
    BOUNDRHS UPBROW29405 29.100000
    BOUNDRHS LOBROW29406 0.000000
    BOUNDRHS UPBROW29407 34.060000
    BOUNDRHS LOBROW29408 0.000000
    BOUNDRHS UPBROW29409 120.530000
    BOUNDRHS LOBROW29410 0.000000
    BOUNDRHS UPBROW29411 90.130000
    BOUNDRHS LOBROW29412 0.000000
    BOUNDRHS UPBROW29413 11.590000
    BOUNDRHS LOBROW29414 0.000000
    BOUNDRHS UPBROW29415 71.200000
    BOUNDRHS LOBROW29416 0.000000
    BOUNDRHS UPBROW29417 50.060000
    BOUNDRHS LOBROW29418 0.000000
    BOUNDRHS UPBROW29419 54.560000
    BOUNDRHS LOBROW29420 0.000000
    BOUNDRHS UPBROW29421 16.340000
    BOUNDRHS LOBROW29422 0.000000
    BOUNDRHS UPBROW29423 41.940000
    BOUNDRHS LOBROW29424 0.000000
    BOUNDRHS UPBROW29425 17.040000
    BOUNDRHS LOBROW29426 0.000000
    BOUNDRHS UPBROW29427 7.150000
    BOUNDRHS LOBROW29428 0.000000
    BOUNDRHS UPBROW29429 21.200000
    BOUNDRHS LOBROW29430 0.000000
    BOUNDRHS UPBROW29431 244.080000
    BOUNDRHS LOBROW29432 0.000000
    BOUNDRHS UPBROW29433 77.300000
    BOUNDRHS LOBROW29434 0.000000
    BOUNDRHS UPBROW29435 40.500000
    BOUNDRHS LOBROW29436 0.000000
    BOUNDRHS UPBROW29437 466.100000
    BOUNDRHS LOBROW29438 0.000000
    BOUNDRHS UPBROW29439 679.700000
    BOUNDRHS LOBROW29440 0.000000
    BOUNDRHS UPBROW29441 701.860000
    BOUNDRHS LOBROW29442 0.000000
    BOUNDRHS UPBROW29443 894.680000
    BOUNDRHS LOBROW29444 0.000000
    BOUNDRHS UPBROW29445 502.600000
    BOUNDRHS LOBROW29446 0.000000
    BOUNDRHS UPBROW29447 3.120000
    BOUNDRHS LOBROW29448 0.000000
    BOUNDRHS UPBROW29449 164.920000
    BOUNDRHS LOBROW29450 0.000000
    BOUNDRHS UPBROW29451 107.040000
    BOUNDRHS LOBROW29452 0.000000
    BOUNDRHS UPBROW29453 77.070000
    BOUNDRHS LOBROW29454 0.000000
    BOUNDRHS UPBROW29455 129.790000
    BOUNDRHS LOBROW29456 0.000000
    BOUNDRHS UPBROW29457 306.870000
    BOUNDRHS LOBROW29458 0.000000
    BOUNDRHS UPBROW29459 292.600000
    BOUNDRHS LOBROW29460 0.000000
    BOUNDRHS UPBROW29461 90.640000
    BOUNDRHS LOBROW29462 0.000000
    BOUNDRHS UPBROW29463 187.600000
    BOUNDRHS LOBROW29464 0.000000
    BOUNDRHS UPBROW29465 267.490000
    BOUNDRHS LOBROW29466 0.000000
    BOUNDRHS UPBROW29467 336.390000
    BOUNDRHS LOBROW29468 0.000000
    BOUNDRHS UPBROW29469 142.580000
    BOUNDRHS LOBROW29470 0.000000
    BOUNDRHS UPBROW29471 19.400000
    BOUNDRHS LOBROW29472 0.000000
    BOUNDRHS UPBROW29473 10.200000
    BOUNDRHS LOBROW29474 0.000000
    BOUNDRHS UPBROW29475 169.720000
    BOUNDRHS LOBROW29476 0.000000
    BOUNDRHS UPBROW29477 22.450000
    BOUNDRHS LOBROW29478 0.000000
    BOUNDRHS UPBROW29479 452.590000
    BOUNDRHS LOBROW29480 0.000000
    BOUNDRHS UPBROW29481 484.700000
    BOUNDRHS LOBROW29482 0.000000
    BOUNDRHS UPBROW29483 463.910000
    BOUNDRHS LOBROW29484 0.000000
    BOUNDRHS UPBROW29485 623.010000
    BOUNDRHS LOBROW29486 0.000000
    BOUNDRHS UPBROW29487 174.990000
    BOUNDRHS LOBROW29488 0.000000
    BOUNDRHS UPBROW29489 12.410000
    BOUNDRHS LOBROW29490 0.000000
    BOUNDRHS UPBROW29491 394.880000
    BOUNDRHS LOBROW29492 0.000000
    BOUNDRHS UPBROW29493 29.810000
    BOUNDRHS LOBROW29494 0.000000
    BOUNDRHS UPBROW29495 22.770000
    BOUNDRHS LOBROW29496 0.000000
    BOUNDRHS UPBROW29497 21.760000
    BOUNDRHS LOBROW29498 0.000000
    BOUNDRHS UPBROW29499 13.770000
    BOUNDRHS LOBROW29500 0.000000
    BOUNDRHS UPBROW29501 58.800000
    BOUNDRHS LOBROW29502 0.000000
    BOUNDRHS UPBROW29503 64.850000
    BOUNDRHS LOBROW29504 0.000000
    BOUNDRHS UPBROW29505 42.640000
    BOUNDRHS LOBROW29506 0.000000
    BOUNDRHS UPBROW29507 19.830000
    BOUNDRHS LOBROW29508 0.000000
    BOUNDRHS UPBROW29509 270.510000
    BOUNDRHS LOBROW29510 0.000000
    BOUNDRHS UPBROW29511 132.110000
    BOUNDRHS LOBROW29512 0.000000
    BOUNDRHS UPBROW29513 81.440000
    BOUNDRHS LOBROW29514 0.000000
    BOUNDRHS UPBROW29515 34.410000
    BOUNDRHS LOBROW29516 0.000000
    BOUNDRHS UPBROW29517 36.980000
    BOUNDRHS LOBROW29518 0.000000
    BOUNDRHS UPBROW29519 44.520000
    BOUNDRHS LOBROW29520 0.000000
    BOUNDRHS UPBROW29521 18.360000
    BOUNDRHS LOBROW29522 0.000000
    BOUNDRHS UPBROW29523 48.890000
    BOUNDRHS LOBROW29524 0.000000
    BOUNDRHS UPBROW29525 74.120000
    BOUNDRHS LOBROW29526 0.000000
    BOUNDRHS UPBROW29527 273.830000
    BOUNDRHS LOBROW29528 0.000000
    BOUNDRHS UPBROW29529 46.950000
    BOUNDRHS LOBROW29530 0.000000
    BOUNDRHS UPBROW29531 35.750000
    BOUNDRHS LOBROW29532 0.000000
    BOUNDRHS UPBROW29533 32.260000
    BOUNDRHS LOBROW29534 0.000000
    BOUNDRHS UPBROW29535 176.380000
    BOUNDRHS LOBROW29536 0.000000
    BOUNDRHS UPBROW29537 1.300000
    BOUNDRHS LOBROW29538 0.000000
    BOUNDRHS UPBROW29539 1.040000
    BOUNDRHS LOBROW29540 0.000000
    BOUNDRHS UPBROW29541 20.640000
    BOUNDRHS LOBROW29542 0.000000
    BOUNDRHS UPBROW29543 111.330000
    BOUNDRHS LOBROW29544 0.000000
    BOUNDRHS UPBROW29545 34.010000
    BOUNDRHS LOBROW29546 0.000000
    BOUNDRHS UPBROW29547 446.640000
    BOUNDRHS LOBROW29548 0.000000
    BOUNDRHS UPBROW29549 363.120000
    BOUNDRHS LOBROW29550 0.000000
    BOUNDRHS UPBROW29551 8.300000
    BOUNDRHS LOBROW29552 0.000000
    BOUNDRHS UPBROW29553 712.410000
    BOUNDRHS LOBROW29554 0.000000
    BOUNDRHS UPBROW29555 310.600000
    BOUNDRHS LOBROW29556 0.000000
    BOUNDRHS UPBROW29557 170.710000
    BOUNDRHS LOBROW29558 0.000000
    BOUNDRHS UPBROW29559 36.930000
    BOUNDRHS LOBROW29560 0.000000
    BOUNDRHS UPBROW29561 185.700000
    BOUNDRHS LOBROW29562 0.000000
    BOUNDRHS UPBROW29563 263.200000
    BOUNDRHS LOBROW29564 0.000000
    BOUNDRHS UPBROW29565 383.680000
    BOUNDRHS LOBROW29566 0.000000
    BOUNDRHS UPBROW29567 762.060000
    BOUNDRHS LOBROW29568 0.000000
    BOUNDRHS UPBROW29569 636.920000
    BOUNDRHS LOBROW29570 0.000000
    BOUNDRHS UPBROW29571 621.210000
    BOUNDRHS LOBROW29572 0.000000
    BOUNDRHS UPBROW29573 45.810000
    BOUNDRHS LOBROW29574 0.000000
    BOUNDRHS UPBROW29575 172.750000
    BOUNDRHS LOBROW29576 0.000000
    BOUNDRHS UPBROW29577 29.960000
    BOUNDRHS LOBROW29578 0.000000
    BOUNDRHS UPBROW29579 64.740000
    BOUNDRHS LOBROW29580 0.000000
    BOUNDRHS UPBROW29581 69.660000
    BOUNDRHS LOBROW29582 0.000000
    BOUNDRHS UPBROW29583 36.200000
    BOUNDRHS LOBROW29584 0.000000
    BOUNDRHS UPBROW29585 231.400000
    BOUNDRHS LOBROW29586 0.000000
    BOUNDRHS UPBROW29587 28.410000
    BOUNDRHS LOBROW29588 0.000000
    BOUNDRHS UPBROW29589 87.920000
    BOUNDRHS LOBROW29590 0.000000
    BOUNDRHS UPBROW29591 950.780000
    BOUNDRHS LOBROW29592 0.000000
    BOUNDRHS UPBROW29593 41.730000
    BOUNDRHS LOBROW29594 0.000000
    BOUNDRHS UPBROW29595 57.190000
    BOUNDRHS LOBROW29596 0.000000
    BOUNDRHS UPBROW29597 155.170000
    BOUNDRHS LOBROW29598 0.000000
    BOUNDRHS UPBROW29599 53.000000
    BOUNDRHS LOBROW29600 0.000000
    BOUNDRHS UPBROW29601 46.090000
    BOUNDRHS LOBROW29602 0.000000
    BOUNDRHS UPBROW29603 35.190000
    BOUNDRHS LOBROW29604 0.000000
    BOUNDRHS UPBROW29605 180.900000
    BOUNDRHS LOBROW29606 0.000000
    BOUNDRHS UPBROW29607 30.000000
    BOUNDRHS LOBROW29608 0.000000
    BOUNDRHS UPBROW29609 29.750000
    BOUNDRHS LOBROW29610 0.000000
    BOUNDRHS UPBROW29611 23.850000
    BOUNDRHS LOBROW29612 0.000000
    BOUNDRHS UPBROW29613 11.640000
    BOUNDRHS LOBROW29614 0.000000
    BOUNDRHS UPBROW29615 18.700000
    BOUNDRHS LOBROW29616 0.000000
    BOUNDRHS UPBROW29617 42.850000
    BOUNDRHS LOBROW29618 0.000000
    BOUNDRHS UPBROW29619 43.900000
    BOUNDRHS LOBROW29620 0.000000
    BOUNDRHS UPBROW29621 16.620000
    BOUNDRHS LOBROW29622 0.000000
    BOUNDRHS UPBROW29623 25.200000
    BOUNDRHS LOBROW29624 0.000000
    BOUNDRHS UPBROW29625 12.000000
    BOUNDRHS LOBROW29626 0.000000
    BOUNDRHS UPBROW29627 55.000000
    BOUNDRHS LOBROW29628 0.000000
    BOUNDRHS UPBROW29629 101.910000
    BOUNDRHS LOBROW29630 0.000000
    BOUNDRHS UPBROW29631 42.900000
    BOUNDRHS LOBROW29632 0.000000
    BOUNDRHS UPBROW29633 52.500000
    BOUNDRHS LOBROW29634 0.000000
    BOUNDRHS UPBROW29635 35.950000
    BOUNDRHS LOBROW29636 0.000000
    BOUNDRHS UPBROW29637 58.450000
    BOUNDRHS LOBROW29638 0.000000
    BOUNDRHS UPBROW29639 36.270000
    BOUNDRHS LOBROW29640 0.000000
    BOUNDRHS UPBROW29641 6.260000
    BOUNDRHS LOBROW29642 0.000000
    BOUNDRHS UPBROW29643 1.520000
    BOUNDRHS LOBROW29644 0.000000
    BOUNDRHS UPBROW29645 18.860000
    BOUNDRHS LOBROW29646 0.000000
    BOUNDRHS UPBROW29647 3.000000
    BOUNDRHS LOBROW29648 0.000000
    BOUNDRHS UPBROW29649 69.310000
    BOUNDRHS LOBROW29650 0.000000
    BOUNDRHS UPBROW29651 18.750000
    BOUNDRHS LOBROW29652 0.000000
    BOUNDRHS UPBROW29653 2.000000
    BOUNDRHS LOBROW29654 0.000000
    BOUNDRHS UPBROW29655 36.000000
    BOUNDRHS LOBROW29656 0.000000
    BOUNDRHS UPBROW29657 403.750000
    BOUNDRHS LOBROW29658 0.000000
    BOUNDRHS UPBROW29659 167.410000
    BOUNDRHS LOBROW29660 0.000000
    BOUNDRHS UPBROW29661 28.850000
    BOUNDRHS LOBROW29662 0.000000
    BOUNDRHS UPBROW29663 11.580000
    BOUNDRHS LOBROW29664 0.000000
    BOUNDRHS UPBROW29665 12.540000
    BOUNDRHS LOBROW29666 0.000000
    BOUNDRHS UPBROW29667 12.980000
    BOUNDRHS LOBROW29668 0.000000
    BOUNDRHS UPBROW29669 13.180000
    BOUNDRHS LOBROW29670 0.000000
    BOUNDRHS UPBROW29671 8.600000
    BOUNDRHS LOBROW29672 0.000000
    BOUNDRHS UPBROW29673 6.810000
    BOUNDRHS LOBROW29674 0.000000
    BOUNDRHS UPBROW29675 281.040000
    BOUNDRHS LOBROW29676 0.000000
    BOUNDRHS UPBROW29677 209.700000
    BOUNDRHS LOBROW29678 0.000000
    BOUNDRHS UPBROW29679 233.650000
    BOUNDRHS LOBROW29680 0.000000
    BOUNDRHS UPBROW29681 9.000000
    BOUNDRHS LOBROW29682 0.000000
    BOUNDRHS UPBROW29683 243.010000
    BOUNDRHS LOBROW29684 0.000000
    BOUNDRHS UPBROW29685 21.830000
    BOUNDRHS LOBROW29686 0.000000
    BOUNDRHS UPBROW29687 145.690000
    BOUNDRHS LOBROW29688 0.000000
    BOUNDRHS UPBROW29689 18.000000
    BOUNDRHS LOBROW29690 0.000000
    BOUNDRHS UPBROW29691 53.010000
    BOUNDRHS LOBROW29692 0.000000
    BOUNDRHS UPBROW29693 228.700000
    BOUNDRHS LOBROW29694 0.000000
    BOUNDRHS UPBROW29695 31.100000
    BOUNDRHS LOBROW29696 0.000000
    BOUNDRHS UPBROW29697 24.600000
    BOUNDRHS LOBROW29698 0.000000
    BOUNDRHS UPBROW29699 7.700000
    BOUNDRHS LOBROW29700 0.000000
    BOUNDRHS UPBROW29701 126.400000
    BOUNDRHS LOBROW29702 0.000000
    BOUNDRHS UPBROW29703 68.590000
    BOUNDRHS LOBROW29704 0.000000
    BOUNDRHS UPBROW29705 163.150000
    BOUNDRHS LOBROW29706 0.000000
    BOUNDRHS UPBROW29707 13.610000
    BOUNDRHS LOBROW29708 0.000000
    BOUNDRHS UPBROW29709 7.250000
    BOUNDRHS LOBROW29710 0.000000
    BOUNDRHS UPBROW29711 50.940000
    BOUNDRHS LOBROW29712 0.000000
    BOUNDRHS UPBROW29713 466.800000
    BOUNDRHS LOBROW29714 0.000000
    BOUNDRHS UPBROW29715 14.050000
    BOUNDRHS LOBROW29716 0.000000
    BOUNDRHS UPBROW29717 5.800000
    BOUNDRHS LOBROW29718 0.000000
    BOUNDRHS UPBROW29719 342.550000
    BOUNDRHS LOBROW29720 0.000000
    BOUNDRHS UPBROW29721 601.830000
    BOUNDRHS LOBROW29722 0.000000
    BOUNDRHS UPBROW29723 10.320000
    BOUNDRHS LOBROW29724 0.000000
    BOUNDRHS UPBROW29725 145.600000
    BOUNDRHS LOBROW29726 0.000000
    BOUNDRHS UPBROW29727 20.120000
    BOUNDRHS LOBROW29728 0.000000
    BOUNDRHS UPBROW29729 18.930000
    BOUNDRHS LOBROW29730 0.000000
    BOUNDRHS UPBROW29731 2.280000
    BOUNDRHS LOBROW29732 0.000000
    BOUNDRHS UPBROW29733 3.250000
    BOUNDRHS LOBROW29734 0.000000
    BOUNDRHS UPBROW29735 11.160000
    BOUNDRHS LOBROW29736 0.000000
    BOUNDRHS UPBROW29737 18.600000
    BOUNDRHS LOBROW29738 0.000000
    BOUNDRHS UPBROW29739 15.640000
    BOUNDRHS LOBROW29740 0.000000
    BOUNDRHS UPBROW29741 88.690000
    BOUNDRHS LOBROW29742 0.000000
    BOUNDRHS UPBROW29743 10.870000
    BOUNDRHS LOBROW29744 0.000000
    BOUNDRHS UPBROW29745 106.920000
    BOUNDRHS LOBROW29746 0.000000
    BOUNDRHS UPBROW29747 112.900000
    BOUNDRHS LOBROW29748 0.000000
    BOUNDRHS UPBROW29749 52.000000
    BOUNDRHS LOBROW29750 0.000000
    BOUNDRHS UPBROW29751 60.360000
    BOUNDRHS LOBROW29752 0.000000
    BOUNDRHS UPBROW29753 28.900000
    BOUNDRHS LOBROW29754 0.000000
    BOUNDRHS UPBROW29755 36.110000
    BOUNDRHS LOBROW29756 0.000000
    BOUNDRHS UPBROW29757 45.220000
    BOUNDRHS LOBROW29758 0.000000
    BOUNDRHS UPBROW29759 29.400000
    BOUNDRHS LOBROW29760 0.000000
    BOUNDRHS UPBROW29761 23.710000
    BOUNDRHS LOBROW29762 0.000000
    BOUNDRHS UPBROW29763 26.430000
    BOUNDRHS LOBROW29764 0.000000
    BOUNDRHS UPBROW29765 52.100000
    BOUNDRHS LOBROW29766 0.000000
    BOUNDRHS UPBROW29767 26.930000
    BOUNDRHS LOBROW29768 0.000000
    BOUNDRHS UPBROW29769 43.460000
    BOUNDRHS LOBROW29770 0.000000
    BOUNDRHS UPBROW29771 14.190000
    BOUNDRHS LOBROW29772 0.000000
    BOUNDRHS UPBROW29773 19.800000
    BOUNDRHS LOBROW29774 0.000000
    BOUNDRHS UPBROW29775 10.100000
    BOUNDRHS LOBROW29776 0.000000
    BOUNDRHS UPBROW29777 18.420000
    BOUNDRHS LOBROW29778 0.000000
    BOUNDRHS UPBROW29779 101.020000
    BOUNDRHS LOBROW29780 0.000000
    BOUNDRHS UPBROW29781 29.110000
    BOUNDRHS LOBROW29782 0.000000
    BOUNDRHS UPBROW29783 82.970000
    BOUNDRHS LOBROW29784 0.000000
    BOUNDRHS UPBROW29785 141.750000
    BOUNDRHS LOBROW29786 0.000000
    BOUNDRHS UPBROW29787 382.000000
    BOUNDRHS LOBROW29788 0.000000
    BOUNDRHS UPBROW29789 61.770000
    BOUNDRHS LOBROW29790 0.000000
    BOUNDRHS UPBROW29791 144.780000
    BOUNDRHS LOBROW29792 0.000000
    BOUNDRHS UPBROW29793 15.000000
    BOUNDRHS LOBROW29794 0.000000
    BOUNDRHS UPBROW29795 40.000000
    BOUNDRHS LOBROW29796 0.000000
    BOUNDRHS UPBROW29797 7.880000
    BOUNDRHS LOBROW29798 0.000000
    BOUNDRHS UPBROW29799 0.520000
    BOUNDRHS LOBROW29800 0.000000
    BOUNDRHS UPBROW29801 0.640000
    BOUNDRHS LOBROW29802 0.000000
    BOUNDRHS UPBROW29803 0.750000
    BOUNDRHS LOBROW29804 0.000000
    BOUNDRHS UPBROW29805 39.650000
    BOUNDRHS LOBROW29806 0.000000
    BOUNDRHS UPBROW29807 50.600000
    BOUNDRHS LOBROW29808 0.000000
    BOUNDRHS UPBROW29809 12.360000
    BOUNDRHS LOBROW29810 0.000000
    BOUNDRHS UPBROW29811 33.530000
    BOUNDRHS LOBROW29812 0.000000
    BOUNDRHS UPBROW29813 23.740000
    BOUNDRHS LOBROW29814 0.000000
    BOUNDRHS UPBROW29815 8.560000
    BOUNDRHS LOBROW29816 0.000000
    BOUNDRHS UPBROW29817 32.180000
    BOUNDRHS LOBROW29818 0.000000
    BOUNDRHS UPBROW29819 11.370000
    BOUNDRHS LOBROW29820 0.000000
    BOUNDRHS UPBROW29821 451.960000
    BOUNDRHS LOBROW29822 0.000000
    BOUNDRHS UPBROW29823 421.110000
    BOUNDRHS LOBROW29824 0.000000
    BOUNDRHS UPBROW29825 197.840000
    BOUNDRHS LOBROW29826 0.000000
    BOUNDRHS UPBROW29827 6.560000
    BOUNDRHS LOBROW29828 0.000000
    BOUNDRHS UPBROW29829 192.800000
    BOUNDRHS LOBROW29830 0.000000
    BOUNDRHS UPBROW29831 5.000000
    BOUNDRHS LOBROW29832 0.000000
    BOUNDRHS UPBROW29833 19.100000
    BOUNDRHS LOBROW29834 0.000000
    BOUNDRHS UPBROW29835 3.950000
    BOUNDRHS LOBROW29836 0.000000
    BOUNDRHS UPBROW29837 11.960000
    BOUNDRHS LOBROW29838 0.000000
    BOUNDRHS UPBROW29839 4.160000
    BOUNDRHS LOBROW29840 0.000000
    BOUNDRHS UPBROW29841 8.380000
    BOUNDRHS LOBROW29842 0.000000
    BOUNDRHS UPBROW29843 35.000000
    BOUNDRHS LOBROW29844 0.000000
    BOUNDRHS UPBROW29845 19.700000
    BOUNDRHS LOBROW29846 0.000000
    BOUNDRHS UPBROW29847 28.400000
    BOUNDRHS LOBROW29848 0.000000
    BOUNDRHS UPBROW29849 22.760000
    BOUNDRHS LOBROW29850 0.000000
    BOUNDRHS UPBROW29851 93.520000
    BOUNDRHS LOBROW29852 0.000000
    BOUNDRHS UPBROW29853 245.920000
    BOUNDRHS LOBROW29854 0.000000
    BOUNDRHS UPBROW29855 32.600000
    BOUNDRHS LOBROW29856 0.000000
    BOUNDRHS UPBROW29857 14.500000
    BOUNDRHS LOBROW29858 0.000000
    BOUNDRHS UPBROW29859 3.830000
    BOUNDRHS LOBROW29860 0.000000
    BOUNDRHS UPBROW29861 35.510000
    BOUNDRHS LOBROW29862 0.000000
    BOUNDRHS UPBROW29863 7.520000
    BOUNDRHS LOBROW29864 0.000000
    BOUNDRHS UPBROW29865 179.500000
    BOUNDRHS LOBROW29866 0.000000
    BOUNDRHS UPBROW29867 257.190000
    BOUNDRHS LOBROW29868 0.000000
    BOUNDRHS UPBROW29869 274.550000
    BOUNDRHS LOBROW29870 0.000000
    BOUNDRHS UPBROW29871 264.820000
    BOUNDRHS LOBROW29872 0.000000
    BOUNDRHS UPBROW29873 195.290000
    BOUNDRHS LOBROW29874 0.000000
    BOUNDRHS UPBROW29875 82.510000
    BOUNDRHS LOBROW29876 0.000000
    BOUNDRHS UPBROW29877 196.070000
    BOUNDRHS LOBROW29878 0.000000
    BOUNDRHS UPBROW29879 135.480000
    BOUNDRHS LOBROW29880 0.000000
    BOUNDRHS UPBROW29881 122.410000
    BOUNDRHS LOBROW29882 0.000000
    BOUNDRHS UPBROW29883 311.570000
    BOUNDRHS LOBROW29884 0.000000
    BOUNDRHS UPBROW29885 301.760000
    BOUNDRHS LOBROW29886 0.000000
    BOUNDRHS UPBROW29887 5.960000
    BOUNDRHS LOBROW29888 0.000000
    BOUNDRHS UPBROW29889 4.180000
    BOUNDRHS LOBROW29890 0.000000
    BOUNDRHS UPBROW29891 11.870000
    BOUNDRHS LOBROW29892 0.000000
    BOUNDRHS UPBROW29893 10.800000
    BOUNDRHS LOBROW29894 0.000000
    BOUNDRHS UPBROW29895 53.100000
    BOUNDRHS LOBROW29896 0.000000
    BOUNDRHS UPBROW29897 8.830000
    BOUNDRHS LOBROW29898 0.000000
    BOUNDRHS UPBROW29899 2.860000
    BOUNDRHS LOBROW29900 0.000000
    BOUNDRHS UPBROW29901 11.350000
    BOUNDRHS LOBROW29902 0.000000
    BOUNDRHS UPBROW29903 10.450000
    BOUNDRHS LOBROW29904 0.000000
    BOUNDRHS UPBROW29905 10.330000
    BOUNDRHS LOBROW29906 0.000000
    BOUNDRHS UPBROW29907 8.760000
    BOUNDRHS LOBROW29908 0.000000
    BOUNDRHS UPBROW29909 53.100000
    BOUNDRHS LOBROW29910 0.000000
    BOUNDRHS UPBROW29911 70.600000
    BOUNDRHS LOBROW29912 0.000000
    BOUNDRHS UPBROW29913 29.120000
    BOUNDRHS LOBROW29914 0.000000
    BOUNDRHS UPBROW29915 8.000000
    BOUNDRHS LOBROW29916 0.000000
    BOUNDRHS UPBROW29917 17.360000
    BOUNDRHS LOBROW29918 0.000000
    BOUNDRHS UPBROW29919 13.740000
    BOUNDRHS LOBROW29920 0.000000
    BOUNDRHS UPBROW29921 40.980000
    BOUNDRHS LOBROW29922 0.000000
    BOUNDRHS UPBROW29923 27.970000
    BOUNDRHS LOBROW29924 0.000000
    BOUNDRHS UPBROW29925 1.000000
    BOUNDRHS LOBROW29926 0.000000
    BOUNDRHS UPBROW29927 2.330000
    BOUNDRHS LOBROW29928 0.000000
    BOUNDRHS UPBROW29929 11.120000
    BOUNDRHS LOBROW29930 0.000000
    BOUNDRHS UPBROW29931 0.530000
    BOUNDRHS LOBROW29932 0.000000
    BOUNDRHS UPBROW29933 25.030000
    BOUNDRHS LOBROW29934 0.000000
    BOUNDRHS UPBROW29935 19.000000
    BOUNDRHS LOBROW29936 0.000000
    BOUNDRHS UPBROW29937 54.710000
    BOUNDRHS LOBROW29938 0.000000
    BOUNDRHS UPBROW29939 14.150000
    BOUNDRHS LOBROW29940 0.000000
    BOUNDRHS UPBROW29941 0.710000
    BOUNDRHS LOBROW29942 0.000000
    BOUNDRHS UPBROW29943 2.140000
    BOUNDRHS LOBROW29944 0.000000
    BOUNDRHS UPBROW29945 28.160000
    BOUNDRHS LOBROW29946 0.000000
    BOUNDRHS UPBROW29947 8.220000
    BOUNDRHS LOBROW29948 0.000000
    BOUNDRHS UPBROW29949 3.890000
    BOUNDRHS LOBROW29950 0.000000
    BOUNDRHS UPBROW29951 5.520000
    BOUNDRHS LOBROW29952 0.000000
    BOUNDRHS UPBROW29953 894.670000
    BOUNDRHS LOBROW29954 0.000000
    BOUNDRHS UPBROW29955 309.530000
    BOUNDRHS LOBROW29956 0.000000
    BOUNDRHS UPBROW29957 336.590000
    BOUNDRHS LOBROW29958 0.000000
    BOUNDRHS UPBROW29959 22.800000
    BOUNDRHS LOBROW29960 0.000000
    BOUNDRHS UPBROW29961 1.530000
    BOUNDRHS LOBROW29962 0.000000
    BOUNDRHS UPBROW29963 2.700000
    BOUNDRHS LOBROW29964 0.000000
    BOUNDRHS UPBROW29965 0.620000
    BOUNDRHS LOBROW29966 0.000000
    BOUNDRHS UPBROW29967 0.680000
    BOUNDRHS LOBROW29968 0.000000
    BOUNDRHS UPBROW29969 1.210000
    BOUNDRHS LOBROW29970 0.000000
    BOUNDRHS UPBROW29971 1.000000
    BOUNDRHS LOBROW29972 0.000000
    BOUNDRHS UPBROW29973 3.690000
    BOUNDRHS LOBROW29974 0.000000
    BOUNDRHS UPBROW29975 100.700000
    BOUNDRHS LOBROW29976 0.000000
    BOUNDRHS UPBROW29977 3.000000
    BOUNDRHS LOBROW29978 0.000000
    BOUNDRHS UPBROW29979 21.370000
    BOUNDRHS LOBROW29980 0.000000
    BOUNDRHS UPBROW29981 1.330000
    BOUNDRHS LOBROW29982 0.000000
    BOUNDRHS UPBROW29983 3.080000
    BOUNDRHS LOBROW29984 0.000000
    BOUNDRHS UPBROW29985 4.960000
    BOUNDRHS LOBROW29986 0.000000
    BOUNDRHS UPBROW29987 5.410000
    BOUNDRHS LOBROW29988 0.000000
    BOUNDRHS UPBROW29989 4.520000
    BOUNDRHS LOBROW29990 0.000000
    BOUNDRHS UPBROW29991 7.810000
    BOUNDRHS LOBROW29992 0.000000
    BOUNDRHS UPBROW29993 28.040000
    BOUNDRHS LOBROW29994 0.000000
    BOUNDRHS UPBROW29995 5.370000
    BOUNDRHS LOBROW29996 0.000000
    BOUNDRHS UPBROW29997 1.910000
    BOUNDRHS LOBROW29998 0.000000
    BOUNDRHS UPBROW29999 2.000000
    BOUNDRHS LOBROW30000 0.000000
    BOUNDRHS UPBROW30001 21.020000
    BOUNDRHS LOBROW30002 0.000000
    BOUNDRHS UPBROW30003 287.530000
    BOUNDRHS LOBROW30004 0.000000
    BOUNDRHS UPBROW30005 30.350000
    BOUNDRHS LOBROW30006 0.000000
    BOUNDRHS UPBROW30007 27.980000
    BOUNDRHS LOBROW30008 0.000000
    BOUNDRHS UPBROW30009 93.150000
    BOUNDRHS LOBROW30010 0.000000
    BOUNDRHS UPBROW30011 2.510000
    BOUNDRHS LOBROW30012 0.000000
    BOUNDRHS UPBROW30013 157.780000
    BOUNDRHS LOBROW30014 0.000000
    BOUNDRHS UPBROW30015 8.990000
    BOUNDRHS LOBROW30016 0.000000
    BOUNDRHS UPBROW30017 5.800000
    BOUNDRHS LOBROW30018 0.000000
    BOUNDRHS UPBROW30019 4.060000
    BOUNDRHS LOBROW30020 0.000000
    BOUNDRHS UPBROW30021 4.590000
    BOUNDRHS LOBROW30022 0.000000
    BOUNDRHS UPBROW30023 168.390000
    BOUNDRHS LOBROW30024 0.000000
    BOUNDRHS UPBROW30025 947.500000
    BOUNDRHS LOBROW30026 0.000000
    BOUNDRHS UPBROW30027 37.200000
    BOUNDRHS LOBROW30028 0.000000
    BOUNDRHS UPBROW30029 50.810000
    BOUNDRHS LOBROW30030 0.000000
    BOUNDRHS UPBROW30031 848.370000
    BOUNDRHS LOBROW30032 0.000000
    BOUNDRHS UPBROW30033 26.400000
    BOUNDRHS LOBROW30034 0.000000
    BOUNDRHS UPBROW30035 43.490000
    BOUNDRHS LOBROW30036 0.000000
    BOUNDRHS UPBROW30037 11.000000
    BOUNDRHS LOBROW30038 0.000000
    BOUNDRHS UPBROW30039 5.370000
    BOUNDRHS LOBROW30040 0.000000
    BOUNDRHS UPBROW30041 13.190000
    BOUNDRHS LOBROW30042 0.000000
    BOUNDRHS UPBROW30043 1.610000
    BOUNDRHS LOBROW30044 0.000000
    BOUNDRHS UPBROW30045 61.400000
    BOUNDRHS LOBROW30046 0.000000
    BOUNDRHS UPBROW30047 855.410000
    BOUNDRHS LOBROW30048 0.000000
    BOUNDRHS UPBROW30049 47.440000
    BOUNDRHS LOBROW30050 0.000000
    BOUNDRHS UPBROW30051 27.240000
    BOUNDRHS LOBROW30052 0.000000
    BOUNDRHS UPBROW30053 6.590000
    BOUNDRHS LOBROW30054 0.000000
    BOUNDRHS UPBROW30055 5.230000
    BOUNDRHS LOBROW30056 0.000000
    BOUNDRHS UPBROW30057 9.750000
    BOUNDRHS LOBROW30058 0.000000
    BOUNDRHS UPBROW30059 0.900000
    BOUNDRHS LOBROW30060 0.000000
    BOUNDRHS UPBROW30061 0.590000
    BOUNDRHS LOBROW30062 0.000000
    BOUNDRHS UPBROW30063 9.220000
    BOUNDRHS LOBROW30064 0.000000
    BOUNDRHS UPBROW30065 13.150000
    BOUNDRHS LOBROW30066 0.000000
    BOUNDRHS UPBROW30067 22.950000
    BOUNDRHS LOBROW30068 0.000000
    BOUNDRHS UPBROW30069 12.110000
    BOUNDRHS LOBROW30070 0.000000
    BOUNDRHS UPBROW30071 31.370000
    BOUNDRHS LOBROW30072 0.000000
    BOUNDRHS UPBROW30073 37.210000
    BOUNDRHS LOBROW30074 0.000000
    BOUNDRHS UPBROW30075 18.400000
    BOUNDRHS LOBROW30076 0.000000
    BOUNDRHS UPBROW30077 8.260000
    BOUNDRHS LOBROW30078 0.000000
    BOUNDRHS UPBROW30079 2.280000
    BOUNDRHS LOBROW30080 0.000000
    BOUNDRHS UPBROW30081 33.000000
    BOUNDRHS LOBROW30082 0.000000
    BOUNDRHS UPBROW30083 10.180000
    BOUNDRHS LOBROW30084 0.000000
    BOUNDRHS UPBROW30085 47.860000
    BOUNDRHS LOBROW30086 0.000000
    BOUNDRHS UPBROW30087 9.880000
    BOUNDRHS LOBROW30088 0.000000
    BOUNDRHS UPBROW30089 5.810000
    BOUNDRHS LOBROW30090 0.000000
    BOUNDRHS UPBROW30091 1.740000
    BOUNDRHS LOBROW30092 0.000000
    BOUNDRHS UPBROW30093 6.000000
    BOUNDRHS LOBROW30094 0.000000
    BOUNDRHS UPBROW30095 19.520000
    BOUNDRHS LOBROW30096 0.000000
    BOUNDRHS UPBROW30097 13.780000
    BOUNDRHS LOBROW30098 0.000000
    BOUNDRHS UPBROW30099 49.860000
    BOUNDRHS LOBROW30100 0.000000
    BOUNDRHS UPBROW30101 26.940000
    BOUNDRHS LOBROW30102 0.000000
    BOUNDRHS UPBROW30103 1.500000
    BOUNDRHS LOBROW30104 0.000000
    BOUNDRHS UPBROW30105 32.730000
    BOUNDRHS LOBROW30106 0.000000
    BOUNDRHS UPBROW30107 30.680000
    BOUNDRHS LOBROW30108 0.000000
    BOUNDRHS UPBROW30109 13.160000
    BOUNDRHS LOBROW30110 0.000000
    BOUNDRHS UPBROW30111 0.600000
    BOUNDRHS LOBROW30112 0.000000
    BOUNDRHS UPBROW30113 18.000000
    BOUNDRHS LOBROW30114 0.000000
    BOUNDRHS UPBROW30115 0.250000
    BOUNDRHS LOBROW30116 0.000000
    BOUNDRHS UPBROW30117 26.250000
    BOUNDRHS LOBROW30118 0.000000
    BOUNDRHS UPBROW30119 0.090000
    BOUNDRHS LOBROW30120 0.000000
    BOUNDRHS UPBROW30121 0.840000
    BOUNDRHS LOBROW30122 0.000000
    BOUNDRHS UPBROW30123 0.780000
    BOUNDRHS LOBROW30124 0.000000
    BOUNDRHS UPBROW30125 0.450000
    BOUNDRHS LOBROW30126 0.000000
    BOUNDRHS UPBROW30127 16.560000
    BOUNDRHS LOBROW30128 0.000000
    BOUNDRHS UPBROW30129 2.890000
    BOUNDRHS LOBROW30130 0.000000
    BOUNDRHS UPBROW30131 13.730000
    BOUNDRHS LOBROW30132 0.000000
    BOUNDRHS UPBROW30133 4.950000
    BOUNDRHS LOBROW30134 0.000000
    BOUNDRHS UPBROW30135 7.320000
    BOUNDRHS LOBROW30136 0.000000
    BOUNDRHS UPBROW30137 6.030000
    BOUNDRHS LOBROW30138 0.000000
    BOUNDRHS UPBROW30139 0.570000
    BOUNDRHS LOBROW30140 0.000000
    BOUNDRHS UPBROW30141 2.150000
    BOUNDRHS LOBROW30142 0.000000
    BOUNDRHS UPBROW30143 0.450000
    BOUNDRHS LOBROW30144 0.000000
    BOUNDRHS UPBROW30145 10.980000
    BOUNDRHS LOBROW30146 0.000000
    BOUNDRHS UPBROW30147 35.350000
    BOUNDRHS LOBROW30148 0.000000
    BOUNDRHS UPBROW30149 22.830000
    BOUNDRHS LOBROW30150 0.000000
    BOUNDRHS UPBROW30151 29.220000
    BOUNDRHS LOBROW30152 0.000000
    BOUNDRHS UPBROW30153 36.660000
    BOUNDRHS LOBROW30154 0.000000
    BOUNDRHS UPBROW30155 1.590000
    BOUNDRHS LOBROW30156 0.000000
    BOUNDRHS UPBROW30157 2.080000
    BOUNDRHS LOBROW30158 0.000000
    BOUNDRHS UPBROW30159 0.380000
    BOUNDRHS LOBROW30160 0.000000
    BOUNDRHS UPBROW30161 200.090000
    BOUNDRHS LOBROW30162 0.000000
    BOUNDRHS UPBROW30163 385.200000
    BOUNDRHS LOBROW30164 0.000000
    BOUNDRHS UPBROW30165 361.980000
    BOUNDRHS LOBROW30166 0.000000
    BOUNDRHS UPBROW30167 24.800000
    BOUNDRHS LOBROW30168 0.000000
    BOUNDRHS UPBROW30169 403.780000
    BOUNDRHS LOBROW30170 0.000000
    BOUNDRHS UPBROW30171 24.290000
    BOUNDRHS LOBROW30172 0.000000
    BOUNDRHS UPBROW30173 161.070000
    BOUNDRHS LOBROW30174 0.000000
    BOUNDRHS UPBROW30175 131.110000
    BOUNDRHS LOBROW30176 0.000000
    BOUNDRHS UPBROW30177 488.050000
    BOUNDRHS LOBROW30178 0.000000
    BOUNDRHS UPBROW30179 14.650000
    BOUNDRHS LOBROW30180 0.000000
    BOUNDRHS UPBROW30181 2.360000
    BOUNDRHS LOBROW30182 0.000000
    BOUNDRHS UPBROW30183 90.000000
    BOUNDRHS LOBROW30184 0.000000
    BOUNDRHS UPBROW30185 171.830000
    BOUNDRHS LOBROW30186 0.000000
    BOUNDRHS UPBROW30187 229.070000
    BOUNDRHS LOBROW30188 0.000000
    BOUNDRHS UPBROW30189 2.400000
    BOUNDRHS LOBROW30190 0.000000
    BOUNDRHS UPBROW30191 8.710000
    BOUNDRHS LOBROW30192 0.000000
    BOUNDRHS UPBROW30193 0.650000
    BOUNDRHS LOBROW30194 0.000000
    BOUNDRHS UPBROW30195 0.740000
    BOUNDRHS LOBROW30196 0.000000
    BOUNDRHS UPBROW30197 1.290000
    BOUNDRHS LOBROW30198 0.000000
    BOUNDRHS UPBROW30199 15.160000
    BOUNDRHS LOBROW30200 0.000000
    BOUNDRHS UPBROW30201 3.770000
    BOUNDRHS LOBROW30202 0.000000
    BOUNDRHS UPBROW30203 862.800000
    BOUNDRHS LOBROW30204 0.000000
    BOUNDRHS UPBROW30205 36.860000
    BOUNDRHS LOBROW30206 0.000000
    BOUNDRHS UPBROW30207 35.270000
    BOUNDRHS LOBROW30208 0.000000
    BOUNDRHS UPBROW30209 68.790000
    BOUNDRHS LOBROW30210 0.000000
    BOUNDRHS UPBROW30211 14.980000
    BOUNDRHS LOBROW30212 0.000000
    BOUNDRHS UPBROW30213 3.580000
    BOUNDRHS LOBROW30214 0.000000
    BOUNDRHS UPBROW30215 54.390000
    BOUNDRHS LOBROW30216 0.000000
    BOUNDRHS UPBROW30217 89.250000
    BOUNDRHS LOBROW30218 0.000000
    BOUNDRHS UPBROW30219 2.280000
    BOUNDRHS LOBROW30220 0.000000
    BOUNDRHS UPBROW30221 104.650000
    BOUNDRHS LOBROW30222 0.000000
    BOUNDRHS UPBROW30223 133.940000
    BOUNDRHS LOBROW30224 0.000000
    BOUNDRHS UPBROW30225 80.150000
    BOUNDRHS LOBROW30226 0.000000
    BOUNDRHS UPBROW30227 11.500000
    BOUNDRHS LOBROW30228 0.000000
    BOUNDRHS UPBROW30229 6.930000
    BOUNDRHS LOBROW30230 0.000000
    BOUNDRHS UPBROW30231 22.980000
    BOUNDRHS LOBROW30232 0.000000
    BOUNDRHS UPBROW30233 0.510000
    BOUNDRHS LOBROW30234 0.000000
    BOUNDRHS UPBROW30235 31.410000
    BOUNDRHS LOBROW30236 0.000000
    BOUNDRHS UPBROW30237 0.590000
    BOUNDRHS LOBROW30238 0.000000
    BOUNDRHS UPBROW30239 240.000000
    BOUNDRHS LOBROW30240 0.000000
    BOUNDRHS UPBROW30241 337.300000
    BOUNDRHS LOBROW30242 0.000000
    BOUNDRHS UPBROW30243 0.740000
    BOUNDRHS LOBROW30244 0.000000
    BOUNDRHS UPBROW30245 41.120000
    BOUNDRHS LOBROW30246 0.000000
    BOUNDRHS UPBROW30247 24.910000
    BOUNDRHS LOBROW30248 0.000000
    BOUNDRHS UPBROW30249 37.910000
    BOUNDRHS LOBROW30250 0.000000
    BOUNDRHS UPBROW30251 304.910000
    BOUNDRHS LOBROW30252 0.000000
    BOUNDRHS UPBROW30253 208.130000
    BOUNDRHS LOBROW30254 0.000000
    BOUNDRHS UPBROW30255 20.120000
    BOUNDRHS LOBROW30256 0.000000
    BOUNDRHS UPBROW30257 23.680000
    BOUNDRHS LOBROW30258 0.000000
    BOUNDRHS UPBROW30259 3.450000
    BOUNDRHS LOBROW30260 0.000000
    BOUNDRHS UPBROW30261 1.070000
    BOUNDRHS LOBROW30262 0.000000
    BOUNDRHS UPBROW30263 0.200000
    BOUNDRHS LOBROW30264 0.000000
    BOUNDRHS UPBROW30265 1.800000
    BOUNDRHS LOBROW30266 0.000000
    BOUNDRHS UPBROW30267 9.590000
    BOUNDRHS LOBROW30268 0.000000
    BOUNDRHS UPBROW30269 8.780000
    BOUNDRHS LOBROW30270 0.000000
    BOUNDRHS UPBROW30271 24.090000
    BOUNDRHS LOBROW30272 0.000000
    BOUNDRHS UPBROW30273 4.060000
    BOUNDRHS LOBROW30274 0.000000
    BOUNDRHS UPBROW30275 6.640000
    BOUNDRHS LOBROW30276 0.000000
    BOUNDRHS UPBROW30277 1.170000
    BOUNDRHS LOBROW30278 0.000000
    BOUNDRHS UPBROW30279 1.700000
    BOUNDRHS LOBROW30280 0.000000
    BOUNDRHS UPBROW30281 0.970000
    BOUNDRHS LOBROW30282 0.000000
    BOUNDRHS UPBROW30283 10.760000
    BOUNDRHS LOBROW30284 0.000000
    BOUNDRHS UPBROW30285 2.120000
    BOUNDRHS LOBROW30286 0.000000
    BOUNDRHS UPBROW30287 3.360000
    BOUNDRHS LOBROW30288 0.000000
    BOUNDRHS UPBROW30289 9.670000
    BOUNDRHS LOBROW30290 0.000000
    BOUNDRHS UPBROW30291 0.170000
    BOUNDRHS LOBROW30292 0.000000
    BOUNDRHS UPBROW30293 0.240000
    BOUNDRHS LOBROW30294 0.000000
    BOUNDRHS UPBROW30295 0.330000
    BOUNDRHS LOBROW30296 0.000000
    BOUNDRHS UPBROW30297 0.030000
    BOUNDRHS LOBROW30298 0.000000
    BOUNDRHS UPBROW30299 7.120000
    BOUNDRHS LOBROW30300 0.000000
    BOUNDRHS UPBROW30301 10.010000
    BOUNDRHS LOBROW30302 0.000000
    BOUNDRHS UPBROW30303 10.560000
    BOUNDRHS LOBROW30304 0.000000
    BOUNDRHS UPBROW30305 47.630000
    BOUNDRHS LOBROW30306 0.000000
    BOUNDRHS UPBROW30307 22.280000
    BOUNDRHS LOBROW30308 0.000000
    BOUNDRHS UPBROW30309 43.400000
    BOUNDRHS LOBROW30310 0.000000
    BOUNDRHS UPBROW30311 347.600000
    BOUNDRHS LOBROW30312 0.000000
    BOUNDRHS UPBROW30313 682.030000
    BOUNDRHS LOBROW30314 0.000000
    BOUNDRHS UPBROW30315 4.720000
    BOUNDRHS LOBROW30316 0.000000
    BOUNDRHS UPBROW30317 154.150000
    BOUNDRHS LOBROW30318 0.000000
    BOUNDRHS UPBROW30319 1.430000
    BOUNDRHS LOBROW30320 0.000000
    BOUNDRHS UPBROW30321 5.870000
    BOUNDRHS LOBROW30322 0.000000
    BOUNDRHS UPBROW30323 8.380000
    BOUNDRHS LOBROW30324 0.000000
    BOUNDRHS UPBROW30325 8.890000
    BOUNDRHS LOBROW30326 0.000000
    BOUNDRHS UPBROW30327 1.000000
BOUNDS
ENDATA
