NAME          SHARE2B
ROWS
 N  000000  
 E  000004  
 E  000005  
 E  000006  
 E  000007  
 E  000008  
 E  000009  
 E  000010  
 E  000011  
 E  000012  
 E  000013  
 E  000014  
 E  000015  
 E  000016  
 E  000017  
 E  000018  
 E  000019  
 E  000020  
 E  000021  
 E  000022  
 E  000023  
 E  000024  
 E  000025  
 E  000026  
 E  000027  
 E  000028  
 E  000029  
 E  000030  
 E  000031  
 E  000032  
 E  000033  
 E  000034  
 E  000035  
 E  000036  
 E  000037  
 E  000038  
 E  000039  
 E  000040  
 E  000041  
 E  000042  
 E  000043  
 E  000044  
 E  000045  
 E  000046  
 E  000047  
 E  000048  
 E  000049  
 E  000050  
 E  000051  
 E  000052  
 E  000053  
 E  000054  
 E  000055  
 E  000056  
 E  000057  
 E  000058  
 E  000059  
 E  000060  
 E  000061  
 E  000062  
 E  000063  
 E  000064  
 E  000065  
 E  000066  
 E  000067  
 E  000068  
 E  000069  
 E  000070  
 E  000071  
 E  000072  
 E  000073  
 E  000074  
 E  000075  
 E  000076  
 E  000077  
 E  000078  
 E  000079  
 E  000080  
 E  000081  
 E  000082  
 E  000083  
 E  000084  
 E  000085  
 E  000086  
 E  000087  
 E  000088  
 E  000089  
 E  000090  
 E  000091  
 E  000092  
 E  000093  
 E  000094  
 E  000095  
 E  000096  
 E  000097  
 E  000098  
 E  000099  
COLUMNS
    010101   000004   65.000000   000005   1.000000
    010101   000006   -1.000000   000007   -1.000000
    010101   000008   -97.400000   000009   -99.900000
    010101   000010   -83.700000   000011   -85.000000
    010101   000013   1.000000
    010102   000004   5.500000   000005   0.680000
    010102   000006   -0.960000   000007   -1.000000
    010102   000008   -84.000000   000009   -88.100000
    010102   000010   -79.400000   000011   -83.200000
    010102   000013   1.000000   000064   1.000000
    010103   000004   0.800000   000007   -0.780000
    010103   000008   -87.900000   000009   -82.900000
    010103   000010   -74.600000   000011   -80.600000
    010103   000013   1.000000   000065   1.000000
    010104   000004   4.500000   000005   0.270000
    010104   000006   -0.970000   000007   -1.000000
    010104   000008   -97.900000   000009   -100.300000
    010104   000010   -95.000000   000011   -98.000000
    010104   000013   1.000000   000088   1.000000
    010105   000004   1.500000   000005   0.120000
    010105   000006   -0.360000   000007   -0.950000
    010105   000008   -60.600000   000009   -76.300000
    010105   000010   -68.600000   000011   -76.800000
    010105   000013   1.000000   000066   1.000000
    010106   000000   0.030000   000004   6.000000
    010106   000005   0.190000   000006   -0.350000
    010106   000007   -0.890000   000008   -94.800000
    010106   000009   -96.600000   000010   -83.800000
    010106   000011   -86.800000   000013   1.000000
    010106   000066   1.100000
    010107   000000   0.060000   000004   3.300000
    010107   000005   0.070000   000006   -0.290000
    010107   000007   -0.970000   000008   -97.900000
    010107   000009   -100.300000   000010   -95.000000
    010107   000011   -98.000000   000013   1.000000
    010107   000066   1.200000
    010108   000004   5.800000   000005   0.500000
    010108   000006   -0.620000   000007   -0.980000
    010108   000008   -96.500000   000009   -98.100000
    010108   000010   -80.800000   000011   -81.500000
    010108   000013   1.000000   000067   1.000000
    010120   000000   0.090000   000008   -2.100000
    010120   000009   -0.700000   000010   -2.300000
    010120   000011   -1.000000   000012   1.000000
    010131   000000   -3.800000   000004   -11.000000
    010131   000005   -0.500000   000006   0.500000
    010131   000007   0.900000   000008   100.000000
    010131   000009   100.000000   000010   90.000000
    010131   000011   90.000000   000012   -3.000000
    010131   000013   -1.000000   000082   1.000000
    010132   000000   -3.700000   000082   -1.000000
    010132   000083   1.000000
    010133   000000   -3.500000   000082   -1.000000
    010133   000084   1.000000
    010201   000014   65.000000   000015   1.000000
    010201   000016   -1.000000   000017   -1.000000
    010201   000018   -97.400000   000019   -99.900000
    010201   000020   -83.700000   000021   -85.000000
    010201   000023   1.000000
    010202   000014   5.500000   000015   0.570000
    010202   000016   -1.000000   000017   -1.000000
    010202   000018   -84.000000   000019   -88.100000
    010202   000020   -79.400000   000021   -83.200000
    010202   000023   1.000000   000064   1.000000
    010203   000014   0.800000   000016   -0.010000
    010203   000017   -0.980000   000018   -87.900000
    010203   000019   -82.900000   000020   -74.600000
    010203   000021   -80.600000   000023   1.000000
    010203   000065   1.000000
    010204   000014   1.500000   000015   0.120000
    010204   000016   -0.360000   000017   -0.950000
    010204   000018   -60.600000   000019   -76.300000
    010204   000020   -68.600000   000021   -76.800000
    010204   000023   1.000000   000066   1.000000
    010205   000000   0.100000   000014   2.700000
    010205   000015   0.130000   000016   -0.280000
    010205   000017   -0.790000   000018   -77.900000
    010205   000019   -81.400000   000020   -70.600000
    010205   000021   -74.000000   000023   1.000000
    010205   000069   1.000000
    010206   000014   5.800000   000015   0.460000
    010206   000016   -0.670000   000017   -1.000000
    010206   000018   -96.500000   000019   -98.100000
    010206   000020   -80.800000   000021   -81.500000
    010206   000023   1.000000   000067   1.000000
    010220   000000   0.090000   000018   -3.500000
    010220   000019   -1.900000   000020   -3.400000
    010220   000021   -1.800000   000022   1.000000
    010231   000000   -3.000000   000014   -11.000000
    010231   000015   -0.500000   000016   0.500000
    010231   000017   0.900000   000018   89.000000
    010231   000019   89.000000   000020   82.000000
    010231   000021   82.000000   000022   -3.000000
    010231   000023   -1.000000   000085   1.000000
    010231   000089   -0.250000
    010301   000024   70.000000   000025   1.000000
    010301   000026   -1.000000   000027   -1.000000
    010301   000028   -97.800000   000029   -102.300000
    010301   000030   -94.800000   000031   -99.800000
    010301   000033   1.000000
    010302   000024   9.500000   000025   0.700000
    010302   000026   -0.830000   000027   -1.000000
    010302   000028   -89.100000   000029   -92.000000
    010302   000030   -77.400000   000031   -80.100000
    010302   000033   1.000000   000068   1.000000
    010303   000024   2.700000   000025   0.130000
    010303   000026   -0.280000   000027   -0.790000
    010303   000028   -77.900000   000029   -81.400000
    010303   000030   -70.600000   000031   -74.000000
    010303   000033   1.000000   000069   1.000000
    010304   000024   10.800000   000025   0.970000
    010304   000026   -1.000000   000027   -1.000000
    010304   000028   -84.600000   000029   -89.700000
    010304   000030   -83.600000   000031   -89.400000
    010304   000033   1.000000   000070   1.000000
    010305   000024   1.500000   000025   0.120000
    010305   000026   -0.360000   000027   -0.950000
    010305   000028   -60.600000   000029   -76.300000
    010305   000030   -68.600000   000031   -76.800000
    010305   000033   1.000000   000071   1.000000
    010306   000000   0.060000   000024   6.200000
    010306   000025   0.190000   000026   -0.350000
    010306   000027   -0.890000   000028   -95.900000
    010306   000029   -97.600000   000030   -85.400000
    010306   000031   -87.800000   000033   1.000000
    010306   000071   1.200000
    010307   000000   0.030000   000024   6.000000
    010307   000025   0.190000   000026   -0.350000
    010307   000027   -0.890000   000028   -94.800000
    010307   000029   -96.600000   000030   -83.800000
    010307   000031   -86.800000   000033   1.000000
    010307   000071   1.100000
    010308   000000   0.100000   000024   4.500000
    010308   000025   0.270000   000026   -0.970000
    010308   000027   -1.000000   000028   -97.900000
    010308   000029   -100.300000   000030   -95.000000
    010308   000031   -98.000000   000033   1.000000
    010308   000088   1.000000
    010309   000000   0.100000   000024   5.500000
    010309   000025   0.680000   000026   -0.960000
    010309   000027   -1.000000   000028   -84.000000
    010309   000029   -88.100000   000030   -79.400000
    010309   000031   -83.200000   000033   1.000000
    010309   000064   1.000000
    010310   000000   0.100000   000024   6.500000
    010310   000025   0.480000   000026   -0.560000
    010310   000027   -0.970000   000028   -96.500000
    010310   000029   -97.100000   000030   -82.200000
    010310   000031   -83.300000   000033   1.000000
    010310   000067   1.000000
    010320   000000   0.090000   000028   -1.900000
    010320   000029   -0.900000   000030   -2.400000
    010320   000031   -0.900000   000032   1.000000
    010331   000000   -3.700000   000024   -11.000000
    010331   000025   -0.500000   000026   0.500000
    010331   000027   0.900000   000028   100.000000
    010331   000029   100.000000   000030   90.000000
    010331   000031   90.000000   000033   -1.000000
    010331   000032   -3.000000   000083   1.000000
    010333   000000   -3.500000   000083   -1.000000
    010333   000084   1.000000
    010401   000034   70.000000   000035   1.000000
    010401   000036   -1.000000   000037   -1.000000
    010401   000038   -97.800000   000039   -102.300000
    010401   000040   -94.800000   000041   -99.800000
    010401   000043   1.000000
    010402   000034   9.500000   000035   0.680000
    010402   000036   -0.900000   000037   -1.000000
    010402   000038   -89.100000   000039   -92.000000
    010402   000040   -77.400000   000041   -80.100000
    010402   000043   1.000000   000068   1.000000
    010403   000034   2.700000   000035   0.090000
    010403   000036   -0.370000   000037   -0.920000
    010403   000038   -77.900000   000039   -81.400000
    010403   000040   -70.600000   000041   -74.000000
    010403   000043   1.000000   000069   1.000000
    010404   000034   10.800000   000035   0.930000
    010404   000036   -1.000000   000037   -1.000000
    010404   000038   -84.600000   000039   -89.700000
    010404   000040   -83.600000   000041   -89.400000
    010404   000043   1.000000   000070   1.000000
    010405   000000   0.030000   000034   6.200000
    010405   000035   0.150000   000036   -0.450000
    010405   000037   -0.980000   000038   -95.900000
    010405   000039   -97.600000   000040   -85.400000
    010405   000041   -87.800000   000043   1.000000
    010405   000071   1.100000
    010406   000000   0.100000   000034   6.500000
    010406   000035   0.450000   000036   -0.630000
    010406   000037   -1.000000   000038   -96.500000
    010406   000039   -97.100000   000040   -82.200000
    010406   000041   -83.300000   000043   1.000000
    010406   000067   1.000000
    010407   000034   1.500000   000035   0.120000
    010407   000036   -0.360000   000037   -0.950000
    010407   000038   -60.600000   000039   -76.300000
    010407   000040   -68.600000   000041   -76.800000
    010407   000043   1.000000   000071   1.000000
    010408   000000   0.100000   000034   5.500000
    010408   000035   0.680000   000036   -0.960000
    010408   000037   -1.000000   000038   -84.000000
    010408   000039   -88.100000   000040   -79.400000
    010408   000041   -83.200000   000043   1.000000
    010408   000064   1.000000
    010420   000000   0.090000   000038   -3.900000
    010420   000039   -1.400000   000040   -3.500000
    010420   000041   -1.300000   000042   1.000000
    010431   000000   -2.900000   000034   -11.000000
    010431   000035   -0.500000   000036   0.500000
    010431   000037   0.900000   000038   89.000000
    010431   000039   89.000000   000040   82.000000
    010431   000041   82.000000   000042   -3.000000
    010431   000043   -1.000000   000086   1.000000
    010432   000000   -2.800000   000085   1.000000
    010432   000086   -1.000000   000089   0.750000
    010501   000044   56.000000   000045   1.000000
    010501   000046   -1.000000   000047   -1.000000
    010501   000048   -99.400000   000049   -103.000000
    010501   000050   -96.700000   000051   -101.200000
    010501   000053   1.000000
    010502   000044   1.800000   000047   -1.000000
    010502   000048   -87.900000   000049   -91.600000
    010502   000050   -88.100000   000051   -92.000000
    010502   000053   1.000000   000072   1.000000
    010503   000044   1.400000   000047   -0.540000
    010503   000048   -86.200000   000049   -90.000000
    010503   000050   -88.000000   000051   -91.300000
    010503   000053   1.000000   000073   1.000000
    010504   000044   10.600000   000045   0.680000
    010504   000046   -0.870000   000047   -1.000000
    010504   000048   -99.900000   000049   -100.400000
    010504   000050   -80.800000   000051   -81.700000
    010504   000053   1.000000   000074   1.000000
    010505   000044   2.500000   000047   -0.650000
    010505   000048   -89.600000   000049   -91.700000
    010505   000050   -79.300000   000051   -82.100000
    010505   000053   1.000000   000075   1.000000
    010506   000044   11.500000   000045   0.770000
    010506   000046   -0.930000   000047   -1.000000
    010506   000048   -79.500000   000049   -85.100000
    010506   000050   -80.200000   000051   -86.200000
    010506   000053   1.000000   000076   1.000000
    010507   000044   1.500000   000045   0.120000
    010507   000046   -0.360000   000047   -0.950000
    010507   000048   -60.600000   000049   -76.300000
    010507   000050   -68.600000   000051   -76.800000
    010507   000053   1.000000   000077   1.000000
    010508   000000   0.030000   000044   4.200000
    010508   000045   0.080000   000046   -0.300000
    010508   000047   -0.910000   000048   -99.500000
    010508   000049   -99.900000   000050   -87.600000
    010508   000051   -89.000000   000053   1.000000
    010508   000077   1.100000
    010509   000000   0.060000   000044   4.300000
    010509   000045   0.070000   000046   -0.270000
    010509   000047   -0.900000   000048   -101.400000
    010509   000049   -101.500000   000050   -89.000000
    010509   000051   -90.200000   000053   1.000000
    010509   000077   1.200000
    010520   000000   0.090000   000048   -1.600000
    010520   000049   -0.800000   000050   -2.000000
    010520   000051   -0.800000   000052   1.000000
    010531   000000   -3.500000   000044   -10.000000
    010531   000045   -0.500000   000046   0.500000
    010531   000047   0.900000   000048   101.000000
    010531   000049   101.000000   000050   91.000000
    010531   000051   91.000000   000052   -3.000000
    010531   000053   -1.000000   000084   1.000000
    010601   000054   56.000000   000055   1.000000
    010601   000056   -1.000000   000057   -1.000000
    010601   000058   -97.700000   000059   -100.600000
    010601   000060   -94.500000   000061   -98.500000
    010601   000063   1.000000
    010602   000054   10.600000   000055   0.390000
    010602   000056   -1.000000   000057   -1.000000
    010602   000058   -98.200000   000059   -98.000000
    010602   000060   -78.600000   000061   -79.000000
    010602   000063   1.000000   000074   1.000000
    010603   000054   2.500000   000057   -0.870000
    010603   000058   -87.900000   000059   -89.300000
    010603   000060   -77.100000   000061   -79.400000
    010603   000063   1.000000   000075   1.000000
    010604   000054   3.600000   000055   0.270000
    010604   000056   -1.000000   000057   -1.000000
    010604   000058   -78.800000   000059   -82.700000
    010604   000060   -75.100000   000061   -80.500000
    010604   000063   1.000000   000078   1.000000
    010605   000054   11.500000   000055   0.730000
    010605   000056   -0.980000   000057   -1.000000
    010605   000058   -78.200000   000059   -82.700000
    010605   000060   -78.000000   000061   -83.500000
    010605   000063   1.000000   000076   1.000000
    010606   000054   2.000000   000056   -0.380000
    010606   000057   -1.000000   000058   -66.900000
    010606   000059   -71.400000   000060   -67.600000
    010606   000061   -73.800000   000063   1.000000
    010606   000079   1.000000
    010607   000054   14.600000   000055   1.000000
    010607   000056   -1.000000   000057   -1.000000
    010607   000058   -74.700000   000059   -79.800000
    010607   000060   -77.300000   000061   -83.000000
    010607   000063   1.000000   000080   1.000000
    010608   000054   6.100000   000055   0.330000
    010608   000056   -0.650000   000057   -1.000000
    010608   000058   -70.700000   000059   -75.900000
    010608   000060   -69.600000   000061   -75.300000
    010608   000063   1.000000   000081   1.000000
    010609   000000   0.030000   000054   4.200000
    010609   000055   0.040000   000056   -0.360000
    010609   000057   -0.980000   000058   -97.800000
    010609   000059   -97.500000   000060   -85.400000
    010609   000061   -86.300000   000063   1.000000
    010609   000077   1.100000
    010620   000000   0.090000   000058   -3.300000
    010620   000059   -1.600000   000060   -4.200000
    010620   000061   -1.700000   000062   1.000000
    010631   000000   -2.700000   000054   -11.000000
    010631   000055   -0.500000   000056   0.500000
    010631   000057   0.900000   000058   89.000000
    010631   000059   89.000000   000060   82.000000
    010631   000061   82.000000   000062   -3.000000
    010631   000063   -1.000000   000087   1.000000
    010632   000000   -2.700000   000085   1.000000
    010632   000087   -1.000000   000089   0.750000
    010633   000000   -2.700000   000086   1.000000
    010633   000087   -1.000000
    010701   000090   56.000000   000091   1.000000
    010701   000092   -1.000000   000093   -1.000000
    010701   000094   -97.700000   000095   -100.600000
    010701   000096   -94.500000   000097   -98.500000
    010701   000099   1.000000
    010702   000074   1.000000   000090   10.600000
    010702   000091   0.390000   000092   -1.000000
    010702   000093   -1.000000   000094   -98.200000
    010702   000095   -98.000000   000096   -78.600000
    010702   000097   -79.000000   000099   1.000000
    010703   000075   1.000000   000090   2.500000
    010703   000093   -0.870000   000094   -87.900000
    010703   000095   -89.300000   000096   -77.100000
    010703   000097   -79.400000   000099   1.000000
    010704   000078   1.000000   000090   3.600000
    010704   000091   0.270000   000092   -1.000000
    010704   000093   -1.000000   000094   -78.800000
    010704   000095   -82.700000   000096   -75.100000
    010704   000097   -80.500000   000099   1.000000
    010705   000076   1.000000   000090   11.500000
    010705   000091   0.730000   000092   -0.980000
    010705   000093   -1.000000   000094   -78.200000
    010705   000095   -82.700000   000096   -78.000000
    010705   000097   -83.500000   000099   1.000000
    010706   000079   1.000000   000090   2.000000
    010706   000092   -0.380000   000093   -1.000000
    010706   000094   -66.900000   000095   -71.400000
    010706   000096   -67.600000   000097   -73.800000
    010706   000099   1.000000
    010707   000080   1.000000   000090   14.600000
    010707   000091   1.000000   000092   -1.000000
    010707   000093   -1.000000   000094   -74.700000
    010707   000095   -79.800000   000096   -77.300000
    010707   000097   -83.000000   000099   1.000000
    010708   000000   0.030000   000077   1.100000
    010708   000090   4.200000   000091   0.040000
    010708   000092   -0.360000   000093   -0.980000
    010708   000094   -97.800000   000095   -97.500000
    010708   000096   -85.400000   000097   -86.300000
    010708   000099   1.000000
    010709   000000   0.070000   000077   1.200000
    010709   000090   4.300000   000091   0.070000
    010709   000092   -0.270000   000093   -0.900000
    010709   000094   -101.400000   000095   -101.500000
    010709   000096   -89.000000   000097   -90.200000
    010709   000099   1.000000
    010720   000000   0.090000   000094   -3.300000
    010720   000095   -1.600000   000096   -4.200000
    010720   000097   -1.700000   000098   1.000000
    010731   000000   -2.700000   000090   -10.000000
    010731   000091   -0.500000   000092   0.500000
    010731   000093   0.900000   000094   90.000000
    010731   000095   90.000000   000096   83.000000
    010731   000097   83.000000   000098   -3.000000
    010731   000099   -1.000000
    SLACK6478 000004   1.000000
    SLACK6479 000005   1.000000
    SLACK6480 000006   1.000000
    SLACK6481 000007   1.000000
    SLACK6482 000008   1.000000
    SLACK6483 000009   1.000000
    SLACK6484 000010   1.000000
    SLACK6485 000011   1.000000
    SLACK6486 000012   1.000000
    SLACK6487 000014   1.000000
    SLACK6488 000015   1.000000
    SLACK6489 000016   1.000000
    SLACK6490 000017   1.000000
    SLACK6491 000018   1.000000
    SLACK6492 000019   1.000000
    SLACK6493 000020   1.000000
    SLACK6494 000021   1.000000
    SLACK6495 000022   1.000000
    SLACK6496 000024   1.000000
    SLACK6497 000025   1.000000
    SLACK6498 000026   1.000000
    SLACK6499 000027   1.000000
    SLACK6500 000028   1.000000
    SLACK6501 000029   1.000000
    SLACK6502 000030   1.000000
    SLACK6503 000031   1.000000
    SLACK6504 000032   1.000000
    SLACK6505 000034   1.000000
    SLACK6506 000035   1.000000
    SLACK6507 000036   1.000000
    SLACK6508 000037   1.000000
    SLACK6509 000038   1.000000
    SLACK6510 000039   1.000000
    SLACK6511 000040   1.000000
    SLACK6512 000041   1.000000
    SLACK6513 000042   1.000000
    SLACK6514 000044   1.000000
    SLACK6515 000045   1.000000
    SLACK6516 000046   1.000000
    SLACK6517 000047   1.000000
    SLACK6518 000048   1.000000
    SLACK6519 000049   1.000000
    SLACK6520 000050   1.000000
    SLACK6521 000051   1.000000
    SLACK6522 000052   1.000000
    SLACK6523 000054   1.000000
    SLACK6524 000055   1.000000
    SLACK6525 000056   1.000000
    SLACK6526 000057   1.000000
    SLACK6527 000058   1.000000
    SLACK6528 000059   1.000000
    SLACK6529 000060   1.000000
    SLACK6530 000061   1.000000
    SLACK6531 000062   1.000000
    SLACK6532 000064   1.000000
    SLACK6533 000065   1.000000
    SLACK6534 000066   1.000000
    SLACK6535 000067   1.000000
    SLACK6536 000068   1.000000
    SLACK6537 000069   1.000000
    SLACK6538 000070   1.000000
    SLACK6539 000071   1.000000
    SLACK6540 000072   1.000000
    SLACK6541 000073   1.000000
    SLACK6542 000074   1.000000
    SLACK6543 000075   1.000000
    SLACK6544 000076   1.000000
    SLACK6545 000077   1.000000
    SLACK6546 000078   1.000000
    SLACK6547 000079   1.000000
    SLACK6548 000080   1.000000
    SLACK6549 000081   1.000000
    SLACK6550 000088   1.000000
    SLACK6551 000089   1.000000
    SLACK6552 000090   1.000000
    SLACK6553 000091   1.000000
    SLACK6554 000092   1.000000
    SLACK6555 000093   1.000000
    SLACK6556 000094   1.000000
    SLACK6557 000095   1.000000
    SLACK6558 000096   1.000000
    SLACK6559 000097   1.000000
    SLACK6560 000098   1.000000
RHS
    RHS      000064   7.000000
    RHS      000065   7.000000
    RHS      000066   7.000000
    RHS      000067   21.000000
    RHS      000068   3.000000
    RHS      000069   3.000000
    RHS      000070   3.000000
    RHS      000071   7.000000
    RHS      000072   1.500000
    RHS      000073   1.500000
    RHS      000074   10.000000
    RHS      000075   10.000000
    RHS      000076   8.500000
    RHS      000077   13.000000
    RHS      000078   1.500000
    RHS      000079   1.500000
    RHS      000080   1.000000
    RHS      000081   1.000000
    RHS      000082   15.000000
    RHS      000083   15.000000
    RHS      000084   20.000000
    RHS      000085   20.000000
    RHS      000086   15.000000
    RHS      000088   1.000000
BOUNDS
ENDATA
