NAME          SHARE1B
ROWS
 N  000000  
 E  000002  
 E  000003  
 E  000004  
 E  000005  
 E  000006  
 E  000007  
 E  000008  
 E  000009  
 E  000010  
 E  000011  
 E  000012  
 E  000013  
 E  000014  
 E  000015  
 E  000016  
 E  000017  
 E  000018  
 E  000019  
 E  000020  
 E  000021  
 E  000022  
 E  000023  
 E  000024  
 E  000025  
 E  000026  
 E  000027  
 E  000028  
 E  000029  
 E  000030  
 E  000031  
 E  000032  
 E  000033  
 E  000034  
 E  000035  
 E  000036  
 E  000037  
 E  000038  
 E  000039  
 E  000040  
 E  000041  
 E  000042  
 E  000043  
 E  000044  
 E  000045  
 E  000046  
 E  000047  
 E  000048  
 E  000049  
 E  000050  
 E  000051  
 E  000052  
 E  000053  
 E  000054  
 E  000055  
 E  000056  
 E  000057  
 E  000058  
 E  000059  
 E  000060  
 E  000061  
 E  000062  
 E  000063  
 E  000064  
 E  000065  
 E  000066  
 E  000067  
 E  000068  
 E  000069  
 E  000070  
 E  000071  
 E  000072  
 E  000073  
 E  000074  
 E  000075  
 E  000076  
 E  000077  
 E  000078  
 E  000079  
 E  000080  
 E  000081  
 E  000082  
 E  000083  
 E  000084  
 E  000085  
 E  000086  
 E  000087  
 E  000088  
 E  000089  
 E  000090  
 E  000091  
 E  000092  
 E  000093  
 E  000094  
 E  000095  
 E  000096  
 E  000097  
 E  000098  
 E  000099  
 E  000100  
 E  000101  
 E  000102  
 E  000103  
 E  000104  
 E  000105  
 E  000106  
 E  000107  
 E  000108  
 E  000109  
 E  000110  
 E  000111  
 E  000112  
 E  000113  
 E  000114  
 E  000115  
 E  000116  
 E  000117  
 E  000118  
COLUMNS
    CCC001   000014   -1.000000   000015   1.000000
    CCC001   000016   100.000000   000017   130.500000
    CCC001   000018   -101.000000   000020   -14.000000
    CCC002   000002   1.000000   000014   1.000000
    CCC002   000016   -106.000000   000017   -126.000000
    CCC002   000018   339.000000   000019   -447.509800
    CCC003   000005   1.000000   000014   1.000000
    CCC003   000016   -91.400000   000017   -99.300000
    CCC003   000018   83.000000   000019   -18.240000
    CCC004   000008   1.000000   000014   1.000000
    CCC004   000016   -106.600000   000017   -141.000000
    CCC004   000018   68.000000   000019   -301.159900
    CCC005   000011   1.000000   000014   1.000000
    CCC005   000016   -102.600000   000017   -190.000000
    CCC005   000018   12.000000   000019   985.639900
    CCC005   000020   100.000000
    CCC006   000014   1.000000   000016   -106.200000
    CCC006   000017   -245.000000   000018   6.000000
    CCC006   000019   1101.089800   000062   1.000000
    CCC007   000021   -1.000000   000022   1.000000
    CCC007   000023   102.700000   000024   136.200000
    CCC007   000025   -101.000000   000027   -12.000000
    CCC008   000002   1.000000   000021   1.000000
    CCC008   000023   -105.000000   000024   -114.000000
    CCC008   000025   339.000000   000026   -397.399900
    CCC009   000005   1.000000   000021   1.000000
    CCC009   000023   -89.700000   000024   -97.000000
    CCC009   000025   83.000000   000026   39.930000
    CCC010   000008   1.000000   000021   1.000000
    CCC010   000023   -105.200000   000024   -134.000000
    CCC010   000025   68.000000   000026   -245.370000
    CCC011   000011   1.000000   000021   1.000000
    CCC011   000023   -102.000000   000024   -158.000000
    CCC011   000025   12.000000   000026   1053.919900
    CCC011   000027   100.000000
    CCC012   000021   1.000000   000023   -105.400000
    CCC012   000024   -218.000000   000025   6.000000
    CCC012   000026   1170.200000   000062   1.000000
    CCC013   000000   -8.000000   000028   -1.000000
    CCC013   000029   1.000000   000030   104.600000
    CCC013   000031   147.300000   000032   -101.000000
    CCC014   000002   1.000000   000028   1.000000
    CCC014   000030   -107.000000   000031   -131.000000
    CCC014   000032   339.000000   000033   -287.149900
    CCC015   000005   1.000000   000028   1.000000
    CCC015   000030   -92.500000   000031   -100.700000
    CCC015   000032   83.000000   000033   167.910000
    CCC016   000008   1.000000   000028   1.000000
    CCC016   000030   -107.400000   000031   -146.000000
    CCC016   000032   68.000000   000033   -122.630000
    CCC017   000011   1.000000   000028   1.000000
    CCC017   000030   -102.900000   000031   -203.000000
    CCC017   000032   12.000000   000033   1204.119900
    CCC018   000028   1.000000   000030   -106.500000
    CCC018   000031   -255.000000   000032   6.000000
    CCC018   000033   1322.230000   000062   1.000000
    CCC019   000028   1.000000   000030   -107.100000
    CCC019   000031   -153.000000   000032   65.000000
    CCC019   000033   -107.500000   000113   1.000000
    CCC020   000000   -4.200000   000034   -1.000000
    CCC020   000035   1.000000   000036   7.150000
    CCC020   000037   -0.910000   000040   -1.000000
    CCC020   000041   -131.000000   000042   -50.000000
    CCC020   000043   50.000000   000044   90.000000
    CCC021   000036   -1.300000   000038   -1.000000
    CCC022   000036   -5.500000   000114   -1.000000
    CCC023   000000   0.002400   000039   -1.000000
    CCC024   000000   1.890000   000034   1.000000
    CCC024   000036   5.850000   000037   -80.000000
    CCC024   000041   1100.000000   000042   100.000000
    CCC024   000043   -100.000000   000044   -100.000000
    CCC024   000114   1.300000
    CCC025   000000   100.000000   000007   1.000000
    CCC025   000034   1.000000   000036   4.400000
    CCC025   000037   -70.700000   000041   61.000000
    CCC025   000042   33.500000   000043   -71.300000
    CCC025   000044   -100.000000   000114   1.000000
    CCC026   000010   1.123600   000034   1.000000
    CCC026   000036   4.800000   000037   -38.700000
    CCC026   000041   20.000000   000042   8.000000
    CCC026   000043   -13.000000   000044   -84.500000
    CCC026   000114   1.000000
    CCC027   000011   1.000000   000034   1.000000
    CCC027   000036   -5.000000   000037   -23.400000
    CCC027   000041   12.000000   000044   -100.000000
    CCC027   000114   1.000000
    CCC028   000012   1.000000   000034   1.000000
    CCC028   000036   8.260000   000037   -42.400000
    CCC028   000041   115.000000   000042   53.200000
    CCC028   000043   -63.200000   000044   -96.000000
    CCC028   000114   1.400000
    CCC029   000034   1.000000   000036   8.000000
    CCC029   000037   -28.100000   000041   176.000000
    CCC029   000042   75.800000   000043   -85.300000
    CCC029   000044   -100.000000   000067   1.000000
    CCC029   000114   3.200000
    CCC030   000000   -4.000000   000045   -1.000000
    CCC030   000046   1.000000   000047   6.325000
    CCC030   000048   -2.280000   000051   -1.000000
    CCC030   000052   -140.000000   000053   -50.000000
    CCC030   000054   50.000000   000055   90.000000
    CCC031   000000   1.890000   000045   1.000000
    CCC031   000047   -7.800000   000048   -80.000000
    CCC031   000052   1100.000000   000053   100.000000
    CCC031   000054   -100.000000   000055   -100.000000
    CCC031   000116   1.300000
    CCC032   000003   1.000000   000045   1.000000
    CCC032   000047   17.550000   000048   -68.000000
    CCC032   000052   218.000000   000053   97.000000
    CCC032   000054   -98.500000   000055   -100.000000
    CCC032   000116   1.300000
    CCC033   000004   1.000000   000045   1.000000
    CCC033   000047   12.700000   000048   -63.700000
    CCC033   000052   171.000000   000053   87.700000
    CCC033   000054   -93.000000   000055   -100.000000
    CCC033   000116   1.000000
    CCC034   000006   1.000000   000045   1.000000
    CCC034   000047   0.300000   000048   -54.600000
    CCC034   000052   169.000000   000053   96.500000
    CCC034   000054   -98.000000   000055   -100.000000
    CCC034   000116   1.500000
    CCC035   000009   1.000000   000045   1.000000
    CCC035   000047   10.400000   000048   -78.200000
    CCC035   000052   65.000000   000053   80.000000
    CCC035   000054   -98.000000   000055   -100.000000
    CCC035   000116   1.000000
    CCC036   000010   1.098900   000045   1.000000
    CCC036   000047   5.900000   000048   -57.400000
    CCC036   000052   22.000000   000053   16.000000
    CCC036   000054   -33.400000   000055   -95.000000
    CCC036   000116   1.000000
    CCC037   000069   -1.000000   000070   1.000000
    CCC037   000071   100.000000   000072   130.500000
    CCC037   000073   -101.000000   000075   45.000000
    CCC037   000076   -13.000000
    CCC038   000056   1.000000   000069   1.000000
    CCC038   000071   -106.000000   000072   -130.000000
    CCC038   000073   346.000000   000074   -440.700000
    CCC038   000075   -100.000000
    CCC039   000058   1.000000   000069   1.000000
    CCC039   000071   -99.500000   000072   -100.000000
    CCC039   000073   114.000000   000074   -278.470000
    CCC039   000075   -88.960000
    CCC040   000059   1.000000   000069   1.000000
    CCC040   000071   -89.000000   000072   -92.000000
    CCC040   000073   32.000000   000074   50.360000
    CCC041   000061   1.000000   000069   1.000000
    CCC041   000071   -106.000000   000072   -147.000000
    CCC041   000073   67.000000   000074   -303.589800
    CCC041   000075   -14.690000
    CCC042   000062   1.000000   000069   1.000000
    CCC042   000071   -104.000000   000072   -200.000000
    CCC042   000073   6.000000   000074   1101.089800
    CCC043   000077   -1.000000   000078   1.000000
    CCC043   000079   102.700000   000080   136.200000
    CCC043   000081   -101.000000   000083   -11.000000
    CCC044   000056   1.000000   000077   1.000000
    CCC044   000079   -104.300000   000080   -120.000000
    CCC044   000081   346.000000   000082   -390.609900
    CCC045   000058   1.000000   000077   1.000000
    CCC045   000079   -98.100000   000080   -83.000000
    CCC045   000081   114.000000   000082   -224.850000
    CCC046   000061   1.000000   000077   1.000000
    CCC046   000079   -104.500000   000080   -137.000000
    CCC046   000081   67.000000   000082   -247.740000
    CCC047   000062   1.000000   000077   1.000000
    CCC047   000079   -103.500000   000080   -190.000000
    CCC047   000081   6.000000   000082   1170.200000
    CCC048   000000   -8.000000   000084   -1.000000
    CCC048   000085   1.000000   000086   104.600000
    CCC048   000087   147.300000   000088   -101.000000
    CCC049   000056   1.000000   000084   1.000000
    CCC049   000086   -106.800000   000087   -135.000000
    CCC049   000088   346.000000   000089   -280.409900
    CCC050   000058   1.000000   000084   1.000000
    CCC050   000086   -100.400000   000087   -109.000000
    CCC050   000088   114.000000   000089   -106.880000
    CCC051   000061   1.000000   000084   1.000000
    CCC051   000086   -106.800000   000087   -151.500000
    CCC051   000088   67.000000   000089   -124.880000
    CCC052   000062   1.000000   000084   1.000000
    CCC052   000086   -104.200000   000087   -205.000000
    CCC052   000088   6.000000   000089   1322.230000
    CCC053   000000   -4.200000   000090   -1.000000
    CCC053   000091   1.000000   000092   11.000000
    CCC053   000093   -2.000000   000096   -1.000000
    CCC053   000097   -131.000000   000098   -50.000000
    CCC053   000099   50.000000   000100   90.000000
    CCC054   000000   0.002400   000095   -1.000000
    CCC055   000092   -2.000000   000094   -1.000000
    CCC056   000092   -5.500000   000115   -1.000000
    CCC057   000000   1.890000   000090   1.000000
    CCC057   000092   5.850000   000093   -82.200000
    CCC057   000097   1100.000000   000098   100.000000
    CCC057   000099   -100.000000   000100   -100.000000
    CCC057   000115   1.300000
    CCC058   000000   100.000000   000061   1.000000
    CCC058   000090   1.000000   000092   4.800000
    CCC058   000093   -71.300000   000097   67.000000
    CCC058   000098   37.000000   000099   -61.200000
    CCC058   000100   -100.000000   000115   1.000000
    CCC059   000063   1.000000   000090   1.000000
    CCC059   000092   22.100000   000093   -68.200000
    CCC059   000097   32.000000   000098   23.300000
    CCC059   000099   -70.000000   000100   -100.000000
    CCC059   000115   1.000000
    CCC060   000064   1.000000   000090   1.000000
    CCC060   000092   -17.550000   000093   -28.800000
    CCC060   000100   -100.000000   000115   2.700000
    CCC061   000066   1.123600   000090   1.000000
    CCC061   000092   14.220000   000093   -52.200000
    CCC061   000097   25.000000   000098   9.300000
    CCC061   000099   -18.000000   000100   -82.000000
    CCC061   000115   1.800000
    CCC062   000067   1.000000   000090   1.000000
    CCC062   000092   8.000000   000093   -28.100000
    CCC062   000097   176.000000   000098   75.800000
    CCC062   000099   -85.300000   000100   -100.000000
    CCC062   000115   3.200000
    CCC063   000000   -4.000000   000068   -0.100000
    CCC063   000101   -1.000000   000102   1.000000
    CCC063   000103   8.250000   000104   -0.590000
    CCC063   000107   -1.000000   000108   -140.000000
    CCC063   000109   -50.000000   000110   50.000000
    CCC063   000111   90.000000
    CCC064   000000   1.890000   000101   1.000000
    CCC064   000103   -7.800000   000104   -82.200000
    CCC064   000108   1100.000000   000109   100.000000
    CCC064   000110   -100.000000   000111   -100.000000
    CCC064   000117   1.300000
    CCC065   000057   1.000000   000101   1.000000
    CCC065   000103   20.800000   000104   -80.200000
    CCC065   000108   271.000000   000109   100.000000
    CCC065   000110   -100.000000   000111   -100.000000
    CCC065   000117   1.300000
    CCC066   000060   1.000000   000101   1.000000
    CCC066   000103   3.000000   000104   -59.300000
    CCC066   000108   195.000000   000109   100.000000
    CCC066   000110   -100.000000   000111   -100.000000
    CCC066   000117   1.500000
    CCC067   000063   1.000000   000101   1.000000
    CCC067   000103   11.600000   000104   -68.200000
    CCC067   000108   32.000000   000109   70.000000
    CCC067   000110   -95.000000   000111   -100.000000
    CCC067   000117   1.000000
    CCC068   000066   1.098900   000101   1.000000
    CCC068   000103   7.380000   000104   -49.200000
    CCC068   000108   19.000000   000109   15.500000
    CCC068   000110   -29.800000   000111   -93.800000
    CCC068   000117   1.800000
    CCC069   000000   3.000000   000068   1.000000
    CCC069   000101   1.000000   000103   -7.000000
    CCC069   000104   -30.000000   000108   6.000000
    CCC069   000109   2.300000   000110   -10.000000
    CCC069   000111   -82.000000   000117   1.400000
    CCC070   000101   1.000000   000103   12.200000
    CCC070   000104   -68.200000   000108   243.000000
    CCC070   000109   90.800000   000110   -94.700000
    CCC070   000111   -100.000000   000112   1.000000
    CCC070   000117   1.000000
    CCC079   000085   -1.000000
    CCC085   000002   1.000000   000034   1.000000
    CCC085   000036   9.620000   000037   -80.000000
    CCC085   000041   339.000000   000042   100.000000
    CCC085   000043   -100.000000   000044   -100.000000
    CCC085   000114   1.300000
    CCC086   000000   100.000000   000008   1.000000
    CCC086   000034   1.000000   000036   5.500000
    CCC086   000037   -75.200000   000041   68.000000
    CCC086   000042   32.000000   000043   -63.000000
    CCC086   000044   -100.000000   000114   1.000000
    CCC087   000013   1.000000   000045   1.000000
    CCC087   000047   -0.700000   000048   -39.900000
    CCC087   000052   6.000000   000055   -76.800000
    CCC087   000116   1.400000
    CCC088   000045   1.000000   000047   16.000000
    CCC088   000048   -71.200000   000052   47.000000
    CCC088   000053   61.800000   000054   -87.000000
    CCC088   000055   -100.000000   000116   1.000000
    CCC088   000118   1.000000
    CCC089   000047   -1.150000   000049   -1.000000
    CCC090   000047   -5.500000   000116   -1.000000
    CCC091   000000   0.002200   000050   -1.000000
    CCC092   000057   1.000000
    CCC093   000058   1.000000
    CCC094   000059   1.000000
    CCC095   000063   1.000000
    CCC096   000056   1.000000   000090   1.000000
    CCC096   000092   8.450000   000093   -63.200000
    CCC096   000097   346.000000   000098   100.000000
    CCC096   000099   -100.000000   000100   -100.000000
    CCC096   000115   1.300000
    CCC097   000058   1.000000   000090   1.000000
    CCC097   000092   20.500000   000093   -70.000000
    CCC097   000097   114.000000   000098   100.000000
    CCC097   000099   -100.000000   000100   -100.000000
    CCC097   000115   1.000000
    CCC098   000065   1.000000   000090   1.000000
    CCC098   000092   -22.950000   000097   5.000000
    CCC098   000100   -93.000000   000115   2.700000
    CCC099   000103   -1.500000   000105   -1.000000
    CCC100   000103   -5.500000   000117   -1.000000
    CCC101   000000   0.002200   000106   -1.000000
    CCC104   000029   -1.000000
    CCC105   000035   -1.000000
    CCC106   000046   -1.000000
    CCC107   000091   -1.000000
    CCC108   000102   -1.000000
    CCC110   000021   1.000000   000023   -104.700000
    CCC110   000024   -145.300000   000025   65.000000
    CCC110   000026   -230.540000   000113   1.000000
    CCC111   000006   1.000000   000034   1.000000
    CCC111   000036   16.050000   000037   -54.600000
    CCC111   000041   169.000000   000042   94.200000
    CCC111   000043   -96.500000   000044   -100.000000
    CCC111   000114   1.500000
    CCC112   000012   1.000000   000045   1.000000
    CCC112   000047   -6.440000   000048   -42.400000
    CCC112   000052   115.000000   000053   63.200000
    CCC112   000054   -73.000000   000055   -99.700000
    CCC112   000116   1.400000
    CCC113   000064   1.000000   000069   1.000000
    CCC113   000071   -101.000000   000072   -170.000000
    CCC113   000074   982.309800   000076   100.000000
    CCC114   000064   1.000000   000077   1.000000
    CCC114   000079   -100.600000   000080   -165.000000
    CCC114   000082   1050.339800   000083   100.000000
    CCC115   000064   1.000000   000084   1.000000
    CCC115   000086   -101.800000   000087   -173.000000
    CCC115   000089   1200.000000
    CCC116   000060   1.000000   000090   1.000000
    CCC116   000092   18.750000   000093   -59.300000
    CCC116   000097   195.000000   000098   100.000000
    CCC116   000099   -100.000000   000100   -100.000000
    CCC116   000115   1.500000
    CCC117   000058   1.000000   000101   1.000000
    CCC117   000103   10.000000   000104   -70.000000
    CCC117   000108   114.000000   000109   100.000000
    CCC117   000110   -100.000000   000111   -100.000000
    CCC117   000117   1.000000
    CCC120   000075   -1.000000
    CCC124   000000   10.000000   000014   1.000000
    CCC124   000016   -109.000000   000017   -146.000000
    CCC124   000018   1100.000000   000019   -479.559800
    CCC125   000007   1.000000   000014   1.000000
    CCC125   000016   -106.500000   000017   -138.500000
    CCC125   000018   61.000000   000019   -275.189900
    CCC126   000000   0.060000   000014   1.000000
    CCC126   000016   -106.000000   000017   -136.000000
    CCC126   000018   367.000000   000019   -429.789800
    CCC126   000056   1.000000
    CCC127   000000   0.060000   000014   1.000000
    CCC127   000016   -101.000000   000017   -150.000000
    CCC127   000019   1020.000000   000020   100.000000
    CCC127   000064   1.000000
    CCC128   000014   1.000000   000016   -106.000000
    CCC128   000017   -150.000000   000018   65.000000
    CCC128   000019   -286.470000   000113   1.000000
    CCC129   000000   10.000000   000021   1.000000
    CCC129   000023   -107.300000   000024   -139.000000
    CCC129   000025   1100.000000   000026   -432.799800
    CCC130   000007   1.000000   000021   1.000000
    CCC130   000023   -105.300000   000024   -131.800000
    CCC130   000025   61.000000   000026   -219.010000
    CCC131   000000   0.060000   000021   1.000000
    CCC131   000023   -104.300000   000024   -124.500000
    CCC131   000025   367.000000   000026   -386.000000
    CCC131   000056   1.000000
    CCC132   000000   0.060000   000021   1.000000
    CCC132   000023   -100.600000   000024   -130.000000
    CCC132   000026   1081.000000   000027   100.000000
    CCC132   000064   1.000000
    CCC133   000000   10.000000   000028   1.000000
    CCC133   000030   -110.000000   000031   -150.000000
    CCC133   000032   1100.000000   000033   -329.929900
    CCC134   000007   1.000000   000028   1.000000
    CCC134   000030   -107.300000   000031   -141.000000
    CCC134   000032   61.000000   000033   -95.420000
    CCC135   000000   0.060000   000028   1.000000
    CCC135   000030   -107.800000   000031   -139.300000
    CCC135   000032   351.000000   000033   -273.389900
    CCC135   000056   1.000000
    CCC136   000000   0.060000   000028   1.000000
    CCC136   000030   -102.800000   000031   -170.000000
    CCC136   000032   6.000000   000033   1237.000000
    CCC136   000064   1.000000
    CCC137   000037   35.000000   000038   3.340000
    CCC137   000039   84.000000   000040   1.000000
    CCC138   000037   35.000000   000038   3.680000
    CCC138   000039   105.000000   000040   1.000000
    CCC139   000037   35.000000   000038   3.910000
    CCC139   000039   121.800000   000040   1.000000
    CCC140   000037   40.000000   000038   3.930000
    CCC140   000039   84.000000   000040   1.000000
    CCC141   000037   40.000000   000038   4.320000
    CCC141   000039   105.000000   000040   1.000000
    CCC142   000037   40.000000   000038   4.610000
    CCC142   000039   121.800000   000040   1.000000
    CCC143   000037   45.000000   000038   4.560000
    CCC143   000039   84.000000   000040   1.000000
    CCC144   000037   45.000000   000038   5.050000
    CCC144   000039   105.000000   000040   1.000000
    CCC145   000037   45.000000   000038   5.380000
    CCC145   000039   121.800000   000040   1.000000
    CCC146   000037   50.000000   000038   5.250000
    CCC146   000039   84.000000   000040   1.000000
    CCC147   000037   50.000000   000038   5.770000
    CCC147   000039   105.000000   000040   1.000000
    CCC148   000037   50.000000   000038   6.199000
    CCC148   000039   121.800000   000040   1.000000
    CCC149   000037   55.000000   000038   5.980000
    CCC149   000039   84.000000   000040   1.000000
    CCC150   000037   55.000000   000038   6.650000
    CCC150   000039   105.000000   000040   1.000000
    CCC151   000037   55.000000   000038   7.107000
    CCC151   000039   121.800000   000040   1.000000
    CCC152   000035   1.000000   000091   -1.000000
    CCC153   000003   1.000000   000034   1.000000
    CCC153   000036   31.200000   000037   -68.000000
    CCC153   000041   218.000000   000042   95.000000
    CCC153   000043   -97.000000   000044   -100.000000
    CCC153   000114   1.300000
    CCC154   000004   1.000000   000034   1.000000
    CCC154   000036   23.200000   000037   -63.700000
    CCC154   000041   171.000000   000042   76.500000
    CCC154   000043   -87.700000   000044   -99.700000
    CCC154   000114   1.000000
    CCC155   000009   1.000000   000034   1.000000
    CCC155   000036   20.900000   000037   -78.200000
    CCC155   000041   65.000000   000042   43.000000
    CCC155   000043   -80.000000   000044   -100.000000
    CCC155   000097   61.000000   000114   1.000000
    CCC156   000013   1.000000   000034   1.000000
    CCC156   000036   14.000000   000037   -39.900000
    CCC156   000041   6.000000   000044   -39.000000
    CCC156   000114   1.400000
    CCC157   000034   1.000000   000036   26.500000
    CCC157   000037   -71.200000   000041   47.000000
    CCC157   000042   21.500000   000043   -61.800000
    CCC157   000044   -100.000000   000114   1.000000
    CCC157   000118   1.000000
    CCC158   000012   -1.000000   000046   1.000000
    CCC159   000005   1.000000   000045   1.000000
    CCC159   000047   11.800000   000048   -64.200000
    CCC159   000052   83.000000   000053   83.500000
    CCC159   000054   -94.400000   000055   -100.000000
    CCC159   000116   1.000000
    CCC160   000045   1.000000   000047   12.200000
    CCC160   000048   -68.200000   000052   243.000000
    CCC160   000053   90.800000   000054   -94.700000
    CCC160   000055   -100.000000   000112   1.000000
    CCC160   000116   1.000000
    CCC161   000048   50.000000   000051   1.000000
    CCC162   000048   50.000000   000049   2.064000
    CCC162   000050   12.600000   000051   1.000000
    CCC163   000048   50.000000   000049   3.617000
    CCC163   000050   25.200000   000051   1.000000
    CCC164   000048   50.000000   000049   4.806000
    CCC164   000050   37.800000   000051   1.000000
    CCC165   000048   50.000000   000049   5.743000
    CCC165   000050   50.400000   000051   1.000000
    CCC166   000048   55.000000   000051   1.000000
    CCC167   000048   55.000000   000049   2.329000
    CCC167   000050   12.600000   000051   1.000000
    CCC168   000048   55.000000   000049   4.094000
    CCC168   000050   25.200000   000051   1.000000
    CCC169   000048   55.000000   000049   5.449000
    CCC169   000050   37.800000   000051   1.000000
    CCC170   000048   55.000000   000049   6.543000
    CCC170   000050   50.400000   000051   1.000000
    CCC171   000048   60.000000   000051   1.000000
    CCC172   000048   60.000000   000049   2.614000
    CCC172   000050   12.600000   000051   1.000000
    CCC173   000048   60.000000   000049   4.609000
    CCC173   000050   25.200000   000051   1.000000
    CCC174   000048   60.000000   000049   6.147000
    CCC174   000050   37.800000   000051   1.000000
    CCC175   000048   60.000000   000049   7.379000
    CCC175   000050   50.400000   000051   1.000000
    CCC176   000048   65.000000   000051   1.000000
    CCC177   000048   65.000000   000049   2.910000
    CCC177   000050   12.600000   000051   1.000000
    CCC178   000048   65.000000   000049   5.143000
    CCC178   000050   25.200000   000051   1.000000
    CCC179   000048   65.000000   000049   6.881000
    CCC179   000050   37.800000   000051   1.000000
    CCC180   000048   65.000000   000049   9.190000
    CCC180   000050   50.400000   000051   1.000000
    CCC181   000048   70.000000   000051   1.000000
    CCC182   000048   70.000000   000049   3.217000
    CCC182   000050   12.600000   000051   1.000000
    CCC183   000048   70.000000   000049   5.701000
    CCC183   000050   25.200000   000051   1.000000
    CCC184   000048   70.000000   000049   7.657000
    CCC184   000050   37.800000   000051   1.000000
    CCC185   000048   70.000000   000049   9.241000
    CCC185   000050   50.400000   000051   1.000000
    CCC186   000000   10.000000   000069   1.000000
    CCC186   000071   -109.000000   000072   -146.000000
    CCC186   000073   1100.000000   000074   -479.559800
    CCC186   000075   -100.000000
    CCC187   000000   10.000000   000077   1.000000
    CCC187   000079   -107.300000   000080   -139.000000
    CCC187   000081   1100.000000   000082   -432.799800
    CCC188   000059   1.000000   000077   1.000000
    CCC188   000079   -87.000000   000080   -75.000000
    CCC188   000081   32.000000   000082   110.290000
    CCC189   000000   10.000000   000084   1.000000
    CCC189   000086   -110.000000   000087   -150.000000
    CCC189   000088   1100.000000   000089   -329.929900
    CCC190   000059   1.000000   000084   1.000000
    CCC190   000086   -89.500000   000087   -101.000000
    CCC190   000088   32.000000   000089   242.130000
    CCC191   000112   1.000000
    CCC192   000093   35.000000   000096   1.000000
    CCC193   000093   35.000000   000094   1.050000
    CCC193   000095   21.000000   000096   1.000000
    CCC194   000093   35.000000   000094   2.460000
    CCC194   000095   42.000000   000096   1.000000
    CCC195   000093   35.000000   000094   2.960000
    CCC195   000095   63.000000   000096   1.000000
    CCC196   000093   35.000000   000094   3.340000
    CCC196   000095   84.000000   000096   1.000000
    CCC197   000093   40.000000   000096   1.000000
    CCC198   000093   40.000000   000094   1.780000
    CCC198   000095   21.000000   000096   1.000000
    CCC199   000093   40.000000   000094   2.890000
    CCC199   000095   42.000000   000096   1.000000
    CCC200   000093   40.000000   000094   3.490000
    CCC200   000095   63.000000   000096   1.000000
    CCC201   000093   40.000000   000094   3.930000
    CCC201   000095   84.000000   000096   1.000000
    CCC202   000093   45.000000   000096   1.000000
    CCC203   000093   45.000000   000094   2.130000
    CCC203   000095   21.000000   000096   1.000000
    CCC204   000093   45.000000   000094   3.350000
    CCC204   000095   42.000000   000096   1.000000
    CCC205   000093   45.000000   000094   4.040000
    CCC205   000095   63.000000   000096   1.000000
    CCC206   000093   45.000000   000094   4.560000
    CCC206   000095   84.000000   000096   1.000000
    CCC207   000093   50.000000   000096   1.000000
    CCC208   000093   50.000000   000094   2.460000
    CCC208   000095   21.000000   000096   1.000000
    CCC209   000093   50.000000   000094   3.840000
    CCC209   000095   42.000000   000096   1.000000
    CCC210   000093   50.000000   000094   4.640000
    CCC210   000095   63.000000   000096   1.000000
    CCC211   000093   50.000000   000094   5.250000
    CCC211   000095   84.000000   000096   1.000000
    CCC212   000093   55.000000   000096   1.000000
    CCC213   000093   55.000000   000094   2.780000
    CCC213   000095   21.000000   000096   1.000000
    CCC214   000093   55.000000   000094   4.350000
    CCC214   000095   42.000000   000096   1.000000
    CCC215   000093   55.000000   000094   5.290000
    CCC215   000095   63.000000   000096   1.000000
    CCC216   000093   55.000000   000094   5.980000
    CCC216   000095   84.000000   000096   1.000000
    CCC217   000057   1.000000   000090   1.000000
    CCC217   000092   34.450000   000093   -80.200000
    CCC217   000097   271.000000   000098   100.000000
    CCC217   000099   -100.000000   000100   -100.000000
    CCC217   000115   1.300000
    CCC218   000062   1.000000   000090   1.000000
    CCC218   000092   -31.050000   000093   -5.200000
    CCC218   000097   6.000000   000099   -55.000000
    CCC218   000100   -100.000000   000115   2.700000
    CCC219   000059   1.000000   000101   1.000000
    CCC219   000103   14.000000   000104   -61.200000
    CCC219   000108   32.000000   000109   94.000000
    CCC219   000110   -100.000000   000111   -100.000000
    CCC219   000117   1.000000
    CCC220   000067   1.000000   000101   1.000000
    CCC220   000103   -25.600000   000104   -28.100000
    CCC220   000108   176.000000   000109   85.300000
    CCC220   000110   -92.800000   000111   -100.000000
    CCC220   000117   3.200000
    CCC221   000104   50.000000   000107   1.000000
    CCC222   000104   50.000000   000105   2.064000
    CCC222   000106   12.600000   000107   1.000000
    CCC223   000104   50.000000   000105   3.617000
    CCC223   000106   25.200000   000107   1.000000
    CCC224   000104   50.000000   000105   4.806000
    CCC224   000106   37.800000   000107   1.000000
    CCC225   000104   50.000000   000105   5.743000
    CCC225   000106   50.400000   000107   1.000000
    CCC226   000104   55.000000   000107   1.000000
    CCC227   000104   55.000000   000105   2.329000
    CCC227   000106   12.600000   000107   1.000000
    CCC228   000104   55.000000   000105   4.094000
    CCC228   000106   25.200000   000107   1.000000
    CCC229   000104   55.000000   000105   5.449000
    CCC229   000106   37.800000   000107   1.000000
    CCC230   000104   55.000000   000105   6.543000
    CCC230   000106   50.400000   000107   1.000000
    CCC231   000104   60.000000   000107   1.000000
    CCC232   000104   60.000000   000105   2.614000
    CCC232   000106   12.600000   000107   1.000000
    CCC233   000104   60.000000   000105   4.609000
    CCC233   000106   25.200000   000107   1.000000
    CCC234   000104   60.000000   000105   6.147000
    CCC234   000106   37.800000   000107   1.000000
    CCC235   000104   60.000000   000105   7.379000
    CCC235   000106   50.400000   000107   1.000000
    CCC236   000104   65.000000   000107   1.000000
    CCC237   000104   65.000000   000105   2.910000
    CCC237   000106   12.600000   000107   1.000000
    CCC238   000104   65.000000   000105   5.143000
    CCC238   000106   25.200000   000107   1.000000
    CCC239   000104   65.000000   000105   6.881000
    CCC239   000106   37.800000   000107   1.000000
    CCC240   000104   65.000000   000105   9.190000
    CCC240   000106   50.400000   000107   1.000000
    CCC241   000104   70.000000   000107   1.000000
    CCC242   000104   70.000000   000105   3.217000
    CCC242   000106   12.600000   000107   1.000000
    CCC243   000104   70.000000   000105   5.701000
    CCC243   000106   25.200000   000107   1.000000
    CCC244   000104   70.000000   000105   7.567000
    CCC244   000106   37.800000   000107   1.000000
    CCC245   000104   70.000000   000105   9.241000
    CCC245   000106   50.400000   000107   1.000000
    CCC250   000000   100.000000   000068   1.000000
    SLACK51445 000016   1.000000
    SLACK51446 000019   1.000000
    SLACK51447 000020   1.000000
    SLACK51448 000023   1.000000
    SLACK51449 000026   1.000000
    SLACK51450 000027   1.000000
    SLACK51451 000030   1.000000
    SLACK51452 000033   1.000000
    SLACK51453 000042   1.000000
    SLACK51454 000043   1.000000
    SLACK51455 000044   1.000000
    SLACK51456 000053   1.000000
    SLACK51457 000054   1.000000
    SLACK51458 000055   1.000000
    SLACK51459 000071   1.000000
    SLACK51460 000074   1.000000
    SLACK51461 000076   1.000000
    SLACK51462 000079   1.000000
    SLACK51463 000082   1.000000
    SLACK51464 000083   1.000000
    SLACK51465 000086   1.000000
    SLACK51466 000089   1.000000
    SLACK51467 000098   1.000000
    SLACK51468 000099   1.000000
    SLACK51469 000100   1.000000
    SLACK51470 000109   1.000000
    SLACK51471 000110   1.000000
    SLACK51472 000111   1.000000
RHS
    RHS      000002   113.000000
    RHS      000003   124.000000
    RHS      000004   44.000000
    RHS      000005   197.000000
    RHS      000006   428.000000
    RHS      000007   282.000000
    RHS      000008   351.000000
    RHS      000009   163.000000
    RHS      000010   2281.299800
    RHS      000011   215.000000
    RHS      000012   1106.000000
    RHS      000013   279.000000
    RHS      000015   333.899900
    RHS      000016   0.000100
    RHS      000017   0.000100
    RHS      000018   0.000100
    RHS      000019   0.000100
    RHS      000020   0.000100
    RHS      000021   0.000100
    RHS      000022   72.800000
    RHS      000023   0.000100
    RHS      000024   0.000100
    RHS      000025   0.000100
    RHS      000026   0.000100
    RHS      000027   0.000100
    RHS      000029   237.400000
    RHS      000030   0.000100
    RHS      000031   0.000100
    RHS      000032   0.000100
    RHS      000033   0.000100
    RHS      000035   2320.000000
    RHS      000036   0.000100
    RHS      000037   0.000100
    RHS      000038   0.000100
    RHS      000039   0.000100
    RHS      000040   0.000100
    RHS      000041   0.000100
    RHS      000042   0.000100
    RHS      000043   0.000100
    RHS      000044   0.000100
    RHS      000046   2935.599900
    RHS      000047   0.000100
    RHS      000048   0.000100
    RHS      000049   0.000100
    RHS      000050   0.000100
    RHS      000051   0.000100
    RHS      000052   0.000100
    RHS      000053   0.000100
    RHS      000054   0.000100
    RHS      000055   0.000100
    RHS      000056   125.000000
    RHS      000057   121.000000
    RHS      000058   258.000000
    RHS      000059   74.000000
    RHS      000060   422.000000
    RHS      000061   785.000000
    RHS      000062   152.000000
    RHS      000063   234.000000
    RHS      000064   104.000000
    RHS      000065   108.000000
    RHS      000066   2029.000000
    RHS      000067   604.000000
    RHS      000070   82.800000
    RHS      000071   0.000100
    RHS      000072   0.000100
    RHS      000073   0.000100
    RHS      000074   0.000100
    RHS      000075   0.000100
    RHS      000076   0.000100
    RHS      000078   148.400000
    RHS      000079   0.000100
    RHS      000080   0.000100
    RHS      000081   0.000100
    RHS      000082   0.000100
    RHS      000083   0.000100
    RHS      000085   464.399900
    RHS      000086   0.000100
    RHS      000087   0.000100
    RHS      000088   0.000100
    RHS      000089   0.000100
    RHS      000091   2115.599900
    RHS      000092   0.000100
    RHS      000093   0.000100
    RHS      000094   0.000100
    RHS      000095   0.000100
    RHS      000096   0.000100
    RHS      000097   0.000100
    RHS      000098   0.000100
    RHS      000099   0.000100
    RHS      000100   0.000100
    RHS      000102   1602.200000
    RHS      000103   0.000100
    RHS      000104   0.000100
    RHS      000105   0.000100
    RHS      000106   0.000100
    RHS      000107   0.000100
    RHS      000108   0.000100
    RHS      000109   0.000100
    RHS      000110   0.000100
    RHS      000111   0.000100
    RHS      000112   575.000000
    RHS      000113   186.000000
    RHS      000118   248.000000
BOUNDS
ENDATA
