NAME          SHIP04L
ROWS
 N  COST    
 E  REGMIN  
 E  REGMAX  
 E  OVRMIN  
 E  OVRMAX  
 E  REGMIN01
 E  REGMIN02
 E  REGMIN03
 E  REGMIN04
 E  REGMIN05
 E  REGMIN06
 E  REGMIN07
 E  REGMIN08
 E  REGMAX01
 E  REGMAX02
 E  REGMAX04
 E  OVRMIN01
 E  OVRMIN02
 E  OVRMIN03
 E  OVRMIN04
 E  OVRMIN05
 E  OVRMIN06
 E  OVRMIN07
 E  OVRMIN08
 E  OVRMAX01
 E  OVRMAX02
 E  OVRMAX04
 E  TRAN0101
 E  TRAN0102
 E  TRAN0103
 E  TRAN0104
 E  TRAN0105
 E  TRAN0106
 E  TRAN0107
 E  TRAN0108
 E  TRAN0201
 E  TRAN0202
 E  TRAN0203
 E  TRAN0204
 E  TRAN0205
 E  TRAN0206
 E  TRAN0207
 E  TRAN0208
 E  TRAN0301
 E  TRAN0302
 E  TRAN0303
 E  TRAN0304
 E  TRAN0305
 E  TRAN0306
 E  TRAN0307
 E  TRAN0308
 E  TRAN0401
 E  TRAN0402
 E  TRAN0403
 E  TRAN0404
 E  TRAN0405
 E  TRAN0406
 E  TRAN0407
 E  TRAN0408
 E  BAL0101 
 E  BAL0102 
 E  BAL0103 
 E  BAL0104 
 E  BAL0105 
 E  BAL0106 
 E  BAL0107 
 E  BAL0108 
 E  BAL0109 
 E  BAL0110 
 E  BAL0111 
 E  BAL0112 
 E  BAL0113 
 E  BAL0114 
 E  BAL0115 
 E  BAL0116 
 E  BAL0117 
 E  BAL0118 
 E  BAL0119 
 E  BAL0120 
 E  BAL0121 
 E  BAL0122 
 E  BAL0123 
 E  BAL0124 
 E  BAL0125 
 E  BAL0126 
 E  BAL0127 
 E  BAL0128 
 E  BAL0129 
 E  BAL0130 
 E  BAL0131 
 E  BAL0132 
 E  BAL0133 
 E  BAL0134 
 E  BAL0135 
 E  BAL0136 
 E  BAL0137 
 E  BAL0138 
 E  BAL0139 
 E  BAL0140 
 E  BAL0141 
 E  BAL0142 
 E  BAL0143 
 E  BAL0144 
 E  BAL0145 
 E  BAL0146 
 E  BAL0147 
 E  BAL0148 
 E  BAL0149 
 E  BAL0150 
 E  BAL0151 
 E  BAL0152 
 E  BAL0153 
 E  BAL0154 
 E  BAL0155 
 E  BAL0156 
 E  BAL0157 
 E  BAL0158 
 E  BAL0159 
 E  BAL0160 
 E  BAL0161 
 E  BAL0162 
 E  BAL0163 
 E  BAL0164 
 E  BAL0165 
 E  BAL0166 
 E  BAL0167 
 E  BAL0168 
 E  BAL0169 
 E  BAL0170 
 E  BAL0171 
 E  BAL0172 
 E  BAL0173 
 E  BAL0174 
 E  BAL0175 
 E  BAL0176 
 E  BAL0177 
 E  BAL0178 
 E  BAL0179 
 E  BAL0180 
 E  BAL0181 
 E  BAL0182 
 E  BAL0183 
 E  BAL0184 
 E  BAL0185 
 E  BAL0186 
 E  BAL0201 
 E  BAL0202 
 E  BAL0203 
 E  BAL0204 
 E  BAL0205 
 E  BAL0206 
 E  BAL0207 
 E  BAL0208 
 E  BAL0209 
 E  BAL0210 
 E  BAL0211 
 E  BAL0212 
 E  BAL0213 
 E  BAL0214 
 E  BAL0215 
 E  BAL0216 
 E  BAL0217 
 E  BAL0218 
 E  BAL0219 
 E  BAL0220 
 E  BAL0221 
 E  BAL0222 
 E  BAL0223 
 E  BAL0224 
 E  BAL0225 
 E  BAL0226 
 E  BAL0227 
 E  BAL0228 
 E  BAL0229 
 E  BAL0230 
 E  BAL0231 
 E  BAL0232 
 E  BAL0233 
 E  BAL0234 
 E  BAL0235 
 E  BAL0236 
 E  BAL0237 
 E  BAL0238 
 E  BAL0239 
 E  BAL0240 
 E  BAL0241 
 E  BAL0242 
 E  BAL0243 
 E  BAL0244 
 E  BAL0245 
 E  BAL0246 
 E  BAL0247 
 E  BAL0248 
 E  BAL0249 
 E  BAL0250 
 E  BAL0251 
 E  BAL0252 
 E  BAL0253 
 E  BAL0254 
 E  BAL0255 
 E  BAL0256 
 E  BAL0257 
 E  BAL0258 
 E  BAL0259 
 E  BAL0260 
 E  BAL0261 
 E  BAL0262 
 E  BAL0263 
 E  BAL0264 
 E  BAL0265 
 E  BAL0266 
 E  BAL0267 
 E  BAL0268 
 E  BAL0269 
 E  BAL0270 
 E  BAL0271 
 E  BAL0272 
 E  BAL0273 
 E  BAL0274 
 E  BAL0275 
 E  BAL0276 
 E  BAL0277 
 E  BAL0278 
 E  BAL0279 
 E  BAL0280 
 E  BAL0281 
 E  BAL0282 
 E  BAL0283 
 E  BAL0284 
 E  BAL0285 
 E  BAL0286 
 E  BAL0301 
 E  BAL0302 
 E  BAL0303 
 E  BAL0304 
 E  BAL0305 
 E  BAL0306 
 E  BAL0307 
 E  BAL0308 
 E  BAL0309 
 E  BAL0310 
 E  BAL0311 
 E  BAL0312 
 E  BAL0313 
 E  BAL0314 
 E  BAL0315 
 E  BAL0316 
 E  BAL0317 
 E  BAL0318 
 E  BAL0319 
 E  BAL0320 
 E  BAL0321 
 E  BAL0322 
 E  BAL0323 
 E  BAL0324 
 E  BAL0325 
 E  BAL0326 
 E  BAL0327 
 E  BAL0328 
 E  BAL0329 
 E  BAL0330 
 E  BAL0331 
 E  BAL0332 
 E  BAL0333 
 E  BAL0334 
 E  BAL0335 
 E  BAL0336 
 E  BAL0337 
 E  BAL0338 
 E  BAL0339 
 E  BAL0340 
 E  BAL0341 
 E  BAL0342 
 E  BAL0343 
 E  BAL0344 
 E  BAL0345 
 E  BAL0346 
 E  BAL0347 
 E  BAL0348 
 E  BAL0349 
 E  BAL0350 
 E  BAL0351 
 E  BAL0352 
 E  BAL0353 
 E  BAL0354 
 E  BAL0355 
 E  BAL0356 
 E  BAL0357 
 E  BAL0358 
 E  BAL0359 
 E  BAL0360 
 E  BAL0361 
 E  BAL0362 
 E  BAL0363 
 E  BAL0364 
 E  BAL0365 
 E  BAL0366 
 E  BAL0367 
 E  BAL0368 
 E  BAL0369 
 E  BAL0370 
 E  BAL0371 
 E  BAL0372 
 E  BAL0373 
 E  BAL0374 
 E  BAL0375 
 E  BAL0376 
 E  BAL0377 
 E  BAL0378 
 E  BAL0379 
 E  BAL0380 
 E  BAL0381 
 E  BAL0382 
 E  BAL0383 
 E  BAL0384 
 E  BAL0385 
 E  BAL0386 
 E  BAL0401 
 E  BAL0402 
 E  BAL0403 
 E  BAL0404 
 E  BAL0405 
 E  BAL0406 
 E  BAL0407 
 E  BAL0408 
 E  BAL0409 
 E  BAL0410 
 E  BAL0411 
 E  BAL0412 
 E  BAL0413 
 E  BAL0414 
 E  BAL0415 
 E  BAL0416 
 E  BAL0417 
 E  BAL0418 
 E  BAL0419 
 E  BAL0420 
 E  BAL0421 
 E  BAL0422 
 E  BAL0423 
 E  BAL0424 
 E  BAL0425 
 E  BAL0426 
 E  BAL0427 
 E  BAL0428 
 E  BAL0429 
 E  BAL0430 
 E  BAL0431 
 E  BAL0432 
 E  BAL0433 
 E  BAL0434 
 E  BAL0435 
 E  BAL0436 
 E  BAL0437 
 E  BAL0438 
 E  BAL0439 
 E  BAL0440 
 E  BAL0441 
 E  BAL0442 
 E  BAL0443 
 E  BAL0444 
 E  BAL0445 
 E  BAL0446 
 E  BAL0447 
 E  BAL0448 
 E  BAL0449 
 E  BAL0450 
 E  BAL0451 
 E  BAL0452 
 E  BAL0453 
 E  BAL0454 
 E  BAL0455 
 E  BAL0456 
 E  BAL0457 
 E  BAL0458 
 E  BAL0459 
 E  BAL0460 
 E  BAL0461 
 E  BAL0462 
 E  BAL0463 
 E  BAL0464 
 E  BAL0465 
 E  BAL0466 
 E  BAL0467 
 E  BAL0468 
 E  BAL0469 
 E  BAL0470 
 E  BAL0471 
 E  BAL0472 
 E  BAL0473 
 E  BAL0474 
 E  BAL0475 
 E  BAL0476 
 E  BAL0477 
 E  BAL0478 
 E  BAL0479 
 E  BAL0480 
 E  BAL0481 
 E  BAL0482 
 E  BAL0483 
 E  BAL0484 
 E  BAL0485 
 E  BAL0486 
COLUMNS
    PREG0101 COST     4503.000000   REGMIN   0.013888
    PREG0101 REGMAX   0.013888   REGMIN01 0.013888
    PREG0101 REGMAX01 0.013888   TRAN0101 -1.000000
    PREG0101 BAL0101  1.000000
    PREG0102 COST     4505.000000   REGMIN   0.013888
    PREG0102 REGMAX   0.013888   REGMIN01 0.013888
    PREG0102 REGMAX01 0.013888   TRAN0201 -1.000000
    PREG0102 BAL0201  1.000000
    PREG0201 COST     4713.000000   REGMIN   0.019231
    PREG0201 REGMAX   0.019231   REGMIN02 0.019231
    PREG0201 REGMAX02 0.019231   TRAN0102 -1.000000
    PREG0201 BAL0102  1.000000
    PREG0202 COST     4812.000000   REGMIN   0.019231
    PREG0202 REGMAX   0.019231   REGMIN02 0.019231
    PREG0202 REGMAX02 0.019231   TRAN0202 -1.000000
    PREG0202 BAL0202  1.000000
    PREG0401 COST     4580.000000   REGMIN   0.013888
    PREG0401 REGMAX   0.013888   REGMIN04 0.013888
    PREG0401 REGMAX04 0.013888   TRAN0104 -1.000000
    PREG0401 BAL0104  1.000000
    PREG0403 COST     2545.000000   REGMIN   0.029413
    PREG0403 REGMAX   0.029413   REGMIN04 0.029413
    PREG0403 REGMAX04 0.029413   TRAN0304 -1.000000
    PREG0403 BAL0304  1.000000
    PREG0404 COST     4671.000000   REGMIN   0.013888
    PREG0404 REGMAX   0.013888   REGMIN04 0.013888
    PREG0404 REGMAX04 0.013888   TRAN0404 -1.000000
    PREG0404 BAL0404  1.000000
    POVR0101 COST     6021.000000   OVRMIN   2.222000
    POVR0101 OVRMAX   2.222000   OVRMIN01 2.222000
    POVR0101 OVRMAX01 2.222000   TRAN0101 -1.000000
    POVR0101 BAL0101  1.000000
    POVR0102 COST     6023.000000   OVRMIN   2.222000
    POVR0102 OVRMAX   2.222000   OVRMIN01 2.222000
    POVR0102 OVRMAX01 2.222000   TRAN0201 -1.000000
    POVR0102 BAL0201  1.000000
    POVR0201 COST     7267.000000   OVRMIN   3.077000
    POVR0201 OVRMAX   3.077000   OVRMIN02 3.077000
    POVR0201 OVRMAX02 3.077000   TRAN0102 -1.000000
    POVR0201 BAL0102  1.000000
    POVR0202 COST     7366.000000   OVRMIN   3.077000
    POVR0202 OVRMAX   3.077000   OVRMIN02 3.077000
    POVR0202 OVRMAX02 3.077000   TRAN0202 -1.000000
    POVR0202 BAL0202  1.000000
    POVR0401 COST     5689.000000   OVRMIN   2.222000
    POVR0401 OVRMAX   2.222000   OVRMIN04 2.222000
    POVR0401 OVRMAX04 2.222000   TRAN0104 -1.000000
    POVR0401 BAL0104  1.000000
    POVR0403 COST     3448.000000   OVRMIN   4.706000
    POVR0403 OVRMAX   4.706000   OVRMIN04 4.706000
    POVR0403 OVRMAX04 4.706000   TRAN0304 -1.000000
    POVR0403 BAL0304  1.000000
    POVR0404 COST     5780.000000   OVRMIN   2.222000
    POVR0404 OVRMAX   2.222000   OVRMIN04 2.222000
    POVR0404 OVRMAX04 2.222000   TRAN0404 -1.000000
    POVR0404 BAL0404  1.000000
    SH010201 COST     364.122000   TRAN0102 1.000000
    SH010201 BAL0102  -1.000000   BAL0101  1.000000
    SH010301 COST     139.764000   TRAN0103 1.000000
    SH010301 BAL0103  -1.000000   BAL0101  1.000000
    SH010401 COST     255.008000   TRAN0104 1.000000
    SH010401 BAL0104  -1.000000   BAL0101  1.000000
    SH010501 COST     290.562000   TRAN0105 1.000000
    SH010501 BAL0105  -1.000000   BAL0101  1.000000
    SH010601 COST     154.476000   TRAN0106 1.000000
    SH010601 BAL0152  -1.000000   BAL0101  1.000000
    SH010801 COST     175.318000   TRAN0108 1.000000
    SH010801 BAL0183  -1.000000   BAL0101  1.000000
    SH010102 COST     581.124000   TRAN0101 1.000000
    SH010102 BAL0101  -1.000000   BAL0102  1.000000
    SH010302 COST     511.242000   TRAN0103 1.000000
    SH010302 BAL0103  -1.000000   BAL0102  1.000000
    SH010402 COST     750.312000   TRAN0104 1.000000
    SH010402 BAL0104  -1.000000   BAL0102  1.000000
    SH010502 COST     908.466000   TRAN0105 1.000000
    SH010502 BAL0105  -1.000000   BAL0102  1.000000
    SH010602 COST     463.428000   TRAN0106 1.000000
    SH010602 BAL0152  -1.000000   BAL0102  1.000000
    SH010802 COST     638.746000   TRAN0108 1.000000
    SH010802 BAL0183  -1.000000   BAL0102  1.000000
    SH010103 COST     300.370000   TRAN0101 1.000000
    SH010103 BAL0101  -1.000000   BAL0103  1.000000
    SH010203 COST     581.124000   TRAN0102 1.000000
    SH010203 BAL0102  -1.000000   BAL0103  1.000000
    SH010403 COST     449.942000   TRAN0104 1.000000
    SH010403 BAL0104  -1.000000   BAL0103  1.000000
    SH010503 COST     348.184000   TRAN0105 1.000000
    SH010503 BAL0105  -1.000000   BAL0103  1.000000
    SH010603 COST     110.340000   TRAN0106 1.000000
    SH010603 BAL0152  -1.000000   BAL0103  1.000000
    SH010803 COST     312.630000   TRAN0108 1.000000
    SH010803 BAL0183  -1.000000   BAL0103  1.000000
    SH010104 COST     213.324000   TRAN0101 1.000000
    SH010104 BAL0101  -1.000000   BAL0104  1.000000
    SH010204 COST     616.678000   TRAN0102 1.000000
    SH010204 BAL0102  -1.000000   BAL0104  1.000000
    SH010304 COST     297.918000   TRAN0103 1.000000
    SH010304 BAL0103  -1.000000   BAL0104  1.000000
    SH010504 COST     391.094000   TRAN0105 1.000000
    SH010504 BAL0105  -1.000000   BAL0104  1.000000
    SH010604 COST     300.370000   TRAN0106 1.000000
    SH010604 BAL0152  -1.000000   BAL0104  1.000000
    SH010704 COST     329.794000   TRAN0107 1.000000
    SH010704 BAL0164  -1.000000   BAL0104  1.000000
    SH010804 COST     71.108000   TRAN0108 1.000000
    SH010804 BAL0183  -1.000000   BAL0104  1.000000
    SH010105 COST     331.020000   TRAN0101 1.000000
    SH010105 BAL0101  -1.000000   BAL0105  1.000000
    SH010205 COST     632.616000   TRAN0102 1.000000
    SH010205 BAL0102  -1.000000   BAL0105  1.000000
    SH010305 COST     348.184000   TRAN0103 1.000000
    SH010305 BAL0103  -1.000000   BAL0105  1.000000
    SH010405 COST     349.410000   TRAN0104 1.000000
    SH010405 BAL0104  -1.000000   BAL0105  1.000000
    SH010605 COST     399.676000   TRAN0106 1.000000
    SH010605 BAL0152  -1.000000   BAL0105  1.000000
    SH010705 COST     409.484000   TRAN0107 1.000000
    SH010705 BAL0164  -1.000000   BAL0105  1.000000
    SH010805 COST     332.246000   TRAN0108 1.000000
    SH010805 BAL0183  -1.000000   BAL0105  1.000000
    SH010106 COST     243.974000   TRAN0101 1.000000
    SH010106 BAL0101  -1.000000   BAL0106  1.000000
    SH010206 COST     511.242000   TRAN0102 1.000000
    SH010206 BAL0102  -1.000000   BAL0106  1.000000
    SH010306 COST     261.138000   TRAN0103 1.000000
    SH010306 BAL0103  -1.000000   BAL0106  1.000000
    SH010406 COST     268.494000   TRAN0104 1.000000
    SH010406 BAL0104  -1.000000   BAL0106  1.000000
    SH010506 COST     308.952000   TRAN0105 1.000000
    SH010506 BAL0105  -1.000000   BAL0106  1.000000
    SH010606 COST     252.556000   TRAN0106 1.000000
    SH010606 BAL0152  -1.000000   BAL0106  1.000000
    SH010706 COST     245.200000   TRAN0107 1.000000
    SH010706 BAL0164  -1.000000   BAL0106  1.000000
    SH010806 COST     185.126000   TRAN0108 1.000000
    SH010806 BAL0183  -1.000000   BAL0106  1.000000
    SH010107 COST     25.746000   TRAN0101 1.000000
    SH010107 BAL0101  -1.000000   BAL0107  1.000000
    SH010207 COST     357.992000   TRAN0102 1.000000
    SH010207 BAL0102  -1.000000   BAL0107  1.000000
    SH010307 COST     152.024000   TRAN0103 1.000000
    SH010307 BAL0103  -1.000000   BAL0107  1.000000
    SH010407 COST     253.782000   TRAN0104 1.000000
    SH010407 BAL0104  -1.000000   BAL0107  1.000000
    SH010507 COST     280.754000   TRAN0105 1.000000
    SH010507 BAL0105  -1.000000   BAL0107  1.000000
    SH010607 COST     153.250000   TRAN0106 1.000000
    SH010607 BAL0152  -1.000000   BAL0107  1.000000
    SH010707 COST     284.432000   TRAN0107 1.000000
    SH010707 BAL0164  -1.000000   BAL0107  1.000000
    SH010807 COST     190.030000   TRAN0108 1.000000
    SH010807 BAL0183  -1.000000   BAL0107  1.000000
    SH010108 COST     80.916000   TRAN0101 1.000000
    SH010108 BAL0101  -1.000000   BAL0108  1.000000
    SH010208 COST     460.976000   TRAN0102 1.000000
    SH010208 BAL0102  -1.000000   BAL0108  1.000000
    SH010308 COST     172.866000   TRAN0103 1.000000
    SH010308 BAL0103  -1.000000   BAL0108  1.000000
    SH010408 COST     302.822000   TRAN0104 1.000000
    SH010408 BAL0104  -1.000000   BAL0108  1.000000
    SH010508 COST     223.132000   TRAN0105 1.000000
    SH010508 BAL0105  -1.000000   BAL0108  1.000000
    SH010608 COST     203.516000   TRAN0106 1.000000
    SH010608 BAL0152  -1.000000   BAL0108  1.000000
    SH010808 COST     229.262000   TRAN0108 1.000000
    SH010808 BAL0183  -1.000000   BAL0108  1.000000
    SH010109 COST     169.188000   TRAN0101 1.000000
    SH010109 BAL0101  -1.000000   BAL0109  1.000000
    SH010209 COST     469.558000   TRAN0102 1.000000
    SH010209 BAL0102  -1.000000   BAL0109  1.000000
    SH010309 COST     205.968000   TRAN0103 1.000000
    SH010309 BAL0103  -1.000000   BAL0109  1.000000
    SH010409 COST     310.178000   TRAN0104 1.000000
    SH010409 BAL0104  -1.000000   BAL0109  1.000000
    SH010509 COST     293.014000   TRAN0105 1.000000
    SH010509 BAL0105  -1.000000   BAL0109  1.000000
    SH010709 COST     240.296000   TRAN0107 1.000000
    SH010709 BAL0164  -1.000000   BAL0109  1.000000
    SH010809 COST     237.844000   TRAN0108 1.000000
    SH010809 BAL0183  -1.000000   BAL0109  1.000000
    SH010110 COST     302.822000   TRAN0101 1.000000
    SH010110 BAL0101  -1.000000   BAL0110  1.000000
    SH010210 COST     193.708000   TRAN0102 1.000000
    SH010210 BAL0102  -1.000000   BAL0110  1.000000
    SH010310 COST     294.240000   TRAN0103 1.000000
    SH010310 BAL0103  -1.000000   BAL0110  1.000000
    SH010410 COST     440.134000   TRAN0104 1.000000
    SH010410 BAL0104  -1.000000   BAL0110  1.000000
    SH010510 COST     472.010000   TRAN0105 1.000000
    SH010510 BAL0105  -1.000000   BAL0110  1.000000
    SH010610 COST     275.850000   TRAN0106 1.000000
    SH010610 BAL0152  -1.000000   BAL0110  1.000000
    SH010810 COST     373.930000   TRAN0108 1.000000
    SH010810 BAL0183  -1.000000   BAL0110  1.000000
    SH010111 COST     129.956000   TRAN0101 1.000000
    SH010111 BAL0101  -1.000000   BAL0111  1.000000
    SH010211 COST     606.870000   TRAN0102 1.000000
    SH010211 BAL0102  -1.000000   BAL0111  1.000000
    SH010311 COST     304.048000   TRAN0103 1.000000
    SH010311 BAL0103  -1.000000   BAL0111  1.000000
    SH010411 COST     170.414000   TRAN0104 1.000000
    SH010411 BAL0104  -1.000000   BAL0111  1.000000
    SH010511 COST     418.066000   TRAN0105 1.000000
    SH010511 BAL0105  -1.000000   BAL0111  1.000000
    SH010611 COST     240.296000   TRAN0106 1.000000
    SH010611 BAL0152  -1.000000   BAL0111  1.000000
    SH010811 COST     125.052000   TRAN0108 1.000000
    SH010811 BAL0183  -1.000000   BAL0111  1.000000
    SH010112 COST     107.888000   TRAN0101 1.000000
    SH010112 BAL0101  -1.000000   BAL0112  1.000000
    SH010212 COST     415.614000   TRAN0102 1.000000
    SH010212 BAL0102  -1.000000   BAL0112  1.000000
    SH010312 COST     178.996000   TRAN0103 1.000000
    SH010312 BAL0103  -1.000000   BAL0112  1.000000
    SH010412 COST     245.200000   TRAN0104 1.000000
    SH010412 BAL0104  -1.000000   BAL0112  1.000000
    SH010512 COST     327.342000   TRAN0105 1.000000
    SH010512 BAL0105  -1.000000   BAL0112  1.000000
    SH010612 COST     177.770000   TRAN0106 1.000000
    SH010612 BAL0152  -1.000000   BAL0112  1.000000
    SH010812 COST     178.996000   TRAN0108 1.000000
    SH010812 BAL0183  -1.000000   BAL0112  1.000000
    SH010114 COST     174.092000   TRAN0101 1.000000
    SH010114 BAL0101  -1.000000   BAL0114  1.000000
    SH010214 COST     505.112000   TRAN0102 1.000000
    SH010214 BAL0102  -1.000000   BAL0114  1.000000
    SH010314 COST     240.296000   TRAN0103 1.000000
    SH010314 BAL0103  -1.000000   BAL0114  1.000000
    SH010414 COST     243.974000   TRAN0104 1.000000
    SH010414 BAL0104  -1.000000   BAL0114  1.000000
    SH010514 COST     431.552000   TRAN0105 1.000000
    SH010514 BAL0105  -1.000000   BAL0114  1.000000
    SH010614 COST     230.488000   TRAN0106 1.000000
    SH010614 BAL0152  -1.000000   BAL0114  1.000000
    SH010814 COST     154.476000   TRAN0108 1.000000
    SH010814 BAL0183  -1.000000   BAL0114  1.000000
    SH010115 COST     371.478000   TRAN0101 1.000000
    SH010115 BAL0101  -1.000000   BAL0115  1.000000
    SH010215 COST     194.934000   TRAN0102 1.000000
    SH010215 BAL0102  -1.000000   BAL0115  1.000000
    SH010315 COST     286.884000   TRAN0103 1.000000
    SH010315 BAL0103  -1.000000   BAL0115  1.000000
    SH010415 COST     583.576000   TRAN0104 1.000000
    SH010415 BAL0104  -1.000000   BAL0115  1.000000
    SH010515 COST     487.948000   TRAN0105 1.000000
    SH010515 BAL0105  -1.000000   BAL0115  1.000000
    SH010615 COST     230.488000   TRAN0106 1.000000
    SH010615 BAL0152  -1.000000   BAL0115  1.000000
    SH010815 COST     457.298000   TRAN0108 1.000000
    SH010815 BAL0183  -1.000000   BAL0115  1.000000
    SH010116 COST     193.708000   TRAN0101 1.000000
    SH010116 BAL0101  -1.000000   BAL0116  1.000000
    SH010216 COST     343.280000   TRAN0102 1.000000
    SH010216 BAL0102  -1.000000   BAL0116  1.000000
    SH010316 COST     278.302000   TRAN0103 1.000000
    SH010316 BAL0103  -1.000000   BAL0116  1.000000
    SH010416 COST     351.862000   TRAN0104 1.000000
    SH010416 BAL0104  -1.000000   BAL0116  1.000000
    SH010516 COST     391.094000   TRAN0105 1.000000
    SH010516 BAL0105  -1.000000   BAL0116  1.000000
    SH010616 COST     160.606000   TRAN0106 1.000000
    SH010616 BAL0152  -1.000000   BAL0116  1.000000
    SH010816 COST     251.330000   TRAN0108 1.000000
    SH010816 BAL0183  -1.000000   BAL0116  1.000000
    SH010117 COST     185.126000   TRAN0101 1.000000
    SH010117 BAL0101  -1.000000   BAL0117  1.000000
    SH010217 COST     619.130000   TRAN0102 1.000000
    SH010217 BAL0102  -1.000000   BAL0117  1.000000
    SH010317 COST     335.924000   TRAN0103 1.000000
    SH010317 BAL0103  -1.000000   BAL0117  1.000000
    SH010417 COST     69.882000   TRAN0104 1.000000
    SH010417 BAL0104  -1.000000   BAL0117  1.000000
    SH010517 COST     365.348000   TRAN0105 1.000000
    SH010517 BAL0105  -1.000000   BAL0117  1.000000
    SH010717 COST     361.670000   TRAN0107 1.000000
    SH010717 BAL0164  -1.000000   BAL0117  1.000000
    SH010817 COST     33.102000   TRAN0108 1.000000
    SH010817 BAL0183  -1.000000   BAL0117  1.000000
    SH010118 COST     214.550000   TRAN0101 1.000000
    SH010118 BAL0101  -1.000000   BAL0118  1.000000
    SH010218 COST     442.586000   TRAN0102 1.000000
    SH010218 BAL0102  -1.000000   BAL0118  1.000000
    SH010318 COST     331.020000   TRAN0103 1.000000
    SH010318 BAL0103  -1.000000   BAL0118  1.000000
    SH010418 COST     188.804000   TRAN0104 1.000000
    SH010418 BAL0104  -1.000000   BAL0118  1.000000
    SH010518 COST     498.982000   TRAN0105 1.000000
    SH010518 BAL0105  -1.000000   BAL0118  1.000000
    SH010618 COST     431.552000   TRAN0106 1.000000
    SH010618 BAL0152  -1.000000   BAL0118  1.000000
    SH010818 COST     126.278000   TRAN0108 1.000000
    SH010818 BAL0183  -1.000000   BAL0118  1.000000
    SH010119 COST     304.048000   TRAN0101 1.000000
    SH010119 BAL0101  -1.000000   BAL0119  1.000000
    SH010219 COST     842.262000   TRAN0102 1.000000
    SH010219 BAL0102  -1.000000   BAL0119  1.000000
    SH010319 COST     388.642000   TRAN0103 1.000000
    SH010319 BAL0103  -1.000000   BAL0119  1.000000
    SH010419 COST     194.934000   TRAN0104 1.000000
    SH010419 BAL0104  -1.000000   BAL0119  1.000000
    SH010519 COST     255.008000   TRAN0105 1.000000
    SH010519 BAL0105  -1.000000   BAL0119  1.000000
    SH010619 COST     422.970000   TRAN0106 1.000000
    SH010619 BAL0152  -1.000000   BAL0119  1.000000
    SH010819 COST     121.374000   TRAN0108 1.000000
    SH010819 BAL0183  -1.000000   BAL0119  1.000000
    SH010120 COST     251.330000   TRAN0101 1.000000
    SH010120 BAL0101  -1.000000   BAL0120  1.000000
    SH010220 COST     837.358000   TRAN0102 1.000000
    SH010220 BAL0102  -1.000000   BAL0120  1.000000
    SH010320 COST     364.122000   TRAN0103 1.000000
    SH010320 BAL0103  -1.000000   BAL0120  1.000000
    SH010420 COST     138.538000   TRAN0104 1.000000
    SH010420 BAL0104  -1.000000   BAL0120  1.000000
    SH010520 COST     356.766000   TRAN0105 1.000000
    SH010520 BAL0105  -1.000000   BAL0120  1.000000
    SH010820 COST     154.476000   TRAN0108 1.000000
    SH010820 BAL0183  -1.000000   BAL0120  1.000000
    SH010121 COST     494.078000   TRAN0101 1.000000
    SH010121 BAL0101  -1.000000   BAL0121  1.000000
    SH010221 COST     451.168000   TRAN0102 1.000000
    SH010221 BAL0102  -1.000000   BAL0121  1.000000
    SH010321 COST     546.796000   TRAN0103 1.000000
    SH010321 BAL0103  -1.000000   BAL0121  1.000000
    SH010421 COST     392.320000   TRAN0104 1.000000
    SH010421 BAL0104  -1.000000   BAL0121  1.000000
    SH010521 COST     674.300000   TRAN0105 1.000000
    SH010521 BAL0105  -1.000000   BAL0121  1.000000
    SH010821 COST     392.320000   TRAN0108 1.000000
    SH010821 BAL0183  -1.000000   BAL0121  1.000000
    SH010122 COST     304.048000   TRAN0101 1.000000
    SH010122 BAL0101  -1.000000   BAL0122  1.000000
    SH010222 COST     708.628000   TRAN0102 1.000000
    SH010222 BAL0102  -1.000000   BAL0122  1.000000
    SH010322 COST     366.574000   TRAN0103 1.000000
    SH010322 BAL0103  -1.000000   BAL0122  1.000000
    SH010422 COST     274.624000   TRAN0104 1.000000
    SH010422 BAL0104  -1.000000   BAL0122  1.000000
    SH010522 COST     219.454000   TRAN0105 1.000000
    SH010522 BAL0105  -1.000000   BAL0122  1.000000
    SH010622 COST     380.060000   TRAN0106 1.000000
    SH010622 BAL0152  -1.000000   BAL0122  1.000000
    SH010822 COST     170.414000   TRAN0108 1.000000
    SH010822 BAL0183  -1.000000   BAL0122  1.000000
    SH010123 COST     286.884000   TRAN0101 1.000000
    SH010123 BAL0101  -1.000000   BAL0123  1.000000
    SH010223 COST     663.266000   TRAN0102 1.000000
    SH010223 BAL0102  -1.000000   BAL0123  1.000000
    SH010323 COST     351.862000   TRAN0103 1.000000
    SH010323 BAL0103  -1.000000   BAL0123  1.000000
    SH010423 COST     204.742000   TRAN0104 1.000000
    SH010423 BAL0104  -1.000000   BAL0123  1.000000
    SH010523 COST     203.516000   TRAN0105 1.000000
    SH010523 BAL0105  -1.000000   BAL0123  1.000000
    SH010823 COST     170.414000   TRAN0108 1.000000
    SH010823 BAL0183  -1.000000   BAL0123  1.000000
    SH010125 COST     474.462000   TRAN0101 1.000000
    SH010125 BAL0101  -1.000000   BAL0125  1.000000
    SH010225 COST     523.502000   TRAN0102 1.000000
    SH010225 BAL0102  -1.000000   BAL0125  1.000000
    SH010325 COST     626.486000   TRAN0103 1.000000
    SH010325 BAL0103  -1.000000   BAL0125  1.000000
    SH010425 COST     426.648000   TRAN0104 1.000000
    SH010425 BAL0104  -1.000000   BAL0125  1.000000
    SH010525 COST     693.916000   TRAN0105 1.000000
    SH010525 BAL0105  -1.000000   BAL0125  1.000000
    SH010625 COST     494.078000   TRAN0106 1.000000
    SH010625 BAL0152  -1.000000   BAL0125  1.000000
    SH010825 COST     373.930000   TRAN0108 1.000000
    SH010825 BAL0183  -1.000000   BAL0125  1.000000
    SH010126 COST     399.676000   TRAN0101 1.000000
    SH010126 BAL0101  -1.000000   BAL0126  1.000000
    SH010226 COST     588.480000   TRAN0102 1.000000
    SH010226 BAL0102  -1.000000   BAL0126  1.000000
    SH010326 COST     393.546000   TRAN0103 1.000000
    SH010326 BAL0103  -1.000000   BAL0126  1.000000
    SH010426 COST     331.020000   TRAN0104 1.000000
    SH010426 BAL0104  -1.000000   BAL0126  1.000000
    SH010526 COST     507.564000   TRAN0105 1.000000
    SH010526 BAL0105  -1.000000   BAL0126  1.000000
    SH010826 COST     217.002000   TRAN0108 1.000000
    SH010826 BAL0183  -1.000000   BAL0126  1.000000
    SH010127 COST     286.884000   TRAN0101 1.000000
    SH010127 BAL0101  -1.000000   BAL0127  1.000000
    SH010227 COST     348.184000   TRAN0102 1.000000
    SH010227 BAL0102  -1.000000   BAL0127  1.000000
    SH010327 COST     354.314000   TRAN0103 1.000000
    SH010327 BAL0103  -1.000000   BAL0127  1.000000
    SH010427 COST     410.710000   TRAN0104 1.000000
    SH010427 BAL0104  -1.000000   BAL0127  1.000000
    SH010527 COST     463.428000   TRAN0105 1.000000
    SH010527 BAL0105  -1.000000   BAL0127  1.000000
    SH010627 COST     328.568000   TRAN0106 1.000000
    SH010627 BAL0152  -1.000000   BAL0127  1.000000
    SH010827 COST     308.952000   TRAN0108 1.000000
    SH010827 BAL0183  -1.000000   BAL0127  1.000000
    SH010128 COST     297.918000   TRAN0101 1.000000
    SH010128 BAL0101  -1.000000   BAL0128  1.000000
    SH010228 COST     697.594000   TRAN0102 1.000000
    SH010228 BAL0102  -1.000000   BAL0128  1.000000
    SH010328 COST     362.896000   TRAN0103 1.000000
    SH010328 BAL0103  -1.000000   BAL0128  1.000000
    SH010428 COST     361.670000   TRAN0104 1.000000
    SH010428 BAL0104  -1.000000   BAL0128  1.000000
    SH010528 COST     125.052000   TRAN0105 1.000000
    SH010528 BAL0105  -1.000000   BAL0128  1.000000
    SH010628 COST     319.986000   TRAN0106 1.000000
    SH010628 BAL0152  -1.000000   BAL0128  1.000000
    SH010728 COST     131.182000   TRAN0107 1.000000
    SH010728 BAL0164  -1.000000   BAL0128  1.000000
    SH010828 COST     311.404000   TRAN0108 1.000000
    SH010828 BAL0183  -1.000000   BAL0128  1.000000
    SH010129 COST     273.398000   TRAN0101 1.000000
    SH010129 BAL0101  -1.000000   BAL0129  1.000000
    SH010229 COST     568.864000   TRAN0102 1.000000
    SH010229 BAL0102  -1.000000   BAL0129  1.000000
    SH010329 COST     295.466000   TRAN0103 1.000000
    SH010329 BAL0103  -1.000000   BAL0129  1.000000
    SH010429 COST     243.974000   TRAN0104 1.000000
    SH010429 BAL0104  -1.000000   BAL0129  1.000000
    SH010529 COST     527.180000   TRAN0105 1.000000
    SH010529 BAL0105  -1.000000   BAL0129  1.000000
    SH010629 COST     319.986000   TRAN0106 1.000000
    SH010629 BAL0152  -1.000000   BAL0129  1.000000
    SH010829 COST     176.544000   TRAN0108 1.000000
    SH010829 BAL0183  -1.000000   BAL0129  1.000000
    SH010130 COST     571.316000   TRAN0101 1.000000
    SH010130 BAL0101  -1.000000   BAL0130  1.000000
    SH010230 COST     534.536000   TRAN0102 1.000000
    SH010230 BAL0102  -1.000000   BAL0130  1.000000
    SH010330 COST     641.198000   TRAN0103 1.000000
    SH010330 BAL0103  -1.000000   BAL0130  1.000000
    SH010430 COST     372.704000   TRAN0104 1.000000
    SH010430 BAL0104  -1.000000   BAL0130  1.000000
    SH010530 COST     546.796000   TRAN0105 1.000000
    SH010530 BAL0105  -1.000000   BAL0130  1.000000
    SH010830 COST     468.332000   TRAN0108 1.000000
    SH010830 BAL0183  -1.000000   BAL0130  1.000000
    SH010131 COST     136.086000   TRAN0101 1.000000
    SH010131 BAL0101  -1.000000   BAL0131  1.000000
    SH010231 COST     430.326000   TRAN0102 1.000000
    SH010231 BAL0102  -1.000000   BAL0131  1.000000
    SH010331 COST     134.860000   TRAN0103 1.000000
    SH010331 BAL0103  -1.000000   BAL0131  1.000000
    SH010431 COST     310.178000   TRAN0104 1.000000
    SH010431 BAL0104  -1.000000   BAL0131  1.000000
    SH010531 COST     376.382000   TRAN0105 1.000000
    SH010531 BAL0105  -1.000000   BAL0131  1.000000
    SH010631 COST     137.312000   TRAN0106 1.000000
    SH010631 BAL0152  -1.000000   BAL0131  1.000000
    SH010831 COST     273.398000   TRAN0108 1.000000
    SH010831 BAL0183  -1.000000   BAL0131  1.000000
    SH010132 COST     366.574000   TRAN0101 1.000000
    SH010132 BAL0101  -1.000000   BAL0132  1.000000
    SH010232 COST     586.028000   TRAN0102 1.000000
    SH010232 BAL0102  -1.000000   BAL0132  1.000000
    SH010332 COST     518.598000   TRAN0103 1.000000
    SH010332 BAL0103  -1.000000   BAL0132  1.000000
    SH010432 COST     192.482000   TRAN0104 1.000000
    SH010432 BAL0104  -1.000000   BAL0132  1.000000
    SH010532 COST     480.592000   TRAN0105 1.000000
    SH010532 BAL0105  -1.000000   BAL0132  1.000000
    SH010832 COST     220.680000   TRAN0108 1.000000
    SH010832 BAL0183  -1.000000   BAL0132  1.000000
    SH010133 COST     604.418000   TRAN0101 1.000000
    SH010133 BAL0101  -1.000000   BAL0133  1.000000
    SH010233 COST     490.400000   TRAN0102 1.000000
    SH010233 BAL0102  -1.000000   BAL0133  1.000000
    SH010333 COST     665.718000   TRAN0103 1.000000
    SH010333 BAL0103  -1.000000   BAL0133  1.000000
    SH010433 COST     545.570000   TRAN0104 1.000000
    SH010433 BAL0104  -1.000000   BAL0133  1.000000
    SH010533 COST     773.606000   TRAN0105 1.000000
    SH010533 BAL0105  -1.000000   BAL0133  1.000000
    SH010833 COST     467.106000   TRAN0108 1.000000
    SH010833 BAL0183  -1.000000   BAL0133  1.000000
    SH010134 COST     473.236000   TRAN0101 1.000000
    SH010134 BAL0101  -1.000000   BAL0134  1.000000
    SH010234 COST     803.030000   TRAN0102 1.000000
    SH010234 BAL0102  -1.000000   BAL0134  1.000000
    SH010334 COST     616.678000   TRAN0103 1.000000
    SH010334 BAL0103  -1.000000   BAL0134  1.000000
    SH010434 COST     258.686000   TRAN0104 1.000000
    SH010434 BAL0104  -1.000000   BAL0134  1.000000
    SH010534 COST     540.666000   TRAN0105 1.000000
    SH010534 BAL0105  -1.000000   BAL0134  1.000000
    SH010834 COST     322.438000   TRAN0108 1.000000
    SH010834 BAL0183  -1.000000   BAL0134  1.000000
    SH010135 COST     565.186000   TRAN0101 1.000000
    SH010135 BAL0101  -1.000000   BAL0135  1.000000
    SH010235 COST     545.570000   TRAN0102 1.000000
    SH010235 BAL0102  -1.000000   BAL0135  1.000000
    SH010335 COST     462.202000   TRAN0103 1.000000
    SH010335 BAL0103  -1.000000   BAL0135  1.000000
    SH010435 COST     149.572000   TRAN0104 1.000000
    SH010435 BAL0104  -1.000000   BAL0135  1.000000
    SH010535 COST     528.406000   TRAN0105 1.000000
    SH010535 BAL0105  -1.000000   BAL0135  1.000000
    SH010835 COST     288.110000   TRAN0108 1.000000
    SH010835 BAL0183  -1.000000   BAL0135  1.000000
    SH010136 COST     251.330000   TRAN0101 1.000000
    SH010136 BAL0101  -1.000000   BAL0136  1.000000
    SH010236 COST     549.248000   TRAN0102 1.000000
    SH010236 BAL0102  -1.000000   BAL0136  1.000000
    SH010336 COST     129.956000   TRAN0103 1.000000
    SH010336 BAL0103  -1.000000   BAL0136  1.000000
    SH010436 COST     453.620000   TRAN0104 1.000000
    SH010436 BAL0104  -1.000000   BAL0136  1.000000
    SH010536 COST     424.196000   TRAN0105 1.000000
    SH010536 BAL0105  -1.000000   BAL0136  1.000000
    SH010636 COST     134.860000   TRAN0106 1.000000
    SH010636 BAL0152  -1.000000   BAL0136  1.000000
    SH010836 COST     393.546000   TRAN0108 1.000000
    SH010836 BAL0183  -1.000000   BAL0136  1.000000
    SH010137 COST     112.792000   TRAN0101 1.000000
    SH010137 BAL0101  -1.000000   BAL0137  1.000000
    SH010237 COST     419.292000   TRAN0102 1.000000
    SH010237 BAL0102  -1.000000   BAL0137  1.000000
    SH010337 COST     193.708000   TRAN0103 1.000000
    SH010337 BAL0103  -1.000000   BAL0137  1.000000
    SH010437 COST     372.704000   TRAN0104 1.000000
    SH010437 BAL0104  -1.000000   BAL0137  1.000000
    SH010537 COST     223.132000   TRAN0105 1.000000
    SH010537 BAL0105  -1.000000   BAL0137  1.000000
    SH010637 COST     237.844000   TRAN0106 1.000000
    SH010637 BAL0152  -1.000000   BAL0137  1.000000
    SH010837 COST     308.952000   TRAN0108 1.000000
    SH010837 BAL0183  -1.000000   BAL0137  1.000000
    SH010138 COST     166.736000   TRAN0101 1.000000
    SH010138 BAL0101  -1.000000   BAL0138  1.000000
    SH010238 COST     299.144000   TRAN0102 1.000000
    SH010238 BAL0102  -1.000000   BAL0138  1.000000
    SH010338 COST     116.470000   TRAN0103 1.000000
    SH010338 BAL0103  -1.000000   BAL0138  1.000000
    SH010438 COST     377.608000   TRAN0104 1.000000
    SH010438 BAL0104  -1.000000   BAL0138  1.000000
    SH010538 COST     340.828000   TRAN0105 1.000000
    SH010538 BAL0105  -1.000000   BAL0138  1.000000
    SH010638 COST     47.814000   TRAN0106 1.000000
    SH010638 BAL0152  -1.000000   BAL0138  1.000000
    SH010738 COST     264.816000   TRAN0107 1.000000
    SH010738 BAL0164  -1.000000   BAL0138  1.000000
    SH010838 COST     290.562000   TRAN0108 1.000000
    SH010838 BAL0183  -1.000000   BAL0138  1.000000
    SH010139 COST     159.380000   TRAN0101 1.000000
    SH010139 BAL0101  -1.000000   BAL0139  1.000000
    SH010239 COST     415.614000   TRAN0102 1.000000
    SH010239 BAL0102  -1.000000   BAL0139  1.000000
    SH010339 COST     196.160000   TRAN0103 1.000000
    SH010339 BAL0103  -1.000000   BAL0139  1.000000
    SH010439 COST     305.274000   TRAN0104 1.000000
    SH010439 BAL0104  -1.000000   BAL0139  1.000000
    SH010539 COST     525.954000   TRAN0105 1.000000
    SH010539 BAL0105  -1.000000   BAL0139  1.000000
    SH010639 COST     250.104000   TRAN0106 1.000000
    SH010639 BAL0152  -1.000000   BAL0139  1.000000
    SH010839 COST     205.968000   TRAN0108 1.000000
    SH010839 BAL0183  -1.000000   BAL0139  1.000000
    SH010140 COST     202.290000   TRAN0101 1.000000
    SH010140 BAL0101  -1.000000   BAL0140  1.000000
    SH010240 COST     463.428000   TRAN0102 1.000000
    SH010240 BAL0102  -1.000000   BAL0140  1.000000
    SH010340 COST     126.278000   TRAN0103 1.000000
    SH010340 BAL0103  -1.000000   BAL0140  1.000000
    SH010440 COST     364.122000   TRAN0104 1.000000
    SH010440 BAL0104  -1.000000   BAL0140  1.000000
    SH010540 COST     270.946000   TRAN0105 1.000000
    SH010540 BAL0105  -1.000000   BAL0140  1.000000
    SH010640 COST     160.606000   TRAN0106 1.000000
    SH010640 BAL0152  -1.000000   BAL0140  1.000000
    SH010840 COST     335.924000   TRAN0108 1.000000
    SH010840 BAL0183  -1.000000   BAL0140  1.000000
    SH010141 COST     240.296000   TRAN0101 1.000000
    SH010141 BAL0101  -1.000000   BAL0141  1.000000
    SH010241 COST     367.800000   TRAN0102 1.000000
    SH010241 BAL0102  -1.000000   BAL0141  1.000000
    SH010341 COST     183.900000   TRAN0103 1.000000
    SH010341 BAL0103  -1.000000   BAL0141  1.000000
    SH010441 COST     397.224000   TRAN0104 1.000000
    SH010441 BAL0104  -1.000000   BAL0141  1.000000
    SH010541 COST     451.168000   TRAN0105 1.000000
    SH010541 BAL0105  -1.000000   BAL0141  1.000000
    SH010641 COST     122.600000   TRAN0106 1.000000
    SH010641 BAL0152  -1.000000   BAL0141  1.000000
    SH010841 COST     366.574000   TRAN0108 1.000000
    SH010841 BAL0183  -1.000000   BAL0141  1.000000
    SH010142 COST     110.340000   TRAN0101 1.000000
    SH010142 BAL0101  -1.000000   BAL0142  1.000000
    SH010242 COST     507.564000   TRAN0102 1.000000
    SH010242 BAL0102  -1.000000   BAL0142  1.000000
    SH010342 COST     196.160000   TRAN0103 1.000000
    SH010342 BAL0103  -1.000000   BAL0142  1.000000
    SH010442 COST     239.070000   TRAN0104 1.000000
    SH010442 BAL0104  -1.000000   BAL0142  1.000000
    SH010542 COST     442.586000   TRAN0105 1.000000
    SH010542 BAL0105  -1.000000   BAL0142  1.000000
    SH010642 COST     197.386000   TRAN0106 1.000000
    SH010642 BAL0152  -1.000000   BAL0142  1.000000
    SH010842 COST     186.352000   TRAN0108 1.000000
    SH010842 BAL0183  -1.000000   BAL0142  1.000000
    SH010143 COST     194.934000   TRAN0101 1.000000
    SH010143 BAL0101  -1.000000   BAL0143  1.000000
    SH010243 COST     484.270000   TRAN0102 1.000000
    SH010243 BAL0102  -1.000000   BAL0143  1.000000
    SH010343 COST     30.650000   TRAN0103 1.000000
    SH010343 BAL0103  -1.000000   BAL0143  1.000000
    SH010443 COST     362.896000   TRAN0104 1.000000
    SH010443 BAL0104  -1.000000   BAL0143  1.000000
    SH010543 COST     316.308000   TRAN0105 1.000000
    SH010543 BAL0105  -1.000000   BAL0143  1.000000
    SH010643 COST     122.600000   TRAN0106 1.000000
    SH010643 BAL0152  -1.000000   BAL0143  1.000000
    SH010743 COST     295.466000   TRAN0107 1.000000
    SH010743 BAL0164  -1.000000   BAL0143  1.000000
    SH010843 COST     332.246000   TRAN0108 1.000000
    SH010843 BAL0183  -1.000000   BAL0143  1.000000
    SH010144 COST     194.934000   TRAN0101 1.000000
    SH010144 BAL0101  -1.000000   BAL0144  1.000000
    SH010244 COST     464.654000   TRAN0102 1.000000
    SH010244 BAL0102  -1.000000   BAL0144  1.000000
    SH010344 COST     156.928000   TRAN0103 1.000000
    SH010344 BAL0103  -1.000000   BAL0144  1.000000
    SH010444 COST     382.512000   TRAN0104 1.000000
    SH010444 BAL0104  -1.000000   BAL0144  1.000000
    SH010544 COST     380.060000   TRAN0105 1.000000
    SH010544 BAL0105  -1.000000   BAL0144  1.000000
    SH010644 COST     109.114000   TRAN0106 1.000000
    SH010644 BAL0152  -1.000000   BAL0144  1.000000
    SH010844 COST     365.348000   TRAN0108 1.000000
    SH010844 BAL0183  -1.000000   BAL0144  1.000000
    SH010145 COST     210.872000   TRAN0101 1.000000
    SH010145 BAL0101  -1.000000   BAL0145  1.000000
    SH010245 COST     534.536000   TRAN0102 1.000000
    SH010245 BAL0102  -1.000000   BAL0145  1.000000
    SH010345 COST     197.386000   TRAN0103 1.000000
    SH010345 BAL0103  -1.000000   BAL0145  1.000000
    SH010445 COST     357.992000   TRAN0104 1.000000
    SH010445 BAL0104  -1.000000   BAL0145  1.000000
    SH010545 COST     286.884000   TRAN0105 1.000000
    SH010545 BAL0105  -1.000000   BAL0145  1.000000
    SH010645 COST     234.166000   TRAN0106 1.000000
    SH010645 BAL0152  -1.000000   BAL0145  1.000000
    SH010745 COST     241.522000   TRAN0107 1.000000
    SH010745 BAL0164  -1.000000   BAL0145  1.000000
    SH010845 COST     373.930000   TRAN0108 1.000000
    SH010845 BAL0183  -1.000000   BAL0145  1.000000
    SH010146 COST     300.370000   TRAN0101 1.000000
    SH010146 BAL0101  -1.000000   BAL0146  1.000000
    SH010246 COST     334.698000   TRAN0102 1.000000
    SH010246 BAL0102  -1.000000   BAL0146  1.000000
    SH010346 COST     270.946000   TRAN0103 1.000000
    SH010346 BAL0103  -1.000000   BAL0146  1.000000
    SH010446 COST     548.022000   TRAN0104 1.000000
    SH010446 BAL0104  -1.000000   BAL0146  1.000000
    SH010546 COST     527.180000   TRAN0105 1.000000
    SH010546 BAL0105  -1.000000   BAL0146  1.000000
    SH010646 COST     315.082000   TRAN0106 1.000000
    SH010646 BAL0152  -1.000000   BAL0146  1.000000
    SH010846 COST     549.248000   TRAN0108 1.000000
    SH010846 BAL0183  -1.000000   BAL0146  1.000000
    SH010147 COST     134.860000   TRAN0101 1.000000
    SH010147 BAL0101  -1.000000   BAL0147  1.000000
    SH010247 COST     457.298000   TRAN0102 1.000000
    SH010247 BAL0102  -1.000000   BAL0147  1.000000
    SH010347 COST     194.934000   TRAN0103 1.000000
    SH010347 BAL0103  -1.000000   BAL0147  1.000000
    SH010447 COST     335.924000   TRAN0104 1.000000
    SH010447 BAL0104  -1.000000   BAL0147  1.000000
    SH010547 COST     285.658000   TRAN0105 1.000000
    SH010547 BAL0105  -1.000000   BAL0147  1.000000
    SH010647 COST     177.770000   TRAN0106 1.000000
    SH010647 BAL0152  -1.000000   BAL0147  1.000000
    SH010847 COST     299.144000   TRAN0108 1.000000
    SH010847 BAL0183  -1.000000   BAL0147  1.000000
    SH010148 COST     116.470000   TRAN0101 1.000000
    SH010148 BAL0101  -1.000000   BAL0148  1.000000
    SH010248 COST     415.614000   TRAN0102 1.000000
    SH010248 BAL0102  -1.000000   BAL0148  1.000000
    SH010348 COST     167.962000   TRAN0103 1.000000
    SH010348 BAL0103  -1.000000   BAL0148  1.000000
    SH010448 COST     281.980000   TRAN0104 1.000000
    SH010448 BAL0104  -1.000000   BAL0148  1.000000
    SH010548 COST     302.822000   TRAN0105 1.000000
    SH010548 BAL0105  -1.000000   BAL0148  1.000000
    SH010648 COST     140.990000   TRAN0106 1.000000
    SH010648 BAL0152  -1.000000   BAL0148  1.000000
    SH010848 COST     239.070000   TRAN0108 1.000000
    SH010848 BAL0183  -1.000000   BAL0148  1.000000
    SH010149 COST     403.354000   TRAN0101 1.000000
    SH010149 BAL0101  -1.000000   BAL0149  1.000000
    SH010549 COST     186.352000   TRAN0105 1.000000
    SH010549 BAL0105  -1.000000   BAL0149  1.000000
    SH010150 COST     295.466000   TRAN0101 1.000000
    SH010150 BAL0101  -1.000000   BAL0150  1.000000
    SH010250 COST     750.312000   TRAN0102 1.000000
    SH010250 BAL0102  -1.000000   BAL0150  1.000000
    SH010350 COST     301.596000   TRAN0103 1.000000
    SH010350 BAL0103  -1.000000   BAL0150  1.000000
    SH010450 COST     447.490000   TRAN0104 1.000000
    SH010450 BAL0104  -1.000000   BAL0150  1.000000
    SH010550 COST     288.110000   TRAN0105 1.000000
    SH010550 BAL0105  -1.000000   BAL0150  1.000000
    SH010750 COST     167.962000   TRAN0107 1.000000
    SH010750 BAL0164  -1.000000   BAL0150  1.000000
    SH010850 COST     497.756000   TRAN0108 1.000000
    SH010850 BAL0183  -1.000000   BAL0150  1.000000
    SH010151 COST     407.032000   TRAN0101 1.000000
    SH010151 BAL0101  -1.000000   BAL0151  1.000000
    SH010551 COST     150.798000   TRAN0105 1.000000
    SH010551 BAL0105  -1.000000   BAL0151  1.000000
    SH010152 COST     137.312000   TRAN0101 1.000000
    SH010152 BAL0101  -1.000000   BAL0152  1.000000
    SH010252 COST     367.800000   TRAN0102 1.000000
    SH010252 BAL0102  -1.000000   BAL0152  1.000000
    SH010352 COST     100.532000   TRAN0103 1.000000
    SH010352 BAL0103  -1.000000   BAL0152  1.000000
    SH010452 COST     394.772000   TRAN0104 1.000000
    SH010452 BAL0104  -1.000000   BAL0152  1.000000
    SH010552 COST     361.670000   TRAN0105 1.000000
    SH010552 BAL0105  -1.000000   BAL0152  1.000000
    SH010852 COST     310.178000   TRAN0108 1.000000
    SH010852 BAL0183  -1.000000   BAL0152  1.000000
    SH010153 COST     440.134000   TRAN0101 1.000000
    SH010153 BAL0101  -1.000000   BAL0153  1.000000
    SH010253 COST     779.736000   TRAN0102 1.000000
    SH010253 BAL0102  -1.000000   BAL0153  1.000000
    SH010353 COST     398.450000   TRAN0103 1.000000
    SH010353 BAL0103  -1.000000   BAL0153  1.000000
    SH010453 COST     505.112000   TRAN0104 1.000000
    SH010453 BAL0104  -1.000000   BAL0153  1.000000
    SH010553 COST     225.584000   TRAN0105 1.000000
    SH010553 BAL0105  -1.000000   BAL0153  1.000000
    SH010653 COST     440.134000   TRAN0106 1.000000
    SH010653 BAL0152  -1.000000   BAL0153  1.000000
    SH010753 COST     178.996000   TRAN0107 1.000000
    SH010753 BAL0164  -1.000000   BAL0153  1.000000
    SH010853 COST     494.078000   TRAN0108 1.000000
    SH010853 BAL0183  -1.000000   BAL0153  1.000000
    SH010154 COST     226.810000   TRAN0101 1.000000
    SH010154 BAL0101  -1.000000   BAL0154  1.000000
    SH010254 COST     545.570000   TRAN0102 1.000000
    SH010254 BAL0102  -1.000000   BAL0154  1.000000
    SH010354 COST     266.042000   TRAN0103 1.000000
    SH010354 BAL0103  -1.000000   BAL0154  1.000000
    SH010454 COST     420.518000   TRAN0104 1.000000
    SH010454 BAL0104  -1.000000   BAL0154  1.000000
    SH010554 COST     261.138000   TRAN0105 1.000000
    SH010554 BAL0105  -1.000000   BAL0154  1.000000
    SH010654 COST     248.878000   TRAN0106 1.000000
    SH010654 BAL0152  -1.000000   BAL0154  1.000000
    SH010854 COST     492.852000   TRAN0108 1.000000
    SH010854 BAL0183  -1.000000   BAL0154  1.000000
    SH010155 COST     340.828000   TRAN0101 1.000000
    SH010155 BAL0101  -1.000000   BAL0155  1.000000
    SH010255 COST     587.254000   TRAN0102 1.000000
    SH010255 BAL0102  -1.000000   BAL0155  1.000000
    SH010355 COST     344.506000   TRAN0103 1.000000
    SH010355 BAL0103  -1.000000   BAL0155  1.000000
    SH010455 COST     360.444000   TRAN0104 1.000000
    SH010455 BAL0104  -1.000000   BAL0155  1.000000
    SH010555 COST     188.804000   TRAN0105 1.000000
    SH010555 BAL0105  -1.000000   BAL0155  1.000000
    SH010655 COST     355.540000   TRAN0106 1.000000
    SH010655 BAL0152  -1.000000   BAL0155  1.000000
    SH010755 COST     131.182000   TRAN0107 1.000000
    SH010755 BAL0164  -1.000000   BAL0155  1.000000
    SH010855 COST     360.444000   TRAN0108 1.000000
    SH010855 BAL0183  -1.000000   BAL0155  1.000000
    SH010156 COST     478.140000   TRAN0101 1.000000
    SH010156 BAL0101  -1.000000   BAL0156  1.000000
    SH010256 COST     709.854000   TRAN0102 1.000000
    SH010256 BAL0102  -1.000000   BAL0156  1.000000
    SH010356 COST     373.930000   TRAN0103 1.000000
    SH010356 BAL0103  -1.000000   BAL0156  1.000000
    SH010456 COST     447.490000   TRAN0104 1.000000
    SH010456 BAL0104  -1.000000   BAL0156  1.000000
    SH010556 COST     166.736000   TRAN0105 1.000000
    SH010556 BAL0105  -1.000000   BAL0156  1.000000
    SH010656 COST     415.614000   TRAN0106 1.000000
    SH010656 BAL0152  -1.000000   BAL0156  1.000000
    SH010756 COST     149.572000   TRAN0107 1.000000
    SH010756 BAL0164  -1.000000   BAL0156  1.000000
    SH010856 COST     437.682000   TRAN0108 1.000000
    SH010856 BAL0183  -1.000000   BAL0156  1.000000
    SH010157 COST     319.986000   TRAN0101 1.000000
    SH010157 BAL0101  -1.000000   BAL0157  1.000000
    SH010257 COST     637.520000   TRAN0102 1.000000
    SH010257 BAL0102  -1.000000   BAL0157  1.000000
    SH010357 COST     355.540000   TRAN0103 1.000000
    SH010357 BAL0103  -1.000000   BAL0157  1.000000
    SH010457 COST     286.884000   TRAN0104 1.000000
    SH010457 BAL0104  -1.000000   BAL0157  1.000000
    SH010557 COST     205.968000   TRAN0105 1.000000
    SH010557 BAL0105  -1.000000   BAL0157  1.000000
    SH010657 COST     391.094000   TRAN0106 1.000000
    SH010657 BAL0152  -1.000000   BAL0157  1.000000
    SH010757 COST     181.448000   TRAN0107 1.000000
    SH010757 BAL0164  -1.000000   BAL0157  1.000000
    SH010857 COST     283.206000   TRAN0108 1.000000
    SH010857 BAL0183  -1.000000   BAL0157  1.000000
    SH010158 COST     360.444000   TRAN0101 1.000000
    SH010158 BAL0101  -1.000000   BAL0158  1.000000
    SH010258 COST     638.746000   TRAN0102 1.000000
    SH010258 BAL0102  -1.000000   BAL0158  1.000000
    SH010358 COST     340.828000   TRAN0103 1.000000
    SH010358 BAL0103  -1.000000   BAL0158  1.000000
    SH010458 COST     420.518000   TRAN0104 1.000000
    SH010458 BAL0104  -1.000000   BAL0158  1.000000
    SH010558 COST     25.746000   TRAN0105 1.000000
    SH010558 BAL0105  -1.000000   BAL0158  1.000000
    SH010658 COST     399.676000   TRAN0106 1.000000
    SH010658 BAL0152  -1.000000   BAL0158  1.000000
    SH010758 COST     83.368000   TRAN0107 1.000000
    SH010758 BAL0164  -1.000000   BAL0158  1.000000
    SH010858 COST     311.404000   TRAN0108 1.000000
    SH010858 BAL0183  -1.000000   BAL0158  1.000000
    SH010159 COST     252.556000   TRAN0101 1.000000
    SH010159 BAL0101  -1.000000   BAL0159  1.000000
    SH010259 COST     610.548000   TRAN0102 1.000000
    SH010259 BAL0102  -1.000000   BAL0159  1.000000
    SH010359 COST     291.788000   TRAN0103 1.000000
    SH010359 BAL0103  -1.000000   BAL0159  1.000000
    SH010459 COST     299.144000   TRAN0104 1.000000
    SH010459 BAL0104  -1.000000   BAL0159  1.000000
    SH010559 COST     194.934000   TRAN0105 1.000000
    SH010559 BAL0105  -1.000000   BAL0159  1.000000
    SH010659 COST     364.122000   TRAN0106 1.000000
    SH010659 BAL0152  -1.000000   BAL0159  1.000000
    SH010759 COST     128.730000   TRAN0107 1.000000
    SH010759 BAL0164  -1.000000   BAL0159  1.000000
    SH010859 COST     312.630000   TRAN0108 1.000000
    SH010859 BAL0183  -1.000000   BAL0159  1.000000
    SH010160 COST     319.986000   TRAN0101 1.000000
    SH010160 BAL0101  -1.000000   BAL0160  1.000000
    SH010260 COST     674.300000   TRAN0102 1.000000
    SH010260 BAL0102  -1.000000   BAL0160  1.000000
    SH010360 COST     346.958000   TRAN0103 1.000000
    SH010360 BAL0103  -1.000000   BAL0160  1.000000
    SH010460 COST     382.512000   TRAN0104 1.000000
    SH010460 BAL0104  -1.000000   BAL0160  1.000000
    SH010560 COST     165.510000   TRAN0105 1.000000
    SH010560 BAL0105  -1.000000   BAL0160  1.000000
    SH010660 COST     395.998000   TRAN0106 1.000000
    SH010660 BAL0152  -1.000000   BAL0160  1.000000
    SH010760 COST     107.888000   TRAN0107 1.000000
    SH010760 BAL0164  -1.000000   BAL0160  1.000000
    SH010860 COST     366.574000   TRAN0108 1.000000
    SH010860 BAL0183  -1.000000   BAL0160  1.000000
    SH010163 COST     326.116000   TRAN0101 1.000000
    SH010163 BAL0101  -1.000000   BAL0163  1.000000
    SH010263 COST     605.644000   TRAN0102 1.000000
    SH010263 BAL0102  -1.000000   BAL0163  1.000000
    SH010363 COST     351.862000   TRAN0103 1.000000
    SH010363 BAL0103  -1.000000   BAL0163  1.000000
    SH010463 COST     452.394000   TRAN0104 1.000000
    SH010463 BAL0104  -1.000000   BAL0163  1.000000
    SH010563 COST     186.352000   TRAN0105 1.000000
    SH010563 BAL0105  -1.000000   BAL0163  1.000000
    SH010663 COST     386.190000   TRAN0106 1.000000
    SH010663 BAL0152  -1.000000   BAL0163  1.000000
    SH010763 COST     152.024000   TRAN0107 1.000000
    SH010763 BAL0164  -1.000000   BAL0163  1.000000
    SH010863 COST     490.400000   TRAN0108 1.000000
    SH010863 BAL0183  -1.000000   BAL0163  1.000000
    SH010164 COST     243.974000   TRAN0101 1.000000
    SH010164 BAL0101  -1.000000   BAL0164  1.000000
    SH010264 COST     644.876000   TRAN0102 1.000000
    SH010264 BAL0102  -1.000000   BAL0164  1.000000
    SH010364 COST     273.398000   TRAN0103 1.000000
    SH010364 BAL0103  -1.000000   BAL0164  1.000000
    SH010464 COST     411.936000   TRAN0104 1.000000
    SH010464 BAL0104  -1.000000   BAL0164  1.000000
    SH010564 COST     71.108000   TRAN0105 1.000000
    SH010564 BAL0105  -1.000000   BAL0164  1.000000
    SH010664 COST     388.642000   TRAN0106 1.000000
    SH010664 BAL0152  -1.000000   BAL0164  1.000000
    SH010864 COST     306.500000   TRAN0108 1.000000
    SH010864 BAL0183  -1.000000   BAL0164  1.000000
    SH010165 COST     529.632000   TRAN0101 1.000000
    SH010165 BAL0101  -1.000000   BAL0165  1.000000
    SH010265 COST     376.382000   TRAN0102 1.000000
    SH010265 BAL0102  -1.000000   BAL0165  1.000000
    SH010365 COST     619.130000   TRAN0103 1.000000
    SH010365 BAL0103  -1.000000   BAL0165  1.000000
    SH010465 COST     475.688000   TRAN0104 1.000000
    SH010465 BAL0104  -1.000000   BAL0165  1.000000
    SH010565 COST     740.504000   TRAN0105 1.000000
    SH010565 BAL0105  -1.000000   BAL0165  1.000000
    SH010865 COST     508.790000   TRAN0108 1.000000
    SH010865 BAL0183  -1.000000   BAL0165  1.000000
    SH010166 COST     686.560000   TRAN0101 1.000000
    SH010166 BAL0101  -1.000000   BAL0166  1.000000
    SH010266 COST     317.534000   TRAN0102 1.000000
    SH010266 BAL0102  -1.000000   BAL0166  1.000000
    SH010366 COST     708.628000   TRAN0103 1.000000
    SH010366 BAL0103  -1.000000   BAL0166  1.000000
    SH010466 COST     681.656000   TRAN0104 1.000000
    SH010466 BAL0104  -1.000000   BAL0166  1.000000
    SH010566 COST     870.460000   TRAN0105 1.000000
    SH010566 BAL0105  -1.000000   BAL0166  1.000000
    SH010866 COST     686.560000   TRAN0108 1.000000
    SH010866 BAL0183  -1.000000   BAL0166  1.000000
    SH010167 COST     521.050000   TRAN0101 1.000000
    SH010167 BAL0101  -1.000000   BAL0167  1.000000
    SH010267 COST     284.432000   TRAN0102 1.000000
    SH010267 BAL0102  -1.000000   BAL0167  1.000000
    SH010367 COST     604.418000   TRAN0103 1.000000
    SH010367 BAL0103  -1.000000   BAL0167  1.000000
    SH010467 COST     560.282000   TRAN0104 1.000000
    SH010467 BAL0104  -1.000000   BAL0167  1.000000
    SH010567 COST     740.504000   TRAN0105 1.000000
    SH010567 BAL0105  -1.000000   BAL0167  1.000000
    SH010867 COST     561.508000   TRAN0108 1.000000
    SH010867 BAL0183  -1.000000   BAL0167  1.000000
    SH010168 COST     728.244000   TRAN0101 1.000000
    SH010168 BAL0101  -1.000000   BAL0168  1.000000
    SH010268 COST     490.400000   TRAN0102 1.000000
    SH010268 BAL0102  -1.000000   BAL0168  1.000000
    SH010368 COST     686.560000   TRAN0103 1.000000
    SH010368 BAL0103  -1.000000   BAL0168  1.000000
    SH010468 COST     860.652000   TRAN0104 1.000000
    SH010468 BAL0104  -1.000000   BAL0168  1.000000
    SH010568 COST     1159.800000   TRAN0105 1.000000
    SH010568 BAL0105  -1.000000   BAL0168  1.000000
    SH010868 COST     920.726000   TRAN0108 1.000000
    SH010868 BAL0183  -1.000000   BAL0168  1.000000
    SH010169 COST     660.814000   TRAN0101 1.000000
    SH010169 BAL0101  -1.000000   BAL0169  1.000000
    SH010269 COST     270.946000   TRAN0102 1.000000
    SH010269 BAL0102  -1.000000   BAL0169  1.000000
    SH010369 COST     625.260000   TRAN0103 1.000000
    SH010369 BAL0103  -1.000000   BAL0169  1.000000
    SH010469 COST     762.572000   TRAN0104 1.000000
    SH010469 BAL0104  -1.000000   BAL0169  1.000000
    SH010569 COST     791.996000   TRAN0105 1.000000
    SH010569 BAL0105  -1.000000   BAL0169  1.000000
    SH010869 COST     806.708000   TRAN0108 1.000000
    SH010869 BAL0183  -1.000000   BAL0169  1.000000
    SH010171 COST     539.440000   TRAN0101 1.000000
    SH010171 BAL0101  -1.000000   BAL0171  1.000000
    SH010371 COST     642.424000   TRAN0103 1.000000
    SH010371 BAL0103  -1.000000   BAL0171  1.000000
    SH010471 COST     638.746000   TRAN0104 1.000000
    SH010471 BAL0104  -1.000000   BAL0171  1.000000
    SH010571 COST     712.306000   TRAN0105 1.000000
    SH010571 BAL0105  -1.000000   BAL0171  1.000000
    SH010671 COST     479.366000   TRAN0106 1.000000
    SH010671 BAL0152  -1.000000   BAL0171  1.000000
    SH010771 COST     863.104000   TRAN0107 1.000000
    SH010771 BAL0164  -1.000000   BAL0171  1.000000
    SH010871 COST     653.458000   TRAN0108 1.000000
    SH010871 BAL0183  -1.000000   BAL0171  1.000000
    SH010172 COST     719.662000   TRAN0101 1.000000
    SH010172 BAL0101  -1.000000   BAL0172  1.000000
    SH010272 COST     665.718000   TRAN0102 1.000000
    SH010272 BAL0102  -1.000000   BAL0172  1.000000
    SH010372 COST     756.442000   TRAN0103 1.000000
    SH010372 BAL0103  -1.000000   BAL0172  1.000000
    SH010472 COST     698.820000   TRAN0104 1.000000
    SH010472 BAL0104  -1.000000   BAL0172  1.000000
    SH010572 COST     935.438000   TRAN0105 1.000000
    SH010572 BAL0105  -1.000000   BAL0172  1.000000
    SH010872 COST     698.820000   TRAN0108 1.000000
    SH010872 BAL0183  -1.000000   BAL0172  1.000000
    SH010173 COST     478.140000   TRAN0101 1.000000
    SH010173 BAL0101  -1.000000   BAL0173  1.000000
    SH010273 COST     447.490000   TRAN0102 1.000000
    SH010273 BAL0102  -1.000000   BAL0173  1.000000
    SH010373 COST     414.388000   TRAN0103 1.000000
    SH010373 BAL0103  -1.000000   BAL0173  1.000000
    SH010473 COST     560.282000   TRAN0104 1.000000
    SH010473 BAL0104  -1.000000   BAL0173  1.000000
    SH010573 COST     691.464000   TRAN0105 1.000000
    SH010573 BAL0105  -1.000000   BAL0173  1.000000
    SH010673 COST     373.930000   TRAN0106 1.000000
    SH010673 BAL0152  -1.000000   BAL0173  1.000000
    SH010873 COST     617.904000   TRAN0108 1.000000
    SH010873 BAL0183  -1.000000   BAL0173  1.000000
    SH010174 COST     671.848000   TRAN0101 1.000000
    SH010174 BAL0101  -1.000000   BAL0174  1.000000
    SH010274 COST     257.460000   TRAN0102 1.000000
    SH010274 BAL0102  -1.000000   BAL0174  1.000000
    SH010374 COST     698.820000   TRAN0103 1.000000
    SH010374 BAL0103  -1.000000   BAL0174  1.000000
    SH010474 COST     780.962000   TRAN0104 1.000000
    SH010474 BAL0104  -1.000000   BAL0174  1.000000
    SH010574 COST     898.658000   TRAN0105 1.000000
    SH010574 BAL0105  -1.000000   BAL0174  1.000000
    SH010874 COST     758.894000   TRAN0108 1.000000
    SH010874 BAL0183  -1.000000   BAL0174  1.000000
    SH010175 COST     1088.690000   TRAN0101 1.000000
    SH010175 BAL0101  -1.000000   BAL0175  1.000000
    SH010275 COST     679.204000   TRAN0102 1.000000
    SH010275 BAL0102  -1.000000   BAL0175  1.000000
    SH010375 COST     1164.700000   TRAN0103 1.000000
    SH010375 BAL0103  -1.000000   BAL0175  1.000000
    SH010475 COST     1190.450000   TRAN0104 1.000000
    SH010475 BAL0104  -1.000000   BAL0175  1.000000
    SH010575 COST     1427.060000   TRAN0105 1.000000
    SH010575 BAL0105  -1.000000   BAL0175  1.000000
    SH010675 COST     1085.010000   TRAN0106 1.000000
    SH010675 BAL0152  -1.000000   BAL0175  1.000000
    SH010775 COST     1431.970000   TRAN0107 1.000000
    SH010775 BAL0164  -1.000000   BAL0175  1.000000
    SH010176 COST     566.412000   TRAN0101 1.000000
    SH010176 BAL0101  -1.000000   BAL0176  1.000000
    SH010276 COST     491.626000   TRAN0102 1.000000
    SH010276 BAL0102  -1.000000   BAL0176  1.000000
    SH010376 COST     494.078000   TRAN0103 1.000000
    SH010376 BAL0103  -1.000000   BAL0176  1.000000
    SH010476 COST     772.380000   TRAN0104 1.000000
    SH010476 BAL0104  -1.000000   BAL0176  1.000000
    SH010576 COST     772.380000   TRAN0105 1.000000
    SH010576 BAL0105  -1.000000   BAL0176  1.000000
    SH010676 COST     467.106000   TRAN0106 1.000000
    SH010676 BAL0152  -1.000000   BAL0176  1.000000
    SH010876 COST     952.602000   TRAN0108 1.000000
    SH010876 BAL0183  -1.000000   BAL0176  1.000000
    SH010177 COST     533.310000   TRAN0101 1.000000
    SH010177 BAL0101  -1.000000   BAL0177  1.000000
    SH010277 COST     333.472000   TRAN0102 1.000000
    SH010277 BAL0102  -1.000000   BAL0177  1.000000
    SH010377 COST     565.186000   TRAN0103 1.000000
    SH010377 BAL0103  -1.000000   BAL0177  1.000000
    SH010477 COST     491.626000   TRAN0104 1.000000
    SH010477 BAL0104  -1.000000   BAL0177  1.000000
    SH010577 COST     686.560000   TRAN0105 1.000000
    SH010577 BAL0105  -1.000000   BAL0177  1.000000
    SH010877 COST     392.320000   TRAN0108 1.000000
    SH010877 BAL0183  -1.000000   BAL0177  1.000000
    SH010178 COST     932.986000   TRAN0101 1.000000
    SH010178 BAL0101  -1.000000   BAL0178  1.000000
    SH010278 COST     541.892000   TRAN0102 1.000000
    SH010278 BAL0102  -1.000000   BAL0178  1.000000
    SH010378 COST     959.958000   TRAN0103 1.000000
    SH010378 BAL0103  -1.000000   BAL0178  1.000000
    SH010478 COST     839.810000   TRAN0104 1.000000
    SH010478 BAL0104  -1.000000   BAL0178  1.000000
    SH010578 COST     1077.650000   TRAN0105 1.000000
    SH010578 BAL0105  -1.000000   BAL0178  1.000000
    SH010878 COST     939.116000   TRAN0108 1.000000
    SH010878 BAL0183  -1.000000   BAL0178  1.000000
    SH010179 COST     876.590000   TRAN0101 1.000000
    SH010179 BAL0101  -1.000000   BAL0179  1.000000
    SH010279 COST     329.794000   TRAN0102 1.000000
    SH010279 BAL0102  -1.000000   BAL0179  1.000000
    SH010379 COST     847.166000   TRAN0103 1.000000
    SH010379 BAL0103  -1.000000   BAL0179  1.000000
    SH010479 COST     882.720000   TRAN0104 1.000000
    SH010479 BAL0104  -1.000000   BAL0179  1.000000
    SH010879 COST     865.556000   TRAN0108 1.000000
    SH010879 BAL0183  -1.000000   BAL0179  1.000000
    SH010480 COST     458.524000   TRAN0104 1.000000
    SH010480 BAL0104  -1.000000   BAL0180  1.000000
    SH010182 COST     713.532000   TRAN0101 1.000000
    SH010182 BAL0101  -1.000000   BAL0182  1.000000
    SH010282 COST     403.354000   TRAN0102 1.000000
    SH010282 BAL0102  -1.000000   BAL0182  1.000000
    SH010382 COST     803.030000   TRAN0103 1.000000
    SH010382 BAL0103  -1.000000   BAL0182  1.000000
    SH010482 COST     865.556000   TRAN0104 1.000000
    SH010482 BAL0104  -1.000000   BAL0182  1.000000
    SH010582 COST     1406.220000   TRAN0105 1.000000
    SH010582 BAL0105  -1.000000   BAL0182  1.000000
    SH010882 COST     959.958000   TRAN0108 1.000000
    SH010882 BAL0183  -1.000000   BAL0182  1.000000
    SH010183 COST     217.002000   TRAN0101 1.000000
    SH010183 BAL0101  -1.000000   BAL0183  1.000000
    SH010283 COST     637.520000   TRAN0102 1.000000
    SH010283 BAL0102  -1.000000   BAL0183  1.000000
    SH010383 COST     333.472000   TRAN0103 1.000000
    SH010383 BAL0103  -1.000000   BAL0183  1.000000
    SH010483 COST     72.334000   TRAN0104 1.000000
    SH010483 BAL0104  -1.000000   BAL0183  1.000000
    SH010583 COST     425.422000   TRAN0105 1.000000
    SH010583 BAL0105  -1.000000   BAL0183  1.000000
    SH010683 COST     304.048000   TRAN0106 1.000000
    SH010683 BAL0152  -1.000000   BAL0183  1.000000
    SH010184 COST     372.704000   TRAN0101 1.000000
    SH010184 BAL0101  -1.000000   BAL0184  1.000000
    SH010284 COST     235.392000   TRAN0102 1.000000
    SH010284 BAL0102  -1.000000   BAL0184  1.000000
    SH010384 COST     446.264000   TRAN0103 1.000000
    SH010384 BAL0103  -1.000000   BAL0184  1.000000
    SH010484 COST     453.620000   TRAN0104 1.000000
    SH010484 BAL0104  -1.000000   BAL0184  1.000000
    SH010584 COST     600.740000   TRAN0105 1.000000
    SH010584 BAL0105  -1.000000   BAL0184  1.000000
    SH010684 COST     373.930000   TRAN0106 1.000000
    SH010684 BAL0152  -1.000000   BAL0184  1.000000
    SH010884 COST     475.688000   TRAN0108 1.000000
    SH010884 BAL0183  -1.000000   BAL0184  1.000000
    SH020201 COST     364.122000   TRAN0202 1.000000
    SH020201 BAL0202  -1.000000   BAL0201  1.000000
    SH020301 COST     139.764000   TRAN0203 1.000000
    SH020301 BAL0203  -1.000000   BAL0201  1.000000
    SH020401 COST     255.008000   TRAN0204 1.000000
    SH020401 BAL0204  -1.000000   BAL0201  1.000000
    SH020501 COST     290.562000   TRAN0205 1.000000
    SH020501 BAL0205  -1.000000   BAL0201  1.000000
    SH020601 COST     154.476000   TRAN0206 1.000000
    SH020601 BAL0252  -1.000000   BAL0201  1.000000
    SH020801 COST     175.318000   TRAN0208 1.000000
    SH020801 BAL0283  -1.000000   BAL0201  1.000000
    SH020102 COST     581.124000   TRAN0201 1.000000
    SH020102 BAL0201  -1.000000   BAL0202  1.000000
    SH020302 COST     511.242000   TRAN0203 1.000000
    SH020302 BAL0203  -1.000000   BAL0202  1.000000
    SH020402 COST     750.312000   TRAN0204 1.000000
    SH020402 BAL0204  -1.000000   BAL0202  1.000000
    SH020502 COST     908.466000   TRAN0205 1.000000
    SH020502 BAL0205  -1.000000   BAL0202  1.000000
    SH020602 COST     463.428000   TRAN0206 1.000000
    SH020602 BAL0252  -1.000000   BAL0202  1.000000
    SH020802 COST     638.746000   TRAN0208 1.000000
    SH020802 BAL0283  -1.000000   BAL0202  1.000000
    SH020103 COST     300.370000   TRAN0201 1.000000
    SH020103 BAL0201  -1.000000   BAL0203  1.000000
    SH020203 COST     581.124000   TRAN0202 1.000000
    SH020203 BAL0202  -1.000000   BAL0203  1.000000
    SH020403 COST     449.942000   TRAN0204 1.000000
    SH020403 BAL0204  -1.000000   BAL0203  1.000000
    SH020503 COST     348.184000   TRAN0205 1.000000
    SH020503 BAL0205  -1.000000   BAL0203  1.000000
    SH020603 COST     110.340000   TRAN0206 1.000000
    SH020603 BAL0252  -1.000000   BAL0203  1.000000
    SH020803 COST     312.630000   TRAN0208 1.000000
    SH020803 BAL0283  -1.000000   BAL0203  1.000000
    SH020104 COST     213.324000   TRAN0201 1.000000
    SH020104 BAL0201  -1.000000   BAL0204  1.000000
    SH020204 COST     616.678000   TRAN0202 1.000000
    SH020204 BAL0202  -1.000000   BAL0204  1.000000
    SH020304 COST     297.918000   TRAN0203 1.000000
    SH020304 BAL0203  -1.000000   BAL0204  1.000000
    SH020504 COST     391.094000   TRAN0205 1.000000
    SH020504 BAL0205  -1.000000   BAL0204  1.000000
    SH020604 COST     300.370000   TRAN0206 1.000000
    SH020604 BAL0252  -1.000000   BAL0204  1.000000
    SH020704 COST     329.794000   TRAN0207 1.000000
    SH020704 BAL0264  -1.000000   BAL0204  1.000000
    SH020804 COST     71.108000   TRAN0208 1.000000
    SH020804 BAL0283  -1.000000   BAL0204  1.000000
    SH020105 COST     331.020000   TRAN0201 1.000000
    SH020105 BAL0201  -1.000000   BAL0205  1.000000
    SH020205 COST     632.616000   TRAN0202 1.000000
    SH020205 BAL0202  -1.000000   BAL0205  1.000000
    SH020305 COST     348.184000   TRAN0203 1.000000
    SH020305 BAL0203  -1.000000   BAL0205  1.000000
    SH020405 COST     349.410000   TRAN0204 1.000000
    SH020405 BAL0204  -1.000000   BAL0205  1.000000
    SH020605 COST     399.676000   TRAN0206 1.000000
    SH020605 BAL0252  -1.000000   BAL0205  1.000000
    SH020705 COST     409.484000   TRAN0207 1.000000
    SH020705 BAL0264  -1.000000   BAL0205  1.000000
    SH020805 COST     332.246000   TRAN0208 1.000000
    SH020805 BAL0283  -1.000000   BAL0205  1.000000
    SH020106 COST     243.974000   TRAN0201 1.000000
    SH020106 BAL0201  -1.000000   BAL0206  1.000000
    SH020206 COST     511.242000   TRAN0202 1.000000
    SH020206 BAL0202  -1.000000   BAL0206  1.000000
    SH020306 COST     261.138000   TRAN0203 1.000000
    SH020306 BAL0203  -1.000000   BAL0206  1.000000
    SH020406 COST     268.494000   TRAN0204 1.000000
    SH020406 BAL0204  -1.000000   BAL0206  1.000000
    SH020506 COST     308.952000   TRAN0205 1.000000
    SH020506 BAL0205  -1.000000   BAL0206  1.000000
    SH020606 COST     252.556000   TRAN0206 1.000000
    SH020606 BAL0252  -1.000000   BAL0206  1.000000
    SH020706 COST     245.200000   TRAN0207 1.000000
    SH020706 BAL0264  -1.000000   BAL0206  1.000000
    SH020806 COST     185.126000   TRAN0208 1.000000
    SH020806 BAL0283  -1.000000   BAL0206  1.000000
    SH020107 COST     25.746000   TRAN0201 1.000000
    SH020107 BAL0201  -1.000000   BAL0207  1.000000
    SH020207 COST     357.992000   TRAN0202 1.000000
    SH020207 BAL0202  -1.000000   BAL0207  1.000000
    SH020307 COST     152.024000   TRAN0203 1.000000
    SH020307 BAL0203  -1.000000   BAL0207  1.000000
    SH020407 COST     253.782000   TRAN0204 1.000000
    SH020407 BAL0204  -1.000000   BAL0207  1.000000
    SH020507 COST     280.754000   TRAN0205 1.000000
    SH020507 BAL0205  -1.000000   BAL0207  1.000000
    SH020607 COST     153.250000   TRAN0206 1.000000
    SH020607 BAL0252  -1.000000   BAL0207  1.000000
    SH020707 COST     284.432000   TRAN0207 1.000000
    SH020707 BAL0264  -1.000000   BAL0207  1.000000
    SH020807 COST     190.030000   TRAN0208 1.000000
    SH020807 BAL0283  -1.000000   BAL0207  1.000000
    SH020108 COST     80.916000   TRAN0201 1.000000
    SH020108 BAL0201  -1.000000   BAL0208  1.000000
    SH020208 COST     460.976000   TRAN0202 1.000000
    SH020208 BAL0202  -1.000000   BAL0208  1.000000
    SH020308 COST     172.866000   TRAN0203 1.000000
    SH020308 BAL0203  -1.000000   BAL0208  1.000000
    SH020408 COST     302.822000   TRAN0204 1.000000
    SH020408 BAL0204  -1.000000   BAL0208  1.000000
    SH020508 COST     223.132000   TRAN0205 1.000000
    SH020508 BAL0205  -1.000000   BAL0208  1.000000
    SH020608 COST     203.516000   TRAN0206 1.000000
    SH020608 BAL0252  -1.000000   BAL0208  1.000000
    SH020808 COST     229.262000   TRAN0208 1.000000
    SH020808 BAL0283  -1.000000   BAL0208  1.000000
    SH020109 COST     169.188000   TRAN0201 1.000000
    SH020109 BAL0201  -1.000000   BAL0209  1.000000
    SH020209 COST     469.558000   TRAN0202 1.000000
    SH020209 BAL0202  -1.000000   BAL0209  1.000000
    SH020309 COST     205.968000   TRAN0203 1.000000
    SH020309 BAL0203  -1.000000   BAL0209  1.000000
    SH020409 COST     310.178000   TRAN0204 1.000000
    SH020409 BAL0204  -1.000000   BAL0209  1.000000
    SH020509 COST     293.014000   TRAN0205 1.000000
    SH020509 BAL0205  -1.000000   BAL0209  1.000000
    SH020709 COST     240.296000   TRAN0207 1.000000
    SH020709 BAL0264  -1.000000   BAL0209  1.000000
    SH020809 COST     237.844000   TRAN0208 1.000000
    SH020809 BAL0283  -1.000000   BAL0209  1.000000
    SH020110 COST     302.822000   TRAN0201 1.000000
    SH020110 BAL0201  -1.000000   BAL0210  1.000000
    SH020210 COST     193.708000   TRAN0202 1.000000
    SH020210 BAL0202  -1.000000   BAL0210  1.000000
    SH020310 COST     294.240000   TRAN0203 1.000000
    SH020310 BAL0203  -1.000000   BAL0210  1.000000
    SH020410 COST     440.134000   TRAN0204 1.000000
    SH020410 BAL0204  -1.000000   BAL0210  1.000000
    SH020510 COST     472.010000   TRAN0205 1.000000
    SH020510 BAL0205  -1.000000   BAL0210  1.000000
    SH020610 COST     275.850000   TRAN0206 1.000000
    SH020610 BAL0252  -1.000000   BAL0210  1.000000
    SH020810 COST     373.930000   TRAN0208 1.000000
    SH020810 BAL0283  -1.000000   BAL0210  1.000000
    SH020111 COST     129.956000   TRAN0201 1.000000
    SH020111 BAL0201  -1.000000   BAL0211  1.000000
    SH020211 COST     606.870000   TRAN0202 1.000000
    SH020211 BAL0202  -1.000000   BAL0211  1.000000
    SH020311 COST     304.048000   TRAN0203 1.000000
    SH020311 BAL0203  -1.000000   BAL0211  1.000000
    SH020411 COST     170.414000   TRAN0204 1.000000
    SH020411 BAL0204  -1.000000   BAL0211  1.000000
    SH020511 COST     418.066000   TRAN0205 1.000000
    SH020511 BAL0205  -1.000000   BAL0211  1.000000
    SH020611 COST     240.296000   TRAN0206 1.000000
    SH020611 BAL0252  -1.000000   BAL0211  1.000000
    SH020811 COST     125.052000   TRAN0208 1.000000
    SH020811 BAL0283  -1.000000   BAL0211  1.000000
    SH020112 COST     107.888000   TRAN0201 1.000000
    SH020112 BAL0201  -1.000000   BAL0212  1.000000
    SH020212 COST     415.614000   TRAN0202 1.000000
    SH020212 BAL0202  -1.000000   BAL0212  1.000000
    SH020312 COST     178.996000   TRAN0203 1.000000
    SH020312 BAL0203  -1.000000   BAL0212  1.000000
    SH020412 COST     245.200000   TRAN0204 1.000000
    SH020412 BAL0204  -1.000000   BAL0212  1.000000
    SH020512 COST     327.342000   TRAN0205 1.000000
    SH020512 BAL0205  -1.000000   BAL0212  1.000000
    SH020612 COST     177.770000   TRAN0206 1.000000
    SH020612 BAL0252  -1.000000   BAL0212  1.000000
    SH020812 COST     178.996000   TRAN0208 1.000000
    SH020812 BAL0283  -1.000000   BAL0212  1.000000
    SH020114 COST     174.092000   TRAN0201 1.000000
    SH020114 BAL0201  -1.000000   BAL0214  1.000000
    SH020214 COST     505.112000   TRAN0202 1.000000
    SH020214 BAL0202  -1.000000   BAL0214  1.000000
    SH020314 COST     240.296000   TRAN0203 1.000000
    SH020314 BAL0203  -1.000000   BAL0214  1.000000
    SH020414 COST     243.974000   TRAN0204 1.000000
    SH020414 BAL0204  -1.000000   BAL0214  1.000000
    SH020514 COST     431.552000   TRAN0205 1.000000
    SH020514 BAL0205  -1.000000   BAL0214  1.000000
    SH020614 COST     230.488000   TRAN0206 1.000000
    SH020614 BAL0252  -1.000000   BAL0214  1.000000
    SH020814 COST     154.476000   TRAN0208 1.000000
    SH020814 BAL0283  -1.000000   BAL0214  1.000000
    SH020115 COST     371.478000   TRAN0201 1.000000
    SH020115 BAL0201  -1.000000   BAL0215  1.000000
    SH020215 COST     194.934000   TRAN0202 1.000000
    SH020215 BAL0202  -1.000000   BAL0215  1.000000
    SH020315 COST     286.884000   TRAN0203 1.000000
    SH020315 BAL0203  -1.000000   BAL0215  1.000000
    SH020415 COST     583.576000   TRAN0204 1.000000
    SH020415 BAL0204  -1.000000   BAL0215  1.000000
    SH020515 COST     487.948000   TRAN0205 1.000000
    SH020515 BAL0205  -1.000000   BAL0215  1.000000
    SH020615 COST     230.488000   TRAN0206 1.000000
    SH020615 BAL0252  -1.000000   BAL0215  1.000000
    SH020815 COST     457.298000   TRAN0208 1.000000
    SH020815 BAL0283  -1.000000   BAL0215  1.000000
    SH020116 COST     193.708000   TRAN0201 1.000000
    SH020116 BAL0201  -1.000000   BAL0216  1.000000
    SH020216 COST     343.280000   TRAN0202 1.000000
    SH020216 BAL0202  -1.000000   BAL0216  1.000000
    SH020316 COST     278.302000   TRAN0203 1.000000
    SH020316 BAL0203  -1.000000   BAL0216  1.000000
    SH020416 COST     351.862000   TRAN0204 1.000000
    SH020416 BAL0204  -1.000000   BAL0216  1.000000
    SH020516 COST     391.094000   TRAN0205 1.000000
    SH020516 BAL0205  -1.000000   BAL0216  1.000000
    SH020616 COST     160.606000   TRAN0206 1.000000
    SH020616 BAL0252  -1.000000   BAL0216  1.000000
    SH020816 COST     251.330000   TRAN0208 1.000000
    SH020816 BAL0283  -1.000000   BAL0216  1.000000
    SH020117 COST     185.126000   TRAN0201 1.000000
    SH020117 BAL0201  -1.000000   BAL0217  1.000000
    SH020217 COST     619.130000   TRAN0202 1.000000
    SH020217 BAL0202  -1.000000   BAL0217  1.000000
    SH020317 COST     335.924000   TRAN0203 1.000000
    SH020317 BAL0203  -1.000000   BAL0217  1.000000
    SH020417 COST     69.882000   TRAN0204 1.000000
    SH020417 BAL0204  -1.000000   BAL0217  1.000000
    SH020517 COST     365.348000   TRAN0205 1.000000
    SH020517 BAL0205  -1.000000   BAL0217  1.000000
    SH020717 COST     361.670000   TRAN0207 1.000000
    SH020717 BAL0264  -1.000000   BAL0217  1.000000
    SH020817 COST     33.102000   TRAN0208 1.000000
    SH020817 BAL0283  -1.000000   BAL0217  1.000000
    SH020118 COST     214.550000   TRAN0201 1.000000
    SH020118 BAL0201  -1.000000   BAL0218  1.000000
    SH020218 COST     442.586000   TRAN0202 1.000000
    SH020218 BAL0202  -1.000000   BAL0218  1.000000
    SH020318 COST     331.020000   TRAN0203 1.000000
    SH020318 BAL0203  -1.000000   BAL0218  1.000000
    SH020418 COST     188.804000   TRAN0204 1.000000
    SH020418 BAL0204  -1.000000   BAL0218  1.000000
    SH020518 COST     498.982000   TRAN0205 1.000000
    SH020518 BAL0205  -1.000000   BAL0218  1.000000
    SH020618 COST     431.552000   TRAN0206 1.000000
    SH020618 BAL0252  -1.000000   BAL0218  1.000000
    SH020818 COST     126.278000   TRAN0208 1.000000
    SH020818 BAL0283  -1.000000   BAL0218  1.000000
    SH020119 COST     304.048000   TRAN0201 1.000000
    SH020119 BAL0201  -1.000000   BAL0219  1.000000
    SH020219 COST     842.262000   TRAN0202 1.000000
    SH020219 BAL0202  -1.000000   BAL0219  1.000000
    SH020319 COST     388.642000   TRAN0203 1.000000
    SH020319 BAL0203  -1.000000   BAL0219  1.000000
    SH020419 COST     194.934000   TRAN0204 1.000000
    SH020419 BAL0204  -1.000000   BAL0219  1.000000
    SH020519 COST     255.008000   TRAN0205 1.000000
    SH020519 BAL0205  -1.000000   BAL0219  1.000000
    SH020619 COST     422.970000   TRAN0206 1.000000
    SH020619 BAL0252  -1.000000   BAL0219  1.000000
    SH020819 COST     121.374000   TRAN0208 1.000000
    SH020819 BAL0283  -1.000000   BAL0219  1.000000
    SH020120 COST     251.330000   TRAN0201 1.000000
    SH020120 BAL0201  -1.000000   BAL0220  1.000000
    SH020220 COST     837.358000   TRAN0202 1.000000
    SH020220 BAL0202  -1.000000   BAL0220  1.000000
    SH020320 COST     364.122000   TRAN0203 1.000000
    SH020320 BAL0203  -1.000000   BAL0220  1.000000
    SH020420 COST     138.538000   TRAN0204 1.000000
    SH020420 BAL0204  -1.000000   BAL0220  1.000000
    SH020520 COST     356.766000   TRAN0205 1.000000
    SH020520 BAL0205  -1.000000   BAL0220  1.000000
    SH020820 COST     154.476000   TRAN0208 1.000000
    SH020820 BAL0283  -1.000000   BAL0220  1.000000
    SH020121 COST     494.078000   TRAN0201 1.000000
    SH020121 BAL0201  -1.000000   BAL0221  1.000000
    SH020221 COST     451.168000   TRAN0202 1.000000
    SH020221 BAL0202  -1.000000   BAL0221  1.000000
    SH020321 COST     546.796000   TRAN0203 1.000000
    SH020321 BAL0203  -1.000000   BAL0221  1.000000
    SH020421 COST     392.320000   TRAN0204 1.000000
    SH020421 BAL0204  -1.000000   BAL0221  1.000000
    SH020521 COST     674.300000   TRAN0205 1.000000
    SH020521 BAL0205  -1.000000   BAL0221  1.000000
    SH020821 COST     392.320000   TRAN0208 1.000000
    SH020821 BAL0283  -1.000000   BAL0221  1.000000
    SH020122 COST     304.048000   TRAN0201 1.000000
    SH020122 BAL0201  -1.000000   BAL0222  1.000000
    SH020222 COST     708.628000   TRAN0202 1.000000
    SH020222 BAL0202  -1.000000   BAL0222  1.000000
    SH020322 COST     366.574000   TRAN0203 1.000000
    SH020322 BAL0203  -1.000000   BAL0222  1.000000
    SH020422 COST     274.624000   TRAN0204 1.000000
    SH020422 BAL0204  -1.000000   BAL0222  1.000000
    SH020522 COST     219.454000   TRAN0205 1.000000
    SH020522 BAL0205  -1.000000   BAL0222  1.000000
    SH020622 COST     380.060000   TRAN0206 1.000000
    SH020622 BAL0252  -1.000000   BAL0222  1.000000
    SH020822 COST     170.414000   TRAN0208 1.000000
    SH020822 BAL0283  -1.000000   BAL0222  1.000000
    SH020123 COST     286.884000   TRAN0201 1.000000
    SH020123 BAL0201  -1.000000   BAL0223  1.000000
    SH020223 COST     663.266000   TRAN0202 1.000000
    SH020223 BAL0202  -1.000000   BAL0223  1.000000
    SH020323 COST     351.862000   TRAN0203 1.000000
    SH020323 BAL0203  -1.000000   BAL0223  1.000000
    SH020423 COST     204.742000   TRAN0204 1.000000
    SH020423 BAL0204  -1.000000   BAL0223  1.000000
    SH020523 COST     203.516000   TRAN0205 1.000000
    SH020523 BAL0205  -1.000000   BAL0223  1.000000
    SH020823 COST     170.414000   TRAN0208 1.000000
    SH020823 BAL0283  -1.000000   BAL0223  1.000000
    SH020125 COST     474.462000   TRAN0201 1.000000
    SH020125 BAL0201  -1.000000   BAL0225  1.000000
    SH020225 COST     523.502000   TRAN0202 1.000000
    SH020225 BAL0202  -1.000000   BAL0225  1.000000
    SH020325 COST     626.486000   TRAN0203 1.000000
    SH020325 BAL0203  -1.000000   BAL0225  1.000000
    SH020425 COST     426.648000   TRAN0204 1.000000
    SH020425 BAL0204  -1.000000   BAL0225  1.000000
    SH020525 COST     693.916000   TRAN0205 1.000000
    SH020525 BAL0205  -1.000000   BAL0225  1.000000
    SH020625 COST     494.078000   TRAN0206 1.000000
    SH020625 BAL0252  -1.000000   BAL0225  1.000000
    SH020825 COST     373.930000   TRAN0208 1.000000
    SH020825 BAL0283  -1.000000   BAL0225  1.000000
    SH020126 COST     399.676000   TRAN0201 1.000000
    SH020126 BAL0201  -1.000000   BAL0226  1.000000
    SH020226 COST     588.480000   TRAN0202 1.000000
    SH020226 BAL0202  -1.000000   BAL0226  1.000000
    SH020326 COST     393.546000   TRAN0203 1.000000
    SH020326 BAL0203  -1.000000   BAL0226  1.000000
    SH020426 COST     331.020000   TRAN0204 1.000000
    SH020426 BAL0204  -1.000000   BAL0226  1.000000
    SH020526 COST     507.564000   TRAN0205 1.000000
    SH020526 BAL0205  -1.000000   BAL0226  1.000000
    SH020826 COST     217.002000   TRAN0208 1.000000
    SH020826 BAL0283  -1.000000   BAL0226  1.000000
    SH020127 COST     286.884000   TRAN0201 1.000000
    SH020127 BAL0201  -1.000000   BAL0227  1.000000
    SH020227 COST     348.184000   TRAN0202 1.000000
    SH020227 BAL0202  -1.000000   BAL0227  1.000000
    SH020327 COST     354.314000   TRAN0203 1.000000
    SH020327 BAL0203  -1.000000   BAL0227  1.000000
    SH020427 COST     410.710000   TRAN0204 1.000000
    SH020427 BAL0204  -1.000000   BAL0227  1.000000
    SH020527 COST     463.428000   TRAN0205 1.000000
    SH020527 BAL0205  -1.000000   BAL0227  1.000000
    SH020627 COST     328.568000   TRAN0206 1.000000
    SH020627 BAL0252  -1.000000   BAL0227  1.000000
    SH020827 COST     308.952000   TRAN0208 1.000000
    SH020827 BAL0283  -1.000000   BAL0227  1.000000
    SH020128 COST     297.918000   TRAN0201 1.000000
    SH020128 BAL0201  -1.000000   BAL0228  1.000000
    SH020228 COST     697.594000   TRAN0202 1.000000
    SH020228 BAL0202  -1.000000   BAL0228  1.000000
    SH020328 COST     362.896000   TRAN0203 1.000000
    SH020328 BAL0203  -1.000000   BAL0228  1.000000
    SH020428 COST     361.670000   TRAN0204 1.000000
    SH020428 BAL0204  -1.000000   BAL0228  1.000000
    SH020528 COST     125.052000   TRAN0205 1.000000
    SH020528 BAL0205  -1.000000   BAL0228  1.000000
    SH020628 COST     319.986000   TRAN0206 1.000000
    SH020628 BAL0252  -1.000000   BAL0228  1.000000
    SH020728 COST     131.182000   TRAN0207 1.000000
    SH020728 BAL0264  -1.000000   BAL0228  1.000000
    SH020828 COST     311.404000   TRAN0208 1.000000
    SH020828 BAL0283  -1.000000   BAL0228  1.000000
    SH020129 COST     273.398000   TRAN0201 1.000000
    SH020129 BAL0201  -1.000000   BAL0229  1.000000
    SH020229 COST     568.864000   TRAN0202 1.000000
    SH020229 BAL0202  -1.000000   BAL0229  1.000000
    SH020329 COST     295.466000   TRAN0203 1.000000
    SH020329 BAL0203  -1.000000   BAL0229  1.000000
    SH020429 COST     243.974000   TRAN0204 1.000000
    SH020429 BAL0204  -1.000000   BAL0229  1.000000
    SH020529 COST     527.180000   TRAN0205 1.000000
    SH020529 BAL0205  -1.000000   BAL0229  1.000000
    SH020629 COST     319.986000   TRAN0206 1.000000
    SH020629 BAL0252  -1.000000   BAL0229  1.000000
    SH020829 COST     176.544000   TRAN0208 1.000000
    SH020829 BAL0283  -1.000000   BAL0229  1.000000
    SH020130 COST     571.316000   TRAN0201 1.000000
    SH020130 BAL0201  -1.000000   BAL0230  1.000000
    SH020230 COST     534.536000   TRAN0202 1.000000
    SH020230 BAL0202  -1.000000   BAL0230  1.000000
    SH020330 COST     641.198000   TRAN0203 1.000000
    SH020330 BAL0203  -1.000000   BAL0230  1.000000
    SH020430 COST     372.704000   TRAN0204 1.000000
    SH020430 BAL0204  -1.000000   BAL0230  1.000000
    SH020530 COST     546.796000   TRAN0205 1.000000
    SH020530 BAL0205  -1.000000   BAL0230  1.000000
    SH020830 COST     468.332000   TRAN0208 1.000000
    SH020830 BAL0283  -1.000000   BAL0230  1.000000
    SH020131 COST     136.086000   TRAN0201 1.000000
    SH020131 BAL0201  -1.000000   BAL0231  1.000000
    SH020231 COST     430.326000   TRAN0202 1.000000
    SH020231 BAL0202  -1.000000   BAL0231  1.000000
    SH020331 COST     134.860000   TRAN0203 1.000000
    SH020331 BAL0203  -1.000000   BAL0231  1.000000
    SH020431 COST     310.178000   TRAN0204 1.000000
    SH020431 BAL0204  -1.000000   BAL0231  1.000000
    SH020531 COST     376.382000   TRAN0205 1.000000
    SH020531 BAL0205  -1.000000   BAL0231  1.000000
    SH020631 COST     137.312000   TRAN0206 1.000000
    SH020631 BAL0252  -1.000000   BAL0231  1.000000
    SH020831 COST     273.398000   TRAN0208 1.000000
    SH020831 BAL0283  -1.000000   BAL0231  1.000000
    SH020132 COST     366.574000   TRAN0201 1.000000
    SH020132 BAL0201  -1.000000   BAL0232  1.000000
    SH020232 COST     586.028000   TRAN0202 1.000000
    SH020232 BAL0202  -1.000000   BAL0232  1.000000
    SH020332 COST     518.598000   TRAN0203 1.000000
    SH020332 BAL0203  -1.000000   BAL0232  1.000000
    SH020432 COST     192.482000   TRAN0204 1.000000
    SH020432 BAL0204  -1.000000   BAL0232  1.000000
    SH020532 COST     480.592000   TRAN0205 1.000000
    SH020532 BAL0205  -1.000000   BAL0232  1.000000
    SH020832 COST     220.680000   TRAN0208 1.000000
    SH020832 BAL0283  -1.000000   BAL0232  1.000000
    SH020133 COST     604.418000   TRAN0201 1.000000
    SH020133 BAL0201  -1.000000   BAL0233  1.000000
    SH020233 COST     490.400000   TRAN0202 1.000000
    SH020233 BAL0202  -1.000000   BAL0233  1.000000
    SH020333 COST     665.718000   TRAN0203 1.000000
    SH020333 BAL0203  -1.000000   BAL0233  1.000000
    SH020433 COST     545.570000   TRAN0204 1.000000
    SH020433 BAL0204  -1.000000   BAL0233  1.000000
    SH020533 COST     773.606000   TRAN0205 1.000000
    SH020533 BAL0205  -1.000000   BAL0233  1.000000
    SH020833 COST     467.106000   TRAN0208 1.000000
    SH020833 BAL0283  -1.000000   BAL0233  1.000000
    SH020134 COST     473.236000   TRAN0201 1.000000
    SH020134 BAL0201  -1.000000   BAL0234  1.000000
    SH020234 COST     803.030000   TRAN0202 1.000000
    SH020234 BAL0202  -1.000000   BAL0234  1.000000
    SH020334 COST     616.678000   TRAN0203 1.000000
    SH020334 BAL0203  -1.000000   BAL0234  1.000000
    SH020434 COST     258.686000   TRAN0204 1.000000
    SH020434 BAL0204  -1.000000   BAL0234  1.000000
    SH020534 COST     540.666000   TRAN0205 1.000000
    SH020534 BAL0205  -1.000000   BAL0234  1.000000
    SH020834 COST     322.438000   TRAN0208 1.000000
    SH020834 BAL0283  -1.000000   BAL0234  1.000000
    SH020135 COST     565.186000   TRAN0201 1.000000
    SH020135 BAL0201  -1.000000   BAL0235  1.000000
    SH020235 COST     545.570000   TRAN0202 1.000000
    SH020235 BAL0202  -1.000000   BAL0235  1.000000
    SH020335 COST     462.202000   TRAN0203 1.000000
    SH020335 BAL0203  -1.000000   BAL0235  1.000000
    SH020435 COST     149.572000   TRAN0204 1.000000
    SH020435 BAL0204  -1.000000   BAL0235  1.000000
    SH020535 COST     528.406000   TRAN0205 1.000000
    SH020535 BAL0205  -1.000000   BAL0235  1.000000
    SH020835 COST     288.110000   TRAN0208 1.000000
    SH020835 BAL0283  -1.000000   BAL0235  1.000000
    SH020136 COST     251.330000   TRAN0201 1.000000
    SH020136 BAL0201  -1.000000   BAL0236  1.000000
    SH020236 COST     549.248000   TRAN0202 1.000000
    SH020236 BAL0202  -1.000000   BAL0236  1.000000
    SH020336 COST     129.956000   TRAN0203 1.000000
    SH020336 BAL0203  -1.000000   BAL0236  1.000000
    SH020436 COST     453.620000   TRAN0204 1.000000
    SH020436 BAL0204  -1.000000   BAL0236  1.000000
    SH020536 COST     424.196000   TRAN0205 1.000000
    SH020536 BAL0205  -1.000000   BAL0236  1.000000
    SH020636 COST     134.860000   TRAN0206 1.000000
    SH020636 BAL0252  -1.000000   BAL0236  1.000000
    SH020836 COST     393.546000   TRAN0208 1.000000
    SH020836 BAL0283  -1.000000   BAL0236  1.000000
    SH020137 COST     112.792000   TRAN0201 1.000000
    SH020137 BAL0201  -1.000000   BAL0237  1.000000
    SH020237 COST     419.292000   TRAN0202 1.000000
    SH020237 BAL0202  -1.000000   BAL0237  1.000000
    SH020337 COST     193.708000   TRAN0203 1.000000
    SH020337 BAL0203  -1.000000   BAL0237  1.000000
    SH020437 COST     372.704000   TRAN0204 1.000000
    SH020437 BAL0204  -1.000000   BAL0237  1.000000
    SH020537 COST     223.132000   TRAN0205 1.000000
    SH020537 BAL0205  -1.000000   BAL0237  1.000000
    SH020637 COST     237.844000   TRAN0206 1.000000
    SH020637 BAL0252  -1.000000   BAL0237  1.000000
    SH020837 COST     308.952000   TRAN0208 1.000000
    SH020837 BAL0283  -1.000000   BAL0237  1.000000
    SH020138 COST     166.736000   TRAN0201 1.000000
    SH020138 BAL0201  -1.000000   BAL0238  1.000000
    SH020238 COST     299.144000   TRAN0202 1.000000
    SH020238 BAL0202  -1.000000   BAL0238  1.000000
    SH020338 COST     116.470000   TRAN0203 1.000000
    SH020338 BAL0203  -1.000000   BAL0238  1.000000
    SH020438 COST     377.608000   TRAN0204 1.000000
    SH020438 BAL0204  -1.000000   BAL0238  1.000000
    SH020538 COST     340.828000   TRAN0205 1.000000
    SH020538 BAL0205  -1.000000   BAL0238  1.000000
    SH020638 COST     47.814000   TRAN0206 1.000000
    SH020638 BAL0252  -1.000000   BAL0238  1.000000
    SH020738 COST     264.816000   TRAN0207 1.000000
    SH020738 BAL0264  -1.000000   BAL0238  1.000000
    SH020838 COST     290.562000   TRAN0208 1.000000
    SH020838 BAL0283  -1.000000   BAL0238  1.000000
    SH020139 COST     159.380000   TRAN0201 1.000000
    SH020139 BAL0201  -1.000000   BAL0239  1.000000
    SH020239 COST     415.614000   TRAN0202 1.000000
    SH020239 BAL0202  -1.000000   BAL0239  1.000000
    SH020339 COST     196.160000   TRAN0203 1.000000
    SH020339 BAL0203  -1.000000   BAL0239  1.000000
    SH020439 COST     305.274000   TRAN0204 1.000000
    SH020439 BAL0204  -1.000000   BAL0239  1.000000
    SH020539 COST     525.954000   TRAN0205 1.000000
    SH020539 BAL0205  -1.000000   BAL0239  1.000000
    SH020639 COST     250.104000   TRAN0206 1.000000
    SH020639 BAL0252  -1.000000   BAL0239  1.000000
    SH020839 COST     205.968000   TRAN0208 1.000000
    SH020839 BAL0283  -1.000000   BAL0239  1.000000
    SH020140 COST     202.290000   TRAN0201 1.000000
    SH020140 BAL0201  -1.000000   BAL0240  1.000000
    SH020240 COST     463.428000   TRAN0202 1.000000
    SH020240 BAL0202  -1.000000   BAL0240  1.000000
    SH020340 COST     126.278000   TRAN0203 1.000000
    SH020340 BAL0203  -1.000000   BAL0240  1.000000
    SH020440 COST     364.122000   TRAN0204 1.000000
    SH020440 BAL0204  -1.000000   BAL0240  1.000000
    SH020540 COST     270.946000   TRAN0205 1.000000
    SH020540 BAL0205  -1.000000   BAL0240  1.000000
    SH020640 COST     160.606000   TRAN0206 1.000000
    SH020640 BAL0252  -1.000000   BAL0240  1.000000
    SH020840 COST     335.924000   TRAN0208 1.000000
    SH020840 BAL0283  -1.000000   BAL0240  1.000000
    SH020141 COST     240.296000   TRAN0201 1.000000
    SH020141 BAL0201  -1.000000   BAL0241  1.000000
    SH020241 COST     367.800000   TRAN0202 1.000000
    SH020241 BAL0202  -1.000000   BAL0241  1.000000
    SH020341 COST     183.900000   TRAN0203 1.000000
    SH020341 BAL0203  -1.000000   BAL0241  1.000000
    SH020441 COST     397.224000   TRAN0204 1.000000
    SH020441 BAL0204  -1.000000   BAL0241  1.000000
    SH020541 COST     451.168000   TRAN0205 1.000000
    SH020541 BAL0205  -1.000000   BAL0241  1.000000
    SH020641 COST     122.600000   TRAN0206 1.000000
    SH020641 BAL0252  -1.000000   BAL0241  1.000000
    SH020841 COST     366.574000   TRAN0208 1.000000
    SH020841 BAL0283  -1.000000   BAL0241  1.000000
    SH020142 COST     110.340000   TRAN0201 1.000000
    SH020142 BAL0201  -1.000000   BAL0242  1.000000
    SH020242 COST     507.564000   TRAN0202 1.000000
    SH020242 BAL0202  -1.000000   BAL0242  1.000000
    SH020342 COST     196.160000   TRAN0203 1.000000
    SH020342 BAL0203  -1.000000   BAL0242  1.000000
    SH020442 COST     239.070000   TRAN0204 1.000000
    SH020442 BAL0204  -1.000000   BAL0242  1.000000
    SH020542 COST     442.586000   TRAN0205 1.000000
    SH020542 BAL0205  -1.000000   BAL0242  1.000000
    SH020642 COST     197.386000   TRAN0206 1.000000
    SH020642 BAL0252  -1.000000   BAL0242  1.000000
    SH020842 COST     186.352000   TRAN0208 1.000000
    SH020842 BAL0283  -1.000000   BAL0242  1.000000
    SH020143 COST     194.934000   TRAN0201 1.000000
    SH020143 BAL0201  -1.000000   BAL0243  1.000000
    SH020243 COST     484.270000   TRAN0202 1.000000
    SH020243 BAL0202  -1.000000   BAL0243  1.000000
    SH020343 COST     30.650000   TRAN0203 1.000000
    SH020343 BAL0203  -1.000000   BAL0243  1.000000
    SH020443 COST     362.896000   TRAN0204 1.000000
    SH020443 BAL0204  -1.000000   BAL0243  1.000000
    SH020543 COST     316.308000   TRAN0205 1.000000
    SH020543 BAL0205  -1.000000   BAL0243  1.000000
    SH020643 COST     122.600000   TRAN0206 1.000000
    SH020643 BAL0252  -1.000000   BAL0243  1.000000
    SH020743 COST     295.466000   TRAN0207 1.000000
    SH020743 BAL0264  -1.000000   BAL0243  1.000000
    SH020843 COST     332.246000   TRAN0208 1.000000
    SH020843 BAL0283  -1.000000   BAL0243  1.000000
    SH020144 COST     194.934000   TRAN0201 1.000000
    SH020144 BAL0201  -1.000000   BAL0244  1.000000
    SH020244 COST     464.654000   TRAN0202 1.000000
    SH020244 BAL0202  -1.000000   BAL0244  1.000000
    SH020344 COST     156.928000   TRAN0203 1.000000
    SH020344 BAL0203  -1.000000   BAL0244  1.000000
    SH020444 COST     382.512000   TRAN0204 1.000000
    SH020444 BAL0204  -1.000000   BAL0244  1.000000
    SH020544 COST     380.060000   TRAN0205 1.000000
    SH020544 BAL0205  -1.000000   BAL0244  1.000000
    SH020644 COST     109.114000   TRAN0206 1.000000
    SH020644 BAL0252  -1.000000   BAL0244  1.000000
    SH020844 COST     365.348000   TRAN0208 1.000000
    SH020844 BAL0283  -1.000000   BAL0244  1.000000
    SH020145 COST     210.872000   TRAN0201 1.000000
    SH020145 BAL0201  -1.000000   BAL0245  1.000000
    SH020245 COST     534.536000   TRAN0202 1.000000
    SH020245 BAL0202  -1.000000   BAL0245  1.000000
    SH020345 COST     197.386000   TRAN0203 1.000000
    SH020345 BAL0203  -1.000000   BAL0245  1.000000
    SH020445 COST     357.992000   TRAN0204 1.000000
    SH020445 BAL0204  -1.000000   BAL0245  1.000000
    SH020545 COST     286.884000   TRAN0205 1.000000
    SH020545 BAL0205  -1.000000   BAL0245  1.000000
    SH020645 COST     234.166000   TRAN0206 1.000000
    SH020645 BAL0252  -1.000000   BAL0245  1.000000
    SH020745 COST     241.522000   TRAN0207 1.000000
    SH020745 BAL0264  -1.000000   BAL0245  1.000000
    SH020845 COST     373.930000   TRAN0208 1.000000
    SH020845 BAL0283  -1.000000   BAL0245  1.000000
    SH020146 COST     300.370000   TRAN0201 1.000000
    SH020146 BAL0201  -1.000000   BAL0246  1.000000
    SH020246 COST     334.698000   TRAN0202 1.000000
    SH020246 BAL0202  -1.000000   BAL0246  1.000000
    SH020346 COST     270.946000   TRAN0203 1.000000
    SH020346 BAL0203  -1.000000   BAL0246  1.000000
    SH020446 COST     548.022000   TRAN0204 1.000000
    SH020446 BAL0204  -1.000000   BAL0246  1.000000
    SH020546 COST     527.180000   TRAN0205 1.000000
    SH020546 BAL0205  -1.000000   BAL0246  1.000000
    SH020646 COST     315.082000   TRAN0206 1.000000
    SH020646 BAL0252  -1.000000   BAL0246  1.000000
    SH020846 COST     549.248000   TRAN0208 1.000000
    SH020846 BAL0283  -1.000000   BAL0246  1.000000
    SH020147 COST     134.860000   TRAN0201 1.000000
    SH020147 BAL0201  -1.000000   BAL0247  1.000000
    SH020247 COST     457.298000   TRAN0202 1.000000
    SH020247 BAL0202  -1.000000   BAL0247  1.000000
    SH020347 COST     194.934000   TRAN0203 1.000000
    SH020347 BAL0203  -1.000000   BAL0247  1.000000
    SH020447 COST     335.924000   TRAN0204 1.000000
    SH020447 BAL0204  -1.000000   BAL0247  1.000000
    SH020547 COST     285.658000   TRAN0205 1.000000
    SH020547 BAL0205  -1.000000   BAL0247  1.000000
    SH020647 COST     177.770000   TRAN0206 1.000000
    SH020647 BAL0252  -1.000000   BAL0247  1.000000
    SH020847 COST     299.144000   TRAN0208 1.000000
    SH020847 BAL0283  -1.000000   BAL0247  1.000000
    SH020148 COST     116.470000   TRAN0201 1.000000
    SH020148 BAL0201  -1.000000   BAL0248  1.000000
    SH020248 COST     415.614000   TRAN0202 1.000000
    SH020248 BAL0202  -1.000000   BAL0248  1.000000
    SH020348 COST     167.962000   TRAN0203 1.000000
    SH020348 BAL0203  -1.000000   BAL0248  1.000000
    SH020448 COST     281.980000   TRAN0204 1.000000
    SH020448 BAL0204  -1.000000   BAL0248  1.000000
    SH020548 COST     302.822000   TRAN0205 1.000000
    SH020548 BAL0205  -1.000000   BAL0248  1.000000
    SH020648 COST     140.990000   TRAN0206 1.000000
    SH020648 BAL0252  -1.000000   BAL0248  1.000000
    SH020848 COST     239.070000   TRAN0208 1.000000
    SH020848 BAL0283  -1.000000   BAL0248  1.000000
    SH020149 COST     403.354000   TRAN0201 1.000000
    SH020149 BAL0201  -1.000000   BAL0249  1.000000
    SH020549 COST     186.352000   TRAN0205 1.000000
    SH020549 BAL0205  -1.000000   BAL0249  1.000000
    SH020150 COST     295.466000   TRAN0201 1.000000
    SH020150 BAL0201  -1.000000   BAL0250  1.000000
    SH020250 COST     750.312000   TRAN0202 1.000000
    SH020250 BAL0202  -1.000000   BAL0250  1.000000
    SH020350 COST     301.596000   TRAN0203 1.000000
    SH020350 BAL0203  -1.000000   BAL0250  1.000000
    SH020450 COST     447.490000   TRAN0204 1.000000
    SH020450 BAL0204  -1.000000   BAL0250  1.000000
    SH020550 COST     288.110000   TRAN0205 1.000000
    SH020550 BAL0205  -1.000000   BAL0250  1.000000
    SH020750 COST     167.962000   TRAN0207 1.000000
    SH020750 BAL0264  -1.000000   BAL0250  1.000000
    SH020850 COST     497.756000   TRAN0208 1.000000
    SH020850 BAL0283  -1.000000   BAL0250  1.000000
    SH020151 COST     407.032000   TRAN0201 1.000000
    SH020151 BAL0201  -1.000000   BAL0251  1.000000
    SH020551 COST     150.798000   TRAN0205 1.000000
    SH020551 BAL0205  -1.000000   BAL0251  1.000000
    SH020152 COST     137.312000   TRAN0201 1.000000
    SH020152 BAL0201  -1.000000   BAL0252  1.000000
    SH020252 COST     367.800000   TRAN0202 1.000000
    SH020252 BAL0202  -1.000000   BAL0252  1.000000
    SH020352 COST     100.532000   TRAN0203 1.000000
    SH020352 BAL0203  -1.000000   BAL0252  1.000000
    SH020452 COST     394.772000   TRAN0204 1.000000
    SH020452 BAL0204  -1.000000   BAL0252  1.000000
    SH020552 COST     361.670000   TRAN0205 1.000000
    SH020552 BAL0205  -1.000000   BAL0252  1.000000
    SH020852 COST     310.178000   TRAN0208 1.000000
    SH020852 BAL0283  -1.000000   BAL0252  1.000000
    SH020153 COST     440.134000   TRAN0201 1.000000
    SH020153 BAL0201  -1.000000   BAL0253  1.000000
    SH020253 COST     779.736000   TRAN0202 1.000000
    SH020253 BAL0202  -1.000000   BAL0253  1.000000
    SH020353 COST     398.450000   TRAN0203 1.000000
    SH020353 BAL0203  -1.000000   BAL0253  1.000000
    SH020453 COST     505.112000   TRAN0204 1.000000
    SH020453 BAL0204  -1.000000   BAL0253  1.000000
    SH020553 COST     225.584000   TRAN0205 1.000000
    SH020553 BAL0205  -1.000000   BAL0253  1.000000
    SH020653 COST     440.134000   TRAN0206 1.000000
    SH020653 BAL0252  -1.000000   BAL0253  1.000000
    SH020753 COST     178.996000   TRAN0207 1.000000
    SH020753 BAL0264  -1.000000   BAL0253  1.000000
    SH020853 COST     494.078000   TRAN0208 1.000000
    SH020853 BAL0283  -1.000000   BAL0253  1.000000
    SH020154 COST     226.810000   TRAN0201 1.000000
    SH020154 BAL0201  -1.000000   BAL0254  1.000000
    SH020254 COST     545.570000   TRAN0202 1.000000
    SH020254 BAL0202  -1.000000   BAL0254  1.000000
    SH020354 COST     266.042000   TRAN0203 1.000000
    SH020354 BAL0203  -1.000000   BAL0254  1.000000
    SH020454 COST     420.518000   TRAN0204 1.000000
    SH020454 BAL0204  -1.000000   BAL0254  1.000000
    SH020554 COST     261.138000   TRAN0205 1.000000
    SH020554 BAL0205  -1.000000   BAL0254  1.000000
    SH020654 COST     248.878000   TRAN0206 1.000000
    SH020654 BAL0252  -1.000000   BAL0254  1.000000
    SH020854 COST     492.852000   TRAN0208 1.000000
    SH020854 BAL0283  -1.000000   BAL0254  1.000000
    SH020155 COST     340.828000   TRAN0201 1.000000
    SH020155 BAL0201  -1.000000   BAL0255  1.000000
    SH020255 COST     587.254000   TRAN0202 1.000000
    SH020255 BAL0202  -1.000000   BAL0255  1.000000
    SH020355 COST     344.506000   TRAN0203 1.000000
    SH020355 BAL0203  -1.000000   BAL0255  1.000000
    SH020455 COST     360.444000   TRAN0204 1.000000
    SH020455 BAL0204  -1.000000   BAL0255  1.000000
    SH020555 COST     188.804000   TRAN0205 1.000000
    SH020555 BAL0205  -1.000000   BAL0255  1.000000
    SH020655 COST     355.540000   TRAN0206 1.000000
    SH020655 BAL0252  -1.000000   BAL0255  1.000000
    SH020755 COST     131.182000   TRAN0207 1.000000
    SH020755 BAL0264  -1.000000   BAL0255  1.000000
    SH020855 COST     360.444000   TRAN0208 1.000000
    SH020855 BAL0283  -1.000000   BAL0255  1.000000
    SH020156 COST     478.140000   TRAN0201 1.000000
    SH020156 BAL0201  -1.000000   BAL0256  1.000000
    SH020256 COST     709.854000   TRAN0202 1.000000
    SH020256 BAL0202  -1.000000   BAL0256  1.000000
    SH020356 COST     373.930000   TRAN0203 1.000000
    SH020356 BAL0203  -1.000000   BAL0256  1.000000
    SH020456 COST     447.490000   TRAN0204 1.000000
    SH020456 BAL0204  -1.000000   BAL0256  1.000000
    SH020556 COST     166.736000   TRAN0205 1.000000
    SH020556 BAL0205  -1.000000   BAL0256  1.000000
    SH020656 COST     415.614000   TRAN0206 1.000000
    SH020656 BAL0252  -1.000000   BAL0256  1.000000
    SH020756 COST     149.572000   TRAN0207 1.000000
    SH020756 BAL0264  -1.000000   BAL0256  1.000000
    SH020856 COST     437.682000   TRAN0208 1.000000
    SH020856 BAL0283  -1.000000   BAL0256  1.000000
    SH020157 COST     319.986000   TRAN0201 1.000000
    SH020157 BAL0201  -1.000000   BAL0257  1.000000
    SH020257 COST     637.520000   TRAN0202 1.000000
    SH020257 BAL0202  -1.000000   BAL0257  1.000000
    SH020357 COST     355.540000   TRAN0203 1.000000
    SH020357 BAL0203  -1.000000   BAL0257  1.000000
    SH020457 COST     286.884000   TRAN0204 1.000000
    SH020457 BAL0204  -1.000000   BAL0257  1.000000
    SH020557 COST     205.968000   TRAN0205 1.000000
    SH020557 BAL0205  -1.000000   BAL0257  1.000000
    SH020657 COST     391.094000   TRAN0206 1.000000
    SH020657 BAL0252  -1.000000   BAL0257  1.000000
    SH020757 COST     181.448000   TRAN0207 1.000000
    SH020757 BAL0264  -1.000000   BAL0257  1.000000
    SH020857 COST     283.206000   TRAN0208 1.000000
    SH020857 BAL0283  -1.000000   BAL0257  1.000000
    SH020158 COST     360.444000   TRAN0201 1.000000
    SH020158 BAL0201  -1.000000   BAL0258  1.000000
    SH020258 COST     638.746000   TRAN0202 1.000000
    SH020258 BAL0202  -1.000000   BAL0258  1.000000
    SH020358 COST     340.828000   TRAN0203 1.000000
    SH020358 BAL0203  -1.000000   BAL0258  1.000000
    SH020458 COST     420.518000   TRAN0204 1.000000
    SH020458 BAL0204  -1.000000   BAL0258  1.000000
    SH020558 COST     25.746000   TRAN0205 1.000000
    SH020558 BAL0205  -1.000000   BAL0258  1.000000
    SH020658 COST     399.676000   TRAN0206 1.000000
    SH020658 BAL0252  -1.000000   BAL0258  1.000000
    SH020758 COST     83.368000   TRAN0207 1.000000
    SH020758 BAL0264  -1.000000   BAL0258  1.000000
    SH020858 COST     311.404000   TRAN0208 1.000000
    SH020858 BAL0283  -1.000000   BAL0258  1.000000
    SH020159 COST     252.556000   TRAN0201 1.000000
    SH020159 BAL0201  -1.000000   BAL0259  1.000000
    SH020259 COST     610.548000   TRAN0202 1.000000
    SH020259 BAL0202  -1.000000   BAL0259  1.000000
    SH020359 COST     291.788000   TRAN0203 1.000000
    SH020359 BAL0203  -1.000000   BAL0259  1.000000
    SH020459 COST     299.144000   TRAN0204 1.000000
    SH020459 BAL0204  -1.000000   BAL0259  1.000000
    SH020559 COST     194.934000   TRAN0205 1.000000
    SH020559 BAL0205  -1.000000   BAL0259  1.000000
    SH020659 COST     364.122000   TRAN0206 1.000000
    SH020659 BAL0252  -1.000000   BAL0259  1.000000
    SH020759 COST     128.730000   TRAN0207 1.000000
    SH020759 BAL0264  -1.000000   BAL0259  1.000000
    SH020859 COST     312.630000   TRAN0208 1.000000
    SH020859 BAL0283  -1.000000   BAL0259  1.000000
    SH020160 COST     319.986000   TRAN0201 1.000000
    SH020160 BAL0201  -1.000000   BAL0260  1.000000
    SH020260 COST     674.300000   TRAN0202 1.000000
    SH020260 BAL0202  -1.000000   BAL0260  1.000000
    SH020360 COST     346.958000   TRAN0203 1.000000
    SH020360 BAL0203  -1.000000   BAL0260  1.000000
    SH020460 COST     382.512000   TRAN0204 1.000000
    SH020460 BAL0204  -1.000000   BAL0260  1.000000
    SH020560 COST     165.510000   TRAN0205 1.000000
    SH020560 BAL0205  -1.000000   BAL0260  1.000000
    SH020660 COST     395.998000   TRAN0206 1.000000
    SH020660 BAL0252  -1.000000   BAL0260  1.000000
    SH020760 COST     107.888000   TRAN0207 1.000000
    SH020760 BAL0264  -1.000000   BAL0260  1.000000
    SH020860 COST     366.574000   TRAN0208 1.000000
    SH020860 BAL0283  -1.000000   BAL0260  1.000000
    SH020163 COST     326.116000   TRAN0201 1.000000
    SH020163 BAL0201  -1.000000   BAL0263  1.000000
    SH020263 COST     605.644000   TRAN0202 1.000000
    SH020263 BAL0202  -1.000000   BAL0263  1.000000
    SH020363 COST     351.862000   TRAN0203 1.000000
    SH020363 BAL0203  -1.000000   BAL0263  1.000000
    SH020463 COST     452.394000   TRAN0204 1.000000
    SH020463 BAL0204  -1.000000   BAL0263  1.000000
    SH020563 COST     186.352000   TRAN0205 1.000000
    SH020563 BAL0205  -1.000000   BAL0263  1.000000
    SH020663 COST     386.190000   TRAN0206 1.000000
    SH020663 BAL0252  -1.000000   BAL0263  1.000000
    SH020763 COST     152.024000   TRAN0207 1.000000
    SH020763 BAL0264  -1.000000   BAL0263  1.000000
    SH020863 COST     490.400000   TRAN0208 1.000000
    SH020863 BAL0283  -1.000000   BAL0263  1.000000
    SH020164 COST     243.974000   TRAN0201 1.000000
    SH020164 BAL0201  -1.000000   BAL0264  1.000000
    SH020264 COST     644.876000   TRAN0202 1.000000
    SH020264 BAL0202  -1.000000   BAL0264  1.000000
    SH020364 COST     273.398000   TRAN0203 1.000000
    SH020364 BAL0203  -1.000000   BAL0264  1.000000
    SH020464 COST     411.936000   TRAN0204 1.000000
    SH020464 BAL0204  -1.000000   BAL0264  1.000000
    SH020564 COST     71.108000   TRAN0205 1.000000
    SH020564 BAL0205  -1.000000   BAL0264  1.000000
    SH020664 COST     388.642000   TRAN0206 1.000000
    SH020664 BAL0252  -1.000000   BAL0264  1.000000
    SH020864 COST     306.500000   TRAN0208 1.000000
    SH020864 BAL0283  -1.000000   BAL0264  1.000000
    SH020165 COST     529.632000   TRAN0201 1.000000
    SH020165 BAL0201  -1.000000   BAL0265  1.000000
    SH020265 COST     376.382000   TRAN0202 1.000000
    SH020265 BAL0202  -1.000000   BAL0265  1.000000
    SH020365 COST     619.130000   TRAN0203 1.000000
    SH020365 BAL0203  -1.000000   BAL0265  1.000000
    SH020465 COST     475.688000   TRAN0204 1.000000
    SH020465 BAL0204  -1.000000   BAL0265  1.000000
    SH020565 COST     740.504000   TRAN0205 1.000000
    SH020565 BAL0205  -1.000000   BAL0265  1.000000
    SH020865 COST     508.790000   TRAN0208 1.000000
    SH020865 BAL0283  -1.000000   BAL0265  1.000000
    SH020166 COST     686.560000   TRAN0201 1.000000
    SH020166 BAL0201  -1.000000   BAL0266  1.000000
    SH020266 COST     317.534000   TRAN0202 1.000000
    SH020266 BAL0202  -1.000000   BAL0266  1.000000
    SH020366 COST     708.628000   TRAN0203 1.000000
    SH020366 BAL0203  -1.000000   BAL0266  1.000000
    SH020466 COST     681.656000   TRAN0204 1.000000
    SH020466 BAL0204  -1.000000   BAL0266  1.000000
    SH020566 COST     870.460000   TRAN0205 1.000000
    SH020566 BAL0205  -1.000000   BAL0266  1.000000
    SH020866 COST     686.560000   TRAN0208 1.000000
    SH020866 BAL0283  -1.000000   BAL0266  1.000000
    SH020167 COST     521.050000   TRAN0201 1.000000
    SH020167 BAL0201  -1.000000   BAL0267  1.000000
    SH020267 COST     284.432000   TRAN0202 1.000000
    SH020267 BAL0202  -1.000000   BAL0267  1.000000
    SH020367 COST     604.418000   TRAN0203 1.000000
    SH020367 BAL0203  -1.000000   BAL0267  1.000000
    SH020467 COST     560.282000   TRAN0204 1.000000
    SH020467 BAL0204  -1.000000   BAL0267  1.000000
    SH020567 COST     740.504000   TRAN0205 1.000000
    SH020567 BAL0205  -1.000000   BAL0267  1.000000
    SH020867 COST     561.508000   TRAN0208 1.000000
    SH020867 BAL0283  -1.000000   BAL0267  1.000000
    SH020168 COST     728.244000   TRAN0201 1.000000
    SH020168 BAL0201  -1.000000   BAL0268  1.000000
    SH020268 COST     490.400000   TRAN0202 1.000000
    SH020268 BAL0202  -1.000000   BAL0268  1.000000
    SH020368 COST     686.560000   TRAN0203 1.000000
    SH020368 BAL0203  -1.000000   BAL0268  1.000000
    SH020468 COST     860.652000   TRAN0204 1.000000
    SH020468 BAL0204  -1.000000   BAL0268  1.000000
    SH020568 COST     1159.800000   TRAN0205 1.000000
    SH020568 BAL0205  -1.000000   BAL0268  1.000000
    SH020868 COST     920.726000   TRAN0208 1.000000
    SH020868 BAL0283  -1.000000   BAL0268  1.000000
    SH020169 COST     660.814000   TRAN0201 1.000000
    SH020169 BAL0201  -1.000000   BAL0269  1.000000
    SH020269 COST     270.946000   TRAN0202 1.000000
    SH020269 BAL0202  -1.000000   BAL0269  1.000000
    SH020369 COST     625.260000   TRAN0203 1.000000
    SH020369 BAL0203  -1.000000   BAL0269  1.000000
    SH020469 COST     762.572000   TRAN0204 1.000000
    SH020469 BAL0204  -1.000000   BAL0269  1.000000
    SH020569 COST     791.996000   TRAN0205 1.000000
    SH020569 BAL0205  -1.000000   BAL0269  1.000000
    SH020869 COST     806.708000   TRAN0208 1.000000
    SH020869 BAL0283  -1.000000   BAL0269  1.000000
    SH020171 COST     539.440000   TRAN0201 1.000000
    SH020171 BAL0201  -1.000000   BAL0271  1.000000
    SH020371 COST     642.424000   TRAN0203 1.000000
    SH020371 BAL0203  -1.000000   BAL0271  1.000000
    SH020471 COST     638.746000   TRAN0204 1.000000
    SH020471 BAL0204  -1.000000   BAL0271  1.000000
    SH020571 COST     712.306000   TRAN0205 1.000000
    SH020571 BAL0205  -1.000000   BAL0271  1.000000
    SH020671 COST     479.366000   TRAN0206 1.000000
    SH020671 BAL0252  -1.000000   BAL0271  1.000000
    SH020771 COST     863.104000   TRAN0207 1.000000
    SH020771 BAL0264  -1.000000   BAL0271  1.000000
    SH020871 COST     653.458000   TRAN0208 1.000000
    SH020871 BAL0283  -1.000000   BAL0271  1.000000
    SH020172 COST     719.662000   TRAN0201 1.000000
    SH020172 BAL0201  -1.000000   BAL0272  1.000000
    SH020272 COST     665.718000   TRAN0202 1.000000
    SH020272 BAL0202  -1.000000   BAL0272  1.000000
    SH020372 COST     756.442000   TRAN0203 1.000000
    SH020372 BAL0203  -1.000000   BAL0272  1.000000
    SH020472 COST     698.820000   TRAN0204 1.000000
    SH020472 BAL0204  -1.000000   BAL0272  1.000000
    SH020572 COST     935.438000   TRAN0205 1.000000
    SH020572 BAL0205  -1.000000   BAL0272  1.000000
    SH020872 COST     698.820000   TRAN0208 1.000000
    SH020872 BAL0283  -1.000000   BAL0272  1.000000
    SH020173 COST     478.140000   TRAN0201 1.000000
    SH020173 BAL0201  -1.000000   BAL0273  1.000000
    SH020273 COST     447.490000   TRAN0202 1.000000
    SH020273 BAL0202  -1.000000   BAL0273  1.000000
    SH020373 COST     414.388000   TRAN0203 1.000000
    SH020373 BAL0203  -1.000000   BAL0273  1.000000
    SH020473 COST     560.282000   TRAN0204 1.000000
    SH020473 BAL0204  -1.000000   BAL0273  1.000000
    SH020573 COST     691.464000   TRAN0205 1.000000
    SH020573 BAL0205  -1.000000   BAL0273  1.000000
    SH020673 COST     373.930000   TRAN0206 1.000000
    SH020673 BAL0252  -1.000000   BAL0273  1.000000
    SH020873 COST     617.904000   TRAN0208 1.000000
    SH020873 BAL0283  -1.000000   BAL0273  1.000000
    SH020174 COST     671.848000   TRAN0201 1.000000
    SH020174 BAL0201  -1.000000   BAL0274  1.000000
    SH020274 COST     257.460000   TRAN0202 1.000000
    SH020274 BAL0202  -1.000000   BAL0274  1.000000
    SH020374 COST     698.820000   TRAN0203 1.000000
    SH020374 BAL0203  -1.000000   BAL0274  1.000000
    SH020474 COST     780.962000   TRAN0204 1.000000
    SH020474 BAL0204  -1.000000   BAL0274  1.000000
    SH020574 COST     898.658000   TRAN0205 1.000000
    SH020574 BAL0205  -1.000000   BAL0274  1.000000
    SH020874 COST     758.894000   TRAN0208 1.000000
    SH020874 BAL0283  -1.000000   BAL0274  1.000000
    SH020175 COST     1088.690000   TRAN0201 1.000000
    SH020175 BAL0201  -1.000000   BAL0275  1.000000
    SH020275 COST     679.204000   TRAN0202 1.000000
    SH020275 BAL0202  -1.000000   BAL0275  1.000000
    SH020375 COST     1164.700000   TRAN0203 1.000000
    SH020375 BAL0203  -1.000000   BAL0275  1.000000
    SH020475 COST     1190.450000   TRAN0204 1.000000
    SH020475 BAL0204  -1.000000   BAL0275  1.000000
    SH020575 COST     1427.060000   TRAN0205 1.000000
    SH020575 BAL0205  -1.000000   BAL0275  1.000000
    SH020675 COST     1085.010000   TRAN0206 1.000000
    SH020675 BAL0252  -1.000000   BAL0275  1.000000
    SH020775 COST     1431.970000   TRAN0207 1.000000
    SH020775 BAL0264  -1.000000   BAL0275  1.000000
    SH020176 COST     566.412000   TRAN0201 1.000000
    SH020176 BAL0201  -1.000000   BAL0276  1.000000
    SH020276 COST     491.626000   TRAN0202 1.000000
    SH020276 BAL0202  -1.000000   BAL0276  1.000000
    SH020376 COST     494.078000   TRAN0203 1.000000
    SH020376 BAL0203  -1.000000   BAL0276  1.000000
    SH020476 COST     772.380000   TRAN0204 1.000000
    SH020476 BAL0204  -1.000000   BAL0276  1.000000
    SH020576 COST     772.380000   TRAN0205 1.000000
    SH020576 BAL0205  -1.000000   BAL0276  1.000000
    SH020676 COST     467.106000   TRAN0206 1.000000
    SH020676 BAL0252  -1.000000   BAL0276  1.000000
    SH020876 COST     952.602000   TRAN0208 1.000000
    SH020876 BAL0283  -1.000000   BAL0276  1.000000
    SH020177 COST     533.310000   TRAN0201 1.000000
    SH020177 BAL0201  -1.000000   BAL0277  1.000000
    SH020277 COST     333.472000   TRAN0202 1.000000
    SH020277 BAL0202  -1.000000   BAL0277  1.000000
    SH020377 COST     565.186000   TRAN0203 1.000000
    SH020377 BAL0203  -1.000000   BAL0277  1.000000
    SH020477 COST     491.626000   TRAN0204 1.000000
    SH020477 BAL0204  -1.000000   BAL0277  1.000000
    SH020577 COST     686.560000   TRAN0205 1.000000
    SH020577 BAL0205  -1.000000   BAL0277  1.000000
    SH020877 COST     392.320000   TRAN0208 1.000000
    SH020877 BAL0283  -1.000000   BAL0277  1.000000
    SH020178 COST     932.986000   TRAN0201 1.000000
    SH020178 BAL0201  -1.000000   BAL0278  1.000000
    SH020278 COST     541.892000   TRAN0202 1.000000
    SH020278 BAL0202  -1.000000   BAL0278  1.000000
    SH020378 COST     959.958000   TRAN0203 1.000000
    SH020378 BAL0203  -1.000000   BAL0278  1.000000
    SH020478 COST     839.810000   TRAN0204 1.000000
    SH020478 BAL0204  -1.000000   BAL0278  1.000000
    SH020578 COST     1077.650000   TRAN0205 1.000000
    SH020578 BAL0205  -1.000000   BAL0278  1.000000
    SH020878 COST     939.116000   TRAN0208 1.000000
    SH020878 BAL0283  -1.000000   BAL0278  1.000000
    SH020179 COST     876.590000   TRAN0201 1.000000
    SH020179 BAL0201  -1.000000   BAL0279  1.000000
    SH020279 COST     329.794000   TRAN0202 1.000000
    SH020279 BAL0202  -1.000000   BAL0279  1.000000
    SH020379 COST     847.166000   TRAN0203 1.000000
    SH020379 BAL0203  -1.000000   BAL0279  1.000000
    SH020479 COST     882.720000   TRAN0204 1.000000
    SH020479 BAL0204  -1.000000   BAL0279  1.000000
    SH020879 COST     865.556000   TRAN0208 1.000000
    SH020879 BAL0283  -1.000000   BAL0279  1.000000
    SH020480 COST     458.524000   TRAN0204 1.000000
    SH020480 BAL0204  -1.000000   BAL0280  1.000000
    SH020182 COST     713.532000   TRAN0201 1.000000
    SH020182 BAL0201  -1.000000   BAL0282  1.000000
    SH020282 COST     403.354000   TRAN0202 1.000000
    SH020282 BAL0202  -1.000000   BAL0282  1.000000
    SH020382 COST     803.030000   TRAN0203 1.000000
    SH020382 BAL0203  -1.000000   BAL0282  1.000000
    SH020482 COST     865.556000   TRAN0204 1.000000
    SH020482 BAL0204  -1.000000   BAL0282  1.000000
    SH020582 COST     1406.220000   TRAN0205 1.000000
    SH020582 BAL0205  -1.000000   BAL0282  1.000000
    SH020882 COST     959.958000   TRAN0208 1.000000
    SH020882 BAL0283  -1.000000   BAL0282  1.000000
    SH020183 COST     217.002000   TRAN0201 1.000000
    SH020183 BAL0201  -1.000000   BAL0283  1.000000
    SH020283 COST     637.520000   TRAN0202 1.000000
    SH020283 BAL0202  -1.000000   BAL0283  1.000000
    SH020383 COST     333.472000   TRAN0203 1.000000
    SH020383 BAL0203  -1.000000   BAL0283  1.000000
    SH020483 COST     72.334000   TRAN0204 1.000000
    SH020483 BAL0204  -1.000000   BAL0283  1.000000
    SH020583 COST     425.422000   TRAN0205 1.000000
    SH020583 BAL0205  -1.000000   BAL0283  1.000000
    SH020683 COST     304.048000   TRAN0206 1.000000
    SH020683 BAL0252  -1.000000   BAL0283  1.000000
    SH020184 COST     372.704000   TRAN0201 1.000000
    SH020184 BAL0201  -1.000000   BAL0284  1.000000
    SH020284 COST     235.392000   TRAN0202 1.000000
    SH020284 BAL0202  -1.000000   BAL0284  1.000000
    SH020384 COST     446.264000   TRAN0203 1.000000
    SH020384 BAL0203  -1.000000   BAL0284  1.000000
    SH020484 COST     453.620000   TRAN0204 1.000000
    SH020484 BAL0204  -1.000000   BAL0284  1.000000
    SH020584 COST     600.740000   TRAN0205 1.000000
    SH020584 BAL0205  -1.000000   BAL0284  1.000000
    SH020684 COST     373.930000   TRAN0206 1.000000
    SH020684 BAL0252  -1.000000   BAL0284  1.000000
    SH020884 COST     475.688000   TRAN0208 1.000000
    SH020884 BAL0283  -1.000000   BAL0284  1.000000
    SH030201 COST     185.922000   TRAN0302 1.000000
    SH030201 BAL0302  -1.000000   BAL0301  1.000000
    SH030301 COST     71.364000   TRAN0303 1.000000
    SH030301 BAL0303  -1.000000   BAL0301  1.000000
    SH030401 COST     130.208000   TRAN0304 1.000000
    SH030401 BAL0304  -1.000000   BAL0301  1.000000
    SH030501 COST     148.362000   TRAN0305 1.000000
    SH030501 BAL0305  -1.000000   BAL0301  1.000000
    SH030601 COST     78.876000   TRAN0306 1.000000
    SH030601 BAL0352  -1.000000   BAL0301  1.000000
    SH030801 COST     89.518000   TRAN0308 1.000000
    SH030801 BAL0383  -1.000000   BAL0301  1.000000
    SH030102 COST     296.724000   TRAN0301 1.000000
    SH030102 BAL0301  -1.000000   BAL0302  1.000000
    SH030302 COST     261.042000   TRAN0303 1.000000
    SH030302 BAL0303  -1.000000   BAL0302  1.000000
    SH030402 COST     383.112000   TRAN0304 1.000000
    SH030402 BAL0304  -1.000000   BAL0302  1.000000
    SH030502 COST     463.866000   TRAN0305 1.000000
    SH030502 BAL0305  -1.000000   BAL0302  1.000000
    SH030602 COST     236.628000   TRAN0306 1.000000
    SH030602 BAL0352  -1.000000   BAL0302  1.000000
    SH030802 COST     326.146000   TRAN0308 1.000000
    SH030802 BAL0383  -1.000000   BAL0302  1.000000
    SH030103 COST     153.370000   TRAN0301 1.000000
    SH030103 BAL0301  -1.000000   BAL0303  1.000000
    SH030203 COST     296.724000   TRAN0302 1.000000
    SH030203 BAL0302  -1.000000   BAL0303  1.000000
    SH030403 COST     229.742000   TRAN0304 1.000000
    SH030403 BAL0304  -1.000000   BAL0303  1.000000
    SH030503 COST     177.784000   TRAN0305 1.000000
    SH030503 BAL0305  -1.000000   BAL0303  1.000000
    SH030603 COST     56.340000   TRAN0306 1.000000
    SH030603 BAL0352  -1.000000   BAL0303  1.000000
    SH030803 COST     159.630000   TRAN0308 1.000000
    SH030803 BAL0383  -1.000000   BAL0303  1.000000
    SH030104 COST     108.924000   TRAN0301 1.000000
    SH030104 BAL0301  -1.000000   BAL0304  1.000000
    SH030204 COST     314.878000   TRAN0302 1.000000
    SH030204 BAL0302  -1.000000   BAL0304  1.000000
    SH030304 COST     152.118000   TRAN0303 1.000000
    SH030304 BAL0303  -1.000000   BAL0304  1.000000
    SH030504 COST     199.694000   TRAN0305 1.000000
    SH030504 BAL0305  -1.000000   BAL0304  1.000000
    SH030604 COST     153.370000   TRAN0306 1.000000
    SH030604 BAL0352  -1.000000   BAL0304  1.000000
    SH030704 COST     168.394000   TRAN0307 1.000000
    SH030704 BAL0364  -1.000000   BAL0304  1.000000
    SH030804 COST     36.308000   TRAN0308 1.000000
    SH030804 BAL0383  -1.000000   BAL0304  1.000000
    SH030105 COST     169.020000   TRAN0301 1.000000
    SH030105 BAL0301  -1.000000   BAL0305  1.000000
    SH030205 COST     323.016000   TRAN0302 1.000000
    SH030205 BAL0302  -1.000000   BAL0305  1.000000
    SH030305 COST     177.784000   TRAN0303 1.000000
    SH030305 BAL0303  -1.000000   BAL0305  1.000000
    SH030405 COST     178.410000   TRAN0304 1.000000
    SH030405 BAL0304  -1.000000   BAL0305  1.000000
    SH030605 COST     204.076000   TRAN0306 1.000000
    SH030605 BAL0352  -1.000000   BAL0305  1.000000
    SH030705 COST     209.084000   TRAN0307 1.000000
    SH030705 BAL0364  -1.000000   BAL0305  1.000000
    SH030805 COST     169.646000   TRAN0308 1.000000
    SH030805 BAL0383  -1.000000   BAL0305  1.000000
    SH030106 COST     124.574000   TRAN0301 1.000000
    SH030106 BAL0301  -1.000000   BAL0306  1.000000
    SH030206 COST     261.042000   TRAN0302 1.000000
    SH030206 BAL0302  -1.000000   BAL0306  1.000000
    SH030306 COST     133.338000   TRAN0303 1.000000
    SH030306 BAL0303  -1.000000   BAL0306  1.000000
    SH030406 COST     137.094000   TRAN0304 1.000000
    SH030406 BAL0304  -1.000000   BAL0306  1.000000
    SH030506 COST     157.752000   TRAN0305 1.000000
    SH030506 BAL0305  -1.000000   BAL0306  1.000000
    SH030606 COST     128.956000   TRAN0306 1.000000
    SH030606 BAL0352  -1.000000   BAL0306  1.000000
    SH030706 COST     125.200000   TRAN0307 1.000000
    SH030706 BAL0364  -1.000000   BAL0306  1.000000
    SH030806 COST     94.526000   TRAN0308 1.000000
    SH030806 BAL0383  -1.000000   BAL0306  1.000000
    SH030107 COST     13.146000   TRAN0301 1.000000
    SH030107 BAL0301  -1.000000   BAL0307  1.000000
    SH030207 COST     182.792000   TRAN0302 1.000000
    SH030207 BAL0302  -1.000000   BAL0307  1.000000
    SH030307 COST     77.624000   TRAN0303 1.000000
    SH030307 BAL0303  -1.000000   BAL0307  1.000000
    SH030407 COST     129.582000   TRAN0304 1.000000
    SH030407 BAL0304  -1.000000   BAL0307  1.000000
    SH030507 COST     143.354000   TRAN0305 1.000000
    SH030507 BAL0305  -1.000000   BAL0307  1.000000
    SH030607 COST     78.250000   TRAN0306 1.000000
    SH030607 BAL0352  -1.000000   BAL0307  1.000000
    SH030707 COST     145.232000   TRAN0307 1.000000
    SH030707 BAL0364  -1.000000   BAL0307  1.000000
    SH030807 COST     97.030000   TRAN0308 1.000000
    SH030807 BAL0383  -1.000000   BAL0307  1.000000
    SH030108 COST     41.316000   TRAN0301 1.000000
    SH030108 BAL0301  -1.000000   BAL0308  1.000000
    SH030208 COST     235.376000   TRAN0302 1.000000
    SH030208 BAL0302  -1.000000   BAL0308  1.000000
    SH030308 COST     88.266000   TRAN0303 1.000000
    SH030308 BAL0303  -1.000000   BAL0308  1.000000
    SH030408 COST     154.622000   TRAN0304 1.000000
    SH030408 BAL0304  -1.000000   BAL0308  1.000000
    SH030508 COST     113.932000   TRAN0305 1.000000
    SH030508 BAL0305  -1.000000   BAL0308  1.000000
    SH030608 COST     103.916000   TRAN0306 1.000000
    SH030608 BAL0352  -1.000000   BAL0308  1.000000
    SH030808 COST     117.062000   TRAN0308 1.000000
    SH030808 BAL0383  -1.000000   BAL0308  1.000000
    SH030109 COST     86.388000   TRAN0301 1.000000
    SH030109 BAL0301  -1.000000   BAL0309  1.000000
    SH030209 COST     239.758000   TRAN0302 1.000000
    SH030209 BAL0302  -1.000000   BAL0309  1.000000
    SH030309 COST     105.168000   TRAN0303 1.000000
    SH030309 BAL0303  -1.000000   BAL0309  1.000000
    SH030409 COST     158.378000   TRAN0304 1.000000
    SH030409 BAL0304  -1.000000   BAL0309  1.000000
    SH030509 COST     149.614000   TRAN0305 1.000000
    SH030509 BAL0305  -1.000000   BAL0309  1.000000
    SH030709 COST     122.696000   TRAN0307 1.000000
    SH030709 BAL0364  -1.000000   BAL0309  1.000000
    SH030809 COST     121.444000   TRAN0308 1.000000
    SH030809 BAL0383  -1.000000   BAL0309  1.000000
    SH030110 COST     154.622000   TRAN0301 1.000000
    SH030110 BAL0301  -1.000000   BAL0310  1.000000
    SH030210 COST     98.908000   TRAN0302 1.000000
    SH030210 BAL0302  -1.000000   BAL0310  1.000000
    SH030310 COST     150.240000   TRAN0303 1.000000
    SH030310 BAL0303  -1.000000   BAL0310  1.000000
    SH030410 COST     224.734000   TRAN0304 1.000000
    SH030410 BAL0304  -1.000000   BAL0310  1.000000
    SH030510 COST     241.010000   TRAN0305 1.000000
    SH030510 BAL0305  -1.000000   BAL0310  1.000000
    SH030610 COST     140.850000   TRAN0306 1.000000
    SH030610 BAL0352  -1.000000   BAL0310  1.000000
    SH030810 COST     190.930000   TRAN0308 1.000000
    SH030810 BAL0383  -1.000000   BAL0310  1.000000
    SH030111 COST     66.356000   TRAN0301 1.000000
    SH030111 BAL0301  -1.000000   BAL0311  1.000000
    SH030211 COST     309.870000   TRAN0302 1.000000
    SH030211 BAL0302  -1.000000   BAL0311  1.000000
    SH030311 COST     155.248000   TRAN0303 1.000000
    SH030311 BAL0303  -1.000000   BAL0311  1.000000
    SH030411 COST     87.014000   TRAN0304 1.000000
    SH030411 BAL0304  -1.000000   BAL0311  1.000000
    SH030511 COST     213.466000   TRAN0305 1.000000
    SH030511 BAL0305  -1.000000   BAL0311  1.000000
    SH030611 COST     122.696000   TRAN0306 1.000000
    SH030611 BAL0352  -1.000000   BAL0311  1.000000
    SH030811 COST     63.852000   TRAN0308 1.000000
    SH030811 BAL0383  -1.000000   BAL0311  1.000000
    SH030112 COST     55.088000   TRAN0301 1.000000
    SH030112 BAL0301  -1.000000   BAL0312  1.000000
    SH030212 COST     212.214000   TRAN0302 1.000000
    SH030212 BAL0302  -1.000000   BAL0312  1.000000
    SH030312 COST     91.396000   TRAN0303 1.000000
    SH030312 BAL0303  -1.000000   BAL0312  1.000000
    SH030412 COST     125.200000   TRAN0304 1.000000
    SH030412 BAL0304  -1.000000   BAL0312  1.000000
    SH030512 COST     167.142000   TRAN0305 1.000000
    SH030512 BAL0305  -1.000000   BAL0312  1.000000
    SH030612 COST     90.770000   TRAN0306 1.000000
    SH030612 BAL0352  -1.000000   BAL0312  1.000000
    SH030812 COST     91.396000   TRAN0308 1.000000
    SH030812 BAL0383  -1.000000   BAL0312  1.000000
    SH030114 COST     88.892000   TRAN0301 1.000000
    SH030114 BAL0301  -1.000000   BAL0314  1.000000
    SH030214 COST     257.912000   TRAN0302 1.000000
    SH030214 BAL0302  -1.000000   BAL0314  1.000000
    SH030314 COST     122.696000   TRAN0303 1.000000
    SH030314 BAL0303  -1.000000   BAL0314  1.000000
    SH030414 COST     124.574000   TRAN0304 1.000000
    SH030414 BAL0304  -1.000000   BAL0314  1.000000
    SH030514 COST     220.352000   TRAN0305 1.000000
    SH030514 BAL0305  -1.000000   BAL0314  1.000000
    SH030614 COST     117.688000   TRAN0306 1.000000
    SH030614 BAL0352  -1.000000   BAL0314  1.000000
    SH030814 COST     78.876000   TRAN0308 1.000000
    SH030814 BAL0383  -1.000000   BAL0314  1.000000
    SH030115 COST     189.678000   TRAN0301 1.000000
    SH030115 BAL0301  -1.000000   BAL0315  1.000000
    SH030215 COST     99.534000   TRAN0302 1.000000
    SH030215 BAL0302  -1.000000   BAL0315  1.000000
    SH030315 COST     146.484000   TRAN0303 1.000000
    SH030315 BAL0303  -1.000000   BAL0315  1.000000
    SH030415 COST     297.976000   TRAN0304 1.000000
    SH030415 BAL0304  -1.000000   BAL0315  1.000000
    SH030515 COST     249.148000   TRAN0305 1.000000
    SH030515 BAL0305  -1.000000   BAL0315  1.000000
    SH030615 COST     117.688000   TRAN0306 1.000000
    SH030615 BAL0352  -1.000000   BAL0315  1.000000
    SH030815 COST     233.498000   TRAN0308 1.000000
    SH030815 BAL0383  -1.000000   BAL0315  1.000000
    SH030116 COST     98.908000   TRAN0301 1.000000
    SH030116 BAL0301  -1.000000   BAL0316  1.000000
    SH030216 COST     175.280000   TRAN0302 1.000000
    SH030216 BAL0302  -1.000000   BAL0316  1.000000
    SH030316 COST     142.102000   TRAN0303 1.000000
    SH030316 BAL0303  -1.000000   BAL0316  1.000000
    SH030416 COST     179.662000   TRAN0304 1.000000
    SH030416 BAL0304  -1.000000   BAL0316  1.000000
    SH030516 COST     199.694000   TRAN0305 1.000000
    SH030516 BAL0305  -1.000000   BAL0316  1.000000
    SH030616 COST     82.006000   TRAN0306 1.000000
    SH030616 BAL0352  -1.000000   BAL0316  1.000000
    SH030816 COST     128.330000   TRAN0308 1.000000
    SH030816 BAL0383  -1.000000   BAL0316  1.000000
    SH030117 COST     94.526000   TRAN0301 1.000000
    SH030117 BAL0301  -1.000000   BAL0317  1.000000
    SH030217 COST     316.130000   TRAN0302 1.000000
    SH030217 BAL0302  -1.000000   BAL0317  1.000000
    SH030317 COST     171.524000   TRAN0303 1.000000
    SH030317 BAL0303  -1.000000   BAL0317  1.000000
    SH030417 COST     35.682000   TRAN0304 1.000000
    SH030417 BAL0304  -1.000000   BAL0317  1.000000
    SH030517 COST     186.548000   TRAN0305 1.000000
    SH030517 BAL0305  -1.000000   BAL0317  1.000000
    SH030717 COST     184.670000   TRAN0307 1.000000
    SH030717 BAL0364  -1.000000   BAL0317  1.000000
    SH030817 COST     16.902000   TRAN0308 1.000000
    SH030817 BAL0383  -1.000000   BAL0317  1.000000
    SH030118 COST     109.550000   TRAN0301 1.000000
    SH030118 BAL0301  -1.000000   BAL0318  1.000000
    SH030218 COST     225.986000   TRAN0302 1.000000
    SH030218 BAL0302  -1.000000   BAL0318  1.000000
    SH030318 COST     169.020000   TRAN0303 1.000000
    SH030318 BAL0303  -1.000000   BAL0318  1.000000
    SH030418 COST     96.404000   TRAN0304 1.000000
    SH030418 BAL0304  -1.000000   BAL0318  1.000000
    SH030518 COST     254.782000   TRAN0305 1.000000
    SH030518 BAL0305  -1.000000   BAL0318  1.000000
    SH030618 COST     220.352000   TRAN0306 1.000000
    SH030618 BAL0352  -1.000000   BAL0318  1.000000
    SH030818 COST     64.478000   TRAN0308 1.000000
    SH030818 BAL0383  -1.000000   BAL0318  1.000000
    SH030119 COST     155.248000   TRAN0301 1.000000
    SH030119 BAL0301  -1.000000   BAL0319  1.000000
    SH030219 COST     430.062000   TRAN0302 1.000000
    SH030219 BAL0302  -1.000000   BAL0319  1.000000
    SH030319 COST     198.442000   TRAN0303 1.000000
    SH030319 BAL0303  -1.000000   BAL0319  1.000000
    SH030419 COST     99.534000   TRAN0304 1.000000
    SH030419 BAL0304  -1.000000   BAL0319  1.000000
    SH030519 COST     130.208000   TRAN0305 1.000000
    SH030519 BAL0305  -1.000000   BAL0319  1.000000
    SH030619 COST     215.970000   TRAN0306 1.000000
    SH030619 BAL0352  -1.000000   BAL0319  1.000000
    SH030819 COST     61.974000   TRAN0308 1.000000
    SH030819 BAL0383  -1.000000   BAL0319  1.000000
    SH030120 COST     128.330000   TRAN0301 1.000000
    SH030120 BAL0301  -1.000000   BAL0320  1.000000
    SH030220 COST     427.558000   TRAN0302 1.000000
    SH030220 BAL0302  -1.000000   BAL0320  1.000000
    SH030320 COST     185.922000   TRAN0303 1.000000
    SH030320 BAL0303  -1.000000   BAL0320  1.000000
    SH030420 COST     70.738000   TRAN0304 1.000000
    SH030420 BAL0304  -1.000000   BAL0320  1.000000
    SH030520 COST     182.166000   TRAN0305 1.000000
    SH030520 BAL0305  -1.000000   BAL0320  1.000000
    SH030820 COST     78.876000   TRAN0308 1.000000
    SH030820 BAL0383  -1.000000   BAL0320  1.000000
    SH030121 COST     252.278000   TRAN0301 1.000000
    SH030121 BAL0301  -1.000000   BAL0321  1.000000
    SH030221 COST     230.368000   TRAN0302 1.000000
    SH030221 BAL0302  -1.000000   BAL0321  1.000000
    SH030321 COST     279.196000   TRAN0303 1.000000
    SH030321 BAL0303  -1.000000   BAL0321  1.000000
    SH030421 COST     200.320000   TRAN0304 1.000000
    SH030421 BAL0304  -1.000000   BAL0321  1.000000
    SH030521 COST     344.300000   TRAN0305 1.000000
    SH030521 BAL0305  -1.000000   BAL0321  1.000000
    SH030821 COST     200.320000   TRAN0308 1.000000
    SH030821 BAL0383  -1.000000   BAL0321  1.000000
    SH030122 COST     155.248000   TRAN0301 1.000000
    SH030122 BAL0301  -1.000000   BAL0322  1.000000
    SH030222 COST     361.828000   TRAN0302 1.000000
    SH030222 BAL0302  -1.000000   BAL0322  1.000000
    SH030322 COST     187.174000   TRAN0303 1.000000
    SH030322 BAL0303  -1.000000   BAL0322  1.000000
    SH030422 COST     140.224000   TRAN0304 1.000000
    SH030422 BAL0304  -1.000000   BAL0322  1.000000
    SH030522 COST     112.054000   TRAN0305 1.000000
    SH030522 BAL0305  -1.000000   BAL0322  1.000000
    SH030622 COST     194.060000   TRAN0306 1.000000
    SH030622 BAL0352  -1.000000   BAL0322  1.000000
    SH030822 COST     87.014000   TRAN0308 1.000000
    SH030822 BAL0383  -1.000000   BAL0322  1.000000
    SH030123 COST     146.484000   TRAN0301 1.000000
    SH030123 BAL0301  -1.000000   BAL0323  1.000000
    SH030223 COST     338.666000   TRAN0302 1.000000
    SH030223 BAL0302  -1.000000   BAL0323  1.000000
    SH030323 COST     179.662000   TRAN0303 1.000000
    SH030323 BAL0303  -1.000000   BAL0323  1.000000
    SH030423 COST     104.542000   TRAN0304 1.000000
    SH030423 BAL0304  -1.000000   BAL0323  1.000000
    SH030523 COST     103.916000   TRAN0305 1.000000
    SH030523 BAL0305  -1.000000   BAL0323  1.000000
    SH030823 COST     87.014000   TRAN0308 1.000000
    SH030823 BAL0383  -1.000000   BAL0323  1.000000
    SH030125 COST     242.262000   TRAN0301 1.000000
    SH030125 BAL0301  -1.000000   BAL0325  1.000000
    SH030225 COST     267.302000   TRAN0302 1.000000
    SH030225 BAL0302  -1.000000   BAL0325  1.000000
    SH030325 COST     319.886000   TRAN0303 1.000000
    SH030325 BAL0303  -1.000000   BAL0325  1.000000
    SH030425 COST     217.848000   TRAN0304 1.000000
    SH030425 BAL0304  -1.000000   BAL0325  1.000000
    SH030525 COST     354.316000   TRAN0305 1.000000
    SH030525 BAL0305  -1.000000   BAL0325  1.000000
    SH030625 COST     252.278000   TRAN0306 1.000000
    SH030625 BAL0352  -1.000000   BAL0325  1.000000
    SH030825 COST     190.930000   TRAN0308 1.000000
    SH030825 BAL0383  -1.000000   BAL0325  1.000000
    SH030126 COST     204.076000   TRAN0301 1.000000
    SH030126 BAL0301  -1.000000   BAL0326  1.000000
    SH030226 COST     300.480000   TRAN0302 1.000000
    SH030226 BAL0302  -1.000000   BAL0326  1.000000
    SH030326 COST     200.946000   TRAN0303 1.000000
    SH030326 BAL0303  -1.000000   BAL0326  1.000000
    SH030426 COST     169.020000   TRAN0304 1.000000
    SH030426 BAL0304  -1.000000   BAL0326  1.000000
    SH030526 COST     259.164000   TRAN0305 1.000000
    SH030526 BAL0305  -1.000000   BAL0326  1.000000
    SH030826 COST     110.802000   TRAN0308 1.000000
    SH030826 BAL0383  -1.000000   BAL0326  1.000000
    SH030127 COST     146.484000   TRAN0301 1.000000
    SH030127 BAL0301  -1.000000   BAL0327  1.000000
    SH030227 COST     177.784000   TRAN0302 1.000000
    SH030227 BAL0302  -1.000000   BAL0327  1.000000
    SH030327 COST     180.914000   TRAN0303 1.000000
    SH030327 BAL0303  -1.000000   BAL0327  1.000000
    SH030427 COST     209.710000   TRAN0304 1.000000
    SH030427 BAL0304  -1.000000   BAL0327  1.000000
    SH030527 COST     236.628000   TRAN0305 1.000000
    SH030527 BAL0305  -1.000000   BAL0327  1.000000
    SH030627 COST     167.768000   TRAN0306 1.000000
    SH030627 BAL0352  -1.000000   BAL0327  1.000000
    SH030827 COST     157.752000   TRAN0308 1.000000
    SH030827 BAL0383  -1.000000   BAL0327  1.000000
    SH030128 COST     152.118000   TRAN0301 1.000000
    SH030128 BAL0301  -1.000000   BAL0328  1.000000
    SH030228 COST     356.194000   TRAN0302 1.000000
    SH030228 BAL0302  -1.000000   BAL0328  1.000000
    SH030328 COST     185.296000   TRAN0303 1.000000
    SH030328 BAL0303  -1.000000   BAL0328  1.000000
    SH030428 COST     184.670000   TRAN0304 1.000000
    SH030428 BAL0304  -1.000000   BAL0328  1.000000
    SH030528 COST     63.852000   TRAN0305 1.000000
    SH030528 BAL0305  -1.000000   BAL0328  1.000000
    SH030628 COST     163.386000   TRAN0306 1.000000
    SH030628 BAL0352  -1.000000   BAL0328  1.000000
    SH030728 COST     66.982000   TRAN0307 1.000000
    SH030728 BAL0364  -1.000000   BAL0328  1.000000
    SH030828 COST     159.004000   TRAN0308 1.000000
    SH030828 BAL0383  -1.000000   BAL0328  1.000000
    SH030129 COST     139.598000   TRAN0301 1.000000
    SH030129 BAL0301  -1.000000   BAL0329  1.000000
    SH030229 COST     290.464000   TRAN0302 1.000000
    SH030229 BAL0302  -1.000000   BAL0329  1.000000
    SH030329 COST     150.866000   TRAN0303 1.000000
    SH030329 BAL0303  -1.000000   BAL0329  1.000000
    SH030429 COST     124.574000   TRAN0304 1.000000
    SH030429 BAL0304  -1.000000   BAL0329  1.000000
    SH030529 COST     269.180000   TRAN0305 1.000000
    SH030529 BAL0305  -1.000000   BAL0329  1.000000
    SH030629 COST     163.386000   TRAN0306 1.000000
    SH030629 BAL0352  -1.000000   BAL0329  1.000000
    SH030829 COST     90.144000   TRAN0308 1.000000
    SH030829 BAL0383  -1.000000   BAL0329  1.000000
    SH030130 COST     291.716000   TRAN0301 1.000000
    SH030130 BAL0301  -1.000000   BAL0330  1.000000
    SH030230 COST     272.936000   TRAN0302 1.000000
    SH030230 BAL0302  -1.000000   BAL0330  1.000000
    SH030330 COST     327.398000   TRAN0303 1.000000
    SH030330 BAL0303  -1.000000   BAL0330  1.000000
    SH030430 COST     190.304000   TRAN0304 1.000000
    SH030430 BAL0304  -1.000000   BAL0330  1.000000
    SH030530 COST     279.196000   TRAN0305 1.000000
    SH030530 BAL0305  -1.000000   BAL0330  1.000000
    SH030830 COST     239.132000   TRAN0308 1.000000
    SH030830 BAL0383  -1.000000   BAL0330  1.000000
    SH030131 COST     69.486000   TRAN0301 1.000000
    SH030131 BAL0301  -1.000000   BAL0331  1.000000
    SH030231 COST     219.726000   TRAN0302 1.000000
    SH030231 BAL0302  -1.000000   BAL0331  1.000000
    SH030331 COST     68.860000   TRAN0303 1.000000
    SH030331 BAL0303  -1.000000   BAL0331  1.000000
    SH030431 COST     158.378000   TRAN0304 1.000000
    SH030431 BAL0304  -1.000000   BAL0331  1.000000
    SH030531 COST     192.182000   TRAN0305 1.000000
    SH030531 BAL0305  -1.000000   BAL0331  1.000000
    SH030631 COST     70.112000   TRAN0306 1.000000
    SH030631 BAL0352  -1.000000   BAL0331  1.000000
    SH030831 COST     139.598000   TRAN0308 1.000000
    SH030831 BAL0383  -1.000000   BAL0331  1.000000
    SH030132 COST     187.174000   TRAN0301 1.000000
    SH030132 BAL0301  -1.000000   BAL0332  1.000000
    SH030232 COST     299.228000   TRAN0302 1.000000
    SH030232 BAL0302  -1.000000   BAL0332  1.000000
    SH030332 COST     264.798000   TRAN0303 1.000000
    SH030332 BAL0303  -1.000000   BAL0332  1.000000
    SH030432 COST     98.282000   TRAN0304 1.000000
    SH030432 BAL0304  -1.000000   BAL0332  1.000000
    SH030532 COST     245.392000   TRAN0305 1.000000
    SH030532 BAL0305  -1.000000   BAL0332  1.000000
    SH030832 COST     112.680000   TRAN0308 1.000000
    SH030832 BAL0383  -1.000000   BAL0332  1.000000
    SH030133 COST     308.618000   TRAN0301 1.000000
    SH030133 BAL0301  -1.000000   BAL0333  1.000000
    SH030233 COST     250.400000   TRAN0302 1.000000
    SH030233 BAL0302  -1.000000   BAL0333  1.000000
    SH030333 COST     339.918000   TRAN0303 1.000000
    SH030333 BAL0303  -1.000000   BAL0333  1.000000
    SH030433 COST     278.570000   TRAN0304 1.000000
    SH030433 BAL0304  -1.000000   BAL0333  1.000000
    SH030533 COST     395.006000   TRAN0305 1.000000
    SH030533 BAL0305  -1.000000   BAL0333  1.000000
    SH030833 COST     238.506000   TRAN0308 1.000000
    SH030833 BAL0383  -1.000000   BAL0333  1.000000
    SH030134 COST     241.636000   TRAN0301 1.000000
    SH030134 BAL0301  -1.000000   BAL0334  1.000000
    SH030234 COST     410.030000   TRAN0302 1.000000
    SH030234 BAL0302  -1.000000   BAL0334  1.000000
    SH030334 COST     314.878000   TRAN0303 1.000000
    SH030334 BAL0303  -1.000000   BAL0334  1.000000
    SH030434 COST     132.086000   TRAN0304 1.000000
    SH030434 BAL0304  -1.000000   BAL0334  1.000000
    SH030534 COST     276.066000   TRAN0305 1.000000
    SH030534 BAL0305  -1.000000   BAL0334  1.000000
    SH030834 COST     164.638000   TRAN0308 1.000000
    SH030834 BAL0383  -1.000000   BAL0334  1.000000
    SH030135 COST     288.586000   TRAN0301 1.000000
    SH030135 BAL0301  -1.000000   BAL0335  1.000000
    SH030235 COST     278.570000   TRAN0302 1.000000
    SH030235 BAL0302  -1.000000   BAL0335  1.000000
    SH030335 COST     236.002000   TRAN0303 1.000000
    SH030335 BAL0303  -1.000000   BAL0335  1.000000
    SH030435 COST     76.372000   TRAN0304 1.000000
    SH030435 BAL0304  -1.000000   BAL0335  1.000000
    SH030535 COST     269.806000   TRAN0305 1.000000
    SH030535 BAL0305  -1.000000   BAL0335  1.000000
    SH030835 COST     147.110000   TRAN0308 1.000000
    SH030835 BAL0383  -1.000000   BAL0335  1.000000
    SH030136 COST     128.330000   TRAN0301 1.000000
    SH030136 BAL0301  -1.000000   BAL0336  1.000000
    SH030236 COST     280.448000   TRAN0302 1.000000
    SH030236 BAL0302  -1.000000   BAL0336  1.000000
    SH030336 COST     66.356000   TRAN0303 1.000000
    SH030336 BAL0303  -1.000000   BAL0336  1.000000
    SH030436 COST     231.620000   TRAN0304 1.000000
    SH030436 BAL0304  -1.000000   BAL0336  1.000000
    SH030536 COST     216.596000   TRAN0305 1.000000
    SH030536 BAL0305  -1.000000   BAL0336  1.000000
    SH030636 COST     68.860000   TRAN0306 1.000000
    SH030636 BAL0352  -1.000000   BAL0336  1.000000
    SH030836 COST     200.946000   TRAN0308 1.000000
    SH030836 BAL0383  -1.000000   BAL0336  1.000000
    SH030137 COST     57.592000   TRAN0301 1.000000
    SH030137 BAL0301  -1.000000   BAL0337  1.000000
    SH030237 COST     214.092000   TRAN0302 1.000000
    SH030237 BAL0302  -1.000000   BAL0337  1.000000
    SH030337 COST     98.908000   TRAN0303 1.000000
    SH030337 BAL0303  -1.000000   BAL0337  1.000000
    SH030437 COST     190.304000   TRAN0304 1.000000
    SH030437 BAL0304  -1.000000   BAL0337  1.000000
    SH030537 COST     113.932000   TRAN0305 1.000000
    SH030537 BAL0305  -1.000000   BAL0337  1.000000
    SH030637 COST     121.444000   TRAN0306 1.000000
    SH030637 BAL0352  -1.000000   BAL0337  1.000000
    SH030837 COST     157.752000   TRAN0308 1.000000
    SH030837 BAL0383  -1.000000   BAL0337  1.000000
    SH030138 COST     85.136000   TRAN0301 1.000000
    SH030138 BAL0301  -1.000000   BAL0338  1.000000
    SH030238 COST     152.744000   TRAN0302 1.000000
    SH030238 BAL0302  -1.000000   BAL0338  1.000000
    SH030338 COST     59.470000   TRAN0303 1.000000
    SH030338 BAL0303  -1.000000   BAL0338  1.000000
    SH030438 COST     192.808000   TRAN0304 1.000000
    SH030438 BAL0304  -1.000000   BAL0338  1.000000
    SH030538 COST     174.028000   TRAN0305 1.000000
    SH030538 BAL0305  -1.000000   BAL0338  1.000000
    SH030638 COST     24.414000   TRAN0306 1.000000
    SH030638 BAL0352  -1.000000   BAL0338  1.000000
    SH030738 COST     135.216000   TRAN0307 1.000000
    SH030738 BAL0364  -1.000000   BAL0338  1.000000
    SH030838 COST     148.362000   TRAN0308 1.000000
    SH030838 BAL0383  -1.000000   BAL0338  1.000000
    SH030139 COST     81.380000   TRAN0301 1.000000
    SH030139 BAL0301  -1.000000   BAL0339  1.000000
    SH030239 COST     212.214000   TRAN0302 1.000000
    SH030239 BAL0302  -1.000000   BAL0339  1.000000
    SH030339 COST     100.160000   TRAN0303 1.000000
    SH030339 BAL0303  -1.000000   BAL0339  1.000000
    SH030439 COST     155.874000   TRAN0304 1.000000
    SH030439 BAL0304  -1.000000   BAL0339  1.000000
    SH030539 COST     268.554000   TRAN0305 1.000000
    SH030539 BAL0305  -1.000000   BAL0339  1.000000
    SH030639 COST     127.704000   TRAN0306 1.000000
    SH030639 BAL0352  -1.000000   BAL0339  1.000000
    SH030839 COST     105.168000   TRAN0308 1.000000
    SH030839 BAL0383  -1.000000   BAL0339  1.000000
    SH030140 COST     103.290000   TRAN0301 1.000000
    SH030140 BAL0301  -1.000000   BAL0340  1.000000
    SH030240 COST     236.628000   TRAN0302 1.000000
    SH030240 BAL0302  -1.000000   BAL0340  1.000000
    SH030340 COST     64.478000   TRAN0303 1.000000
    SH030340 BAL0303  -1.000000   BAL0340  1.000000
    SH030440 COST     185.922000   TRAN0304 1.000000
    SH030440 BAL0304  -1.000000   BAL0340  1.000000
    SH030540 COST     138.346000   TRAN0305 1.000000
    SH030540 BAL0305  -1.000000   BAL0340  1.000000
    SH030640 COST     82.006000   TRAN0306 1.000000
    SH030640 BAL0352  -1.000000   BAL0340  1.000000
    SH030840 COST     171.524000   TRAN0308 1.000000
    SH030840 BAL0383  -1.000000   BAL0340  1.000000
    SH030141 COST     122.696000   TRAN0301 1.000000
    SH030141 BAL0301  -1.000000   BAL0341  1.000000
    SH030241 COST     187.800000   TRAN0302 1.000000
    SH030241 BAL0302  -1.000000   BAL0341  1.000000
    SH030341 COST     93.900000   TRAN0303 1.000000
    SH030341 BAL0303  -1.000000   BAL0341  1.000000
    SH030441 COST     202.824000   TRAN0304 1.000000
    SH030441 BAL0304  -1.000000   BAL0341  1.000000
    SH030541 COST     230.368000   TRAN0305 1.000000
    SH030541 BAL0305  -1.000000   BAL0341  1.000000
    SH030641 COST     62.600000   TRAN0306 1.000000
    SH030641 BAL0352  -1.000000   BAL0341  1.000000
    SH030841 COST     187.174000   TRAN0308 1.000000
    SH030841 BAL0383  -1.000000   BAL0341  1.000000
    SH030142 COST     56.340000   TRAN0301 1.000000
    SH030142 BAL0301  -1.000000   BAL0342  1.000000
    SH030242 COST     259.164000   TRAN0302 1.000000
    SH030242 BAL0302  -1.000000   BAL0342  1.000000
    SH030342 COST     100.160000   TRAN0303 1.000000
    SH030342 BAL0303  -1.000000   BAL0342  1.000000
    SH030442 COST     122.070000   TRAN0304 1.000000
    SH030442 BAL0304  -1.000000   BAL0342  1.000000
    SH030542 COST     225.986000   TRAN0305 1.000000
    SH030542 BAL0305  -1.000000   BAL0342  1.000000
    SH030642 COST     100.786000   TRAN0306 1.000000
    SH030642 BAL0352  -1.000000   BAL0342  1.000000
    SH030842 COST     95.152000   TRAN0308 1.000000
    SH030842 BAL0383  -1.000000   BAL0342  1.000000
    SH030143 COST     99.534000   TRAN0301 1.000000
    SH030143 BAL0301  -1.000000   BAL0343  1.000000
    SH030243 COST     247.270000   TRAN0302 1.000000
    SH030243 BAL0302  -1.000000   BAL0343  1.000000
    SH030343 COST     15.650000   TRAN0303 1.000000
    SH030343 BAL0303  -1.000000   BAL0343  1.000000
    SH030443 COST     185.296000   TRAN0304 1.000000
    SH030443 BAL0304  -1.000000   BAL0343  1.000000
    SH030543 COST     161.508000   TRAN0305 1.000000
    SH030543 BAL0305  -1.000000   BAL0343  1.000000
    SH030643 COST     62.600000   TRAN0306 1.000000
    SH030643 BAL0352  -1.000000   BAL0343  1.000000
    SH030743 COST     150.866000   TRAN0307 1.000000
    SH030743 BAL0364  -1.000000   BAL0343  1.000000
    SH030843 COST     169.646000   TRAN0308 1.000000
    SH030843 BAL0383  -1.000000   BAL0343  1.000000
    SH030144 COST     99.534000   TRAN0301 1.000000
    SH030144 BAL0301  -1.000000   BAL0344  1.000000
    SH030244 COST     237.254000   TRAN0302 1.000000
    SH030244 BAL0302  -1.000000   BAL0344  1.000000
    SH030344 COST     80.128000   TRAN0303 1.000000
    SH030344 BAL0303  -1.000000   BAL0344  1.000000
    SH030444 COST     195.312000   TRAN0304 1.000000
    SH030444 BAL0304  -1.000000   BAL0344  1.000000
    SH030544 COST     194.060000   TRAN0305 1.000000
    SH030544 BAL0305  -1.000000   BAL0344  1.000000
    SH030644 COST     55.714000   TRAN0306 1.000000
    SH030644 BAL0352  -1.000000   BAL0344  1.000000
    SH030844 COST     186.548000   TRAN0308 1.000000
    SH030844 BAL0383  -1.000000   BAL0344  1.000000
    SH030145 COST     107.672000   TRAN0301 1.000000
    SH030145 BAL0301  -1.000000   BAL0345  1.000000
    SH030245 COST     272.936000   TRAN0302 1.000000
    SH030245 BAL0302  -1.000000   BAL0345  1.000000
    SH030345 COST     100.786000   TRAN0303 1.000000
    SH030345 BAL0303  -1.000000   BAL0345  1.000000
    SH030445 COST     182.792000   TRAN0304 1.000000
    SH030445 BAL0304  -1.000000   BAL0345  1.000000
    SH030545 COST     146.484000   TRAN0305 1.000000
    SH030545 BAL0305  -1.000000   BAL0345  1.000000
    SH030645 COST     119.566000   TRAN0306 1.000000
    SH030645 BAL0352  -1.000000   BAL0345  1.000000
    SH030745 COST     123.322000   TRAN0307 1.000000
    SH030745 BAL0364  -1.000000   BAL0345  1.000000
    SH030845 COST     190.930000   TRAN0308 1.000000
    SH030845 BAL0383  -1.000000   BAL0345  1.000000
    SH030146 COST     153.370000   TRAN0301 1.000000
    SH030146 BAL0301  -1.000000   BAL0346  1.000000
    SH030246 COST     170.898000   TRAN0302 1.000000
    SH030246 BAL0302  -1.000000   BAL0346  1.000000
    SH030346 COST     138.346000   TRAN0303 1.000000
    SH030346 BAL0303  -1.000000   BAL0346  1.000000
    SH030446 COST     279.822000   TRAN0304 1.000000
    SH030446 BAL0304  -1.000000   BAL0346  1.000000
    SH030546 COST     269.180000   TRAN0305 1.000000
    SH030546 BAL0305  -1.000000   BAL0346  1.000000
    SH030646 COST     160.882000   TRAN0306 1.000000
    SH030646 BAL0352  -1.000000   BAL0346  1.000000
    SH030846 COST     280.448000   TRAN0308 1.000000
    SH030846 BAL0383  -1.000000   BAL0346  1.000000
    SH030147 COST     68.860000   TRAN0301 1.000000
    SH030147 BAL0301  -1.000000   BAL0347  1.000000
    SH030247 COST     233.498000   TRAN0302 1.000000
    SH030247 BAL0302  -1.000000   BAL0347  1.000000
    SH030347 COST     99.534000   TRAN0303 1.000000
    SH030347 BAL0303  -1.000000   BAL0347  1.000000
    SH030447 COST     171.524000   TRAN0304 1.000000
    SH030447 BAL0304  -1.000000   BAL0347  1.000000
    SH030547 COST     145.858000   TRAN0305 1.000000
    SH030547 BAL0305  -1.000000   BAL0347  1.000000
    SH030647 COST     90.770000   TRAN0306 1.000000
    SH030647 BAL0352  -1.000000   BAL0347  1.000000
    SH030847 COST     152.744000   TRAN0308 1.000000
    SH030847 BAL0383  -1.000000   BAL0347  1.000000
    SH030148 COST     59.470000   TRAN0301 1.000000
    SH030148 BAL0301  -1.000000   BAL0348  1.000000
    SH030248 COST     212.214000   TRAN0302 1.000000
    SH030248 BAL0302  -1.000000   BAL0348  1.000000
    SH030348 COST     85.762000   TRAN0303 1.000000
    SH030348 BAL0303  -1.000000   BAL0348  1.000000
    SH030448 COST     143.980000   TRAN0304 1.000000
    SH030448 BAL0304  -1.000000   BAL0348  1.000000
    SH030548 COST     154.622000   TRAN0305 1.000000
    SH030548 BAL0305  -1.000000   BAL0348  1.000000
    SH030648 COST     71.990000   TRAN0306 1.000000
    SH030648 BAL0352  -1.000000   BAL0348  1.000000
    SH030848 COST     122.070000   TRAN0308 1.000000
    SH030848 BAL0383  -1.000000   BAL0348  1.000000
    SH030149 COST     205.954000   TRAN0301 1.000000
    SH030149 BAL0301  -1.000000   BAL0349  1.000000
    SH030549 COST     95.152000   TRAN0305 1.000000
    SH030549 BAL0305  -1.000000   BAL0349  1.000000
    SH030150 COST     150.866000   TRAN0301 1.000000
    SH030150 BAL0301  -1.000000   BAL0350  1.000000
    SH030250 COST     383.112000   TRAN0302 1.000000
    SH030250 BAL0302  -1.000000   BAL0350  1.000000
    SH030350 COST     153.996000   TRAN0303 1.000000
    SH030350 BAL0303  -1.000000   BAL0350  1.000000
    SH030450 COST     228.490000   TRAN0304 1.000000
    SH030450 BAL0304  -1.000000   BAL0350  1.000000
    SH030550 COST     147.110000   TRAN0305 1.000000
    SH030550 BAL0305  -1.000000   BAL0350  1.000000
    SH030750 COST     85.762000   TRAN0307 1.000000
    SH030750 BAL0364  -1.000000   BAL0350  1.000000
    SH030850 COST     254.156000   TRAN0308 1.000000
    SH030850 BAL0383  -1.000000   BAL0350  1.000000
    SH030151 COST     207.832000   TRAN0301 1.000000
    SH030151 BAL0301  -1.000000   BAL0351  1.000000
    SH030551 COST     76.998000   TRAN0305 1.000000
    SH030551 BAL0305  -1.000000   BAL0351  1.000000
    SH030152 COST     70.112000   TRAN0301 1.000000
    SH030152 BAL0301  -1.000000   BAL0352  1.000000
    SH030252 COST     187.800000   TRAN0302 1.000000
    SH030252 BAL0302  -1.000000   BAL0352  1.000000
    SH030352 COST     51.332000   TRAN0303 1.000000
    SH030352 BAL0303  -1.000000   BAL0352  1.000000
    SH030452 COST     201.572000   TRAN0304 1.000000
    SH030452 BAL0304  -1.000000   BAL0352  1.000000
    SH030552 COST     184.670000   TRAN0305 1.000000
    SH030552 BAL0305  -1.000000   BAL0352  1.000000
    SH030852 COST     158.378000   TRAN0308 1.000000
    SH030852 BAL0383  -1.000000   BAL0352  1.000000
    SH030153 COST     224.734000   TRAN0301 1.000000
    SH030153 BAL0301  -1.000000   BAL0353  1.000000
    SH030253 COST     398.136000   TRAN0302 1.000000
    SH030253 BAL0302  -1.000000   BAL0353  1.000000
    SH030353 COST     203.450000   TRAN0303 1.000000
    SH030353 BAL0303  -1.000000   BAL0353  1.000000
    SH030453 COST     257.912000   TRAN0304 1.000000
    SH030453 BAL0304  -1.000000   BAL0353  1.000000
    SH030553 COST     115.184000   TRAN0305 1.000000
    SH030553 BAL0305  -1.000000   BAL0353  1.000000
    SH030653 COST     224.734000   TRAN0306 1.000000
    SH030653 BAL0352  -1.000000   BAL0353  1.000000
    SH030753 COST     91.396000   TRAN0307 1.000000
    SH030753 BAL0364  -1.000000   BAL0353  1.000000
    SH030853 COST     252.278000   TRAN0308 1.000000
    SH030853 BAL0383  -1.000000   BAL0353  1.000000
    SH030154 COST     115.810000   TRAN0301 1.000000
    SH030154 BAL0301  -1.000000   BAL0354  1.000000
    SH030254 COST     278.570000   TRAN0302 1.000000
    SH030254 BAL0302  -1.000000   BAL0354  1.000000
    SH030354 COST     135.842000   TRAN0303 1.000000
    SH030354 BAL0303  -1.000000   BAL0354  1.000000
    SH030454 COST     214.718000   TRAN0304 1.000000
    SH030454 BAL0304  -1.000000   BAL0354  1.000000
    SH030554 COST     133.338000   TRAN0305 1.000000
    SH030554 BAL0305  -1.000000   BAL0354  1.000000
    SH030654 COST     127.078000   TRAN0306 1.000000
    SH030654 BAL0352  -1.000000   BAL0354  1.000000
    SH030854 COST     251.652000   TRAN0308 1.000000
    SH030854 BAL0383  -1.000000   BAL0354  1.000000
    SH030155 COST     174.028000   TRAN0301 1.000000
    SH030155 BAL0301  -1.000000   BAL0355  1.000000
    SH030255 COST     299.854000   TRAN0302 1.000000
    SH030255 BAL0302  -1.000000   BAL0355  1.000000
    SH030355 COST     175.906000   TRAN0303 1.000000
    SH030355 BAL0303  -1.000000   BAL0355  1.000000
    SH030455 COST     184.044000   TRAN0304 1.000000
    SH030455 BAL0304  -1.000000   BAL0355  1.000000
    SH030555 COST     96.404000   TRAN0305 1.000000
    SH030555 BAL0305  -1.000000   BAL0355  1.000000
    SH030655 COST     181.540000   TRAN0306 1.000000
    SH030655 BAL0352  -1.000000   BAL0355  1.000000
    SH030755 COST     66.982000   TRAN0307 1.000000
    SH030755 BAL0364  -1.000000   BAL0355  1.000000
    SH030855 COST     184.044000   TRAN0308 1.000000
    SH030855 BAL0383  -1.000000   BAL0355  1.000000
    SH030156 COST     244.140000   TRAN0301 1.000000
    SH030156 BAL0301  -1.000000   BAL0356  1.000000
    SH030256 COST     362.454000   TRAN0302 1.000000
    SH030256 BAL0302  -1.000000   BAL0356  1.000000
    SH030356 COST     190.930000   TRAN0303 1.000000
    SH030356 BAL0303  -1.000000   BAL0356  1.000000
    SH030456 COST     228.490000   TRAN0304 1.000000
    SH030456 BAL0304  -1.000000   BAL0356  1.000000
    SH030556 COST     85.136000   TRAN0305 1.000000
    SH030556 BAL0305  -1.000000   BAL0356  1.000000
    SH030656 COST     212.214000   TRAN0306 1.000000
    SH030656 BAL0352  -1.000000   BAL0356  1.000000
    SH030756 COST     76.372000   TRAN0307 1.000000
    SH030756 BAL0364  -1.000000   BAL0356  1.000000
    SH030856 COST     223.482000   TRAN0308 1.000000
    SH030856 BAL0383  -1.000000   BAL0356  1.000000
    SH030157 COST     163.386000   TRAN0301 1.000000
    SH030157 BAL0301  -1.000000   BAL0357  1.000000
    SH030257 COST     325.520000   TRAN0302 1.000000
    SH030257 BAL0302  -1.000000   BAL0357  1.000000
    SH030357 COST     181.540000   TRAN0303 1.000000
    SH030357 BAL0303  -1.000000   BAL0357  1.000000
    SH030457 COST     146.484000   TRAN0304 1.000000
    SH030457 BAL0304  -1.000000   BAL0357  1.000000
    SH030557 COST     105.168000   TRAN0305 1.000000
    SH030557 BAL0305  -1.000000   BAL0357  1.000000
    SH030657 COST     199.694000   TRAN0306 1.000000
    SH030657 BAL0352  -1.000000   BAL0357  1.000000
    SH030757 COST     92.648000   TRAN0307 1.000000
    SH030757 BAL0364  -1.000000   BAL0357  1.000000
    SH030857 COST     144.606000   TRAN0308 1.000000
    SH030857 BAL0383  -1.000000   BAL0357  1.000000
    SH030158 COST     184.044000   TRAN0301 1.000000
    SH030158 BAL0301  -1.000000   BAL0358  1.000000
    SH030258 COST     326.146000   TRAN0302 1.000000
    SH030258 BAL0302  -1.000000   BAL0358  1.000000
    SH030358 COST     174.028000   TRAN0303 1.000000
    SH030358 BAL0303  -1.000000   BAL0358  1.000000
    SH030458 COST     214.718000   TRAN0304 1.000000
    SH030458 BAL0304  -1.000000   BAL0358  1.000000
    SH030558 COST     13.146000   TRAN0305 1.000000
    SH030558 BAL0305  -1.000000   BAL0358  1.000000
    SH030658 COST     204.076000   TRAN0306 1.000000
    SH030658 BAL0352  -1.000000   BAL0358  1.000000
    SH030758 COST     42.568000   TRAN0307 1.000000
    SH030758 BAL0364  -1.000000   BAL0358  1.000000
    SH030858 COST     159.004000   TRAN0308 1.000000
    SH030858 BAL0383  -1.000000   BAL0358  1.000000
    SH030159 COST     128.956000   TRAN0301 1.000000
    SH030159 BAL0301  -1.000000   BAL0359  1.000000
    SH030259 COST     311.748000   TRAN0302 1.000000
    SH030259 BAL0302  -1.000000   BAL0359  1.000000
    SH030359 COST     148.988000   TRAN0303 1.000000
    SH030359 BAL0303  -1.000000   BAL0359  1.000000
    SH030459 COST     152.744000   TRAN0304 1.000000
    SH030459 BAL0304  -1.000000   BAL0359  1.000000
    SH030559 COST     99.534000   TRAN0305 1.000000
    SH030559 BAL0305  -1.000000   BAL0359  1.000000
    SH030659 COST     185.922000   TRAN0306 1.000000
    SH030659 BAL0352  -1.000000   BAL0359  1.000000
    SH030759 COST     65.730000   TRAN0307 1.000000
    SH030759 BAL0364  -1.000000   BAL0359  1.000000
    SH030859 COST     159.630000   TRAN0308 1.000000
    SH030859 BAL0383  -1.000000   BAL0359  1.000000
    SH030160 COST     163.386000   TRAN0301 1.000000
    SH030160 BAL0301  -1.000000   BAL0360  1.000000
    SH030260 COST     344.300000   TRAN0302 1.000000
    SH030260 BAL0302  -1.000000   BAL0360  1.000000
    SH030360 COST     177.158000   TRAN0303 1.000000
    SH030360 BAL0303  -1.000000   BAL0360  1.000000
    SH030460 COST     195.312000   TRAN0304 1.000000
    SH030460 BAL0304  -1.000000   BAL0360  1.000000
    SH030560 COST     84.510000   TRAN0305 1.000000
    SH030560 BAL0305  -1.000000   BAL0360  1.000000
    SH030660 COST     202.198000   TRAN0306 1.000000
    SH030660 BAL0352  -1.000000   BAL0360  1.000000
    SH030760 COST     55.088000   TRAN0307 1.000000
    SH030760 BAL0364  -1.000000   BAL0360  1.000000
    SH030860 COST     187.174000   TRAN0308 1.000000
    SH030860 BAL0383  -1.000000   BAL0360  1.000000
    SH030163 COST     166.516000   TRAN0301 1.000000
    SH030163 BAL0301  -1.000000   BAL0363  1.000000
    SH030263 COST     309.244000   TRAN0302 1.000000
    SH030263 BAL0302  -1.000000   BAL0363  1.000000
    SH030363 COST     179.662000   TRAN0303 1.000000
    SH030363 BAL0303  -1.000000   BAL0363  1.000000
    SH030463 COST     230.994000   TRAN0304 1.000000
    SH030463 BAL0304  -1.000000   BAL0363  1.000000
    SH030563 COST     95.152000   TRAN0305 1.000000
    SH030563 BAL0305  -1.000000   BAL0363  1.000000
    SH030663 COST     197.190000   TRAN0306 1.000000
    SH030663 BAL0352  -1.000000   BAL0363  1.000000
    SH030763 COST     77.624000   TRAN0307 1.000000
    SH030763 BAL0364  -1.000000   BAL0363  1.000000
    SH030863 COST     250.400000   TRAN0308 1.000000
    SH030863 BAL0383  -1.000000   BAL0363  1.000000
    SH030164 COST     124.574000   TRAN0301 1.000000
    SH030164 BAL0301  -1.000000   BAL0364  1.000000
    SH030264 COST     329.276000   TRAN0302 1.000000
    SH030264 BAL0302  -1.000000   BAL0364  1.000000
    SH030364 COST     139.598000   TRAN0303 1.000000
    SH030364 BAL0303  -1.000000   BAL0364  1.000000
    SH030464 COST     210.336000   TRAN0304 1.000000
    SH030464 BAL0304  -1.000000   BAL0364  1.000000
    SH030564 COST     36.308000   TRAN0305 1.000000
    SH030564 BAL0305  -1.000000   BAL0364  1.000000
    SH030664 COST     198.442000   TRAN0306 1.000000
    SH030664 BAL0352  -1.000000   BAL0364  1.000000
    SH030864 COST     156.500000   TRAN0308 1.000000
    SH030864 BAL0383  -1.000000   BAL0364  1.000000
    SH030165 COST     270.432000   TRAN0301 1.000000
    SH030165 BAL0301  -1.000000   BAL0365  1.000000
    SH030265 COST     192.182000   TRAN0302 1.000000
    SH030265 BAL0302  -1.000000   BAL0365  1.000000
    SH030365 COST     316.130000   TRAN0303 1.000000
    SH030365 BAL0303  -1.000000   BAL0365  1.000000
    SH030465 COST     242.888000   TRAN0304 1.000000
    SH030465 BAL0304  -1.000000   BAL0365  1.000000
    SH030565 COST     378.104000   TRAN0305 1.000000
    SH030565 BAL0305  -1.000000   BAL0365  1.000000
    SH030865 COST     259.790000   TRAN0308 1.000000
    SH030865 BAL0383  -1.000000   BAL0365  1.000000
    SH030166 COST     350.560000   TRAN0301 1.000000
    SH030166 BAL0301  -1.000000   BAL0366  1.000000
    SH030266 COST     162.134000   TRAN0302 1.000000
    SH030266 BAL0302  -1.000000   BAL0366  1.000000
    SH030366 COST     361.828000   TRAN0303 1.000000
    SH030366 BAL0303  -1.000000   BAL0366  1.000000
    SH030466 COST     348.056000   TRAN0304 1.000000
    SH030466 BAL0304  -1.000000   BAL0366  1.000000
    SH030566 COST     444.460000   TRAN0305 1.000000
    SH030566 BAL0305  -1.000000   BAL0366  1.000000
    SH030866 COST     350.560000   TRAN0308 1.000000
    SH030866 BAL0383  -1.000000   BAL0366  1.000000
    SH030167 COST     266.050000   TRAN0301 1.000000
    SH030167 BAL0301  -1.000000   BAL0367  1.000000
    SH030267 COST     145.232000   TRAN0302 1.000000
    SH030267 BAL0302  -1.000000   BAL0367  1.000000
    SH030367 COST     308.618000   TRAN0303 1.000000
    SH030367 BAL0303  -1.000000   BAL0367  1.000000
    SH030467 COST     286.082000   TRAN0304 1.000000
    SH030467 BAL0304  -1.000000   BAL0367  1.000000
    SH030567 COST     378.104000   TRAN0305 1.000000
    SH030567 BAL0305  -1.000000   BAL0367  1.000000
    SH030867 COST     286.708000   TRAN0308 1.000000
    SH030867 BAL0383  -1.000000   BAL0367  1.000000
    SH030168 COST     371.844000   TRAN0301 1.000000
    SH030168 BAL0301  -1.000000   BAL0368  1.000000
    SH030268 COST     250.400000   TRAN0302 1.000000
    SH030268 BAL0302  -1.000000   BAL0368  1.000000
    SH030368 COST     350.560000   TRAN0303 1.000000
    SH030368 BAL0303  -1.000000   BAL0368  1.000000
    SH030468 COST     439.452000   TRAN0304 1.000000
    SH030468 BAL0304  -1.000000   BAL0368  1.000000
    SH030568 COST     592.196000   TRAN0305 1.000000
    SH030568 BAL0305  -1.000000   BAL0368  1.000000
    SH030868 COST     470.126000   TRAN0308 1.000000
    SH030868 BAL0383  -1.000000   BAL0368  1.000000
    SH030169 COST     337.414000   TRAN0301 1.000000
    SH030169 BAL0301  -1.000000   BAL0369  1.000000
    SH030269 COST     138.346000   TRAN0302 1.000000
    SH030269 BAL0302  -1.000000   BAL0369  1.000000
    SH030369 COST     319.260000   TRAN0303 1.000000
    SH030369 BAL0303  -1.000000   BAL0369  1.000000
    SH030469 COST     389.372000   TRAN0304 1.000000
    SH030469 BAL0304  -1.000000   BAL0369  1.000000
    SH030569 COST     404.396000   TRAN0305 1.000000
    SH030569 BAL0305  -1.000000   BAL0369  1.000000
    SH030869 COST     411.908000   TRAN0308 1.000000
    SH030869 BAL0383  -1.000000   BAL0369  1.000000
    SH030171 COST     275.440000   TRAN0301 1.000000
    SH030171 BAL0301  -1.000000   BAL0371  1.000000
    SH030371 COST     328.024000   TRAN0303 1.000000
    SH030371 BAL0303  -1.000000   BAL0371  1.000000
    SH030471 COST     326.146000   TRAN0304 1.000000
    SH030471 BAL0304  -1.000000   BAL0371  1.000000
    SH030571 COST     363.706000   TRAN0305 1.000000
    SH030571 BAL0305  -1.000000   BAL0371  1.000000
    SH030671 COST     244.766000   TRAN0306 1.000000
    SH030671 BAL0352  -1.000000   BAL0371  1.000000
    SH030771 COST     440.704000   TRAN0307 1.000000
    SH030771 BAL0364  -1.000000   BAL0371  1.000000
    SH030871 COST     333.658000   TRAN0308 1.000000
    SH030871 BAL0383  -1.000000   BAL0371  1.000000
    SH030172 COST     367.462000   TRAN0301 1.000000
    SH030172 BAL0301  -1.000000   BAL0372  1.000000
    SH030272 COST     339.918000   TRAN0302 1.000000
    SH030272 BAL0302  -1.000000   BAL0372  1.000000
    SH030372 COST     386.242000   TRAN0303 1.000000
    SH030372 BAL0303  -1.000000   BAL0372  1.000000
    SH030472 COST     356.820000   TRAN0304 1.000000
    SH030472 BAL0304  -1.000000   BAL0372  1.000000
    SH030572 COST     477.638000   TRAN0305 1.000000
    SH030572 BAL0305  -1.000000   BAL0372  1.000000
    SH030872 COST     356.820000   TRAN0308 1.000000
    SH030872 BAL0383  -1.000000   BAL0372  1.000000
    SH030173 COST     244.140000   TRAN0301 1.000000
    SH030173 BAL0301  -1.000000   BAL0373  1.000000
    SH030273 COST     228.490000   TRAN0302 1.000000
    SH030273 BAL0302  -1.000000   BAL0373  1.000000
    SH030373 COST     211.588000   TRAN0303 1.000000
    SH030373 BAL0303  -1.000000   BAL0373  1.000000
    SH030473 COST     286.082000   TRAN0304 1.000000
    SH030473 BAL0304  -1.000000   BAL0373  1.000000
    SH030573 COST     353.064000   TRAN0305 1.000000
    SH030573 BAL0305  -1.000000   BAL0373  1.000000
    SH030673 COST     190.930000   TRAN0306 1.000000
    SH030673 BAL0352  -1.000000   BAL0373  1.000000
    SH030873 COST     315.504000   TRAN0308 1.000000
    SH030873 BAL0383  -1.000000   BAL0373  1.000000
    SH030174 COST     343.048000   TRAN0301 1.000000
    SH030174 BAL0301  -1.000000   BAL0374  1.000000
    SH030274 COST     131.460000   TRAN0302 1.000000
    SH030274 BAL0302  -1.000000   BAL0374  1.000000
    SH030374 COST     356.820000   TRAN0303 1.000000
    SH030374 BAL0303  -1.000000   BAL0374  1.000000
    SH030474 COST     398.762000   TRAN0304 1.000000
    SH030474 BAL0304  -1.000000   BAL0374  1.000000
    SH030574 COST     458.858000   TRAN0305 1.000000
    SH030574 BAL0305  -1.000000   BAL0374  1.000000
    SH030874 COST     387.494000   TRAN0308 1.000000
    SH030874 BAL0383  -1.000000   BAL0374  1.000000
    SH030175 COST     555.888000   TRAN0301 1.000000
    SH030175 BAL0301  -1.000000   BAL0375  1.000000
    SH030275 COST     346.804000   TRAN0302 1.000000
    SH030275 BAL0302  -1.000000   BAL0375  1.000000
    SH030375 COST     594.700000   TRAN0303 1.000000
    SH030375 BAL0303  -1.000000   BAL0375  1.000000
    SH030475 COST     607.846000   TRAN0304 1.000000
    SH030475 BAL0304  -1.000000   BAL0375  1.000000
    SH030575 COST     728.664000   TRAN0305 1.000000
    SH030575 BAL0305  -1.000000   BAL0375  1.000000
    SH030675 COST     554.010000   TRAN0306 1.000000
    SH030675 BAL0352  -1.000000   BAL0375  1.000000
    SH030775 COST     731.168000   TRAN0307 1.000000
    SH030775 BAL0364  -1.000000   BAL0375  1.000000
    SH030176 COST     289.212000   TRAN0301 1.000000
    SH030176 BAL0301  -1.000000   BAL0376  1.000000
    SH030276 COST     251.026000   TRAN0302 1.000000
    SH030276 BAL0302  -1.000000   BAL0376  1.000000
    SH030376 COST     252.278000   TRAN0303 1.000000
    SH030376 BAL0303  -1.000000   BAL0376  1.000000
    SH030476 COST     394.380000   TRAN0304 1.000000
    SH030476 BAL0304  -1.000000   BAL0376  1.000000
    SH030576 COST     394.380000   TRAN0305 1.000000
    SH030576 BAL0305  -1.000000   BAL0376  1.000000
    SH030676 COST     238.506000   TRAN0306 1.000000
    SH030676 BAL0352  -1.000000   BAL0376  1.000000
    SH030876 COST     486.402000   TRAN0308 1.000000
    SH030876 BAL0383  -1.000000   BAL0376  1.000000
    SH030177 COST     272.310000   TRAN0301 1.000000
    SH030177 BAL0301  -1.000000   BAL0377  1.000000
    SH030277 COST     170.272000   TRAN0302 1.000000
    SH030277 BAL0302  -1.000000   BAL0377  1.000000
    SH030377 COST     288.586000   TRAN0303 1.000000
    SH030377 BAL0303  -1.000000   BAL0377  1.000000
    SH030477 COST     251.026000   TRAN0304 1.000000
    SH030477 BAL0304  -1.000000   BAL0377  1.000000
    SH030577 COST     350.560000   TRAN0305 1.000000
    SH030577 BAL0305  -1.000000   BAL0377  1.000000
    SH030877 COST     200.320000   TRAN0308 1.000000
    SH030877 BAL0383  -1.000000   BAL0377  1.000000
    SH030178 COST     476.386000   TRAN0301 1.000000
    SH030178 BAL0301  -1.000000   BAL0378  1.000000
    SH030278 COST     276.692000   TRAN0302 1.000000
    SH030278 BAL0302  -1.000000   BAL0378  1.000000
    SH030378 COST     490.158000   TRAN0303 1.000000
    SH030378 BAL0303  -1.000000   BAL0378  1.000000
    SH030478 COST     428.810000   TRAN0304 1.000000
    SH030478 BAL0304  -1.000000   BAL0378  1.000000
    SH030578 COST     550.254000   TRAN0305 1.000000
    SH030578 BAL0305  -1.000000   BAL0378  1.000000
    SH030878 COST     479.516000   TRAN0308 1.000000
    SH030878 BAL0383  -1.000000   BAL0378  1.000000
    SH030179 COST     447.590000   TRAN0301 1.000000
    SH030179 BAL0301  -1.000000   BAL0379  1.000000
    SH030279 COST     168.394000   TRAN0302 1.000000
    SH030279 BAL0302  -1.000000   BAL0379  1.000000
    SH030379 COST     432.566000   TRAN0303 1.000000
    SH030379 BAL0303  -1.000000   BAL0379  1.000000
    SH030479 COST     450.720000   TRAN0304 1.000000
    SH030479 BAL0304  -1.000000   BAL0379  1.000000
    SH030879 COST     441.956000   TRAN0308 1.000000
    SH030879 BAL0383  -1.000000   BAL0379  1.000000
    SH030480 COST     234.124000   TRAN0304 1.000000
    SH030480 BAL0304  -1.000000   BAL0380  1.000000
    SH030182 COST     364.332000   TRAN0301 1.000000
    SH030182 BAL0301  -1.000000   BAL0382  1.000000
    SH030282 COST     205.954000   TRAN0302 1.000000
    SH030282 BAL0302  -1.000000   BAL0382  1.000000
    SH030382 COST     410.030000   TRAN0303 1.000000
    SH030382 BAL0303  -1.000000   BAL0382  1.000000
    SH030482 COST     441.956000   TRAN0304 1.000000
    SH030482 BAL0304  -1.000000   BAL0382  1.000000
    SH030582 COST     718.022000   TRAN0305 1.000000
    SH030582 BAL0305  -1.000000   BAL0382  1.000000
    SH030882 COST     490.158000   TRAN0308 1.000000
    SH030882 BAL0383  -1.000000   BAL0382  1.000000
    SH030183 COST     110.802000   TRAN0301 1.000000
    SH030183 BAL0301  -1.000000   BAL0383  1.000000
    SH030283 COST     325.520000   TRAN0302 1.000000
    SH030283 BAL0302  -1.000000   BAL0383  1.000000
    SH030383 COST     170.272000   TRAN0303 1.000000
    SH030383 BAL0303  -1.000000   BAL0383  1.000000
    SH030483 COST     36.934000   TRAN0304 1.000000
    SH030483 BAL0304  -1.000000   BAL0383  1.000000
    SH030583 COST     217.222000   TRAN0305 1.000000
    SH030583 BAL0305  -1.000000   BAL0383  1.000000
    SH030683 COST     155.248000   TRAN0306 1.000000
    SH030683 BAL0352  -1.000000   BAL0383  1.000000
    SH030184 COST     190.304000   TRAN0301 1.000000
    SH030184 BAL0301  -1.000000   BAL0384  1.000000
    SH030284 COST     120.192000   TRAN0302 1.000000
    SH030284 BAL0302  -1.000000   BAL0384  1.000000
    SH030384 COST     227.864000   TRAN0303 1.000000
    SH030384 BAL0303  -1.000000   BAL0384  1.000000
    SH030484 COST     231.620000   TRAN0304 1.000000
    SH030484 BAL0304  -1.000000   BAL0384  1.000000
    SH030584 COST     306.740000   TRAN0305 1.000000
    SH030584 BAL0305  -1.000000   BAL0384  1.000000
    SH030684 COST     190.930000   TRAN0306 1.000000
    SH030684 BAL0352  -1.000000   BAL0384  1.000000
    SH030884 COST     242.888000   TRAN0308 1.000000
    SH030884 BAL0383  -1.000000   BAL0384  1.000000
    SH040201 COST     364.122000   TRAN0402 1.000000
    SH040201 BAL0402  -1.000000   BAL0401  1.000000
    SH040301 COST     139.764000   TRAN0403 1.000000
    SH040301 BAL0403  -1.000000   BAL0401  1.000000
    SH040401 COST     255.008000   TRAN0404 1.000000
    SH040401 BAL0404  -1.000000   BAL0401  1.000000
    SH040501 COST     290.562000   TRAN0405 1.000000
    SH040501 BAL0405  -1.000000   BAL0401  1.000000
    SH040601 COST     154.476000   TRAN0406 1.000000
    SH040601 BAL0452  -1.000000   BAL0401  1.000000
    SH040801 COST     175.318000   TRAN0408 1.000000
    SH040801 BAL0483  -1.000000   BAL0401  1.000000
    SH040102 COST     581.124000   TRAN0401 1.000000
    SH040102 BAL0401  -1.000000   BAL0402  1.000000
    SH040302 COST     511.242000   TRAN0403 1.000000
    SH040302 BAL0403  -1.000000   BAL0402  1.000000
    SH040402 COST     750.312000   TRAN0404 1.000000
    SH040402 BAL0404  -1.000000   BAL0402  1.000000
    SH040502 COST     908.466000   TRAN0405 1.000000
    SH040502 BAL0405  -1.000000   BAL0402  1.000000
    SH040602 COST     463.428000   TRAN0406 1.000000
    SH040602 BAL0452  -1.000000   BAL0402  1.000000
    SH040802 COST     638.746000   TRAN0408 1.000000
    SH040802 BAL0483  -1.000000   BAL0402  1.000000
    SH040103 COST     300.370000   TRAN0401 1.000000
    SH040103 BAL0401  -1.000000   BAL0403  1.000000
    SH040203 COST     581.124000   TRAN0402 1.000000
    SH040203 BAL0402  -1.000000   BAL0403  1.000000
    SH040403 COST     449.942000   TRAN0404 1.000000
    SH040403 BAL0404  -1.000000   BAL0403  1.000000
    SH040503 COST     348.184000   TRAN0405 1.000000
    SH040503 BAL0405  -1.000000   BAL0403  1.000000
    SH040603 COST     110.340000   TRAN0406 1.000000
    SH040603 BAL0452  -1.000000   BAL0403  1.000000
    SH040803 COST     312.630000   TRAN0408 1.000000
    SH040803 BAL0483  -1.000000   BAL0403  1.000000
    SH040104 COST     213.324000   TRAN0401 1.000000
    SH040104 BAL0401  -1.000000   BAL0404  1.000000
    SH040204 COST     616.678000   TRAN0402 1.000000
    SH040204 BAL0402  -1.000000   BAL0404  1.000000
    SH040304 COST     297.918000   TRAN0403 1.000000
    SH040304 BAL0403  -1.000000   BAL0404  1.000000
    SH040504 COST     391.094000   TRAN0405 1.000000
    SH040504 BAL0405  -1.000000   BAL0404  1.000000
    SH040604 COST     300.370000   TRAN0406 1.000000
    SH040604 BAL0452  -1.000000   BAL0404  1.000000
    SH040704 COST     329.794000   TRAN0407 1.000000
    SH040704 BAL0464  -1.000000   BAL0404  1.000000
    SH040804 COST     71.108000   TRAN0408 1.000000
    SH040804 BAL0483  -1.000000   BAL0404  1.000000
    SH040105 COST     331.020000   TRAN0401 1.000000
    SH040105 BAL0401  -1.000000   BAL0405  1.000000
    SH040205 COST     632.616000   TRAN0402 1.000000
    SH040205 BAL0402  -1.000000   BAL0405  1.000000
    SH040305 COST     348.184000   TRAN0403 1.000000
    SH040305 BAL0403  -1.000000   BAL0405  1.000000
    SH040405 COST     349.410000   TRAN0404 1.000000
    SH040405 BAL0404  -1.000000   BAL0405  1.000000
    SH040605 COST     399.676000   TRAN0406 1.000000
    SH040605 BAL0452  -1.000000   BAL0405  1.000000
    SH040705 COST     409.484000   TRAN0407 1.000000
    SH040705 BAL0464  -1.000000   BAL0405  1.000000
    SH040805 COST     332.246000   TRAN0408 1.000000
    SH040805 BAL0483  -1.000000   BAL0405  1.000000
    SH040106 COST     243.974000   TRAN0401 1.000000
    SH040106 BAL0401  -1.000000   BAL0406  1.000000
    SH040206 COST     511.242000   TRAN0402 1.000000
    SH040206 BAL0402  -1.000000   BAL0406  1.000000
    SH040306 COST     261.138000   TRAN0403 1.000000
    SH040306 BAL0403  -1.000000   BAL0406  1.000000
    SH040406 COST     268.494000   TRAN0404 1.000000
    SH040406 BAL0404  -1.000000   BAL0406  1.000000
    SH040506 COST     308.952000   TRAN0405 1.000000
    SH040506 BAL0405  -1.000000   BAL0406  1.000000
    SH040606 COST     252.556000   TRAN0406 1.000000
    SH040606 BAL0452  -1.000000   BAL0406  1.000000
    SH040706 COST     245.200000   TRAN0407 1.000000
    SH040706 BAL0464  -1.000000   BAL0406  1.000000
    SH040806 COST     185.126000   TRAN0408 1.000000
    SH040806 BAL0483  -1.000000   BAL0406  1.000000
    SH040107 COST     25.746000   TRAN0401 1.000000
    SH040107 BAL0401  -1.000000   BAL0407  1.000000
    SH040207 COST     357.992000   TRAN0402 1.000000
    SH040207 BAL0402  -1.000000   BAL0407  1.000000
    SH040307 COST     152.024000   TRAN0403 1.000000
    SH040307 BAL0403  -1.000000   BAL0407  1.000000
    SH040407 COST     253.782000   TRAN0404 1.000000
    SH040407 BAL0404  -1.000000   BAL0407  1.000000
    SH040507 COST     280.754000   TRAN0405 1.000000
    SH040507 BAL0405  -1.000000   BAL0407  1.000000
    SH040607 COST     153.250000   TRAN0406 1.000000
    SH040607 BAL0452  -1.000000   BAL0407  1.000000
    SH040707 COST     284.432000   TRAN0407 1.000000
    SH040707 BAL0464  -1.000000   BAL0407  1.000000
    SH040807 COST     190.030000   TRAN0408 1.000000
    SH040807 BAL0483  -1.000000   BAL0407  1.000000
    SH040108 COST     80.916000   TRAN0401 1.000000
    SH040108 BAL0401  -1.000000   BAL0408  1.000000
    SH040208 COST     460.976000   TRAN0402 1.000000
    SH040208 BAL0402  -1.000000   BAL0408  1.000000
    SH040308 COST     172.866000   TRAN0403 1.000000
    SH040308 BAL0403  -1.000000   BAL0408  1.000000
    SH040408 COST     302.822000   TRAN0404 1.000000
    SH040408 BAL0404  -1.000000   BAL0408  1.000000
    SH040508 COST     223.132000   TRAN0405 1.000000
    SH040508 BAL0405  -1.000000   BAL0408  1.000000
    SH040608 COST     203.516000   TRAN0406 1.000000
    SH040608 BAL0452  -1.000000   BAL0408  1.000000
    SH040808 COST     229.262000   TRAN0408 1.000000
    SH040808 BAL0483  -1.000000   BAL0408  1.000000
    SH040109 COST     169.188000   TRAN0401 1.000000
    SH040109 BAL0401  -1.000000   BAL0409  1.000000
    SH040209 COST     469.558000   TRAN0402 1.000000
    SH040209 BAL0402  -1.000000   BAL0409  1.000000
    SH040309 COST     205.968000   TRAN0403 1.000000
    SH040309 BAL0403  -1.000000   BAL0409  1.000000
    SH040409 COST     310.178000   TRAN0404 1.000000
    SH040409 BAL0404  -1.000000   BAL0409  1.000000
    SH040509 COST     293.014000   TRAN0405 1.000000
    SH040509 BAL0405  -1.000000   BAL0409  1.000000
    SH040709 COST     240.296000   TRAN0407 1.000000
    SH040709 BAL0464  -1.000000   BAL0409  1.000000
    SH040809 COST     237.844000   TRAN0408 1.000000
    SH040809 BAL0483  -1.000000   BAL0409  1.000000
    SH040110 COST     302.822000   TRAN0401 1.000000
    SH040110 BAL0401  -1.000000   BAL0410  1.000000
    SH040210 COST     193.708000   TRAN0402 1.000000
    SH040210 BAL0402  -1.000000   BAL0410  1.000000
    SH040310 COST     294.240000   TRAN0403 1.000000
    SH040310 BAL0403  -1.000000   BAL0410  1.000000
    SH040410 COST     440.134000   TRAN0404 1.000000
    SH040410 BAL0404  -1.000000   BAL0410  1.000000
    SH040510 COST     472.010000   TRAN0405 1.000000
    SH040510 BAL0405  -1.000000   BAL0410  1.000000
    SH040610 COST     275.850000   TRAN0406 1.000000
    SH040610 BAL0452  -1.000000   BAL0410  1.000000
    SH040810 COST     373.930000   TRAN0408 1.000000
    SH040810 BAL0483  -1.000000   BAL0410  1.000000
    SH040111 COST     129.956000   TRAN0401 1.000000
    SH040111 BAL0401  -1.000000   BAL0411  1.000000
    SH040211 COST     606.870000   TRAN0402 1.000000
    SH040211 BAL0402  -1.000000   BAL0411  1.000000
    SH040311 COST     304.048000   TRAN0403 1.000000
    SH040311 BAL0403  -1.000000   BAL0411  1.000000
    SH040411 COST     170.414000   TRAN0404 1.000000
    SH040411 BAL0404  -1.000000   BAL0411  1.000000
    SH040511 COST     418.066000   TRAN0405 1.000000
    SH040511 BAL0405  -1.000000   BAL0411  1.000000
    SH040611 COST     240.296000   TRAN0406 1.000000
    SH040611 BAL0452  -1.000000   BAL0411  1.000000
    SH040811 COST     125.052000   TRAN0408 1.000000
    SH040811 BAL0483  -1.000000   BAL0411  1.000000
    SH040112 COST     107.888000   TRAN0401 1.000000
    SH040112 BAL0401  -1.000000   BAL0412  1.000000
    SH040212 COST     415.614000   TRAN0402 1.000000
    SH040212 BAL0402  -1.000000   BAL0412  1.000000
    SH040312 COST     178.996000   TRAN0403 1.000000
    SH040312 BAL0403  -1.000000   BAL0412  1.000000
    SH040412 COST     245.200000   TRAN0404 1.000000
    SH040412 BAL0404  -1.000000   BAL0412  1.000000
    SH040512 COST     327.342000   TRAN0405 1.000000
    SH040512 BAL0405  -1.000000   BAL0412  1.000000
    SH040612 COST     177.770000   TRAN0406 1.000000
    SH040612 BAL0452  -1.000000   BAL0412  1.000000
    SH040812 COST     178.996000   TRAN0408 1.000000
    SH040812 BAL0483  -1.000000   BAL0412  1.000000
    SH040114 COST     174.092000   TRAN0401 1.000000
    SH040114 BAL0401  -1.000000   BAL0414  1.000000
    SH040214 COST     505.112000   TRAN0402 1.000000
    SH040214 BAL0402  -1.000000   BAL0414  1.000000
    SH040314 COST     240.296000   TRAN0403 1.000000
    SH040314 BAL0403  -1.000000   BAL0414  1.000000
    SH040414 COST     243.974000   TRAN0404 1.000000
    SH040414 BAL0404  -1.000000   BAL0414  1.000000
    SH040514 COST     431.552000   TRAN0405 1.000000
    SH040514 BAL0405  -1.000000   BAL0414  1.000000
    SH040614 COST     230.488000   TRAN0406 1.000000
    SH040614 BAL0452  -1.000000   BAL0414  1.000000
    SH040814 COST     154.476000   TRAN0408 1.000000
    SH040814 BAL0483  -1.000000   BAL0414  1.000000
    SH040115 COST     371.478000   TRAN0401 1.000000
    SH040115 BAL0401  -1.000000   BAL0415  1.000000
    SH040215 COST     194.934000   TRAN0402 1.000000
    SH040215 BAL0402  -1.000000   BAL0415  1.000000
    SH040315 COST     286.884000   TRAN0403 1.000000
    SH040315 BAL0403  -1.000000   BAL0415  1.000000
    SH040415 COST     583.576000   TRAN0404 1.000000
    SH040415 BAL0404  -1.000000   BAL0415  1.000000
    SH040515 COST     487.948000   TRAN0405 1.000000
    SH040515 BAL0405  -1.000000   BAL0415  1.000000
    SH040615 COST     230.488000   TRAN0406 1.000000
    SH040615 BAL0452  -1.000000   BAL0415  1.000000
    SH040815 COST     457.298000   TRAN0408 1.000000
    SH040815 BAL0483  -1.000000   BAL0415  1.000000
    SH040116 COST     193.708000   TRAN0401 1.000000
    SH040116 BAL0401  -1.000000   BAL0416  1.000000
    SH040216 COST     343.280000   TRAN0402 1.000000
    SH040216 BAL0402  -1.000000   BAL0416  1.000000
    SH040316 COST     278.302000   TRAN0403 1.000000
    SH040316 BAL0403  -1.000000   BAL0416  1.000000
    SH040416 COST     351.862000   TRAN0404 1.000000
    SH040416 BAL0404  -1.000000   BAL0416  1.000000
    SH040516 COST     391.094000   TRAN0405 1.000000
    SH040516 BAL0405  -1.000000   BAL0416  1.000000
    SH040616 COST     160.606000   TRAN0406 1.000000
    SH040616 BAL0452  -1.000000   BAL0416  1.000000
    SH040816 COST     251.330000   TRAN0408 1.000000
    SH040816 BAL0483  -1.000000   BAL0416  1.000000
    SH040117 COST     185.126000   TRAN0401 1.000000
    SH040117 BAL0401  -1.000000   BAL0417  1.000000
    SH040217 COST     619.130000   TRAN0402 1.000000
    SH040217 BAL0402  -1.000000   BAL0417  1.000000
    SH040317 COST     335.924000   TRAN0403 1.000000
    SH040317 BAL0403  -1.000000   BAL0417  1.000000
    SH040417 COST     69.882000   TRAN0404 1.000000
    SH040417 BAL0404  -1.000000   BAL0417  1.000000
    SH040517 COST     365.348000   TRAN0405 1.000000
    SH040517 BAL0405  -1.000000   BAL0417  1.000000
    SH040717 COST     361.670000   TRAN0407 1.000000
    SH040717 BAL0464  -1.000000   BAL0417  1.000000
    SH040817 COST     33.102000   TRAN0408 1.000000
    SH040817 BAL0483  -1.000000   BAL0417  1.000000
    SH040118 COST     214.550000   TRAN0401 1.000000
    SH040118 BAL0401  -1.000000   BAL0418  1.000000
    SH040218 COST     442.586000   TRAN0402 1.000000
    SH040218 BAL0402  -1.000000   BAL0418  1.000000
    SH040318 COST     331.020000   TRAN0403 1.000000
    SH040318 BAL0403  -1.000000   BAL0418  1.000000
    SH040418 COST     188.804000   TRAN0404 1.000000
    SH040418 BAL0404  -1.000000   BAL0418  1.000000
    SH040518 COST     498.982000   TRAN0405 1.000000
    SH040518 BAL0405  -1.000000   BAL0418  1.000000
    SH040618 COST     431.552000   TRAN0406 1.000000
    SH040618 BAL0452  -1.000000   BAL0418  1.000000
    SH040818 COST     126.278000   TRAN0408 1.000000
    SH040818 BAL0483  -1.000000   BAL0418  1.000000
    SH040119 COST     304.048000   TRAN0401 1.000000
    SH040119 BAL0401  -1.000000   BAL0419  1.000000
    SH040219 COST     842.262000   TRAN0402 1.000000
    SH040219 BAL0402  -1.000000   BAL0419  1.000000
    SH040319 COST     388.642000   TRAN0403 1.000000
    SH040319 BAL0403  -1.000000   BAL0419  1.000000
    SH040419 COST     194.934000   TRAN0404 1.000000
    SH040419 BAL0404  -1.000000   BAL0419  1.000000
    SH040519 COST     255.008000   TRAN0405 1.000000
    SH040519 BAL0405  -1.000000   BAL0419  1.000000
    SH040619 COST     422.970000   TRAN0406 1.000000
    SH040619 BAL0452  -1.000000   BAL0419  1.000000
    SH040819 COST     121.374000   TRAN0408 1.000000
    SH040819 BAL0483  -1.000000   BAL0419  1.000000
    SH040120 COST     251.330000   TRAN0401 1.000000
    SH040120 BAL0401  -1.000000   BAL0420  1.000000
    SH040220 COST     837.358000   TRAN0402 1.000000
    SH040220 BAL0402  -1.000000   BAL0420  1.000000
    SH040320 COST     364.122000   TRAN0403 1.000000
    SH040320 BAL0403  -1.000000   BAL0420  1.000000
    SH040420 COST     138.538000   TRAN0404 1.000000
    SH040420 BAL0404  -1.000000   BAL0420  1.000000
    SH040520 COST     356.766000   TRAN0405 1.000000
    SH040520 BAL0405  -1.000000   BAL0420  1.000000
    SH040820 COST     154.476000   TRAN0408 1.000000
    SH040820 BAL0483  -1.000000   BAL0420  1.000000
    SH040121 COST     494.078000   TRAN0401 1.000000
    SH040121 BAL0401  -1.000000   BAL0421  1.000000
    SH040221 COST     451.168000   TRAN0402 1.000000
    SH040221 BAL0402  -1.000000   BAL0421  1.000000
    SH040321 COST     546.796000   TRAN0403 1.000000
    SH040321 BAL0403  -1.000000   BAL0421  1.000000
    SH040421 COST     392.320000   TRAN0404 1.000000
    SH040421 BAL0404  -1.000000   BAL0421  1.000000
    SH040521 COST     674.300000   TRAN0405 1.000000
    SH040521 BAL0405  -1.000000   BAL0421  1.000000
    SH040821 COST     392.320000   TRAN0408 1.000000
    SH040821 BAL0483  -1.000000   BAL0421  1.000000
    SH040122 COST     304.048000   TRAN0401 1.000000
    SH040122 BAL0401  -1.000000   BAL0422  1.000000
    SH040222 COST     708.628000   TRAN0402 1.000000
    SH040222 BAL0402  -1.000000   BAL0422  1.000000
    SH040322 COST     366.574000   TRAN0403 1.000000
    SH040322 BAL0403  -1.000000   BAL0422  1.000000
    SH040422 COST     274.624000   TRAN0404 1.000000
    SH040422 BAL0404  -1.000000   BAL0422  1.000000
    SH040522 COST     219.454000   TRAN0405 1.000000
    SH040522 BAL0405  -1.000000   BAL0422  1.000000
    SH040622 COST     380.060000   TRAN0406 1.000000
    SH040622 BAL0452  -1.000000   BAL0422  1.000000
    SH040822 COST     170.414000   TRAN0408 1.000000
    SH040822 BAL0483  -1.000000   BAL0422  1.000000
    SH040123 COST     286.884000   TRAN0401 1.000000
    SH040123 BAL0401  -1.000000   BAL0423  1.000000
    SH040223 COST     663.266000   TRAN0402 1.000000
    SH040223 BAL0402  -1.000000   BAL0423  1.000000
    SH040323 COST     351.862000   TRAN0403 1.000000
    SH040323 BAL0403  -1.000000   BAL0423  1.000000
    SH040423 COST     204.742000   TRAN0404 1.000000
    SH040423 BAL0404  -1.000000   BAL0423  1.000000
    SH040523 COST     203.516000   TRAN0405 1.000000
    SH040523 BAL0405  -1.000000   BAL0423  1.000000
    SH040823 COST     170.414000   TRAN0408 1.000000
    SH040823 BAL0483  -1.000000   BAL0423  1.000000
    SH040125 COST     474.462000   TRAN0401 1.000000
    SH040125 BAL0401  -1.000000   BAL0425  1.000000
    SH040225 COST     523.502000   TRAN0402 1.000000
    SH040225 BAL0402  -1.000000   BAL0425  1.000000
    SH040325 COST     626.486000   TRAN0403 1.000000
    SH040325 BAL0403  -1.000000   BAL0425  1.000000
    SH040425 COST     426.648000   TRAN0404 1.000000
    SH040425 BAL0404  -1.000000   BAL0425  1.000000
    SH040525 COST     693.916000   TRAN0405 1.000000
    SH040525 BAL0405  -1.000000   BAL0425  1.000000
    SH040625 COST     494.078000   TRAN0406 1.000000
    SH040625 BAL0452  -1.000000   BAL0425  1.000000
    SH040825 COST     373.930000   TRAN0408 1.000000
    SH040825 BAL0483  -1.000000   BAL0425  1.000000
    SH040126 COST     399.676000   TRAN0401 1.000000
    SH040126 BAL0401  -1.000000   BAL0426  1.000000
    SH040226 COST     588.480000   TRAN0402 1.000000
    SH040226 BAL0402  -1.000000   BAL0426  1.000000
    SH040326 COST     393.546000   TRAN0403 1.000000
    SH040326 BAL0403  -1.000000   BAL0426  1.000000
    SH040426 COST     331.020000   TRAN0404 1.000000
    SH040426 BAL0404  -1.000000   BAL0426  1.000000
    SH040526 COST     507.564000   TRAN0405 1.000000
    SH040526 BAL0405  -1.000000   BAL0426  1.000000
    SH040826 COST     217.002000   TRAN0408 1.000000
    SH040826 BAL0483  -1.000000   BAL0426  1.000000
    SH040127 COST     286.884000   TRAN0401 1.000000
    SH040127 BAL0401  -1.000000   BAL0427  1.000000
    SH040227 COST     348.184000   TRAN0402 1.000000
    SH040227 BAL0402  -1.000000   BAL0427  1.000000
    SH040327 COST     354.314000   TRAN0403 1.000000
    SH040327 BAL0403  -1.000000   BAL0427  1.000000
    SH040427 COST     410.710000   TRAN0404 1.000000
    SH040427 BAL0404  -1.000000   BAL0427  1.000000
    SH040527 COST     463.428000   TRAN0405 1.000000
    SH040527 BAL0405  -1.000000   BAL0427  1.000000
    SH040627 COST     328.568000   TRAN0406 1.000000
    SH040627 BAL0452  -1.000000   BAL0427  1.000000
    SH040827 COST     308.952000   TRAN0408 1.000000
    SH040827 BAL0483  -1.000000   BAL0427  1.000000
    SH040128 COST     297.918000   TRAN0401 1.000000
    SH040128 BAL0401  -1.000000   BAL0428  1.000000
    SH040228 COST     697.594000   TRAN0402 1.000000
    SH040228 BAL0402  -1.000000   BAL0428  1.000000
    SH040328 COST     362.896000   TRAN0403 1.000000
    SH040328 BAL0403  -1.000000   BAL0428  1.000000
    SH040428 COST     361.670000   TRAN0404 1.000000
    SH040428 BAL0404  -1.000000   BAL0428  1.000000
    SH040528 COST     125.052000   TRAN0405 1.000000
    SH040528 BAL0405  -1.000000   BAL0428  1.000000
    SH040628 COST     319.986000   TRAN0406 1.000000
    SH040628 BAL0452  -1.000000   BAL0428  1.000000
    SH040728 COST     131.182000   TRAN0407 1.000000
    SH040728 BAL0464  -1.000000   BAL0428  1.000000
    SH040828 COST     311.404000   TRAN0408 1.000000
    SH040828 BAL0483  -1.000000   BAL0428  1.000000
    SH040129 COST     273.398000   TRAN0401 1.000000
    SH040129 BAL0401  -1.000000   BAL0429  1.000000
    SH040229 COST     568.864000   TRAN0402 1.000000
    SH040229 BAL0402  -1.000000   BAL0429  1.000000
    SH040329 COST     295.466000   TRAN0403 1.000000
    SH040329 BAL0403  -1.000000   BAL0429  1.000000
    SH040429 COST     243.974000   TRAN0404 1.000000
    SH040429 BAL0404  -1.000000   BAL0429  1.000000
    SH040529 COST     527.180000   TRAN0405 1.000000
    SH040529 BAL0405  -1.000000   BAL0429  1.000000
    SH040629 COST     319.986000   TRAN0406 1.000000
    SH040629 BAL0452  -1.000000   BAL0429  1.000000
    SH040829 COST     176.544000   TRAN0408 1.000000
    SH040829 BAL0483  -1.000000   BAL0429  1.000000
    SH040130 COST     571.316000   TRAN0401 1.000000
    SH040130 BAL0401  -1.000000   BAL0430  1.000000
    SH040230 COST     534.536000   TRAN0402 1.000000
    SH040230 BAL0402  -1.000000   BAL0430  1.000000
    SH040330 COST     641.198000   TRAN0403 1.000000
    SH040330 BAL0403  -1.000000   BAL0430  1.000000
    SH040430 COST     372.704000   TRAN0404 1.000000
    SH040430 BAL0404  -1.000000   BAL0430  1.000000
    SH040530 COST     546.796000   TRAN0405 1.000000
    SH040530 BAL0405  -1.000000   BAL0430  1.000000
    SH040830 COST     468.332000   TRAN0408 1.000000
    SH040830 BAL0483  -1.000000   BAL0430  1.000000
    SH040131 COST     136.086000   TRAN0401 1.000000
    SH040131 BAL0401  -1.000000   BAL0431  1.000000
    SH040231 COST     430.326000   TRAN0402 1.000000
    SH040231 BAL0402  -1.000000   BAL0431  1.000000
    SH040331 COST     134.860000   TRAN0403 1.000000
    SH040331 BAL0403  -1.000000   BAL0431  1.000000
    SH040431 COST     310.178000   TRAN0404 1.000000
    SH040431 BAL0404  -1.000000   BAL0431  1.000000
    SH040531 COST     376.382000   TRAN0405 1.000000
    SH040531 BAL0405  -1.000000   BAL0431  1.000000
    SH040631 COST     137.312000   TRAN0406 1.000000
    SH040631 BAL0452  -1.000000   BAL0431  1.000000
    SH040831 COST     273.398000   TRAN0408 1.000000
    SH040831 BAL0483  -1.000000   BAL0431  1.000000
    SH040132 COST     366.574000   TRAN0401 1.000000
    SH040132 BAL0401  -1.000000   BAL0432  1.000000
    SH040232 COST     586.028000   TRAN0402 1.000000
    SH040232 BAL0402  -1.000000   BAL0432  1.000000
    SH040332 COST     518.598000   TRAN0403 1.000000
    SH040332 BAL0403  -1.000000   BAL0432  1.000000
    SH040432 COST     192.482000   TRAN0404 1.000000
    SH040432 BAL0404  -1.000000   BAL0432  1.000000
    SH040532 COST     480.592000   TRAN0405 1.000000
    SH040532 BAL0405  -1.000000   BAL0432  1.000000
    SH040832 COST     220.680000   TRAN0408 1.000000
    SH040832 BAL0483  -1.000000   BAL0432  1.000000
    SH040133 COST     604.418000   TRAN0401 1.000000
    SH040133 BAL0401  -1.000000   BAL0433  1.000000
    SH040233 COST     490.400000   TRAN0402 1.000000
    SH040233 BAL0402  -1.000000   BAL0433  1.000000
    SH040333 COST     665.718000   TRAN0403 1.000000
    SH040333 BAL0403  -1.000000   BAL0433  1.000000
    SH040433 COST     545.570000   TRAN0404 1.000000
    SH040433 BAL0404  -1.000000   BAL0433  1.000000
    SH040533 COST     773.606000   TRAN0405 1.000000
    SH040533 BAL0405  -1.000000   BAL0433  1.000000
    SH040833 COST     467.106000   TRAN0408 1.000000
    SH040833 BAL0483  -1.000000   BAL0433  1.000000
    SH040134 COST     473.236000   TRAN0401 1.000000
    SH040134 BAL0401  -1.000000   BAL0434  1.000000
    SH040234 COST     803.030000   TRAN0402 1.000000
    SH040234 BAL0402  -1.000000   BAL0434  1.000000
    SH040334 COST     616.678000   TRAN0403 1.000000
    SH040334 BAL0403  -1.000000   BAL0434  1.000000
    SH040434 COST     258.686000   TRAN0404 1.000000
    SH040434 BAL0404  -1.000000   BAL0434  1.000000
    SH040534 COST     540.666000   TRAN0405 1.000000
    SH040534 BAL0405  -1.000000   BAL0434  1.000000
    SH040834 COST     322.438000   TRAN0408 1.000000
    SH040834 BAL0483  -1.000000   BAL0434  1.000000
    SH040135 COST     565.186000   TRAN0401 1.000000
    SH040135 BAL0401  -1.000000   BAL0435  1.000000
    SH040235 COST     545.570000   TRAN0402 1.000000
    SH040235 BAL0402  -1.000000   BAL0435  1.000000
    SH040335 COST     462.202000   TRAN0403 1.000000
    SH040335 BAL0403  -1.000000   BAL0435  1.000000
    SH040435 COST     149.572000   TRAN0404 1.000000
    SH040435 BAL0404  -1.000000   BAL0435  1.000000
    SH040535 COST     528.406000   TRAN0405 1.000000
    SH040535 BAL0405  -1.000000   BAL0435  1.000000
    SH040835 COST     288.110000   TRAN0408 1.000000
    SH040835 BAL0483  -1.000000   BAL0435  1.000000
    SH040136 COST     251.330000   TRAN0401 1.000000
    SH040136 BAL0401  -1.000000   BAL0436  1.000000
    SH040236 COST     549.248000   TRAN0402 1.000000
    SH040236 BAL0402  -1.000000   BAL0436  1.000000
    SH040336 COST     129.956000   TRAN0403 1.000000
    SH040336 BAL0403  -1.000000   BAL0436  1.000000
    SH040436 COST     453.620000   TRAN0404 1.000000
    SH040436 BAL0404  -1.000000   BAL0436  1.000000
    SH040536 COST     424.196000   TRAN0405 1.000000
    SH040536 BAL0405  -1.000000   BAL0436  1.000000
    SH040636 COST     134.860000   TRAN0406 1.000000
    SH040636 BAL0452  -1.000000   BAL0436  1.000000
    SH040836 COST     393.546000   TRAN0408 1.000000
    SH040836 BAL0483  -1.000000   BAL0436  1.000000
    SH040137 COST     112.792000   TRAN0401 1.000000
    SH040137 BAL0401  -1.000000   BAL0437  1.000000
    SH040237 COST     419.292000   TRAN0402 1.000000
    SH040237 BAL0402  -1.000000   BAL0437  1.000000
    SH040337 COST     193.708000   TRAN0403 1.000000
    SH040337 BAL0403  -1.000000   BAL0437  1.000000
    SH040437 COST     372.704000   TRAN0404 1.000000
    SH040437 BAL0404  -1.000000   BAL0437  1.000000
    SH040537 COST     223.132000   TRAN0405 1.000000
    SH040537 BAL0405  -1.000000   BAL0437  1.000000
    SH040637 COST     237.844000   TRAN0406 1.000000
    SH040637 BAL0452  -1.000000   BAL0437  1.000000
    SH040837 COST     308.952000   TRAN0408 1.000000
    SH040837 BAL0483  -1.000000   BAL0437  1.000000
    SH040138 COST     166.736000   TRAN0401 1.000000
    SH040138 BAL0401  -1.000000   BAL0438  1.000000
    SH040238 COST     299.144000   TRAN0402 1.000000
    SH040238 BAL0402  -1.000000   BAL0438  1.000000
    SH040338 COST     116.470000   TRAN0403 1.000000
    SH040338 BAL0403  -1.000000   BAL0438  1.000000
    SH040438 COST     377.608000   TRAN0404 1.000000
    SH040438 BAL0404  -1.000000   BAL0438  1.000000
    SH040538 COST     340.828000   TRAN0405 1.000000
    SH040538 BAL0405  -1.000000   BAL0438  1.000000
    SH040638 COST     47.814000   TRAN0406 1.000000
    SH040638 BAL0452  -1.000000   BAL0438  1.000000
    SH040738 COST     264.816000   TRAN0407 1.000000
    SH040738 BAL0464  -1.000000   BAL0438  1.000000
    SH040838 COST     290.562000   TRAN0408 1.000000
    SH040838 BAL0483  -1.000000   BAL0438  1.000000
    SH040139 COST     159.380000   TRAN0401 1.000000
    SH040139 BAL0401  -1.000000   BAL0439  1.000000
    SH040239 COST     415.614000   TRAN0402 1.000000
    SH040239 BAL0402  -1.000000   BAL0439  1.000000
    SH040339 COST     196.160000   TRAN0403 1.000000
    SH040339 BAL0403  -1.000000   BAL0439  1.000000
    SH040439 COST     305.274000   TRAN0404 1.000000
    SH040439 BAL0404  -1.000000   BAL0439  1.000000
    SH040539 COST     525.954000   TRAN0405 1.000000
    SH040539 BAL0405  -1.000000   BAL0439  1.000000
    SH040639 COST     250.104000   TRAN0406 1.000000
    SH040639 BAL0452  -1.000000   BAL0439  1.000000
    SH040839 COST     205.968000   TRAN0408 1.000000
    SH040839 BAL0483  -1.000000   BAL0439  1.000000
    SH040140 COST     202.290000   TRAN0401 1.000000
    SH040140 BAL0401  -1.000000   BAL0440  1.000000
    SH040240 COST     463.428000   TRAN0402 1.000000
    SH040240 BAL0402  -1.000000   BAL0440  1.000000
    SH040340 COST     126.278000   TRAN0403 1.000000
    SH040340 BAL0403  -1.000000   BAL0440  1.000000
    SH040440 COST     364.122000   TRAN0404 1.000000
    SH040440 BAL0404  -1.000000   BAL0440  1.000000
    SH040540 COST     270.946000   TRAN0405 1.000000
    SH040540 BAL0405  -1.000000   BAL0440  1.000000
    SH040640 COST     160.606000   TRAN0406 1.000000
    SH040640 BAL0452  -1.000000   BAL0440  1.000000
    SH040840 COST     335.924000   TRAN0408 1.000000
    SH040840 BAL0483  -1.000000   BAL0440  1.000000
    SH040141 COST     240.296000   TRAN0401 1.000000
    SH040141 BAL0401  -1.000000   BAL0441  1.000000
    SH040241 COST     367.800000   TRAN0402 1.000000
    SH040241 BAL0402  -1.000000   BAL0441  1.000000
    SH040341 COST     183.900000   TRAN0403 1.000000
    SH040341 BAL0403  -1.000000   BAL0441  1.000000
    SH040441 COST     397.224000   TRAN0404 1.000000
    SH040441 BAL0404  -1.000000   BAL0441  1.000000
    SH040541 COST     451.168000   TRAN0405 1.000000
    SH040541 BAL0405  -1.000000   BAL0441  1.000000
    SH040641 COST     122.600000   TRAN0406 1.000000
    SH040641 BAL0452  -1.000000   BAL0441  1.000000
    SH040841 COST     366.574000   TRAN0408 1.000000
    SH040841 BAL0483  -1.000000   BAL0441  1.000000
    SH040142 COST     110.340000   TRAN0401 1.000000
    SH040142 BAL0401  -1.000000   BAL0442  1.000000
    SH040242 COST     507.564000   TRAN0402 1.000000
    SH040242 BAL0402  -1.000000   BAL0442  1.000000
    SH040342 COST     196.160000   TRAN0403 1.000000
    SH040342 BAL0403  -1.000000   BAL0442  1.000000
    SH040442 COST     239.070000   TRAN0404 1.000000
    SH040442 BAL0404  -1.000000   BAL0442  1.000000
    SH040542 COST     442.586000   TRAN0405 1.000000
    SH040542 BAL0405  -1.000000   BAL0442  1.000000
    SH040642 COST     197.386000   TRAN0406 1.000000
    SH040642 BAL0452  -1.000000   BAL0442  1.000000
    SH040842 COST     186.352000   TRAN0408 1.000000
    SH040842 BAL0483  -1.000000   BAL0442  1.000000
    SH040143 COST     194.934000   TRAN0401 1.000000
    SH040143 BAL0401  -1.000000   BAL0443  1.000000
    SH040243 COST     484.270000   TRAN0402 1.000000
    SH040243 BAL0402  -1.000000   BAL0443  1.000000
    SH040343 COST     30.650000   TRAN0403 1.000000
    SH040343 BAL0403  -1.000000   BAL0443  1.000000
    SH040443 COST     362.896000   TRAN0404 1.000000
    SH040443 BAL0404  -1.000000   BAL0443  1.000000
    SH040543 COST     316.308000   TRAN0405 1.000000
    SH040543 BAL0405  -1.000000   BAL0443  1.000000
    SH040643 COST     122.600000   TRAN0406 1.000000
    SH040643 BAL0452  -1.000000   BAL0443  1.000000
    SH040743 COST     295.466000   TRAN0407 1.000000
    SH040743 BAL0464  -1.000000   BAL0443  1.000000
    SH040843 COST     332.246000   TRAN0408 1.000000
    SH040843 BAL0483  -1.000000   BAL0443  1.000000
    SH040144 COST     194.934000   TRAN0401 1.000000
    SH040144 BAL0401  -1.000000   BAL0444  1.000000
    SH040244 COST     464.654000   TRAN0402 1.000000
    SH040244 BAL0402  -1.000000   BAL0444  1.000000
    SH040344 COST     156.928000   TRAN0403 1.000000
    SH040344 BAL0403  -1.000000   BAL0444  1.000000
    SH040444 COST     382.512000   TRAN0404 1.000000
    SH040444 BAL0404  -1.000000   BAL0444  1.000000
    SH040544 COST     380.060000   TRAN0405 1.000000
    SH040544 BAL0405  -1.000000   BAL0444  1.000000
    SH040644 COST     109.114000   TRAN0406 1.000000
    SH040644 BAL0452  -1.000000   BAL0444  1.000000
    SH040844 COST     365.348000   TRAN0408 1.000000
    SH040844 BAL0483  -1.000000   BAL0444  1.000000
    SH040145 COST     210.872000   TRAN0401 1.000000
    SH040145 BAL0401  -1.000000   BAL0445  1.000000
    SH040245 COST     534.536000   TRAN0402 1.000000
    SH040245 BAL0402  -1.000000   BAL0445  1.000000
    SH040345 COST     197.386000   TRAN0403 1.000000
    SH040345 BAL0403  -1.000000   BAL0445  1.000000
    SH040445 COST     357.992000   TRAN0404 1.000000
    SH040445 BAL0404  -1.000000   BAL0445  1.000000
    SH040545 COST     286.884000   TRAN0405 1.000000
    SH040545 BAL0405  -1.000000   BAL0445  1.000000
    SH040645 COST     234.166000   TRAN0406 1.000000
    SH040645 BAL0452  -1.000000   BAL0445  1.000000
    SH040745 COST     241.522000   TRAN0407 1.000000
    SH040745 BAL0464  -1.000000   BAL0445  1.000000
    SH040845 COST     373.930000   TRAN0408 1.000000
    SH040845 BAL0483  -1.000000   BAL0445  1.000000
    SH040146 COST     300.370000   TRAN0401 1.000000
    SH040146 BAL0401  -1.000000   BAL0446  1.000000
    SH040246 COST     334.698000   TRAN0402 1.000000
    SH040246 BAL0402  -1.000000   BAL0446  1.000000
    SH040346 COST     270.946000   TRAN0403 1.000000
    SH040346 BAL0403  -1.000000   BAL0446  1.000000
    SH040446 COST     548.022000   TRAN0404 1.000000
    SH040446 BAL0404  -1.000000   BAL0446  1.000000
    SH040546 COST     527.180000   TRAN0405 1.000000
    SH040546 BAL0405  -1.000000   BAL0446  1.000000
    SH040646 COST     315.082000   TRAN0406 1.000000
    SH040646 BAL0452  -1.000000   BAL0446  1.000000
    SH040846 COST     549.248000   TRAN0408 1.000000
    SH040846 BAL0483  -1.000000   BAL0446  1.000000
    SH040147 COST     134.860000   TRAN0401 1.000000
    SH040147 BAL0401  -1.000000   BAL0447  1.000000
    SH040247 COST     457.298000   TRAN0402 1.000000
    SH040247 BAL0402  -1.000000   BAL0447  1.000000
    SH040347 COST     194.934000   TRAN0403 1.000000
    SH040347 BAL0403  -1.000000   BAL0447  1.000000
    SH040447 COST     335.924000   TRAN0404 1.000000
    SH040447 BAL0404  -1.000000   BAL0447  1.000000
    SH040547 COST     285.658000   TRAN0405 1.000000
    SH040547 BAL0405  -1.000000   BAL0447  1.000000
    SH040647 COST     177.770000   TRAN0406 1.000000
    SH040647 BAL0452  -1.000000   BAL0447  1.000000
    SH040847 COST     299.144000   TRAN0408 1.000000
    SH040847 BAL0483  -1.000000   BAL0447  1.000000
    SH040148 COST     116.470000   TRAN0401 1.000000
    SH040148 BAL0401  -1.000000   BAL0448  1.000000
    SH040248 COST     415.614000   TRAN0402 1.000000
    SH040248 BAL0402  -1.000000   BAL0448  1.000000
    SH040348 COST     167.962000   TRAN0403 1.000000
    SH040348 BAL0403  -1.000000   BAL0448  1.000000
    SH040448 COST     281.980000   TRAN0404 1.000000
    SH040448 BAL0404  -1.000000   BAL0448  1.000000
    SH040548 COST     302.822000   TRAN0405 1.000000
    SH040548 BAL0405  -1.000000   BAL0448  1.000000
    SH040648 COST     140.990000   TRAN0406 1.000000
    SH040648 BAL0452  -1.000000   BAL0448  1.000000
    SH040848 COST     239.070000   TRAN0408 1.000000
    SH040848 BAL0483  -1.000000   BAL0448  1.000000
    SH040149 COST     403.354000   TRAN0401 1.000000
    SH040149 BAL0401  -1.000000   BAL0449  1.000000
    SH040549 COST     186.352000   TRAN0405 1.000000
    SH040549 BAL0405  -1.000000   BAL0449  1.000000
    SH040150 COST     295.466000   TRAN0401 1.000000
    SH040150 BAL0401  -1.000000   BAL0450  1.000000
    SH040250 COST     750.312000   TRAN0402 1.000000
    SH040250 BAL0402  -1.000000   BAL0450  1.000000
    SH040350 COST     301.596000   TRAN0403 1.000000
    SH040350 BAL0403  -1.000000   BAL0450  1.000000
    SH040450 COST     447.490000   TRAN0404 1.000000
    SH040450 BAL0404  -1.000000   BAL0450  1.000000
    SH040550 COST     288.110000   TRAN0405 1.000000
    SH040550 BAL0405  -1.000000   BAL0450  1.000000
    SH040750 COST     167.962000   TRAN0407 1.000000
    SH040750 BAL0464  -1.000000   BAL0450  1.000000
    SH040850 COST     497.756000   TRAN0408 1.000000
    SH040850 BAL0483  -1.000000   BAL0450  1.000000
    SH040151 COST     407.032000   TRAN0401 1.000000
    SH040151 BAL0401  -1.000000   BAL0451  1.000000
    SH040551 COST     150.798000   TRAN0405 1.000000
    SH040551 BAL0405  -1.000000   BAL0451  1.000000
    SH040152 COST     137.312000   TRAN0401 1.000000
    SH040152 BAL0401  -1.000000   BAL0452  1.000000
    SH040252 COST     367.800000   TRAN0402 1.000000
    SH040252 BAL0402  -1.000000   BAL0452  1.000000
    SH040352 COST     100.532000   TRAN0403 1.000000
    SH040352 BAL0403  -1.000000   BAL0452  1.000000
    SH040452 COST     394.772000   TRAN0404 1.000000
    SH040452 BAL0404  -1.000000   BAL0452  1.000000
    SH040552 COST     361.670000   TRAN0405 1.000000
    SH040552 BAL0405  -1.000000   BAL0452  1.000000
    SH040852 COST     310.178000   TRAN0408 1.000000
    SH040852 BAL0483  -1.000000   BAL0452  1.000000
    SH040153 COST     440.134000   TRAN0401 1.000000
    SH040153 BAL0401  -1.000000   BAL0453  1.000000
    SH040253 COST     779.736000   TRAN0402 1.000000
    SH040253 BAL0402  -1.000000   BAL0453  1.000000
    SH040353 COST     398.450000   TRAN0403 1.000000
    SH040353 BAL0403  -1.000000   BAL0453  1.000000
    SH040453 COST     505.112000   TRAN0404 1.000000
    SH040453 BAL0404  -1.000000   BAL0453  1.000000
    SH040553 COST     225.584000   TRAN0405 1.000000
    SH040553 BAL0405  -1.000000   BAL0453  1.000000
    SH040653 COST     440.134000   TRAN0406 1.000000
    SH040653 BAL0452  -1.000000   BAL0453  1.000000
    SH040753 COST     178.996000   TRAN0407 1.000000
    SH040753 BAL0464  -1.000000   BAL0453  1.000000
    SH040853 COST     494.078000   TRAN0408 1.000000
    SH040853 BAL0483  -1.000000   BAL0453  1.000000
    SH040154 COST     226.810000   TRAN0401 1.000000
    SH040154 BAL0401  -1.000000   BAL0454  1.000000
    SH040254 COST     545.570000   TRAN0402 1.000000
    SH040254 BAL0402  -1.000000   BAL0454  1.000000
    SH040354 COST     266.042000   TRAN0403 1.000000
    SH040354 BAL0403  -1.000000   BAL0454  1.000000
    SH040454 COST     420.518000   TRAN0404 1.000000
    SH040454 BAL0404  -1.000000   BAL0454  1.000000
    SH040554 COST     261.138000   TRAN0405 1.000000
    SH040554 BAL0405  -1.000000   BAL0454  1.000000
    SH040654 COST     248.878000   TRAN0406 1.000000
    SH040654 BAL0452  -1.000000   BAL0454  1.000000
    SH040854 COST     492.852000   TRAN0408 1.000000
    SH040854 BAL0483  -1.000000   BAL0454  1.000000
    SH040155 COST     340.828000   TRAN0401 1.000000
    SH040155 BAL0401  -1.000000   BAL0455  1.000000
    SH040255 COST     587.254000   TRAN0402 1.000000
    SH040255 BAL0402  -1.000000   BAL0455  1.000000
    SH040355 COST     344.506000   TRAN0403 1.000000
    SH040355 BAL0403  -1.000000   BAL0455  1.000000
    SH040455 COST     360.444000   TRAN0404 1.000000
    SH040455 BAL0404  -1.000000   BAL0455  1.000000
    SH040555 COST     188.804000   TRAN0405 1.000000
    SH040555 BAL0405  -1.000000   BAL0455  1.000000
    SH040655 COST     355.540000   TRAN0406 1.000000
    SH040655 BAL0452  -1.000000   BAL0455  1.000000
    SH040755 COST     131.182000   TRAN0407 1.000000
    SH040755 BAL0464  -1.000000   BAL0455  1.000000
    SH040855 COST     360.444000   TRAN0408 1.000000
    SH040855 BAL0483  -1.000000   BAL0455  1.000000
    SH040156 COST     478.140000   TRAN0401 1.000000
    SH040156 BAL0401  -1.000000   BAL0456  1.000000
    SH040256 COST     709.854000   TRAN0402 1.000000
    SH040256 BAL0402  -1.000000   BAL0456  1.000000
    SH040356 COST     373.930000   TRAN0403 1.000000
    SH040356 BAL0403  -1.000000   BAL0456  1.000000
    SH040456 COST     447.490000   TRAN0404 1.000000
    SH040456 BAL0404  -1.000000   BAL0456  1.000000
    SH040556 COST     166.736000   TRAN0405 1.000000
    SH040556 BAL0405  -1.000000   BAL0456  1.000000
    SH040656 COST     415.614000   TRAN0406 1.000000
    SH040656 BAL0452  -1.000000   BAL0456  1.000000
    SH040756 COST     149.572000   TRAN0407 1.000000
    SH040756 BAL0464  -1.000000   BAL0456  1.000000
    SH040856 COST     437.682000   TRAN0408 1.000000
    SH040856 BAL0483  -1.000000   BAL0456  1.000000
    SH040157 COST     319.986000   TRAN0401 1.000000
    SH040157 BAL0401  -1.000000   BAL0457  1.000000
    SH040257 COST     637.520000   TRAN0402 1.000000
    SH040257 BAL0402  -1.000000   BAL0457  1.000000
    SH040357 COST     355.540000   TRAN0403 1.000000
    SH040357 BAL0403  -1.000000   BAL0457  1.000000
    SH040457 COST     286.884000   TRAN0404 1.000000
    SH040457 BAL0404  -1.000000   BAL0457  1.000000
    SH040557 COST     205.968000   TRAN0405 1.000000
    SH040557 BAL0405  -1.000000   BAL0457  1.000000
    SH040657 COST     391.094000   TRAN0406 1.000000
    SH040657 BAL0452  -1.000000   BAL0457  1.000000
    SH040757 COST     181.448000   TRAN0407 1.000000
    SH040757 BAL0464  -1.000000   BAL0457  1.000000
    SH040857 COST     283.206000   TRAN0408 1.000000
    SH040857 BAL0483  -1.000000   BAL0457  1.000000
    SH040158 COST     360.444000   TRAN0401 1.000000
    SH040158 BAL0401  -1.000000   BAL0458  1.000000
    SH040258 COST     638.746000   TRAN0402 1.000000
    SH040258 BAL0402  -1.000000   BAL0458  1.000000
    SH040358 COST     340.828000   TRAN0403 1.000000
    SH040358 BAL0403  -1.000000   BAL0458  1.000000
    SH040458 COST     420.518000   TRAN0404 1.000000
    SH040458 BAL0404  -1.000000   BAL0458  1.000000
    SH040558 COST     25.746000   TRAN0405 1.000000
    SH040558 BAL0405  -1.000000   BAL0458  1.000000
    SH040658 COST     399.676000   TRAN0406 1.000000
    SH040658 BAL0452  -1.000000   BAL0458  1.000000
    SH040758 COST     83.368000   TRAN0407 1.000000
    SH040758 BAL0464  -1.000000   BAL0458  1.000000
    SH040858 COST     311.404000   TRAN0408 1.000000
    SH040858 BAL0483  -1.000000   BAL0458  1.000000
    SH040159 COST     252.556000   TRAN0401 1.000000
    SH040159 BAL0401  -1.000000   BAL0459  1.000000
    SH040259 COST     610.548000   TRAN0402 1.000000
    SH040259 BAL0402  -1.000000   BAL0459  1.000000
    SH040359 COST     291.788000   TRAN0403 1.000000
    SH040359 BAL0403  -1.000000   BAL0459  1.000000
    SH040459 COST     299.144000   TRAN0404 1.000000
    SH040459 BAL0404  -1.000000   BAL0459  1.000000
    SH040559 COST     194.934000   TRAN0405 1.000000
    SH040559 BAL0405  -1.000000   BAL0459  1.000000
    SH040659 COST     364.122000   TRAN0406 1.000000
    SH040659 BAL0452  -1.000000   BAL0459  1.000000
    SH040759 COST     128.730000   TRAN0407 1.000000
    SH040759 BAL0464  -1.000000   BAL0459  1.000000
    SH040859 COST     312.630000   TRAN0408 1.000000
    SH040859 BAL0483  -1.000000   BAL0459  1.000000
    SH040160 COST     319.986000   TRAN0401 1.000000
    SH040160 BAL0401  -1.000000   BAL0460  1.000000
    SH040260 COST     674.300000   TRAN0402 1.000000
    SH040260 BAL0402  -1.000000   BAL0460  1.000000
    SH040360 COST     346.958000   TRAN0403 1.000000
    SH040360 BAL0403  -1.000000   BAL0460  1.000000
    SH040460 COST     382.512000   TRAN0404 1.000000
    SH040460 BAL0404  -1.000000   BAL0460  1.000000
    SH040560 COST     165.510000   TRAN0405 1.000000
    SH040560 BAL0405  -1.000000   BAL0460  1.000000
    SH040660 COST     395.998000   TRAN0406 1.000000
    SH040660 BAL0452  -1.000000   BAL0460  1.000000
    SH040760 COST     107.888000   TRAN0407 1.000000
    SH040760 BAL0464  -1.000000   BAL0460  1.000000
    SH040860 COST     366.574000   TRAN0408 1.000000
    SH040860 BAL0483  -1.000000   BAL0460  1.000000
    SH040163 COST     326.116000   TRAN0401 1.000000
    SH040163 BAL0401  -1.000000   BAL0463  1.000000
    SH040263 COST     605.644000   TRAN0402 1.000000
    SH040263 BAL0402  -1.000000   BAL0463  1.000000
    SH040363 COST     351.862000   TRAN0403 1.000000
    SH040363 BAL0403  -1.000000   BAL0463  1.000000
    SH040463 COST     452.394000   TRAN0404 1.000000
    SH040463 BAL0404  -1.000000   BAL0463  1.000000
    SH040563 COST     186.352000   TRAN0405 1.000000
    SH040563 BAL0405  -1.000000   BAL0463  1.000000
    SH040663 COST     386.190000   TRAN0406 1.000000
    SH040663 BAL0452  -1.000000   BAL0463  1.000000
    SH040763 COST     152.024000   TRAN0407 1.000000
    SH040763 BAL0464  -1.000000   BAL0463  1.000000
    SH040863 COST     490.400000   TRAN0408 1.000000
    SH040863 BAL0483  -1.000000   BAL0463  1.000000
    SH040164 COST     243.974000   TRAN0401 1.000000
    SH040164 BAL0401  -1.000000   BAL0464  1.000000
    SH040264 COST     644.876000   TRAN0402 1.000000
    SH040264 BAL0402  -1.000000   BAL0464  1.000000
    SH040364 COST     273.398000   TRAN0403 1.000000
    SH040364 BAL0403  -1.000000   BAL0464  1.000000
    SH040464 COST     411.936000   TRAN0404 1.000000
    SH040464 BAL0404  -1.000000   BAL0464  1.000000
    SH040564 COST     71.108000   TRAN0405 1.000000
    SH040564 BAL0405  -1.000000   BAL0464  1.000000
    SH040664 COST     388.642000   TRAN0406 1.000000
    SH040664 BAL0452  -1.000000   BAL0464  1.000000
    SH040864 COST     306.500000   TRAN0408 1.000000
    SH040864 BAL0483  -1.000000   BAL0464  1.000000
    SH040165 COST     529.632000   TRAN0401 1.000000
    SH040165 BAL0401  -1.000000   BAL0465  1.000000
    SH040265 COST     376.382000   TRAN0402 1.000000
    SH040265 BAL0402  -1.000000   BAL0465  1.000000
    SH040365 COST     619.130000   TRAN0403 1.000000
    SH040365 BAL0403  -1.000000   BAL0465  1.000000
    SH040465 COST     475.688000   TRAN0404 1.000000
    SH040465 BAL0404  -1.000000   BAL0465  1.000000
    SH040565 COST     740.504000   TRAN0405 1.000000
    SH040565 BAL0405  -1.000000   BAL0465  1.000000
    SH040865 COST     508.790000   TRAN0408 1.000000
    SH040865 BAL0483  -1.000000   BAL0465  1.000000
    SH040166 COST     686.560000   TRAN0401 1.000000
    SH040166 BAL0401  -1.000000   BAL0466  1.000000
    SH040266 COST     317.534000   TRAN0402 1.000000
    SH040266 BAL0402  -1.000000   BAL0466  1.000000
    SH040366 COST     708.628000   TRAN0403 1.000000
    SH040366 BAL0403  -1.000000   BAL0466  1.000000
    SH040466 COST     681.656000   TRAN0404 1.000000
    SH040466 BAL0404  -1.000000   BAL0466  1.000000
    SH040566 COST     870.460000   TRAN0405 1.000000
    SH040566 BAL0405  -1.000000   BAL0466  1.000000
    SH040866 COST     686.560000   TRAN0408 1.000000
    SH040866 BAL0483  -1.000000   BAL0466  1.000000
    SH040167 COST     521.050000   TRAN0401 1.000000
    SH040167 BAL0401  -1.000000   BAL0467  1.000000
    SH040267 COST     284.432000   TRAN0402 1.000000
    SH040267 BAL0402  -1.000000   BAL0467  1.000000
    SH040367 COST     604.418000   TRAN0403 1.000000
    SH040367 BAL0403  -1.000000   BAL0467  1.000000
    SH040467 COST     560.282000   TRAN0404 1.000000
    SH040467 BAL0404  -1.000000   BAL0467  1.000000
    SH040567 COST     740.504000   TRAN0405 1.000000
    SH040567 BAL0405  -1.000000   BAL0467  1.000000
    SH040867 COST     561.508000   TRAN0408 1.000000
    SH040867 BAL0483  -1.000000   BAL0467  1.000000
    SH040168 COST     728.244000   TRAN0401 1.000000
    SH040168 BAL0401  -1.000000   BAL0468  1.000000
    SH040268 COST     490.400000   TRAN0402 1.000000
    SH040268 BAL0402  -1.000000   BAL0468  1.000000
    SH040368 COST     686.560000   TRAN0403 1.000000
    SH040368 BAL0403  -1.000000   BAL0468  1.000000
    SH040468 COST     860.652000   TRAN0404 1.000000
    SH040468 BAL0404  -1.000000   BAL0468  1.000000
    SH040568 COST     1159.800000   TRAN0405 1.000000
    SH040568 BAL0405  -1.000000   BAL0468  1.000000
    SH040868 COST     920.726000   TRAN0408 1.000000
    SH040868 BAL0483  -1.000000   BAL0468  1.000000
    SH040169 COST     660.814000   TRAN0401 1.000000
    SH040169 BAL0401  -1.000000   BAL0469  1.000000
    SH040269 COST     270.946000   TRAN0402 1.000000
    SH040269 BAL0402  -1.000000   BAL0469  1.000000
    SH040369 COST     625.260000   TRAN0403 1.000000
    SH040369 BAL0403  -1.000000   BAL0469  1.000000
    SH040469 COST     762.572000   TRAN0404 1.000000
    SH040469 BAL0404  -1.000000   BAL0469  1.000000
    SH040569 COST     791.996000   TRAN0405 1.000000
    SH040569 BAL0405  -1.000000   BAL0469  1.000000
    SH040869 COST     806.708000   TRAN0408 1.000000
    SH040869 BAL0483  -1.000000   BAL0469  1.000000
    SH040171 COST     539.440000   TRAN0401 1.000000
    SH040171 BAL0401  -1.000000   BAL0471  1.000000
    SH040371 COST     642.424000   TRAN0403 1.000000
    SH040371 BAL0403  -1.000000   BAL0471  1.000000
    SH040471 COST     638.746000   TRAN0404 1.000000
    SH040471 BAL0404  -1.000000   BAL0471  1.000000
    SH040571 COST     712.306000   TRAN0405 1.000000
    SH040571 BAL0405  -1.000000   BAL0471  1.000000
    SH040671 COST     479.366000   TRAN0406 1.000000
    SH040671 BAL0452  -1.000000   BAL0471  1.000000
    SH040771 COST     863.104000   TRAN0407 1.000000
    SH040771 BAL0464  -1.000000   BAL0471  1.000000
    SH040871 COST     653.458000   TRAN0408 1.000000
    SH040871 BAL0483  -1.000000   BAL0471  1.000000
    SH040172 COST     719.662000   TRAN0401 1.000000
    SH040172 BAL0401  -1.000000   BAL0472  1.000000
    SH040272 COST     665.718000   TRAN0402 1.000000
    SH040272 BAL0402  -1.000000   BAL0472  1.000000
    SH040372 COST     756.442000   TRAN0403 1.000000
    SH040372 BAL0403  -1.000000   BAL0472  1.000000
    SH040472 COST     698.820000   TRAN0404 1.000000
    SH040472 BAL0404  -1.000000   BAL0472  1.000000
    SH040572 COST     935.438000   TRAN0405 1.000000
    SH040572 BAL0405  -1.000000   BAL0472  1.000000
    SH040872 COST     698.820000   TRAN0408 1.000000
    SH040872 BAL0483  -1.000000   BAL0472  1.000000
    SH040173 COST     478.140000   TRAN0401 1.000000
    SH040173 BAL0401  -1.000000   BAL0473  1.000000
    SH040273 COST     447.490000   TRAN0402 1.000000
    SH040273 BAL0402  -1.000000   BAL0473  1.000000
    SH040373 COST     414.388000   TRAN0403 1.000000
    SH040373 BAL0403  -1.000000   BAL0473  1.000000
    SH040473 COST     560.282000   TRAN0404 1.000000
    SH040473 BAL0404  -1.000000   BAL0473  1.000000
    SH040573 COST     691.464000   TRAN0405 1.000000
    SH040573 BAL0405  -1.000000   BAL0473  1.000000
    SH040673 COST     373.930000   TRAN0406 1.000000
    SH040673 BAL0452  -1.000000   BAL0473  1.000000
    SH040873 COST     617.904000   TRAN0408 1.000000
    SH040873 BAL0483  -1.000000   BAL0473  1.000000
    SH040174 COST     671.848000   TRAN0401 1.000000
    SH040174 BAL0401  -1.000000   BAL0474  1.000000
    SH040274 COST     257.460000   TRAN0402 1.000000
    SH040274 BAL0402  -1.000000   BAL0474  1.000000
    SH040374 COST     698.820000   TRAN0403 1.000000
    SH040374 BAL0403  -1.000000   BAL0474  1.000000
    SH040474 COST     780.962000   TRAN0404 1.000000
    SH040474 BAL0404  -1.000000   BAL0474  1.000000
    SH040574 COST     898.658000   TRAN0405 1.000000
    SH040574 BAL0405  -1.000000   BAL0474  1.000000
    SH040874 COST     758.894000   TRAN0408 1.000000
    SH040874 BAL0483  -1.000000   BAL0474  1.000000
    SH040175 COST     1088.690000   TRAN0401 1.000000
    SH040175 BAL0401  -1.000000   BAL0475  1.000000
    SH040275 COST     679.204000   TRAN0402 1.000000
    SH040275 BAL0402  -1.000000   BAL0475  1.000000
    SH040375 COST     1164.700000   TRAN0403 1.000000
    SH040375 BAL0403  -1.000000   BAL0475  1.000000
    SH040475 COST     1190.450000   TRAN0404 1.000000
    SH040475 BAL0404  -1.000000   BAL0475  1.000000
    SH040575 COST     1427.060000   TRAN0405 1.000000
    SH040575 BAL0405  -1.000000   BAL0475  1.000000
    SH040675 COST     1085.010000   TRAN0406 1.000000
    SH040675 BAL0452  -1.000000   BAL0475  1.000000
    SH040775 COST     1431.970000   TRAN0407 1.000000
    SH040775 BAL0464  -1.000000   BAL0475  1.000000
    SH040176 COST     566.412000   TRAN0401 1.000000
    SH040176 BAL0401  -1.000000   BAL0476  1.000000
    SH040276 COST     491.626000   TRAN0402 1.000000
    SH040276 BAL0402  -1.000000   BAL0476  1.000000
    SH040376 COST     494.078000   TRAN0403 1.000000
    SH040376 BAL0403  -1.000000   BAL0476  1.000000
    SH040476 COST     772.380000   TRAN0404 1.000000
    SH040476 BAL0404  -1.000000   BAL0476  1.000000
    SH040576 COST     772.380000   TRAN0405 1.000000
    SH040576 BAL0405  -1.000000   BAL0476  1.000000
    SH040676 COST     467.106000   TRAN0406 1.000000
    SH040676 BAL0452  -1.000000   BAL0476  1.000000
    SH040876 COST     952.602000   TRAN0408 1.000000
    SH040876 BAL0483  -1.000000   BAL0476  1.000000
    SH040177 COST     533.310000   TRAN0401 1.000000
    SH040177 BAL0401  -1.000000   BAL0477  1.000000
    SH040277 COST     333.472000   TRAN0402 1.000000
    SH040277 BAL0402  -1.000000   BAL0477  1.000000
    SH040377 COST     565.186000   TRAN0403 1.000000
    SH040377 BAL0403  -1.000000   BAL0477  1.000000
    SH040477 COST     491.626000   TRAN0404 1.000000
    SH040477 BAL0404  -1.000000   BAL0477  1.000000
    SH040577 COST     686.560000   TRAN0405 1.000000
    SH040577 BAL0405  -1.000000   BAL0477  1.000000
    SH040877 COST     392.320000   TRAN0408 1.000000
    SH040877 BAL0483  -1.000000   BAL0477  1.000000
    SH040178 COST     932.986000   TRAN0401 1.000000
    SH040178 BAL0401  -1.000000   BAL0478  1.000000
    SH040278 COST     541.892000   TRAN0402 1.000000
    SH040278 BAL0402  -1.000000   BAL0478  1.000000
    SH040378 COST     959.958000   TRAN0403 1.000000
    SH040378 BAL0403  -1.000000   BAL0478  1.000000
    SH040478 COST     839.810000   TRAN0404 1.000000
    SH040478 BAL0404  -1.000000   BAL0478  1.000000
    SH040578 COST     1077.650000   TRAN0405 1.000000
    SH040578 BAL0405  -1.000000   BAL0478  1.000000
    SH040878 COST     939.116000   TRAN0408 1.000000
    SH040878 BAL0483  -1.000000   BAL0478  1.000000
    SH040179 COST     876.590000   TRAN0401 1.000000
    SH040179 BAL0401  -1.000000   BAL0479  1.000000
    SH040279 COST     329.794000   TRAN0402 1.000000
    SH040279 BAL0402  -1.000000   BAL0479  1.000000
    SH040379 COST     847.166000   TRAN0403 1.000000
    SH040379 BAL0403  -1.000000   BAL0479  1.000000
    SH040479 COST     882.720000   TRAN0404 1.000000
    SH040479 BAL0404  -1.000000   BAL0479  1.000000
    SH040879 COST     865.556000   TRAN0408 1.000000
    SH040879 BAL0483  -1.000000   BAL0479  1.000000
    SH040480 COST     458.524000   TRAN0404 1.000000
    SH040480 BAL0404  -1.000000   BAL0480  1.000000
    SH040182 COST     713.532000   TRAN0401 1.000000
    SH040182 BAL0401  -1.000000   BAL0482  1.000000
    SH040282 COST     403.354000   TRAN0402 1.000000
    SH040282 BAL0402  -1.000000   BAL0482  1.000000
    SH040382 COST     803.030000   TRAN0403 1.000000
    SH040382 BAL0403  -1.000000   BAL0482  1.000000
    SH040482 COST     865.556000   TRAN0404 1.000000
    SH040482 BAL0404  -1.000000   BAL0482  1.000000
    SH040582 COST     1406.220000   TRAN0405 1.000000
    SH040582 BAL0405  -1.000000   BAL0482  1.000000
    SH040882 COST     959.958000   TRAN0408 1.000000
    SH040882 BAL0483  -1.000000   BAL0482  1.000000
    SH040183 COST     217.002000   TRAN0401 1.000000
    SH040183 BAL0401  -1.000000   BAL0483  1.000000
    SH040283 COST     637.520000   TRAN0402 1.000000
    SH040283 BAL0402  -1.000000   BAL0483  1.000000
    SH040383 COST     333.472000   TRAN0403 1.000000
    SH040383 BAL0403  -1.000000   BAL0483  1.000000
    SH040483 COST     72.334000   TRAN0404 1.000000
    SH040483 BAL0404  -1.000000   BAL0483  1.000000
    SH040583 COST     425.422000   TRAN0405 1.000000
    SH040583 BAL0405  -1.000000   BAL0483  1.000000
    SH040683 COST     304.048000   TRAN0406 1.000000
    SH040683 BAL0452  -1.000000   BAL0483  1.000000
    SH040184 COST     372.704000   TRAN0401 1.000000
    SH040184 BAL0401  -1.000000   BAL0484  1.000000
    SH040284 COST     235.392000   TRAN0402 1.000000
    SH040284 BAL0402  -1.000000   BAL0484  1.000000
    SH040384 COST     446.264000   TRAN0403 1.000000
    SH040384 BAL0403  -1.000000   BAL0484  1.000000
    SH040484 COST     453.620000   TRAN0404 1.000000
    SH040484 BAL0404  -1.000000   BAL0484  1.000000
    SH040584 COST     600.740000   TRAN0405 1.000000
    SH040584 BAL0405  -1.000000   BAL0484  1.000000
    SH040684 COST     373.930000   TRAN0406 1.000000
    SH040684 BAL0452  -1.000000   BAL0484  1.000000
    SH040884 COST     475.688000   TRAN0408 1.000000
    SH040884 BAL0483  -1.000000   BAL0484  1.000000
    TRSH0101 COST     116.000000   TRAN0101 -1.000000
    TRSH0102 COST     116.000000   TRAN0201 -1.000000
    TRSH0103 COST     58.000000   TRAN0301 -1.000000
    TRSH0104 COST     116.000000   TRAN0401 -1.000000
    TRSH0201 COST     116.000000   TRAN0102 -1.000000
    TRSH0202 COST     116.000000   TRAN0202 -1.000000
    TRSH0203 COST     58.000000   TRAN0302 -1.000000
    TRSH0204 COST     116.000000   TRAN0402 -1.000000
    TRSH0301 COST     116.000000   TRAN0103 -1.000000
    TRSH0302 COST     116.000000   TRAN0203 -1.000000
    TRSH0303 COST     58.000000   TRAN0303 -1.000000
    TRSH0304 COST     116.000000   TRAN0403 -1.000000
    TRSH0401 COST     116.000000   TRAN0104 -1.000000
    TRSH0402 COST     116.000000   TRAN0204 -1.000000
    TRSH0403 COST     58.000000   TRAN0304 -1.000000
    TRSH0404 COST     116.000000   TRAN0404 -1.000000
    TRSH0501 COST     116.000000   TRAN0105 -1.000000
    TRSH0502 COST     116.000000   TRAN0205 -1.000000
    TRSH0503 COST     58.000000   TRAN0305 -1.000000
    TRSH0504 COST     116.000000   TRAN0405 -1.000000
    TRSH0601 COST     116.000000   TRAN0106 -1.000000
    TRSH0602 COST     116.000000   TRAN0206 -1.000000
    TRSH0603 COST     58.000000   TRAN0306 -1.000000
    TRSH0604 COST     116.000000   TRAN0406 -1.000000
    TRSH0701 COST     116.000000   TRAN0107 -1.000000
    TRSH0702 COST     116.000000   TRAN0207 -1.000000
    TRSH0703 COST     58.000000   TRAN0307 -1.000000
    TRSH0704 COST     116.000000   TRAN0407 -1.000000
    TRSH0801 COST     116.000000   TRAN0108 -1.000000
    TRSH0802 COST     116.000000   TRAN0208 -1.000000
    TRSH0803 COST     58.000000   TRAN0308 -1.000000
    TRSH0804 COST     116.000000   TRAN0408 -1.000000
    SLACK25467 REGMIN   -1.000000
    SLACK25468 REGMAX   1.000000
    SLACK25469 OVRMIN   -1.000000
    SLACK25470 OVRMAX   1.000000
    SLACK25471 REGMIN01 -1.000000
    SLACK25472 REGMIN02 -1.000000
    SLACK25473 REGMIN04 -1.000000
    SLACK25474 REGMAX01 1.000000
    SLACK25475 REGMAX02 1.000000
    SLACK25476 REGMAX04 1.000000
    SLACK25477 OVRMIN01 -1.000000
    SLACK25478 OVRMIN02 -1.000000
    SLACK25479 OVRMIN04 -1.000000
    SLACK25480 OVRMAX01 1.000000
    SLACK25481 OVRMAX02 1.000000
    SLACK25482 OVRMAX04 1.000000
    SLACK25483 TRAN0101 1.000000
    SLACK25484 TRAN0102 1.000000
    SLACK25485 TRAN0103 1.000000
    SLACK25486 TRAN0104 1.000000
    SLACK25487 TRAN0105 1.000000
    SLACK25488 TRAN0106 1.000000
    SLACK25489 TRAN0107 1.000000
    SLACK25490 TRAN0108 1.000000
    SLACK25491 TRAN0201 1.000000
    SLACK25492 TRAN0202 1.000000
    SLACK25493 TRAN0203 1.000000
    SLACK25494 TRAN0204 1.000000
    SLACK25495 TRAN0205 1.000000
    SLACK25496 TRAN0206 1.000000
    SLACK25497 TRAN0207 1.000000
    SLACK25498 TRAN0208 1.000000
    SLACK25499 TRAN0301 1.000000
    SLACK25500 TRAN0302 1.000000
    SLACK25501 TRAN0303 1.000000
    SLACK25502 TRAN0304 1.000000
    SLACK25503 TRAN0305 1.000000
    SLACK25504 TRAN0306 1.000000
    SLACK25505 TRAN0307 1.000000
    SLACK25506 TRAN0308 1.000000
    SLACK25507 TRAN0401 1.000000
    SLACK25508 TRAN0402 1.000000
    SLACK25509 TRAN0403 1.000000
    SLACK25510 TRAN0404 1.000000
    SLACK25511 TRAN0405 1.000000
    SLACK25512 TRAN0406 1.000000
    SLACK25513 TRAN0407 1.000000
    SLACK25514 TRAN0408 1.000000
RHS
    RHS      REGMAX   6.000000
    RHS      OVRMAX   126.000000
    RHS      REGMAX01 3.000000
    RHS      REGMAX02 3.000000
    RHS      REGMAX04 3.000000
    RHS      OVRMAX01 48.000000
    RHS      OVRMAX02 48.000000
    RHS      OVRMAX04 30.000000
    RHS      BAL0104  1.431050
    RHS      BAL0106  4.865580
    RHS      BAL0107  17.458800
    RHS      BAL0108  7.155260
    RHS      BAL0109  8.300100
    RHS      BAL0110  4.293160
    RHS      BAL0111  5.438000
    RHS      BAL0112  11.448400
    RHS      BAL0114  7.155260
    RHS      BAL0115  12.020800
    RHS      BAL0116  6.869050
    RHS      BAL0117  2.003470
    RHS      BAL0118  5.151790
    RHS      BAL0119  11.448400
    RHS      BAL0120  2.003470
    RHS      BAL0121  6.010420
    RHS      BAL0122  6.296630
    RHS      BAL0123  8.300100
    RHS      BAL0125  1.717260
    RHS      BAL0126  1.144840
    RHS      BAL0127  3.148320
    RHS      BAL0128  1.717260
    RHS      BAL0129  6.869050
    RHS      BAL0130  1.431050
    RHS      BAL0131  2.862110
    RHS      BAL0132  1.431050
    RHS      BAL0133  2.862110
    RHS      BAL0134  2.003470
    RHS      BAL0135  0.858631
    RHS      BAL0136  1.717260
    RHS      BAL0137  4.579370
    RHS      BAL0138  5.724210
    RHS      BAL0139  7.727680
    RHS      BAL0140  1.144840
    RHS      BAL0141  4.293160
    RHS      BAL0142  9.731160
    RHS      BAL0143  5.151790
    RHS      BAL0144  2.575890
    RHS      BAL0145  3.434530
    RHS      BAL0146  3.434530
    RHS      BAL0147  1.717260
    RHS      BAL0148  5.724210
    RHS      BAL0149  0.572421
    RHS      BAL0150  1.144840
    RHS      BAL0151  0.286211
    RHS      BAL0153  1.717260
    RHS      BAL0154  0.858631
    RHS      BAL0155  3.148320
    RHS      BAL0156  1.717260
    RHS      BAL0157  2.003470
    RHS      BAL0158  6.296630
    RHS      BAL0159  2.575890
    RHS      BAL0160  1.431050
    RHS      BAL0163  1.717260
    RHS      BAL0165  2.289680
    RHS      BAL0166  1.717260
    RHS      BAL0167  2.862110
    RHS      BAL0168  0.572421
    RHS      BAL0169  0.858631
    RHS      BAL0171  4.865580
    RHS      BAL0172  1.144840
    RHS      BAL0173  2.003470
    RHS      BAL0174  1.144840
    RHS      BAL0175  0.572421
    RHS      BAL0176  0.858631
    RHS      BAL0177  9.158740
    RHS      BAL0178  3.148320
    RHS      BAL0179  0.572421
    RHS      BAL0180  0.286211
    RHS      BAL0182  2.003470
    RHS      BAL0184  3.720740
    RHS      BAL0201  0.041632
    RHS      BAL0202  0.083264
    RHS      BAL0206  0.208159
    RHS      BAL0207  2.331380
    RHS      BAL0208  0.541213
    RHS      BAL0209  0.582845
    RHS      BAL0210  0.624477
    RHS      BAL0211  0.208159
    RHS      BAL0212  1.082430
    RHS      BAL0214  0.374686
    RHS      BAL0215  5.079080
    RHS      BAL0216  0.083264
    RHS      BAL0218  0.041632
    RHS      BAL0219  0.083264
    RHS      BAL0221  0.249791
    RHS      BAL0223  0.041632
    RHS      BAL0227  0.333054
    RHS      BAL0229  0.041632
    RHS      BAL0231  0.249791
    RHS      BAL0233  0.083264
    RHS      BAL0236  0.124895
    RHS      BAL0237  0.291423
    RHS      BAL0239  0.749372
    RHS      BAL0240  0.041632
    RHS      BAL0241  0.291423
    RHS      BAL0242  0.999163
    RHS      BAL0243  0.457950
    RHS      BAL0244  0.124895
    RHS      BAL0245  0.166527
    RHS      BAL0246  0.915900
    RHS      BAL0247  0.124895
    RHS      BAL0248  0.291423
    RHS      BAL0254  0.041632
    RHS      BAL0255  0.208159
    RHS      BAL0259  0.208159
    RHS      BAL0263  0.041632
    RHS      BAL0265  0.333054
    RHS      BAL0266  1.165690
    RHS      BAL0267  0.707741
    RHS      BAL0268  1.498740
    RHS      BAL0269  1.457110
    RHS      BAL0271  2.997490
    RHS      BAL0272  0.333054
    RHS      BAL0273  2.164850
    RHS      BAL0274  1.540380
    RHS      BAL0275  0.333054
    RHS      BAL0276  1.290590
    RHS      BAL0277  1.165690
    RHS      BAL0278  0.915900
    RHS      BAL0279  1.540380
    RHS      BAL0282  4.121550
    RHS      BAL0284  0.791004
    RHS      BAL0302  0.028824
    RHS      BAL0304  0.115297
    RHS      BAL0306  0.490010
    RHS      BAL0307  2.997710
    RHS      BAL0308  1.239440
    RHS      BAL0309  0.576483
    RHS      BAL0310  0.201769
    RHS      BAL0311  0.230593
    RHS      BAL0312  1.498860
    RHS      BAL0314  0.778252
    RHS      BAL0315  1.297090
    RHS      BAL0316  0.230593
    RHS      BAL0317  0.144121
    RHS      BAL0318  0.201769
    RHS      BAL0319  0.518834
    RHS      BAL0320  0.057648
    RHS      BAL0321  0.230593
    RHS      BAL0322  1.095320
    RHS      BAL0323  0.691779
    RHS      BAL0325  0.028824
    RHS      BAL0327  0.201769
    RHS      BAL0328  0.086472
    RHS      BAL0329  0.345890
    RHS      BAL0331  0.172945
    RHS      BAL0332  0.317065
    RHS      BAL0333  0.115297
    RHS      BAL0334  0.144121
    RHS      BAL0336  0.028824
    RHS      BAL0337  0.086472
    RHS      BAL0338  0.518834
    RHS      BAL0339  0.778252
    RHS      BAL0340  0.086472
    RHS      BAL0341  0.201769
    RHS      BAL0342  1.297090
    RHS      BAL0343  0.201769
    RHS      BAL0344  0.086472
    RHS      BAL0345  0.201769
    RHS      BAL0346  0.230593
    RHS      BAL0347  0.057648
    RHS      BAL0348  0.345890
    RHS      BAL0352  0.490010
    RHS      BAL0355  0.518834
    RHS      BAL0357  0.057648
    RHS      BAL0358  0.403538
    RHS      BAL0359  0.115297
    RHS      BAL0365  0.230593
    RHS      BAL0366  0.461186
    RHS      BAL0367  0.230593
    RHS      BAL0368  0.288241
    RHS      BAL0369  0.403538
    RHS      BAL0371  2.363580
    RHS      BAL0372  0.259417
    RHS      BAL0373  0.345890
    RHS      BAL0374  0.605307
    RHS      BAL0376  0.201769
    RHS      BAL0377  0.807076
    RHS      BAL0378  0.807076
    RHS      BAL0379  0.144121
    RHS      BAL0382  0.634131
    RHS      BAL0384  0.172945
    RHS      BAL0402  0.092243
    RHS      BAL0404  0.322851
    RHS      BAL0406  0.553459
    RHS      BAL0407  1.614260
    RHS      BAL0408  0.415094
    RHS      BAL0409  0.830189
    RHS      BAL0410  0.461216
    RHS      BAL0411  0.599581
    RHS      BAL0412  1.014680
    RHS      BAL0414  1.060800
    RHS      BAL0415  0.876310
    RHS      BAL0416  0.830189
    RHS      BAL0417  0.138365
    RHS      BAL0418  0.368973
    RHS      BAL0419  1.522010
    RHS      BAL0420  0.461216
    RHS      BAL0421  0.645702
    RHS      BAL0422  0.784067
    RHS      BAL0423  1.060800
    RHS      BAL0425  0.046122
    RHS      BAL0426  0.184486
    RHS      BAL0427  0.368973
    RHS      BAL0428  0.461216
    RHS      BAL0429  0.691824
    RHS      BAL0430  3.413000
    RHS      BAL0431  0.184486
    RHS      BAL0432  0.276730
    RHS      BAL0433  0.322851
    RHS      BAL0434  0.553459
    RHS      BAL0435  0.092243
    RHS      BAL0436  0.092243
    RHS      BAL0437  0.922432
    RHS      BAL0438  1.983230
    RHS      BAL0439  1.060800
    RHS      BAL0440  0.092243
    RHS      BAL0441  0.322851
    RHS      BAL0442  1.153040
    RHS      BAL0443  0.276730
    RHS      BAL0444  0.184486
    RHS      BAL0445  0.968554
    RHS      BAL0446  0.092243
    RHS      BAL0447  0.046122
    RHS      BAL0448  0.276730
    RHS      BAL0449  0.276730
    RHS      BAL0450  0.507338
    RHS      BAL0451  0.461216
    RHS      BAL0453  1.660380
    RHS      BAL0454  0.276730
    RHS      BAL0455  0.830189
    RHS      BAL0456  1.291400
    RHS      BAL0457  0.415094
    RHS      BAL0458  2.951780
    RHS      BAL0459  0.230608
    RHS      BAL0460  2.675050
    RHS      BAL0463  0.737946
    RHS      BAL0465  0.276730
    RHS      BAL0466  0.230608
    RHS      BAL0467  0.276730
    RHS      BAL0468  0.046122
    RHS      BAL0469  0.046122
    RHS      BAL0471  0.599581
    RHS      BAL0472  0.138365
    RHS      BAL0473  0.138365
    RHS      BAL0474  0.138365
    RHS      BAL0475  0.046122
    RHS      BAL0476  0.046122
    RHS      BAL0477  1.014680
    RHS      BAL0478  0.461216
    RHS      BAL0479  0.046122
    RHS      BAL0480  0.092243
    RHS      BAL0482  0.138365
    RHS      BAL0484  0.230608
BOUNDS
ENDATA
