NAME          SIERRA
ROWS
 E  0BBBC1  
 E  0BBBC2  
 E  0BBBC3  
 E  0BBBC4  
 E  0BBBC5  
 E  0BCBN1  
 E  0BCBN2  
 E  0BCBN3  
 E  0BCBN4  
 E  0BCBN5  
 E  0BMBQ1  
 E  0BMBQ2  
 E  0BMBQ3  
 E  0BMBQ4  
 E  0BMBQ5  
 E  0BNBT1  
 E  0BNBT2  
 E  0BNBT3  
 E  0BNBT4  
 E  0BNBT5  
 E  0BPBS1  
 E  0BPBS2  
 E  0BPBS3  
 E  0BPBS4  
 E  0BPBS5  
 E  0BQBP1  
 E  0BQBP2  
 E  0BQBP3  
 E  0BQBP4  
 E  0BQBP5  
 E  0BSBT1  
 E  0BSBT2  
 E  0BSBT3  
 E  0BSBT4  
 E  0BSBT5  
 E  0BTBW1  
 E  0BTBW2  
 E  0BTBW3  
 E  0BTBW4  
 E  0BTBW5  
 E  0BUBT1  
 E  0BUBT2  
 E  0BUBT3  
 E  0BUBT4  
 E  0BUBT5  
 E  0BUBV1  
 E  0BUBV2  
 E  0BUBV3  
 E  0BUBV4  
 E  0BUBV5  
 E  0BUBX1  
 E  0BUBX2  
 E  0BUBX3  
 E  0BUBX4  
 E  0BUBX5  
 E  0BVBU1  
 E  0BVBU2  
 E  0BVBU3  
 E  0BVBU4  
 E  0BVBU5  
 E  0BVCA1  
 E  0BVCA2  
 E  0BVCA3  
 E  0BVCA4  
 E  0BVCA5  
 E  0BWBY1  
 E  0BWBY2  
 E  0BWBY3  
 E  0BWBY4  
 E  0BWBY5  
 E  0BXBZ1  
 E  0BXBZ2  
 E  0BXBZ3  
 E  0BXBZ4  
 E  0BXBZ5  
 E  0BYSC1  
 E  0BYSC2  
 E  0BYSC3  
 E  0BYSC4  
 E  0BYSC5  
 E  0BZBY1  
 E  0BZBY2  
 E  0BZBY3  
 E  0BZBY4  
 E  0BZBY5  
 E  0CADA1  
 E  0CADA2  
 E  0CADA3  
 E  0CADA4  
 E  0CADA5  
 E  0CBCA1  
 E  0CBCA2  
 E  0CBCA3  
 E  0CBCA4  
 E  0CBCA5  
 E  0CBCC1  
 E  0CBCC2  
 E  0CBCC3  
 E  0CBCC4  
 E  0CBCC5  
 E  0CBDW1  
 E  0CBDW2  
 E  0CBDW3  
 E  0CBDW4  
 E  0CBDW5  
 E  0CCCB1  
 E  0CCCB2  
 E  0CCCB3  
 E  0CCCB4  
 E  0CCCB5  
 E  0CCCD1  
 E  0CCCD2  
 E  0CCCD3  
 E  0CCCD4  
 E  0CCCD5  
 E  0CSCF1  
 E  0CSCF2  
 E  0CSCF3  
 E  0CSCF4  
 E  0CSCF5  
 E  0CVCZ1  
 E  0CVCZ2  
 E  0CVCZ3  
 E  0CVCZ4  
 E  0CVCZ5  
 E  0CVDQ1  
 E  0CVDQ2  
 E  0CVDQ3  
 E  0CVDQ4  
 E  0CVDQ5  
 E  0CZCV1  
 E  0CZCV2  
 E  0CZCV3  
 E  0CZCV4  
 E  0CZCV5  
 E  0CZFX1  
 E  0CZFX2  
 E  0CZFX3  
 E  0CZFX4  
 E  0CZFX5  
 E  0DABZ1  
 E  0DABZ2  
 E  0DABZ3  
 E  0DABZ4  
 E  0DABZ5  
 E  0DBDA1  
 E  0DBDA2  
 E  0DBDA3  
 E  0DBDA4  
 E  0DBDA5  
 E  0DBDH1  
 E  0DBDH2  
 E  0DBDH3  
 E  0DBDH4  
 E  0DBDH5  
 E  0DDDB1  
 E  0DDDB2  
 E  0DDDB3  
 E  0DDDB4  
 E  0DDDB5  
 E  0DDDL1  
 E  0DDDL2  
 E  0DDDL3  
 E  0DDDL4  
 E  0DDDL5  
 E  0DEDD1  
 E  0DEDD2  
 E  0DEDD3  
 E  0DEDD4  
 E  0DEDD5  
 E  0DEDL1  
 E  0DEDL2  
 E  0DEDL3  
 E  0DEDL4  
 E  0DEDL5  
 E  0DGDA1  
 E  0DGDA2  
 E  0DGDA3  
 E  0DGDA4  
 E  0DGDA5  
 E  0DHDG1  
 E  0DHDG2  
 E  0DHDG3  
 E  0DHDG4  
 E  0DHDG5  
 E  0DJDH1  
 E  0DJDH2  
 E  0DJDH3  
 E  0DJDH4  
 E  0DJDH5  
 E  0DLDD1  
 E  0DLDD2  
 E  0DLDD3  
 E  0DLDD4  
 E  0DLDD5  
 E  0DLDE1  
 E  0DLDE2  
 E  0DLDE3  
 E  0DLDE4  
 E  0DLDE5  
 E  0DLDM1  
 E  0DLDM2  
 E  0DLDM3  
 E  0DLDM4  
 E  0DLDM5  
 E  0DMDJ1  
 E  0DMDJ2  
 E  0DMDJ3  
 E  0DMDJ4  
 E  0DMDJ5  
 E  0DNDM1  
 E  0DNDM2  
 E  0DNDM3  
 E  0DNDM4  
 E  0DNDM5  
 E  0DPDN1  
 E  0DPDN2  
 E  0DPDN3  
 E  0DPDN4  
 E  0DPDN5  
 E  0DQDP1  
 E  0DQDP2  
 E  0DQDP3  
 E  0DQDP4  
 E  0DQDP5  
 E  0DRDA1  
 E  0DRDA2  
 E  0DRDA3  
 E  0DRDA4  
 E  0DRDA5  
 E  0DRDS1  
 E  0DRDS2  
 E  0DRDS3  
 E  0DRDS4  
 E  0DRDS5  
 E  0DRFA1  
 E  0DRFA2  
 E  0DRFA3  
 E  0DRFA4  
 E  0DRFA5  
 E  0DSDR1  
 E  0DSDR2  
 E  0DSDR3  
 E  0DSDR4  
 E  0DSDR5  
 E  0DWCB1  
 E  0DWCB2  
 E  0DWCB3  
 E  0DWCB4  
 E  0DWCB5  
 E  0DWDE1  
 E  0DWDE2  
 E  0DWDE3  
 E  0DWDE4  
 E  0DWDE5  
 E  0DWDN1  
 E  0DWDN2  
 E  0DWDN3  
 E  0DWDN4  
 E  0DWDN5  
 E  0FADR1  
 E  0FADR2  
 E  0FADR3  
 E  0FADR4  
 E  0FADR5  
 E  0FAFE1  
 E  0FAFE2  
 E  0FAFE3  
 E  0FAFE4  
 E  0FAFE5  
 E  0FBFA1  
 E  0FBFA2  
 E  0FBFA3  
 E  0FBFA4  
 E  0FBFA5  
 E  0FESC1  
 E  0FESC2  
 E  0FESC3  
 E  0FESC4  
 E  0FESC5  
 E  0FXCZ1  
 E  0FXCZ2  
 E  0FXCZ3  
 E  0FXCZ4  
 E  0FXCZ5  
 E  0SCSO1  
 E  0SCSO2  
 E  0SCSO3  
 E  0SCSO4  
 E  0SCSO5  
 E  0SCYN1  
 E  0SCYN2  
 E  0SCYN3  
 E  0SCYN4  
 E  0SCYN5  
 E  PBBBL   
 E  RBBBL1  
 E  1BBBL1  
 E  1BBBL2  
 E  1BBBL3  
 E  1BBBL4  
 E  1BBBL5  
 E  RBBBL2  
 E  2BBBL1  
 E  2BBBL2  
 E  2BBBL3  
 E  2BBBL4  
 E  2BBBL5  
 E  RBBBL3  
 E  3BBBL1  
 E  3BBBL2  
 E  3BBBL3  
 E  3BBBL4  
 E  3BBBL5  
 E  RBBBL4  
 E  4BBBL1  
 E  4BBBL2  
 E  4BBBL3  
 E  4BBBL4  
 E  4BBBL5  
 E  RBBBL5  
 E  5BBBL1  
 E  5BBBL2  
 E  5BBBL3  
 E  5BBBL4  
 E  5BBBL5  
 E  PBLBM   
 E  RBLBM1  
 E  1BLBM1  
 E  1BLBM2  
 E  1BLBM3  
 E  1BLBM4  
 E  1BLBM5  
 E  RBLBM2  
 E  2BLBM1  
 E  2BLBM2  
 E  2BLBM3  
 E  2BLBM4  
 E  2BLBM5  
 E  RBLBM3  
 E  3BLBM1  
 E  3BLBM2  
 E  3BLBM3  
 E  3BLBM4  
 E  3BLBM5  
 E  RBLBM4  
 E  4BLBM1  
 E  4BLBM2  
 E  4BLBM3  
 E  4BLBM4  
 E  4BLBM5  
 E  RBLBM5  
 E  5BLBM1  
 E  5BLBM2  
 E  5BLBM3  
 E  5BLBM4  
 E  5BLBM5  
 E  PBNBO   
 E  RBNBO1  
 E  1BNBO1  
 E  1BNBO2  
 E  1BNBO3  
 E  1BNBO4  
 E  1BNBO5  
 E  RBNBO2  
 E  2BNBO1  
 E  2BNBO2  
 E  2BNBO3  
 E  2BNBO4  
 E  2BNBO5  
 E  RBNBO3  
 E  3BNBO1  
 E  3BNBO2  
 E  3BNBO3  
 E  3BNBO4  
 E  3BNBO5  
 E  RBNBO4  
 E  4BNBO1  
 E  4BNBO2  
 E  4BNBO3  
 E  4BNBO4  
 E  4BNBO5  
 E  PBOBP   
 E  RBOBP1  
 E  1BOBP1  
 E  1BOBP2  
 E  1BOBP3  
 E  1BOBP4  
 E  1BOBP5  
 E  RBOBP2  
 E  2BOBP1  
 E  2BOBP2  
 E  2BOBP3  
 E  2BOBP4  
 E  2BOBP5  
 E  RBOBP3  
 E  3BOBP1  
 E  3BOBP2  
 E  3BOBP3  
 E  3BOBP4  
 E  3BOBP5  
 E  RBOBP4  
 E  4BOBP1  
 E  4BOBP2  
 E  4BOBP3  
 E  4BOBP4  
 E  4BOBP5  
 E  PBPBR   
 E  RBPBR1  
 E  1BPBR1  
 E  1BPBR2  
 E  1BPBR3  
 E  1BPBR4  
 E  1BPBR5  
 E  RBPBR2  
 E  2BPBR1  
 E  2BPBR2  
 E  2BPBR3  
 E  2BPBR4  
 E  2BPBR5  
 E  RBPBR3  
 E  3BPBR1  
 E  3BPBR2  
 E  3BPBR3  
 E  3BPBR4  
 E  3BPBR5  
 E  RBPBR4  
 E  4BPBR1  
 E  4BPBR2  
 E  4BPBR3  
 E  4BPBR4  
 E  4BPBR5  
 E  PBQCE   
 E  RBQCE1  
 E  1BQCE1  
 E  1BQCE2  
 E  1BQCE3  
 E  1BQCE4  
 E  1BQCE5  
 E  RBQCE2  
 E  2BQCE1  
 E  2BQCE2  
 E  2BQCE3  
 E  2BQCE4  
 E  2BQCE5  
 E  RBQCE3  
 E  3BQCE1  
 E  3BQCE2  
 E  3BQCE3  
 E  3BQCE4  
 E  3BQCE5  
 E  RBQCE4  
 E  4BQCE1  
 E  4BQCE2  
 E  4BQCE3  
 E  4BQCE4  
 E  4BQCE5  
 E  PBRBV   
 E  RBRBV1  
 E  1BRBV1  
 E  1BRBV2  
 E  1BRBV3  
 E  1BRBV4  
 E  1BRBV5  
 E  RBRBV2  
 E  2BRBV1  
 E  2BRBV2  
 E  2BRBV3  
 E  2BRBV4  
 E  2BRBV5  
 E  RBRBV3  
 E  3BRBV1  
 E  3BRBV2  
 E  3BRBV3  
 E  3BRBV4  
 E  3BRBV5  
 E  RBRBV4  
 E  4BRBV1  
 E  4BRBV2  
 E  4BRBV3  
 E  4BRBV4  
 E  4BRBV5  
 E  PBRCD   
 E  RBRCD1  
 E  1BRCD1  
 E  1BRCD2  
 E  1BRCD3  
 E  1BRCD4  
 E  1BRCD5  
 E  RBRCD2  
 E  2BRCD1  
 E  2BRCD2  
 E  2BRCD3  
 E  2BRCD4  
 E  2BRCD5  
 E  RBRCD3  
 E  3BRCD1  
 E  3BRCD2  
 E  3BRCD3  
 E  3BRCD4  
 E  3BRCD5  
 E  RBRCD4  
 E  4BRCD1  
 E  4BRCD2  
 E  4BRCD3  
 E  4BRCD4  
 E  4BRCD5  
 E  PCDCE   
 E  RCDCE1  
 E  1CDCE1  
 E  1CDCE2  
 E  1CDCE3  
 E  1CDCE4  
 E  1CDCE5  
 E  RCDCE2  
 E  2CDCE1  
 E  2CDCE2  
 E  2CDCE3  
 E  2CDCE4  
 E  2CDCE5  
 E  RCDCE3  
 E  3CDCE1  
 E  3CDCE2  
 E  3CDCE3  
 E  3CDCE4  
 E  3CDCE5  
 E  RCDCE4  
 E  4CDCE1  
 E  4CDCE2  
 E  4CDCE3  
 E  4CDCE4  
 E  4CDCE5  
 E  PCECF   
 E  RCECF1  
 E  1CECF1  
 E  1CECF2  
 E  1CECF3  
 E  1CECF4  
 E  1CECF5  
 E  RCECF2  
 E  2CECF1  
 E  2CECF2  
 E  2CECF3  
 E  2CECF4  
 E  2CECF5  
 E  RCECF3  
 E  3CECF1  
 E  3CECF2  
 E  3CECF3  
 E  3CECF4  
 E  3CECF5  
 E  RCECF4  
 E  4CECF1  
 E  4CECF2  
 E  4CECF3  
 E  4CECF4  
 E  4CECF5  
 E  PCSDU   
 E  RCSDU1  
 E  1CSDU1  
 E  1CSDU2  
 E  1CSDU3  
 E  1CSDU4  
 E  1CSDU5  
 E  RCSDU2  
 E  2CSDU1  
 E  2CSDU2  
 E  2CSDU3  
 E  2CSDU4  
 E  2CSDU5  
 E  RCSDU3  
 E  3CSDU1  
 E  3CSDU2  
 E  3CSDU3  
 E  3CSDU4  
 E  3CSDU5  
 E  RCSDU4  
 E  4CSDU1  
 E  4CSDU2  
 E  4CSDU3  
 E  4CSDU4  
 E  4CSDU5  
 E  PDHDI   
 E  RDHDI1  
 E  1DHDI1  
 E  1DHDI2  
 E  1DHDI3  
 E  1DHDI4  
 E  1DHDI5  
 E  RDHDI2  
 E  2DHDI1  
 E  2DHDI2  
 E  2DHDI3  
 E  2DHDI4  
 E  2DHDI5  
 E  RDHDI3  
 E  3DHDI1  
 E  3DHDI2  
 E  3DHDI3  
 E  3DHDI4  
 E  3DHDI5  
 E  RDHDI4  
 E  4DHDI1  
 E  4DHDI2  
 E  4DHDI3  
 E  4DHDI4  
 E  4DHDI5  
 E  PDGDS   
 E  RDGDS1  
 E  1DGDS1  
 E  1DGDS2  
 E  1DGDS3  
 E  1DGDS4  
 E  1DGDS5  
 E  RDGDS2  
 E  2DGDS1  
 E  2DGDS2  
 E  2DGDS3  
 E  2DGDS4  
 E  2DGDS5  
 E  RDGDS3  
 E  3DGDS1  
 E  3DGDS2  
 E  3DGDS3  
 E  3DGDS4  
 E  3DGDS5  
 E  RDGDS4  
 E  4DGDS1  
 E  4DGDS2  
 E  4DGDS3  
 E  4DGDS4  
 E  4DGDS5  
 E  PCVDU   
 E  RCVDU1  
 E  1CVDU1  
 E  1CVDU2  
 E  1CVDU3  
 E  1CVDU4  
 E  1CVDU5  
 E  RCVDU2  
 E  2CVDU1  
 E  2CVDU2  
 E  2CVDU3  
 E  2CVDU4  
 E  2CVDU5  
 E  RCVDU3  
 E  3CVDU1  
 E  3CVDU2  
 E  3CVDU3  
 E  3CVDU4  
 E  3CVDU5  
 E  RCVDU4  
 E  4CVDU1  
 E  4CVDU2  
 E  4CVDU3  
 E  4CVDU4  
 E  4CVDU5  
 E  PDSFC   
 E  RDSFC1  
 E  1DSFC1  
 E  1DSFC2  
 E  1DSFC3  
 E  1DSFC4  
 E  1DSFC5  
 E  RDSFC2  
 E  2DSFC1  
 E  2DSFC2  
 E  2DSFC3  
 E  2DSFC4  
 E  2DSFC5  
 E  RDSFC3  
 E  3DSFC1  
 E  3DSFC2  
 E  3DSFC3  
 E  3DSFC4  
 E  3DSFC5  
 E  RDSFC4  
 E  4DSFC1  
 E  4DSFC2  
 E  4DSFC3  
 E  4DSFC4  
 E  4DSFC5  
 E  PFBFC   
 E  RFBFC1  
 E  1FBFC1  
 E  1FBFC2  
 E  1FBFC3  
 E  1FBFC4  
 E  1FBFC5  
 E  RFBFC2  
 E  2FBFC1  
 E  2FBFC2  
 E  2FBFC3  
 E  2FBFC4  
 E  2FBFC5  
 E  RFBFC3  
 E  3FBFC1  
 E  3FBFC2  
 E  3FBFC3  
 E  3FBFC4  
 E  3FBFC5  
 E  RFBFC4  
 E  4FBFC1  
 E  4FBFC2  
 E  4FBFC3  
 E  4FBFC4  
 E  4FBFC5  
 E  SI1R    
 E  SI2R    
 E  SI3R    
 E  SI4R    
 E  SI5R    
 E  SI1T    
 E  SI2T    
 E  SI3T    
 E  SI4T    
 E  SI5T    
 E  BW1R    
 E  BW2R    
 E  BW3R    
 E  BW4R    
 E  BW5R    
 E  BW1T    
 E  BW2T    
 E  BW3T    
 E  BW4T    
 E  BW5T    
 E  FE1R    
 E  FE2R    
 E  FE3R    
 E  FE4R    
 E  FE5R    
 E  FE1T    
 E  FE2T    
 E  FE3T    
 E  FE4T    
 E  FE5T    
 E  SO1R    
 E  SO2R    
 E  SO3R    
 E  SO4R    
 E  SO5R    
 E  SO1T    
 E  SO2T    
 E  SO3T    
 E  SO4T    
 E  SO5T    
 E  YN1R    
 E  YN2R    
 E  YN3R    
 E  YN4R    
 E  YN5R    
 E  YN1T    
 E  YN2T    
 E  YN3T    
 E  YN4T    
 E  YN5T    
 E  DA1R    
 E  DA2R    
 E  DA3R    
 E  DA4R    
 E  DA5R    
 E  DA1T    
 E  DA2T    
 E  DA3T    
 E  DA4T    
 E  DA5T    
 E  BZ1R    
 E  BZ2R    
 E  BZ3R    
 E  BZ4R    
 E  BZ5R    
 E  BZ1T    
 E  BZ2T    
 E  BZ3T    
 E  BZ4T    
 E  BZ5T    
 E  BB1R    
 E  BB2R    
 E  BB3R    
 E  BB4R    
 E  BB5R    
 E  BB1T    
 E  BB2T    
 E  BB3T    
 E  BB4T    
 E  BB5T    
 E  BC1R    
 E  BC2R    
 E  BC3R    
 E  BC4R    
 E  BC5R    
 E  BC1T    
 E  BC2T    
 E  BC3T    
 E  BC4T    
 E  BC5T    
 E  BN1R    
 E  BN2R    
 E  BN3R    
 E  BN4R    
 E  BN5R    
 E  BN1T    
 E  BN2T    
 E  BN3T    
 E  BN4T    
 E  BN5T    
 E  BM1R    
 E  BM2R    
 E  BM3R    
 E  BM4R    
 E  BM5R    
 E  BM1T    
 E  BM2T    
 E  BM3T    
 E  BM4T    
 E  BM5T    
 E  BQ1R    
 E  BQ2R    
 E  BQ3R    
 E  BQ4R    
 E  BQ5R    
 E  BQ1T    
 E  BQ2T    
 E  BQ3T    
 E  BQ4T    
 E  BQ5T    
 E  BT1R    
 E  BT2R    
 E  BT3R    
 E  BT4R    
 E  BT5R    
 E  BT1T    
 E  BT2T    
 E  BT3T    
 E  BT4T    
 E  BT5T    
 E  BP1R    
 E  BP2R    
 E  BP3R    
 E  BP4R    
 E  BP5R    
 E  BP1T    
 E  BP2T    
 E  BP3T    
 E  BP4T    
 E  BP5T    
 E  BS1R    
 E  BS2R    
 E  BS3R    
 E  BS4R    
 E  BS5R    
 E  BS1T    
 E  BS2T    
 E  BS3T    
 E  BS4T    
 E  BS5T    
 E  BU1R    
 E  BU2R    
 E  BU3R    
 E  BU4R    
 E  BU5R    
 E  BU1T    
 E  BU2T    
 E  BU3T    
 E  BU4T    
 E  BU5T    
 E  BV1R    
 E  BV2R    
 E  BV3R    
 E  BV4R    
 E  BV5R    
 E  BV1T    
 E  BV2T    
 E  BV3T    
 E  BV4T    
 E  BV5T    
 E  BX1R    
 E  BX2R    
 E  BX3R    
 E  BX4R    
 E  BX5R    
 E  BX1T    
 E  BX2T    
 E  BX3T    
 E  BX4T    
 E  BX5T    
 E  CA1R    
 E  CA2R    
 E  CA3R    
 E  CA4R    
 E  CA5R    
 E  CA1T    
 E  CA2T    
 E  CA3T    
 E  CA4T    
 E  CA5T    
 E  BY1R    
 E  BY2R    
 E  BY3R    
 E  BY4R    
 E  BY5R    
 E  BY1T    
 E  BY2T    
 E  BY3T    
 E  BY4T    
 E  BY5T    
 E  SC1R    
 E  SC2R    
 E  SC3R    
 E  SC4R    
 E  SC5R    
 E  SC1T    
 E  SC2T    
 E  SC3T    
 E  SC4T    
 E  SC5T    
 E  CB1R    
 E  CB2R    
 E  CB3R    
 E  CB4R    
 E  CB5R    
 E  CB1T    
 E  CB2T    
 E  CB3T    
 E  CB4T    
 E  CB5T    
 E  CC1R    
 E  CC2R    
 E  CC3R    
 E  CC4R    
 E  CC5R    
 E  CC1T    
 E  CC2T    
 E  CC3T    
 E  CC4T    
 E  CC5T    
 E  DW1R    
 E  DW2R    
 E  DW3R    
 E  DW4R    
 E  DW5R    
 E  DW1T    
 E  DW2T    
 E  DW3T    
 E  DW4T    
 E  DW5T    
 E  CD1R    
 E  CD2R    
 E  CD3R    
 E  CD4R    
 E  CD5R    
 E  CD1T    
 E  CD2T    
 E  CD3T    
 E  CD4T    
 E  CD5T    
 E  CS1R    
 E  CS2R    
 E  CS3R    
 E  CS4R    
 E  CS5R    
 E  CS1T    
 E  CS2T    
 E  CS3T    
 E  CS4T    
 E  CS5T    
 E  CF1R    
 E  CF2R    
 E  CF3R    
 E  CF4R    
 E  CF5R    
 E  CF1T    
 E  CF2T    
 E  CF3T    
 E  CF4T    
 E  CF5T    
 E  CV1R    
 E  CV2R    
 E  CV3R    
 E  CV4R    
 E  CV5R    
 E  CV1T    
 E  CV2T    
 E  CV3T    
 E  CV4T    
 E  CV5T    
 E  CZ1R    
 E  CZ2R    
 E  CZ3R    
 E  CZ4R    
 E  CZ5R    
 E  CZ1T    
 E  CZ2T    
 E  CZ3T    
 E  CZ4T    
 E  CZ5T    
 E  DQ1R    
 E  DQ2R    
 E  DQ3R    
 E  DQ4R    
 E  DQ5R    
 E  DQ1T    
 E  DQ2T    
 E  DQ3T    
 E  DQ4T    
 E  DQ5T    
 E  FX1R    
 E  FX2R    
 E  FX3R    
 E  FX4R    
 E  FX5R    
 E  FX1T    
 E  FX2T    
 E  FX3T    
 E  FX4T    
 E  FX5T    
 E  DB1R    
 E  DB2R    
 E  DB3R    
 E  DB4R    
 E  DB5R    
 E  DB1T    
 E  DB2T    
 E  DB3T    
 E  DB4T    
 E  DB5T    
 E  DH1R    
 E  DH2R    
 E  DH3R    
 E  DH4R    
 E  DH5R    
 E  DH1T    
 E  DH2T    
 E  DH3T    
 E  DH4T    
 E  DH5T    
 E  DD1R    
 E  DD2R    
 E  DD3R    
 E  DD4R    
 E  DD5R    
 E  DD1T    
 E  DD2T    
 E  DD3T    
 E  DD4T    
 E  DD5T    
 E  DL1R    
 E  DL2R    
 E  DL3R    
 E  DL4R    
 E  DL5R    
 E  DL1T    
 E  DL2T    
 E  DL3T    
 E  DL4T    
 E  DL5T    
 E  DE1R    
 E  DE2R    
 E  DE3R    
 E  DE4R    
 E  DE5R    
 E  DE1T    
 E  DE2T    
 E  DE3T    
 E  DE4T    
 E  DE5T    
 E  DG1R    
 E  DG2R    
 E  DG3R    
 E  DG4R    
 E  DG5R    
 E  DG1T    
 E  DG2T    
 E  DG3T    
 E  DG4T    
 E  DG5T    
 E  DJ1R    
 E  DJ2R    
 E  DJ3R    
 E  DJ4R    
 E  DJ5R    
 E  DJ1T    
 E  DJ2T    
 E  DJ3T    
 E  DJ4T    
 E  DJ5T    
 E  DM1R    
 E  DM2R    
 E  DM3R    
 E  DM4R    
 E  DM5R    
 E  DM1T    
 E  DM2T    
 E  DM3T    
 E  DM4T    
 E  DM5T    
 E  DN1R    
 E  DN2R    
 E  DN3R    
 E  DN4R    
 E  DN5R    
 E  DN1T    
 E  DN2T    
 E  DN3T    
 E  DN4T    
 E  DN5T    
 E  DP1R    
 E  DP2R    
 E  DP3R    
 E  DP4R    
 E  DP5R    
 E  DP1T    
 E  DP2T    
 E  DP3T    
 E  DP4T    
 E  DP5T    
 E  DR1R    
 E  DR2R    
 E  DR3R    
 E  DR4R    
 E  DR5R    
 E  DR1T    
 E  DR2T    
 E  DR3T    
 E  DR4T    
 E  DR5T    
 E  DS1R    
 E  DS2R    
 E  DS3R    
 E  DS4R    
 E  DS5R    
 E  DS1T    
 E  DS2T    
 E  DS3T    
 E  DS4T    
 E  DS5T    
 E  FA1R    
 E  FA2R    
 E  FA3R    
 E  FA4R    
 E  FA5R    
 E  FA1T    
 E  FA2T    
 E  FA3T    
 E  FA4T    
 E  FA5T    
 E  FB1R    
 E  FB2R    
 E  FB3R    
 E  FB4R    
 E  FB5R    
 E  FB1T    
 E  FB2T    
 E  FB3T    
 E  FB4T    
 E  FB5T    
 E  BL1R    
 E  BL2R    
 E  BL3R    
 E  BL4R    
 E  BL5R    
 E  BL1T    
 E  BL2T    
 E  BL3T    
 E  BL4T    
 E  BL5T    
 E  BO1R    
 E  BO2R    
 E  BO3R    
 E  BO4R    
 E  BO5R    
 E  BO1T    
 E  BO2T    
 E  BO3T    
 E  BO4T    
 E  BO5T    
 E  BR1R    
 E  BR2R    
 E  BR3R    
 E  BR4R    
 E  BR5R    
 E  BR1T    
 E  BR2T    
 E  BR3T    
 E  BR4T    
 E  BR5T    
 E  CE1R    
 E  CE2R    
 E  CE3R    
 E  CE4R    
 E  CE5R    
 E  CE1T    
 E  CE2T    
 E  CE3T    
 E  CE4T    
 E  CE5T    
 E  DU1R    
 E  DU2R    
 E  DU3R    
 E  DU4R    
 E  DU5R    
 E  DU1T    
 E  DU2T    
 E  DU3T    
 E  DU4T    
 E  DU5T    
 E  DI1R    
 E  DI2R    
 E  DI3R    
 E  DI4R    
 E  DI5R    
 E  DI1T    
 E  DI2T    
 E  DI3T    
 E  DI4T    
 E  DI5T    
 E  FC1R    
 E  FC2R    
 E  FC3R    
 E  FC4R    
 E  FC5R    
 E  FC1T    
 E  FC2T    
 E  FC3T    
 E  FC4T    
 E  FC5T    
 N  OBJ     
 E  UPBROW33898
 E  UPBROW33899
 E  UPBROW33900
 E  UPBROW33901
 E  UPBROW33902
 E  UPBROW33903
 E  UPBROW33904
 E  UPBROW33905
 E  UPBROW33906
 E  UPBROW33907
 E  UPBROW33908
 E  UPBROW33909
 E  UPBROW33910
 E  UPBROW33911
 E  UPBROW33912
 E  UPBROW33913
 E  UPBROW33914
 E  UPBROW33915
 E  UPBROW33916
 E  UPBROW33917
 E  UPBROW33918
 E  UPBROW33919
 E  UPBROW33920
 E  UPBROW33921
 E  UPBROW33922
 E  UPBROW33923
 E  UPBROW33924
 E  UPBROW33925
 E  UPBROW33926
 E  UPBROW33927
 E  UPBROW33928
 E  UPBROW33929
 E  UPBROW33930
 E  UPBROW33931
 E  UPBROW33932
 E  UPBROW33933
 E  UPBROW33934
 E  UPBROW33935
 E  UPBROW33936
 E  UPBROW33937
 E  UPBROW33938
 E  UPBROW33939
 E  UPBROW33940
 E  UPBROW33941
 E  UPBROW33942
 E  UPBROW33943
 E  UPBROW33944
 E  UPBROW33945
 E  UPBROW33946
 E  UPBROW33947
 E  UPBROW33948
 E  UPBROW33949
 E  UPBROW33950
 E  UPBROW33951
 E  UPBROW33952
 E  UPBROW33953
 E  UPBROW33954
 E  UPBROW33955
 E  UPBROW33956
 E  UPBROW33957
 E  UPBROW33958
 E  UPBROW33959
 E  UPBROW33960
 E  UPBROW33961
 E  UPBROW33962
 E  UPBROW33963
 E  UPBROW33964
 E  UPBROW33965
 E  UPBROW33966
 E  UPBROW33967
 E  UPBROW33968
 E  UPBROW33969
 E  UPBROW33970
 E  UPBROW33971
 E  UPBROW33972
 E  UPBROW33973
 E  UPBROW33974
 E  UPBROW33975
 E  UPBROW33976
 E  UPBROW33977
 E  UPBROW33978
 E  UPBROW33979
 E  UPBROW33980
 E  UPBROW33981
 E  UPBROW33982
 E  UPBROW33983
 E  UPBROW33984
 E  UPBROW33985
 E  UPBROW33986
 E  UPBROW33987
 E  UPBROW33988
 E  UPBROW33989
 E  UPBROW33990
 E  UPBROW33991
 E  UPBROW33992
 E  UPBROW33993
 E  UPBROW33994
 E  UPBROW33995
 E  UPBROW33996
 E  UPBROW33997
 E  UPBROW33998
 E  UPBROW33999
 E  UPBROW34000
 E  UPBROW34001
 E  UPBROW34002
 E  UPBROW34003
 E  UPBROW34004
 E  UPBROW34005
 E  UPBROW34006
 E  UPBROW34007
 E  UPBROW34008
 E  UPBROW34009
 E  UPBROW34010
 E  UPBROW34011
 E  UPBROW34012
 E  UPBROW34013
 E  UPBROW34014
 E  UPBROW34015
 E  UPBROW34016
 E  UPBROW34017
 E  UPBROW34018
 E  UPBROW34019
 E  UPBROW34020
 E  UPBROW34021
 E  UPBROW34022
 E  UPBROW34023
 E  UPBROW34024
 E  UPBROW34025
 E  UPBROW34026
 E  UPBROW34027
 E  UPBROW34028
 E  UPBROW34029
 E  UPBROW34030
 E  UPBROW34031
 E  UPBROW34032
 E  UPBROW34033
 E  UPBROW34034
 E  UPBROW34035
 E  UPBROW34036
 E  UPBROW34037
 E  UPBROW34038
 E  UPBROW34039
 E  UPBROW34040
 E  UPBROW34041
 E  UPBROW34042
 E  UPBROW34043
 E  UPBROW34044
 E  UPBROW34045
 E  UPBROW34046
 E  UPBROW34047
 E  UPBROW34048
 E  UPBROW34049
 E  UPBROW34050
 E  UPBROW34051
 E  UPBROW34052
 E  UPBROW34053
 E  UPBROW34054
 E  UPBROW34055
 E  UPBROW34056
 E  UPBROW34057
 E  UPBROW34058
 E  UPBROW34059
 E  UPBROW34060
 E  UPBROW34061
 E  UPBROW34062
 E  UPBROW34063
 E  UPBROW34064
 E  UPBROW34065
 E  UPBROW34066
 E  UPBROW34067
 E  UPBROW34068
 E  UPBROW34069
 E  UPBROW34070
 E  UPBROW34071
 E  UPBROW34072
 E  UPBROW34073
 E  UPBROW34074
 E  UPBROW34075
 E  UPBROW34076
 E  UPBROW34077
 E  UPBROW34078
 E  UPBROW34079
 E  UPBROW34080
 E  UPBROW34081
 E  UPBROW34082
 E  UPBROW34083
 E  UPBROW34084
 E  UPBROW34085
 E  UPBROW34086
 E  UPBROW34087
 E  UPBROW34088
 E  UPBROW34089
 E  UPBROW34090
 E  UPBROW34091
 E  UPBROW34092
 E  UPBROW34093
 E  UPBROW34094
 E  UPBROW34095
 E  UPBROW34096
 E  UPBROW34097
 E  UPBROW34098
 E  UPBROW34099
 E  UPBROW34100
 E  UPBROW34101
 E  UPBROW34102
 E  UPBROW34103
 E  UPBROW34104
 E  UPBROW34105
 E  UPBROW34106
 E  UPBROW34107
 E  UPBROW34108
 E  UPBROW34109
 E  UPBROW34110
 E  UPBROW34111
 E  UPBROW34112
 E  UPBROW34113
 E  UPBROW34114
 E  UPBROW34115
 E  UPBROW34116
 E  UPBROW34117
 E  UPBROW34118
 E  UPBROW34119
 E  UPBROW34120
 E  UPBROW34121
 E  UPBROW34122
 E  UPBROW34123
 E  UPBROW34124
 E  UPBROW34125
 E  UPBROW34126
 E  UPBROW34127
 E  UPBROW34128
 E  UPBROW34129
 E  UPBROW34130
 E  UPBROW34131
 E  UPBROW34132
 E  UPBROW34133
 E  UPBROW34134
 E  UPBROW34135
 E  UPBROW34136
 E  UPBROW34137
 E  UPBROW34138
 E  UPBROW34139
 E  UPBROW34140
 E  UPBROW34141
 E  UPBROW34142
 E  UPBROW34143
 E  UPBROW34144
 E  UPBROW34145
 E  UPBROW34146
 E  UPBROW34147
 E  UPBROW34148
 E  UPBROW34149
 E  UPBROW34150
 E  UPBROW34151
 E  UPBROW34152
 E  UPBROW34153
 E  UPBROW34154
 E  UPBROW34155
 E  UPBROW34156
 E  UPBROW34157
 E  UPBROW34158
 E  UPBROW34159
 E  UPBROW34160
 E  UPBROW34161
 E  UPBROW34162
 E  UPBROW34163
 E  UPBROW34164
 E  UPBROW34165
 E  UPBROW34166
 E  UPBROW34167
 E  UPBROW34168
 E  UPBROW34169
 E  UPBROW34170
 E  UPBROW34171
 E  UPBROW34172
 E  UPBROW34173
 E  UPBROW34174
 E  UPBROW34175
 E  UPBROW34176
 E  UPBROW34177
 E  UPBROW34178
 E  UPBROW34179
 E  UPBROW34180
 E  UPBROW34181
 E  UPBROW34182
 E  UPBROW34183
 E  UPBROW34184
 E  UPBROW34185
 E  UPBROW34186
 E  UPBROW34187
 E  UPBROW34188
 E  UPBROW34189
 E  UPBROW34190
 E  UPBROW34191
 E  UPBROW34192
 E  UPBROW34193
 E  UPBROW34194
 E  UPBROW34195
 E  UPBROW34196
 E  UPBROW34197
 E  UPBROW34198
 E  UPBROW34199
 E  UPBROW34200
 E  UPBROW34201
 E  UPBROW34202
 E  UPBROW34203
 E  UPBROW34204
 E  UPBROW34205
 E  UPBROW34206
 E  UPBROW34207
 E  UPBROW34208
 E  UPBROW34209
 E  UPBROW34210
 E  UPBROW34211
 E  UPBROW34212
 E  UPBROW34213
 E  UPBROW34214
 E  UPBROW34215
 E  UPBROW34216
 E  UPBROW34217
 E  UPBROW34218
 E  UPBROW34219
 E  UPBROW34220
 E  UPBROW34221
 E  UPBROW34222
 E  UPBROW34223
 E  UPBROW34224
 E  UPBROW34225
 E  UPBROW34226
 E  UPBROW34227
 E  UPBROW34228
 E  UPBROW34229
 E  UPBROW34230
 E  UPBROW34231
 E  UPBROW34232
 E  UPBROW34233
 E  UPBROW34234
 E  UPBROW34235
 E  UPBROW34236
 E  UPBROW34237
 E  UPBROW34238
 E  UPBROW34239
 E  UPBROW34240
 E  UPBROW34241
 E  UPBROW34242
 E  UPBROW34243
 E  UPBROW34244
 E  UPBROW34245
 E  UPBROW34246
 E  UPBROW34247
 E  UPBROW34248
 E  UPBROW34249
 E  UPBROW34250
 E  UPBROW34251
 E  UPBROW34252
 E  UPBROW34253
 E  UPBROW34254
 E  UPBROW34255
 E  UPBROW34256
 E  UPBROW34257
 E  UPBROW34258
 E  UPBROW34259
 E  UPBROW34260
 E  UPBROW34261
 E  UPBROW34262
 E  UPBROW34263
 E  UPBROW34264
 E  UPBROW34265
 E  UPBROW34266
 E  UPBROW34267
 E  UPBROW34268
 E  UPBROW34269
 E  UPBROW34270
 E  UPBROW34271
 E  UPBROW34272
 E  UPBROW34273
 E  UPBROW34274
 E  UPBROW34275
 E  UPBROW34276
 E  UPBROW34277
 E  UPBROW34278
 E  UPBROW34279
 E  UPBROW34280
 E  UPBROW34281
 E  UPBROW34282
 E  UPBROW34283
 E  UPBROW34284
 E  UPBROW34285
 E  UPBROW34286
 E  UPBROW34287
 E  UPBROW34288
 E  UPBROW34289
 E  UPBROW34290
 E  UPBROW34291
 E  UPBROW34292
 E  UPBROW34293
 E  UPBROW34294
 E  UPBROW34295
 E  UPBROW34296
 E  UPBROW34297
 E  UPBROW34298
 E  UPBROW34299
 E  UPBROW34300
 E  UPBROW34301
 E  UPBROW34302
 E  UPBROW34303
 E  UPBROW34304
 E  UPBROW34305
 E  UPBROW34306
 E  UPBROW34307
 E  UPBROW34308
 E  UPBROW34309
 E  UPBROW34310
 E  UPBROW34311
 E  UPBROW34312
 E  UPBROW34313
 E  UPBROW34314
 E  UPBROW34315
 E  UPBROW34316
 E  UPBROW34317
 E  UPBROW34318
 E  UPBROW34319
 E  UPBROW34320
 E  UPBROW34321
 E  UPBROW34322
 E  UPBROW34323
 E  UPBROW34324
 E  UPBROW34325
 E  UPBROW34326
 E  UPBROW34327
 E  UPBROW34328
 E  UPBROW34329
 E  UPBROW34330
 E  UPBROW34331
 E  UPBROW34332
 E  UPBROW34333
 E  UPBROW34334
 E  UPBROW34335
 E  UPBROW34336
 E  UPBROW34337
 E  UPBROW34338
 E  UPBROW34339
 E  UPBROW34340
 E  UPBROW34341
 E  UPBROW34342
 E  UPBROW34343
 E  UPBROW34344
 E  UPBROW34345
 E  UPBROW34346
 E  UPBROW34347
 E  UPBROW34348
 E  UPBROW34349
 E  UPBROW34350
 E  UPBROW34351
 E  UPBROW34352
 E  UPBROW34353
 E  UPBROW34354
 E  UPBROW34355
 E  UPBROW34356
 E  UPBROW34357
 E  UPBROW34358
 E  UPBROW34359
 E  UPBROW34360
 E  UPBROW34361
 E  UPBROW34362
 E  UPBROW34363
 E  UPBROW34364
 E  UPBROW34365
 E  UPBROW34366
 E  UPBROW34367
 E  UPBROW34368
 E  UPBROW34369
 E  UPBROW34370
 E  UPBROW34371
 E  UPBROW34372
 E  UPBROW34373
 E  UPBROW34374
 E  UPBROW34375
 E  UPBROW34376
 E  UPBROW34377
 E  UPBROW34378
 E  UPBROW34379
 E  UPBROW34380
 E  UPBROW34381
 E  UPBROW34382
 E  UPBROW34383
 E  UPBROW34384
 E  UPBROW34385
 E  UPBROW34386
 E  UPBROW34387
 E  UPBROW34388
 E  UPBROW34389
 E  UPBROW34390
 E  UPBROW34391
 E  UPBROW34392
 E  UPBROW34393
 E  UPBROW34394
 E  UPBROW34395
 E  UPBROW34396
 E  UPBROW34397
 E  UPBROW34398
 E  UPBROW34399
 E  UPBROW34400
 E  UPBROW34401
 E  UPBROW34402
 E  UPBROW34403
 E  UPBROW34404
 E  UPBROW34405
 E  UPBROW34406
 E  UPBROW34407
 E  UPBROW34408
 E  UPBROW34409
 E  UPBROW34410
 E  UPBROW34411
 E  UPBROW34412
 E  UPBROW34413
 E  UPBROW34414
 E  UPBROW34415
 E  UPBROW34416
 E  UPBROW34417
 E  UPBROW34418
 E  UPBROW34419
 E  UPBROW34420
 E  UPBROW34421
 E  UPBROW34422
 E  UPBROW34423
 E  UPBROW34424
 E  UPBROW34425
 E  UPBROW34426
 E  UPBROW34427
 E  UPBROW34428
 E  UPBROW34429
 E  UPBROW34430
 E  UPBROW34431
 E  UPBROW34432
 E  UPBROW34433
 E  UPBROW34434
 E  UPBROW34435
 E  UPBROW34436
 E  UPBROW34437
 E  UPBROW34438
 E  UPBROW34439
 E  UPBROW34440
 E  UPBROW34441
 E  UPBROW34442
 E  UPBROW34443
 E  UPBROW34444
 E  UPBROW34445
 E  UPBROW34446
 E  UPBROW34447
 E  UPBROW34448
 E  UPBROW34449
 E  UPBROW34450
 E  UPBROW34451
 E  UPBROW34452
 E  UPBROW34453
 E  UPBROW34454
 E  UPBROW34455
 E  UPBROW34456
 E  UPBROW34457
 E  UPBROW34458
 E  UPBROW34459
 E  UPBROW34460
 E  UPBROW34461
 E  UPBROW34462
 E  UPBROW34463
 E  UPBROW34464
 E  UPBROW34465
 E  UPBROW34466
 E  UPBROW34467
 E  UPBROW34468
 E  UPBROW34469
 E  UPBROW34470
 E  UPBROW34471
 E  UPBROW34472
 E  UPBROW34473
 E  UPBROW34474
 E  UPBROW34475
 E  UPBROW34476
 E  UPBROW34477
 E  UPBROW34478
 E  UPBROW34479
 E  UPBROW34480
 E  UPBROW34481
 E  UPBROW34482
 E  UPBROW34483
 E  UPBROW34484
 E  UPBROW34485
 E  UPBROW34486
 E  UPBROW34487
 E  UPBROW34488
 E  UPBROW34489
 E  UPBROW34490
 E  UPBROW34491
 E  UPBROW34492
 E  UPBROW34493
 E  UPBROW34494
 E  UPBROW34495
 E  UPBROW34496
 E  UPBROW34497
 E  UPBROW34498
 E  UPBROW34499
 E  UPBROW34500
 E  UPBROW34501
 E  UPBROW34502
 E  UPBROW34503
 E  UPBROW34504
 E  UPBROW34505
 E  UPBROW34506
 E  UPBROW34507
 E  UPBROW34508
 E  UPBROW34509
 E  UPBROW34510
 E  UPBROW34511
 E  UPBROW34512
 E  UPBROW34513
 E  UPBROW34514
 E  UPBROW34515
 E  UPBROW34516
 E  UPBROW34517
 E  UPBROW34518
 E  UPBROW34519
 E  UPBROW34520
 E  UPBROW34521
 E  UPBROW34522
 E  UPBROW34523
 E  UPBROW34524
 E  UPBROW34525
 E  UPBROW34526
 E  UPBROW34527
 E  UPBROW34528
 E  UPBROW34529
 E  UPBROW34530
 E  UPBROW34531
 E  UPBROW34532
 E  UPBROW34533
 E  UPBROW34534
 E  UPBROW34535
 E  UPBROW34536
 E  UPBROW34537
 E  UPBROW34538
 E  UPBROW34539
 E  UPBROW34540
 E  UPBROW34541
 E  UPBROW34542
 E  UPBROW34543
 E  UPBROW34544
 E  UPBROW34545
 E  UPBROW34546
 E  UPBROW34547
 E  UPBROW34548
 E  UPBROW34549
 E  UPBROW34550
 E  UPBROW34551
 E  UPBROW34552
 E  UPBROW34553
 E  UPBROW34554
 E  UPBROW34555
 E  UPBROW34556
 E  UPBROW34557
 E  UPBROW34558
 E  UPBROW34559
 E  UPBROW34560
 E  UPBROW34561
 E  UPBROW34562
 E  UPBROW34563
 E  UPBROW34564
 E  UPBROW34565
 E  UPBROW34566
 E  UPBROW34567
 E  UPBROW34568
 E  UPBROW34569
 E  UPBROW34570
 E  UPBROW34571
 E  UPBROW34572
 E  UPBROW34573
 E  UPBROW34574
 E  UPBROW34575
 E  UPBROW34576
 E  UPBROW34577
 E  UPBROW34578
 E  UPBROW34579
 E  UPBROW34580
 E  UPBROW34581
 E  UPBROW34582
 E  UPBROW34583
 E  UPBROW34584
 E  UPBROW34585
 E  UPBROW34586
 E  UPBROW34587
 E  UPBROW34588
 E  UPBROW34589
 E  UPBROW34590
 E  UPBROW34591
 E  UPBROW34592
 E  UPBROW34593
 E  UPBROW34594
 E  UPBROW34595
 E  UPBROW34596
 E  UPBROW34597
 E  UPBROW34598
 E  UPBROW34599
 E  UPBROW34600
 E  UPBROW34601
 E  UPBROW34602
 E  UPBROW34603
 E  UPBROW34604
 E  UPBROW34605
 E  UPBROW34606
 E  UPBROW34607
 E  UPBROW34608
 E  UPBROW34609
 E  UPBROW34610
 E  UPBROW34611
 E  UPBROW34612
 E  UPBROW34613
 E  UPBROW34614
 E  UPBROW34615
 E  UPBROW34616
 E  UPBROW34617
 E  UPBROW34618
 E  UPBROW34619
 E  UPBROW34620
 E  UPBROW34621
 E  UPBROW34622
 E  UPBROW34623
 E  UPBROW34624
 E  UPBROW34625
 E  UPBROW34626
 E  UPBROW34627
 E  UPBROW34628
 E  UPBROW34629
 E  UPBROW34630
 E  UPBROW34631
 E  UPBROW34632
 E  UPBROW34633
 E  UPBROW34634
 E  UPBROW34635
 E  UPBROW34636
 E  UPBROW34637
 E  UPBROW34638
 E  UPBROW34639
 E  UPBROW34640
 E  UPBROW34641
 E  UPBROW34642
 E  UPBROW34643
 E  UPBROW34644
 E  UPBROW34645
 E  UPBROW34646
 E  UPBROW34647
 E  UPBROW34648
 E  UPBROW34649
 E  UPBROW34650
 E  UPBROW34651
 E  UPBROW34652
 E  UPBROW34653
 E  UPBROW34654
 E  UPBROW34655
 E  UPBROW34656
 E  UPBROW34657
 E  UPBROW34658
 E  UPBROW34659
 E  UPBROW34660
 E  UPBROW34661
 E  UPBROW34662
 E  UPBROW34663
 E  UPBROW34664
 E  UPBROW34665
 E  UPBROW34666
 E  UPBROW34667
 E  UPBROW34668
 E  UPBROW34669
 E  UPBROW34670
 E  UPBROW34671
 E  UPBROW34672
 E  UPBROW34673
 E  UPBROW34674
 E  UPBROW34675
 E  UPBROW34676
 E  UPBROW34677
 E  UPBROW34678
 E  UPBROW34679
 E  UPBROW34680
 E  UPBROW34681
 E  UPBROW34682
 E  UPBROW34683
 E  UPBROW34684
 E  UPBROW34685
 E  UPBROW34686
 E  UPBROW34687
 E  UPBROW34688
 E  UPBROW34689
 E  UPBROW34690
 E  UPBROW34691
 E  UPBROW34692
 E  UPBROW34693
 E  UPBROW34694
 E  UPBROW34695
 E  UPBROW34696
 E  UPBROW34697
 E  UPBROW34698
 E  UPBROW34699
 E  UPBROW34700
 E  UPBROW34701
 E  UPBROW34702
 E  UPBROW34703
 E  UPBROW34704
 E  UPBROW34705
 E  UPBROW34706
 E  UPBROW34707
 E  UPBROW34708
 E  UPBROW34709
 E  UPBROW34710
 E  UPBROW34711
 E  UPBROW34712
 E  UPBROW34713
 E  UPBROW34714
 E  UPBROW34715
 E  UPBROW34716
 E  UPBROW34717
 E  UPBROW34718
 E  UPBROW34719
 E  UPBROW34720
 E  UPBROW34721
 E  UPBROW34722
 E  UPBROW34723
 E  UPBROW34724
 E  UPBROW34725
 E  UPBROW34726
 E  UPBROW34727
 E  UPBROW34728
 E  UPBROW34729
 E  UPBROW34730
 E  UPBROW34731
 E  UPBROW34732
 E  UPBROW34733
 E  UPBROW34734
 E  UPBROW34735
 E  UPBROW34736
 E  UPBROW34737
 E  UPBROW34738
 E  UPBROW34739
 E  UPBROW34740
 E  UPBROW34741
 E  UPBROW34742
 E  UPBROW34743
 E  UPBROW34744
 E  UPBROW34745
 E  UPBROW34746
 E  UPBROW34747
 E  UPBROW34748
 E  UPBROW34749
 E  UPBROW34750
 E  UPBROW34751
 E  UPBROW34752
 E  UPBROW34753
 E  UPBROW34754
 E  UPBROW34755
 E  UPBROW34756
 E  UPBROW34757
 E  UPBROW34758
 E  UPBROW34759
 E  UPBROW34760
 E  UPBROW34761
 E  UPBROW34762
 E  UPBROW34763
 E  UPBROW34764
 E  UPBROW34765
 E  UPBROW34766
 E  UPBROW34767
 E  UPBROW34768
 E  UPBROW34769
 E  UPBROW34770
 E  UPBROW34771
 E  UPBROW34772
 E  UPBROW34773
 E  UPBROW34774
 E  UPBROW34775
 E  UPBROW34776
 E  UPBROW34777
 E  UPBROW34778
 E  UPBROW34779
 E  UPBROW34780
 E  UPBROW34781
 E  UPBROW34782
 E  UPBROW34783
 E  UPBROW34784
 E  UPBROW34785
 E  UPBROW34786
 E  UPBROW34787
 E  UPBROW34788
 E  UPBROW34789
 E  UPBROW34790
 E  UPBROW34791
 E  UPBROW34792
 E  UPBROW34793
 E  UPBROW34794
 E  UPBROW34795
 E  UPBROW34796
 E  UPBROW34797
 E  UPBROW34798
 E  UPBROW34799
 E  UPBROW34800
 E  UPBROW34801
 E  UPBROW34802
 E  UPBROW34803
 E  UPBROW34804
 E  UPBROW34805
 E  UPBROW34806
 E  UPBROW34807
 E  UPBROW34808
 E  UPBROW34809
 E  UPBROW34810
 E  UPBROW34811
 E  UPBROW34812
 E  UPBROW34813
 E  UPBROW34814
 E  UPBROW34815
 E  UPBROW34816
 E  UPBROW34817
 E  UPBROW34818
 E  UPBROW34819
 E  UPBROW34820
 E  UPBROW34821
 E  UPBROW34822
 E  UPBROW34823
 E  UPBROW34824
 E  UPBROW34825
 E  UPBROW34826
 E  UPBROW34827
 E  UPBROW34828
 E  UPBROW34829
 E  UPBROW34830
 E  UPBROW34831
 E  UPBROW34832
 E  UPBROW34833
 E  UPBROW34834
 E  UPBROW34835
 E  UPBROW34836
 E  UPBROW34837
 E  UPBROW34838
 E  UPBROW34839
 E  UPBROW34840
 E  UPBROW34841
 E  UPBROW34842
 E  UPBROW34843
 E  UPBROW34844
 E  UPBROW34845
 E  UPBROW34846
 E  UPBROW34847
 E  UPBROW34848
 E  UPBROW34849
 E  UPBROW34850
 E  UPBROW34851
 E  UPBROW34852
 E  UPBROW34853
 E  UPBROW34854
 E  UPBROW34855
 E  UPBROW34856
 E  UPBROW34857
 E  UPBROW34858
 E  UPBROW34859
 E  UPBROW34860
 E  UPBROW34861
 E  UPBROW34862
 E  UPBROW34863
 E  UPBROW34864
 E  UPBROW34865
 E  UPBROW34866
 E  UPBROW34867
 E  UPBROW34868
 E  UPBROW34869
 E  UPBROW34870
 E  UPBROW34871
 E  UPBROW34872
 E  UPBROW34873
 E  UPBROW34874
 E  UPBROW34875
 E  UPBROW34876
 E  UPBROW34877
 E  UPBROW34878
 E  UPBROW34879
 E  UPBROW34880
 E  UPBROW34881
 E  UPBROW34882
 E  UPBROW34883
 E  UPBROW34884
 E  UPBROW34885
 E  UPBROW34886
 E  UPBROW34887
 E  UPBROW34888
 E  UPBROW34889
 E  UPBROW34890
 E  UPBROW34891
 E  UPBROW34892
 E  UPBROW34893
 E  UPBROW34894
 E  UPBROW34895
 E  UPBROW34896
 E  UPBROW34897
 E  UPBROW34898
 E  UPBROW34899
 E  UPBROW34900
 E  UPBROW34901
 E  UPBROW34902
 E  UPBROW34903
 E  UPBROW34904
 E  UPBROW34905
 E  UPBROW34906
 E  UPBROW34907
 E  UPBROW34908
 E  UPBROW34909
 E  UPBROW34910
 E  UPBROW34911
 E  UPBROW34912
 E  UPBROW34913
 E  UPBROW34914
 E  UPBROW34915
 E  UPBROW34916
 E  UPBROW34917
 E  UPBROW34918
 E  UPBROW34919
 E  UPBROW34920
 E  UPBROW34921
 E  UPBROW34922
 E  UPBROW34923
 E  UPBROW34924
 E  UPBROW34925
 E  UPBROW34926
 E  UPBROW34927
 E  UPBROW34928
 E  UPBROW34929
 E  UPBROW34930
 E  UPBROW34931
 E  UPBROW34932
 E  UPBROW34933
 E  UPBROW34934
 E  UPBROW34935
 E  UPBROW34936
 E  UPBROW34937
 E  UPBROW34938
 E  UPBROW34939
 E  UPBROW34940
 E  UPBROW34941
 E  UPBROW34942
 E  UPBROW34943
 E  UPBROW34944
 E  UPBROW34945
 E  UPBROW34946
 E  UPBROW34947
 E  UPBROW34948
 E  UPBROW34949
 E  UPBROW34950
 E  UPBROW34951
 E  UPBROW34952
 E  UPBROW34953
 E  UPBROW34954
 E  UPBROW34955
 E  UPBROW34956
 E  UPBROW34957
 E  UPBROW34958
 E  UPBROW34959
 E  UPBROW34960
 E  UPBROW34961
 E  UPBROW34962
 E  UPBROW34963
 E  UPBROW34964
 E  UPBROW34965
 E  UPBROW34966
 E  UPBROW34967
 E  UPBROW34968
 E  UPBROW34969
 E  UPBROW34970
 E  UPBROW34971
 E  UPBROW34972
 E  UPBROW34973
 E  UPBROW34974
 E  UPBROW34975
 E  UPBROW34976
 E  UPBROW34977
 E  UPBROW34978
 E  UPBROW34979
 E  UPBROW34980
 E  UPBROW34981
 E  UPBROW34982
 E  UPBROW34983
 E  UPBROW34984
 E  UPBROW34985
 E  UPBROW34986
 E  UPBROW34987
 E  UPBROW34988
 E  UPBROW34989
 E  UPBROW34990
 E  UPBROW34991
 E  UPBROW34992
 E  UPBROW34993
 E  UPBROW34994
 E  UPBROW34995
 E  UPBROW34996
 E  UPBROW34997
 E  UPBROW34998
 E  UPBROW34999
 E  UPBROW35000
 E  UPBROW35001
 E  UPBROW35002
 E  UPBROW35003
 E  UPBROW35004
 E  UPBROW35005
 E  UPBROW35006
 E  UPBROW35007
 E  UPBROW35008
 E  UPBROW35009
 E  UPBROW35010
 E  UPBROW35011
 E  UPBROW35012
 E  UPBROW35013
 E  UPBROW35014
 E  UPBROW35015
 E  UPBROW35016
 E  UPBROW35017
 E  UPBROW35018
 E  UPBROW35019
 E  UPBROW35020
 E  UPBROW35021
 E  UPBROW35022
 E  UPBROW35023
 E  UPBROW35024
 E  UPBROW35025
 E  UPBROW35026
 E  UPBROW35027
 E  UPBROW35028
 E  UPBROW35029
 E  UPBROW35030
 E  UPBROW35031
 E  UPBROW35032
 E  UPBROW35033
 E  UPBROW35034
 E  UPBROW35035
 E  UPBROW35036
 E  UPBROW35037
 E  UPBROW35038
 E  UPBROW35039
 E  UPBROW35040
 E  UPBROW35041
 E  UPBROW35042
 E  UPBROW35043
 E  UPBROW35044
 E  UPBROW35045
 E  UPBROW35046
 E  UPBROW35047
 E  UPBROW35048
 E  UPBROW35049
 E  UPBROW35050
 E  UPBROW35051
 E  UPBROW35052
 E  UPBROW35053
 E  UPBROW35054
 E  UPBROW35055
 E  UPBROW35056
 E  UPBROW35057
 E  UPBROW35058
 E  UPBROW35059
 E  UPBROW35060
 E  UPBROW35061
 E  UPBROW35062
 E  UPBROW35063
 E  UPBROW35064
 E  UPBROW35065
 E  UPBROW35066
 E  UPBROW35067
 E  UPBROW35068
 E  UPBROW35069
 E  UPBROW35070
 E  UPBROW35071
 E  UPBROW35072
 E  UPBROW35073
 E  UPBROW35074
 E  UPBROW35075
 E  UPBROW35076
 E  UPBROW35077
 E  UPBROW35078
 E  UPBROW35079
 E  UPBROW35080
 E  UPBROW35081
 E  UPBROW35082
 E  UPBROW35083
 E  UPBROW35084
 E  UPBROW35085
 E  UPBROW35086
 E  UPBROW35087
 E  UPBROW35088
 E  UPBROW35089
 E  UPBROW35090
 E  UPBROW35091
 E  UPBROW35092
 E  UPBROW35093
 E  UPBROW35094
 E  UPBROW35095
 E  UPBROW35096
 E  UPBROW35097
 E  UPBROW35098
 E  UPBROW35099
 E  UPBROW35100
 E  UPBROW35101
 E  UPBROW35102
 E  UPBROW35103
 E  UPBROW35104
 E  UPBROW35105
 E  UPBROW35106
 E  UPBROW35107
 E  UPBROW35108
 E  UPBROW35109
 E  UPBROW35110
 E  UPBROW35111
 E  UPBROW35112
 E  UPBROW35113
 E  UPBROW35114
 E  UPBROW35115
 E  UPBROW35116
 E  UPBROW35117
 E  UPBROW35118
 E  UPBROW35119
 E  UPBROW35120
 E  UPBROW35121
 E  UPBROW35122
 E  UPBROW35123
 E  UPBROW35124
 E  UPBROW35125
 E  UPBROW35126
 E  UPBROW35127
 E  UPBROW35128
 E  UPBROW35129
 E  UPBROW35130
 E  UPBROW35131
 E  UPBROW35132
 E  UPBROW35133
 E  UPBROW35134
 E  UPBROW35135
 E  UPBROW35136
 E  UPBROW35137
 E  UPBROW35138
 E  UPBROW35139
 E  UPBROW35140
 E  UPBROW35141
 E  UPBROW35142
 E  UPBROW35143
 E  UPBROW35144
 E  UPBROW35145
 E  UPBROW35146
 E  UPBROW35147
 E  UPBROW35148
 E  UPBROW35149
 E  UPBROW35150
 E  UPBROW35151
 E  UPBROW35152
 E  UPBROW35153
 E  UPBROW35154
 E  UPBROW35155
 E  UPBROW35156
 E  UPBROW35157
 E  UPBROW35158
 E  UPBROW35159
 E  UPBROW35160
 E  UPBROW35161
 E  UPBROW35162
 E  UPBROW35163
 E  UPBROW35164
 E  UPBROW35165
 E  UPBROW35166
 E  UPBROW35167
 E  UPBROW35168
 E  UPBROW35169
 E  UPBROW35170
 E  UPBROW35171
 E  UPBROW35172
 E  UPBROW35173
 E  UPBROW35174
 E  UPBROW35175
 E  UPBROW35176
 E  UPBROW35177
 E  UPBROW35178
 E  UPBROW35179
 E  UPBROW35180
 E  UPBROW35181
 E  UPBROW35182
 E  UPBROW35183
 E  UPBROW35184
 E  UPBROW35185
 E  UPBROW35186
 E  UPBROW35187
 E  UPBROW35188
 E  UPBROW35189
 E  UPBROW35190
 E  UPBROW35191
 E  UPBROW35192
 E  UPBROW35193
 E  UPBROW35194
 E  UPBROW35195
 E  UPBROW35196
 E  UPBROW35197
 E  UPBROW35198
 E  UPBROW35199
 E  UPBROW35200
 E  UPBROW35201
 E  UPBROW35202
 E  UPBROW35203
 E  UPBROW35204
 E  UPBROW35205
 E  UPBROW35206
 E  UPBROW35207
 E  UPBROW35208
 E  UPBROW35209
 E  UPBROW35210
 E  UPBROW35211
 E  UPBROW35212
 E  UPBROW35213
 E  UPBROW35214
 E  UPBROW35215
 E  UPBROW35216
 E  UPBROW35217
 E  UPBROW35218
 E  UPBROW35219
 E  UPBROW35220
 E  UPBROW35221
 E  UPBROW35222
 E  UPBROW35223
 E  UPBROW35224
 E  UPBROW35225
 E  UPBROW35226
 E  UPBROW35227
 E  UPBROW35228
 E  UPBROW35229
 E  UPBROW35230
 E  UPBROW35231
 E  UPBROW35232
 E  UPBROW35233
 E  UPBROW35234
 E  UPBROW35235
 E  UPBROW35236
 E  UPBROW35237
 E  UPBROW35238
 E  UPBROW35239
 E  UPBROW35240
 E  UPBROW35241
 E  UPBROW35242
 E  UPBROW35243
 E  UPBROW35244
 E  UPBROW35245
 E  UPBROW35246
 E  UPBROW35247
 E  UPBROW35248
 E  UPBROW35249
 E  UPBROW35250
 E  UPBROW35251
 E  UPBROW35252
 E  UPBROW35253
 E  UPBROW35254
 E  UPBROW35255
 E  UPBROW35256
 E  UPBROW35257
 E  UPBROW35258
 E  UPBROW35259
 E  UPBROW35260
 E  UPBROW35261
 E  UPBROW35262
 E  UPBROW35263
 E  UPBROW35264
 E  UPBROW35265
 E  UPBROW35266
 E  UPBROW35267
 E  UPBROW35268
 E  UPBROW35269
 E  UPBROW35270
 E  UPBROW35271
 E  UPBROW35272
 E  UPBROW35273
 E  UPBROW35274
 E  UPBROW35275
 E  UPBROW35276
 E  UPBROW35277
 E  UPBROW35278
 E  UPBROW35279
 E  UPBROW35280
 E  UPBROW35281
 E  UPBROW35282
 E  UPBROW35283
 E  UPBROW35284
 E  UPBROW35285
 E  UPBROW35286
 E  UPBROW35287
 E  UPBROW35288
 E  UPBROW35289
 E  UPBROW35290
 E  UPBROW35291
 E  UPBROW35292
 E  UPBROW35293
 E  UPBROW35294
 E  UPBROW35295
 E  UPBROW35296
 E  UPBROW35297
 E  UPBROW35298
 E  UPBROW35299
 E  UPBROW35300
 E  UPBROW35301
 E  UPBROW35302
 E  UPBROW35303
 E  UPBROW35304
 E  UPBROW35305
 E  UPBROW35306
 E  UPBROW35307
 E  UPBROW35308
 E  UPBROW35309
 E  UPBROW35310
 E  UPBROW35311
 E  UPBROW35312
 E  UPBROW35313
 E  UPBROW35314
 E  UPBROW35315
 E  UPBROW35316
 E  UPBROW35317
 E  UPBROW35318
 E  UPBROW35319
 E  UPBROW35320
 E  UPBROW35321
 E  UPBROW35322
 E  UPBROW35323
 E  UPBROW35324
 E  UPBROW35325
 E  UPBROW35326
 E  UPBROW35327
 E  UPBROW35328
 E  UPBROW35329
 E  UPBROW35330
 E  UPBROW35331
 E  UPBROW35332
 E  UPBROW35333
 E  UPBROW35334
 E  UPBROW35335
 E  UPBROW35336
 E  UPBROW35337
 E  UPBROW35338
 E  UPBROW35339
 E  UPBROW35340
 E  UPBROW35341
 E  UPBROW35342
 E  UPBROW35343
 E  UPBROW35344
 E  UPBROW35345
 E  UPBROW35346
 E  UPBROW35347
 E  UPBROW35348
 E  UPBROW35349
 E  UPBROW35350
 E  UPBROW35351
 E  UPBROW35352
 E  UPBROW35353
 E  UPBROW35354
 E  UPBROW35355
 E  UPBROW35356
 E  UPBROW35357
 E  UPBROW35358
 E  UPBROW35359
 E  UPBROW35360
 E  UPBROW35361
 E  UPBROW35362
 E  UPBROW35363
 E  UPBROW35364
 E  UPBROW35365
 E  UPBROW35366
 E  UPBROW35367
 E  UPBROW35368
 E  UPBROW35369
 E  UPBROW35370
 E  UPBROW35371
 E  UPBROW35372
 E  UPBROW35373
 E  UPBROW35374
 E  UPBROW35375
 E  UPBROW35376
 E  UPBROW35377
 E  UPBROW35378
 E  UPBROW35379
 E  UPBROW35380
 E  UPBROW35381
 E  UPBROW35382
 E  UPBROW35383
 E  UPBROW35384
 E  UPBROW35385
 E  UPBROW35386
 E  UPBROW35387
 E  UPBROW35388
 E  UPBROW35389
 E  UPBROW35390
 E  UPBROW35391
 E  UPBROW35392
 E  UPBROW35393
 E  UPBROW35394
 E  UPBROW35395
 E  UPBROW35396
 E  UPBROW35397
 E  UPBROW35398
 E  UPBROW35399
 E  UPBROW35400
 E  UPBROW35401
 E  UPBROW35402
 E  UPBROW35403
 E  UPBROW35404
 E  UPBROW35405
 E  UPBROW35406
 E  UPBROW35407
 E  UPBROW35408
 E  UPBROW35409
 E  UPBROW35410
 E  UPBROW35411
 E  UPBROW35412
 E  UPBROW35413
 E  UPBROW35414
 E  UPBROW35415
 E  UPBROW35416
 E  UPBROW35417
 E  UPBROW35418
 E  UPBROW35419
 E  UPBROW35420
 E  UPBROW35421
 E  UPBROW35422
 E  UPBROW35423
 E  UPBROW35424
 E  UPBROW35425
 E  UPBROW35426
 E  UPBROW35427
 E  UPBROW35428
 E  UPBROW35429
 E  UPBROW35430
 E  UPBROW35431
 E  UPBROW35432
 E  UPBROW35433
 E  UPBROW35434
 E  UPBROW35435
 E  UPBROW35436
 E  UPBROW35437
 E  UPBROW35438
 E  UPBROW35439
 E  UPBROW35440
 E  UPBROW35441
 E  UPBROW35442
 E  UPBROW35443
 E  UPBROW35444
 E  UPBROW35445
 E  UPBROW35446
 E  UPBROW35447
 E  UPBROW35448
 E  UPBROW35449
 E  UPBROW35450
 E  UPBROW35451
 E  UPBROW35452
 E  UPBROW35453
 E  UPBROW35454
 E  UPBROW35455
 E  UPBROW35456
 E  UPBROW35457
 E  UPBROW35458
 E  UPBROW35459
 E  UPBROW35460
 E  UPBROW35461
 E  UPBROW35462
 E  UPBROW35463
 E  UPBROW35464
 E  UPBROW35465
 E  UPBROW35466
 E  UPBROW35467
 E  UPBROW35468
 E  UPBROW35469
 E  UPBROW35470
 E  UPBROW35471
 E  UPBROW35472
 E  UPBROW35473
 E  UPBROW35474
 E  UPBROW35475
 E  UPBROW35476
 E  UPBROW35477
 E  UPBROW35478
 E  UPBROW35479
 E  UPBROW35480
 E  UPBROW35481
 E  UPBROW35482
 E  UPBROW35483
 E  UPBROW35484
 E  UPBROW35485
 E  UPBROW35486
 E  UPBROW35487
 E  UPBROW35488
 E  UPBROW35489
 E  UPBROW35490
 E  UPBROW35491
 E  UPBROW35492
 E  UPBROW35493
 E  UPBROW35494
 E  UPBROW35495
 E  UPBROW35496
 E  UPBROW35497
 E  UPBROW35498
 E  UPBROW35499
 E  UPBROW35500
 E  UPBROW35501
 E  UPBROW35502
 E  UPBROW35503
 E  UPBROW35504
 E  UPBROW35505
 E  UPBROW35506
 E  UPBROW35507
 E  UPBROW35508
 E  UPBROW35509
 E  UPBROW35510
 E  UPBROW35511
 E  UPBROW35512
 E  UPBROW35513
 E  UPBROW35514
 E  UPBROW35515
 E  UPBROW35516
 E  UPBROW35517
 E  UPBROW35518
 E  UPBROW35519
 E  UPBROW35520
 E  UPBROW35521
 E  UPBROW35522
 E  UPBROW35523
 E  UPBROW35524
 E  UPBROW35525
 E  UPBROW35526
 E  UPBROW35527
 E  UPBROW35528
 E  UPBROW35529
 E  UPBROW35530
 E  UPBROW35531
 E  UPBROW35532
 E  UPBROW35533
 E  UPBROW35534
 E  UPBROW35535
 E  UPBROW35536
 E  UPBROW35537
 E  UPBROW35538
 E  UPBROW35539
 E  UPBROW35540
 E  UPBROW35541
 E  UPBROW35542
 E  UPBROW35543
 E  UPBROW35544
 E  UPBROW35545
 E  UPBROW35546
 E  UPBROW35547
 E  UPBROW35548
 E  UPBROW35549
 E  UPBROW35550
 E  UPBROW35551
 E  UPBROW35552
 E  UPBROW35553
 E  UPBROW35554
 E  UPBROW35555
 E  UPBROW35556
 E  UPBROW35557
 E  UPBROW35558
 E  UPBROW35559
 E  UPBROW35560
 E  UPBROW35561
 E  UPBROW35562
 E  UPBROW35563
 E  UPBROW35564
 E  UPBROW35565
 E  UPBROW35566
 E  UPBROW35567
 E  UPBROW35568
 E  UPBROW35569
 E  UPBROW35570
 E  UPBROW35571
 E  UPBROW35572
 E  UPBROW35573
 E  UPBROW35574
 E  UPBROW35575
 E  UPBROW35576
 E  UPBROW35577
 E  UPBROW35578
 E  UPBROW35579
 E  UPBROW35580
 E  UPBROW35581
 E  UPBROW35582
 E  UPBROW35583
 E  UPBROW35584
 E  UPBROW35585
 E  UPBROW35586
 E  UPBROW35587
 E  UPBROW35588
 E  UPBROW35589
 E  UPBROW35590
 E  UPBROW35591
 E  UPBROW35592
 E  UPBROW35593
 E  UPBROW35594
 E  UPBROW35595
 E  UPBROW35596
 E  UPBROW35597
 E  UPBROW35598
 E  UPBROW35599
 E  UPBROW35600
 E  UPBROW35601
 E  UPBROW35602
 E  UPBROW35603
 E  UPBROW35604
 E  UPBROW35605
 E  UPBROW35606
 E  UPBROW35607
 E  UPBROW35608
 E  UPBROW35609
 E  UPBROW35610
 E  UPBROW35611
 E  UPBROW35612
 E  UPBROW35613
 E  UPBROW35614
 E  UPBROW35615
 E  UPBROW35616
 E  UPBROW35617
 E  UPBROW35618
 E  UPBROW35619
 E  UPBROW35620
 E  UPBROW35621
 E  UPBROW35622
 E  UPBROW35623
 E  UPBROW35624
 E  UPBROW35625
 E  UPBROW35626
 E  UPBROW35627
 E  UPBROW35628
 E  UPBROW35629
 E  UPBROW35630
 E  UPBROW35631
 E  UPBROW35632
 E  UPBROW35633
 E  UPBROW35634
 E  UPBROW35635
 E  UPBROW35636
 E  UPBROW35637
 E  UPBROW35638
 E  UPBROW35639
 E  UPBROW35640
 E  UPBROW35641
 E  UPBROW35642
 E  UPBROW35643
 E  UPBROW35644
 E  UPBROW35645
 E  UPBROW35646
 E  UPBROW35647
 E  UPBROW35648
 E  UPBROW35649
 E  UPBROW35650
 E  UPBROW35651
 E  UPBROW35652
 E  UPBROW35653
 E  UPBROW35654
 E  UPBROW35655
 E  UPBROW35656
 E  UPBROW35657
 E  UPBROW35658
 E  UPBROW35659
 E  UPBROW35660
 E  UPBROW35661
 E  UPBROW35662
 E  UPBROW35663
 E  UPBROW35664
 E  UPBROW35665
 E  UPBROW35666
 E  UPBROW35667
 E  UPBROW35668
 E  UPBROW35669
 E  UPBROW35670
 E  UPBROW35671
 E  UPBROW35672
 E  UPBROW35673
 E  UPBROW35674
 E  UPBROW35675
 E  UPBROW35676
 E  UPBROW35677
 E  UPBROW35678
 E  UPBROW35679
 E  UPBROW35680
 E  UPBROW35681
 E  UPBROW35682
 E  UPBROW35683
 E  UPBROW35684
 E  UPBROW35685
 E  UPBROW35686
 E  UPBROW35687
 E  UPBROW35688
 E  UPBROW35689
 E  UPBROW35690
 E  UPBROW35691
 E  UPBROW35692
 E  UPBROW35693
 E  UPBROW35694
 E  UPBROW35695
 E  UPBROW35696
 E  UPBROW35697
 E  UPBROW35698
 E  UPBROW35699
 E  UPBROW35700
 E  UPBROW35701
 E  UPBROW35702
 E  UPBROW35703
 E  UPBROW35704
 E  UPBROW35705
 E  UPBROW35706
 E  UPBROW35707
 E  UPBROW35708
 E  UPBROW35709
 E  UPBROW35710
 E  UPBROW35711
 E  UPBROW35712
 E  UPBROW35713
 E  UPBROW35714
 E  UPBROW35715
 E  UPBROW35716
 E  UPBROW35717
 E  UPBROW35718
 E  UPBROW35719
 E  UPBROW35720
 E  UPBROW35721
 E  UPBROW35722
 E  UPBROW35723
 E  UPBROW35724
 E  UPBROW35725
 E  UPBROW35726
 E  UPBROW35727
 E  UPBROW35728
 E  UPBROW35729
 E  UPBROW35730
 E  UPBROW35731
 E  UPBROW35732
 E  UPBROW35733
 E  UPBROW35734
 E  UPBROW35735
 E  UPBROW35736
 E  UPBROW35737
 E  UPBROW35738
 E  UPBROW35739
 E  UPBROW35740
 E  UPBROW35741
 E  UPBROW35742
 E  UPBROW35743
 E  UPBROW35744
 E  UPBROW35745
 E  UPBROW35746
 E  UPBROW35747
 E  UPBROW35748
 E  UPBROW35749
 E  UPBROW35750
 E  UPBROW35751
 E  UPBROW35752
 E  UPBROW35753
 E  UPBROW35754
 E  UPBROW35755
 E  UPBROW35756
 E  UPBROW35757
 E  UPBROW35758
 E  UPBROW35759
 E  UPBROW35760
 E  UPBROW35761
 E  UPBROW35762
 E  UPBROW35763
 E  UPBROW35764
 E  UPBROW35765
 E  UPBROW35766
 E  UPBROW35767
 E  UPBROW35768
 E  UPBROW35769
 E  UPBROW35770
 E  UPBROW35771
 E  UPBROW35772
 E  UPBROW35773
 E  UPBROW35774
 E  UPBROW35775
 E  UPBROW35776
 E  UPBROW35777
 E  UPBROW35778
 E  UPBROW35779
 E  UPBROW35780
 E  UPBROW35781
 E  UPBROW35782
 E  UPBROW35783
 E  UPBROW35784
 E  UPBROW35785
 E  UPBROW35786
 E  UPBROW35787
 E  UPBROW35788
 E  UPBROW35789
 E  UPBROW35790
 E  UPBROW35791
 E  UPBROW35792
 E  UPBROW35793
 E  UPBROW35794
 E  UPBROW35795
 E  UPBROW35796
 E  UPBROW35797
 E  UPBROW35798
 E  UPBROW35799
 E  UPBROW35800
 E  UPBROW35801
 E  UPBROW35802
 E  UPBROW35803
 E  UPBROW35804
 E  UPBROW35805
 E  UPBROW35806
 E  UPBROW35807
 E  UPBROW35808
 E  UPBROW35809
 E  UPBROW35810
 E  UPBROW35811
 E  UPBROW35812
 E  UPBROW35813
 E  UPBROW35814
 E  UPBROW35815
 E  UPBROW35816
 E  UPBROW35817
 E  UPBROW35818
 E  UPBROW35819
 E  UPBROW35820
 E  UPBROW35821
 E  UPBROW35822
 E  UPBROW35823
 E  UPBROW35824
 E  UPBROW35825
 E  UPBROW35826
 E  UPBROW35827
 E  UPBROW35828
 E  UPBROW35829
 E  UPBROW35830
 E  UPBROW35831
 E  UPBROW35832
 E  UPBROW35833
 E  UPBROW35834
 E  UPBROW35835
 E  UPBROW35836
 E  UPBROW35837
 E  UPBROW35838
 E  UPBROW35839
 E  UPBROW35840
 E  UPBROW35841
 E  UPBROW35842
 E  UPBROW35843
 E  UPBROW35844
 E  UPBROW35845
 E  UPBROW35846
 E  UPBROW35847
 E  UPBROW35848
 E  UPBROW35849
 E  UPBROW35850
 E  UPBROW35851
 E  UPBROW35852
 E  UPBROW35853
 E  UPBROW35854
 E  UPBROW35855
 E  UPBROW35856
 E  UPBROW35857
 E  UPBROW35858
 E  UPBROW35859
 E  UPBROW35860
 E  UPBROW35861
 E  UPBROW35862
 E  UPBROW35863
 E  UPBROW35864
 E  UPBROW35865
 E  UPBROW35866
 E  UPBROW35867
 E  UPBROW35868
 E  UPBROW35869
 E  UPBROW35870
 E  UPBROW35871
 E  UPBROW35872
 E  UPBROW35873
 E  UPBROW35874
 E  UPBROW35875
 E  UPBROW35876
 E  UPBROW35877
 E  UPBROW35878
 E  UPBROW35879
 E  UPBROW35880
 E  UPBROW35881
 E  UPBROW35882
 E  UPBROW35883
 E  UPBROW35884
 E  UPBROW35885
 E  UPBROW35886
 E  UPBROW35887
 E  UPBROW35888
 E  UPBROW35889
 E  UPBROW35890
 E  UPBROW35891
 E  UPBROW35892
 E  UPBROW35893
 E  UPBROW35894
 E  UPBROW35895
 E  UPBROW35896
 E  UPBROW35897
 E  UPBROW35898
 E  UPBROW35899
 E  UPBROW35900
 E  UPBROW35901
 E  UPBROW35902
 E  UPBROW35903
 E  UPBROW35904
 E  UPBROW35905
 E  UPBROW35906
 E  UPBROW35907
 E  UPBROW35908
 E  UPBROW35909
 E  UPBROW35910
 E  UPBROW35911
 E  UPBROW35912
 E  UPBROW35913
 E  UPBROW35914
 E  UPBROW35915
 E  UPBROW35916
 E  UPBROW35917
 E  UPBROW35918
 E  UPBROW35919
 E  UPBROW35920
 E  UPBROW35921
 E  UPBROW35922
 E  UPBROW35923
 E  UPBROW35924
 E  UPBROW35925
 E  UPBROW35926
 E  UPBROW35927
 E  UPBROW35928
 E  UPBROW35929
 E  UPBROW35930
 E  UPBROW35931
 E  UPBROW35932
 E  UPBROW35933
COLUMNS
    BWSI1T   BW1T     1.000000   SI1T     -1.000000
    BWSI1T   UPBROW33898 1.000000
    BWSI1R   BW1R     1.000000   SI1R     -1.000000
    BWSI1R   UPBROW33899 1.000000
    BWSI2T   BW2T     1.000000   SI2T     -1.000000
    BWSI2T   UPBROW33900 1.000000
    BWSI2R   BW2R     1.000000   SI2R     -1.000000
    BWSI2R   UPBROW33901 1.000000
    BWSI3T   BW3T     1.000000   SI3T     -1.000000
    BWSI3T   UPBROW33902 1.000000
    BWSI3R   BW3R     1.000000   SI3R     -1.000000
    BWSI3R   UPBROW33903 1.000000
    BWSI4T   BW4T     1.000000   SI4T     -1.000000
    BWSI4T   UPBROW33904 1.000000
    BWSI4R   BW4R     1.000000   SI4R     -1.000000
    BWSI4R   UPBROW33905 1.000000
    BWSI5T   BW5T     1.000000   SI5T     -1.000000
    BWSI5T   UPBROW33906 1.000000
    BWSI5R   BW5R     1.000000   SI5R     -1.000000
    BWSI5R   UPBROW33907 1.000000
    FESI1T   FE1T     1.000000   SI1T     -1.000000
    FESI1T   UPBROW33908 1.000000
    FESI1R   FE1R     1.000000   SI1R     -1.000000
    FESI1R   UPBROW33909 1.000000
    FESI2T   FE2T     1.000000   SI2T     -1.000000
    FESI2T   UPBROW33910 1.000000
    FESI2R   FE2R     1.000000   SI2R     -1.000000
    FESI2R   UPBROW33911 1.000000
    FESI3T   FE3T     1.000000   SI3T     -1.000000
    FESI3T   UPBROW33912 1.000000
    FESI3R   FE3R     1.000000   SI3R     -1.000000
    FESI3R   UPBROW33913 1.000000
    FESI4T   FE4T     1.000000   SI4T     -1.000000
    FESI4T   UPBROW33914 1.000000
    FESI4R   FE4R     1.000000   SI4R     -1.000000
    FESI4R   UPBROW33915 1.000000
    FESI5T   FE5T     1.000000   SI5T     -1.000000
    FESI5T   UPBROW33916 1.000000
    FESI5R   FE5R     1.000000   SI5R     -1.000000
    FESI5R   UPBROW33917 1.000000
    SOSI1T   SO1T     1.000000   SI1T     -1.000000
    SOSI1T   UPBROW33918 1.000000
    SOSI1R   SO1R     1.000000   SI1R     -1.000000
    SOSI1R   UPBROW33919 1.000000
    SOSI2T   SO2T     1.000000   SI2T     -1.000000
    SOSI2T   UPBROW33920 1.000000
    SOSI2R   SO2R     1.000000   SI2R     -1.000000
    SOSI2R   UPBROW33921 1.000000
    SOSI3T   SO3T     1.000000   SI3T     -1.000000
    SOSI3T   UPBROW33922 1.000000
    SOSI3R   SO3R     1.000000   SI3R     -1.000000
    SOSI3R   UPBROW33923 1.000000
    SOSI4T   SO4T     1.000000   SI4T     -1.000000
    SOSI4T   UPBROW33924 1.000000
    SOSI4R   SO4R     1.000000   SI4R     -1.000000
    SOSI4R   UPBROW33925 1.000000
    SOSI5T   SO5T     1.000000   SI5T     -1.000000
    SOSI5T   UPBROW33926 1.000000
    SOSI5R   SO5R     1.000000   SI5R     -1.000000
    SOSI5R   UPBROW33927 1.000000
    YNSI1T   YN1T     1.000000   SI1T     -1.000000
    YNSI1T   UPBROW33928 1.000000
    YNSI1R   YN1R     1.000000   SI1R     -1.000000
    YNSI1R   UPBROW33929 1.000000
    YNSI2T   YN2T     1.000000   SI2T     -1.000000
    YNSI2T   UPBROW33930 1.000000
    YNSI2R   YN2R     1.000000   SI2R     -1.000000
    YNSI2R   UPBROW33931 1.000000
    YNSI3T   YN3T     1.000000   SI3T     -1.000000
    YNSI3T   UPBROW33932 1.000000
    YNSI3R   YN3R     1.000000   SI3R     -1.000000
    YNSI3R   UPBROW33933 1.000000
    YNSI4T   YN4T     1.000000   SI4T     -1.000000
    YNSI4T   UPBROW33934 1.000000
    YNSI4R   YN4R     1.000000   SI4R     -1.000000
    YNSI4R   UPBROW33935 1.000000
    YNSI5T   YN5T     1.000000   SI5T     -1.000000
    YNSI5T   UPBROW33936 1.000000
    YNSI5R   YN5R     1.000000   SI5R     -1.000000
    YNSI5R   UPBROW33937 1.000000
    DASI1R   DA1R     1.000000   SI1R     -1.000000
    DASI1R   UPBROW33938 1.000000
    DASI2R   DA2R     1.000000   SI2R     -1.000000
    DASI2R   UPBROW33939 1.000000
    DASI3R   DA3R     1.000000   SI3R     -1.000000
    DASI3R   UPBROW33940 1.000000
    DASI4R   DA4R     1.000000   SI4R     -1.000000
    DASI4R   UPBROW33941 1.000000
    DASI5R   DA5R     1.000000   SI5R     -1.000000
    DASI5R   UPBROW33942 1.000000
    DASI1T   DA1T     1.000000   SI1T     -1.000000
    DASI1T   UPBROW33943 1.000000
    DASI2T   DA2T     1.000000   SI2T     -1.000000
    DASI2T   UPBROW33944 1.000000
    DASI3T   DA3T     1.000000   SI3T     -1.000000
    DASI3T   UPBROW33945 1.000000
    DASI4T   DA4T     1.000000   SI4T     -1.000000
    DASI4T   UPBROW33946 1.000000
    DASI5T   DA5T     1.000000   SI5T     -1.000000
    DASI5T   UPBROW33947 1.000000
    BZSI1T   BZ1T     1.000000   SI1T     -1.000000
    BZSI1T   UPBROW33948 1.000000
    BZSI2T   BZ2T     1.000000   SI2T     -1.000000
    BZSI2T   UPBROW33949 1.000000
    BZSI3T   BZ3T     1.000000   SI3T     -1.000000
    BZSI3T   UPBROW33950 1.000000
    BZSI4T   BZ4T     1.000000   SI4T     -1.000000
    BZSI4T   UPBROW33951 1.000000
    BZSI5T   BZ5T     1.000000   SI5T     -1.000000
    BZSI5T   UPBROW33952 1.000000
    BZSI1R   BZ1R     1.000000   SI1R     -1.000000
    BZSI1R   UPBROW33953 1.000000
    BZSI2R   BZ2R     1.000000   SI2R     -1.000000
    BZSI2R   UPBROW33954 1.000000
    BZSI3R   BZ3R     1.000000   SI3R     -1.000000
    BZSI3R   UPBROW33955 1.000000
    BZSI4R   BZ4R     1.000000   SI4R     -1.000000
    BZSI4R   UPBROW33956 1.000000
    BZSI5R   BZ5R     1.000000   SI5R     -1.000000
    BZSI5R   UPBROW33957 1.000000
    BBBC1R   BB1R     1.000000   BC1R     -1.000000
    BBBC1R   OBJ      347.090000   0BBBC1   1.000000
    BBBC1R   UPBROW33958 1.000000
    BBBC2R   BB2R     1.000000   BC2R     -1.000000
    BBBC2R   OBJ      133.820000   0BBBC2   1.000000
    BBBC2R   UPBROW33959 1.000000
    BBBC3R   BB3R     1.000000   BC3R     -1.000000
    BBBC3R   OBJ      51.590000   0BBBC3   1.000000
    BBBC3R   UPBROW33960 1.000000
    BBBC4R   BB4R     1.000000   BC4R     -1.000000
    BBBC4R   OBJ      19.890000   0BBBC4   1.000000
    BBBC4R   UPBROW33961 1.000000
    BBBC5R   BB5R     1.000000   BC5R     -1.000000
    BBBC5R   OBJ      7.670000   0BBBC5   1.000000
    BBBC5R   UPBROW33962 1.000000
    BBBC1T   BB1T     1.000000   BC1T     -1.000000
    BBBC1T   OBJ      2316.700000   0BBBC1   1.000000
    BBBC1T   UPBROW33963 1.000000
    BBBC2T   BB2T     1.000000   BC2T     -1.000000
    BBBC2T   OBJ      893.170000   0BBBC2   1.000000
    BBBC2T   UPBROW33964 1.000000
    BBBC3T   BB3T     1.000000   BC3T     -1.000000
    BBBC3T   OBJ      344.360000   0BBBC3   1.000000
    BBBC3T   UPBROW33965 1.000000
    BBBC4T   BB4T     1.000000   BC4T     -1.000000
    BBBC4T   OBJ      132.760000   0BBBC4   1.000000
    BBBC4T   UPBROW33966 1.000000
    BBBC5T   BB5T     1.000000   BC5T     -1.000000
    BBBC5T   OBJ      51.190000   0BBBC5   1.000000
    BBBC5T   UPBROW33967 1.000000
    BCBN1R   BC1R     1.000000   BN1R     -1.000000
    BCBN1R   OBJ      213.600000   0BCBN1   1.000000
    BCBN1R   UPBROW33968 1.000000
    BCBN2R   BC2R     1.000000   BN2R     -1.000000
    BCBN2R   OBJ      82.350000   0BCBN2   1.000000
    BCBN2R   UPBROW33969 1.000000
    BCBN3R   BC3R     1.000000   BN3R     -1.000000
    BCBN3R   OBJ      31.750000   0BCBN3   1.000000
    BCBN3R   UPBROW33970 1.000000
    BCBN4R   BC4R     1.000000   BN4R     -1.000000
    BCBN4R   OBJ      12.240000   0BCBN4   1.000000
    BCBN4R   UPBROW33971 1.000000
    BCBN5R   BC5R     1.000000   BN5R     -1.000000
    BCBN5R   OBJ      4.720000   0BCBN5   1.000000
    BCBN5R   UPBROW33972 1.000000
    BCBN1T   BC1T     1.000000   BN1T     -1.000000
    BCBN1T   OBJ      1425.600000   0BCBN1   1.000000
    BCBN1T   UPBROW33973 1.000000
    BCBN2T   BC2T     1.000000   BN2T     -1.000000
    BCBN2T   OBJ      549.640000   0BCBN2   1.000000
    BCBN2T   UPBROW33974 1.000000
    BCBN3T   BC3T     1.000000   BN3T     -1.000000
    BCBN3T   OBJ      211.910000   0BCBN3   1.000000
    BCBN3T   UPBROW33975 1.000000
    BCBN4T   BC4T     1.000000   BN4T     -1.000000
    BCBN4T   OBJ      81.700000   0BCBN4   1.000000
    BCBN4T   UPBROW33976 1.000000
    BCBN5T   BC5T     1.000000   BN5T     -1.000000
    BCBN5T   OBJ      31.500000   0BCBN5   1.000000
    BCBN5T   UPBROW33977 1.000000
    BMBQ1R   BM1R     1.000000   BQ1R     -1.000000
    BMBQ1R   OBJ      1228.200000   0BMBQ1   1.000000
    BMBQ1R   UPBROW33978 1.000000
    BMBQ2R   BM2R     1.000000   BQ2R     -1.000000
    BMBQ2R   OBJ      473.520000   0BMBQ2   1.000000
    BMBQ2R   UPBROW33979 1.000000
    BMBQ3R   BM3R     1.000000   BQ3R     -1.000000
    BMBQ3R   OBJ      182.560000   0BMBQ3   1.000000
    BMBQ3R   UPBROW33980 1.000000
    BMBQ4R   BM4R     1.000000   BQ4R     -1.000000
    BMBQ4R   OBJ      70.390000   0BMBQ4   1.000000
    BMBQ4R   UPBROW33981 1.000000
    BMBQ5R   BM5R     1.000000   BQ5R     -1.000000
    BMBQ5R   OBJ      27.140000   0BMBQ5   1.000000
    BMBQ5R   UPBROW33982 1.000000
    BMBQ1T   BM1T     1.000000   BQ1T     -1.000000
    BMBQ1T   OBJ      8197.400000   0BMBQ1   1.000000
    BMBQ1T   UPBROW33983 1.000000
    BMBQ2T   BM2T     1.000000   BQ2T     -1.000000
    BMBQ2T   OBJ      3160.500000   0BMBQ2   1.000000
    BMBQ2T   UPBROW33984 1.000000
    BMBQ3T   BM3T     1.000000   BQ3T     -1.000000
    BMBQ3T   OBJ      1218.500000   0BMBQ3   1.000000
    BMBQ3T   UPBROW33985 1.000000
    BMBQ4T   BM4T     1.000000   BQ4T     -1.000000
    BMBQ4T   OBJ      469.780000   0BMBQ4   1.000000
    BMBQ4T   UPBROW33986 1.000000
    BMBQ5T   BM5T     1.000000   BQ5T     -1.000000
    BMBQ5T   OBJ      181.120000   0BMBQ5   1.000000
    BMBQ5T   UPBROW33987 1.000000
    BNBT1R   BN1R     1.000000   BT1R     -1.000000
    BNBT1R   OBJ      373.790000   0BNBT1   1.000000
    BNBT1R   UPBROW33988 1.000000
    BNBT2R   BN2R     1.000000   BT2R     -1.000000
    BNBT2R   OBJ      144.110000   0BNBT2   1.000000
    BNBT2R   UPBROW33989 1.000000
    BNBT3R   BN3R     1.000000   BT3R     -1.000000
    BNBT3R   OBJ      55.560000   0BNBT3   1.000000
    BNBT3R   UPBROW33990 1.000000
    BNBT4R   BN4R     1.000000   BT4R     -1.000000
    BNBT4R   OBJ      21.420000   0BNBT4   1.000000
    BNBT4R   UPBROW33991 1.000000
    BNBT5R   BN5R     1.000000   BT5R     -1.000000
    BNBT5R   OBJ      8.260000   0BNBT5   1.000000
    BNBT5R   UPBROW33992 1.000000
    BNBT1T   BN1T     1.000000   BT1T     -1.000000
    BNBT1T   OBJ      2494.900000   0BNBT1   1.000000
    BNBT1T   UPBROW33993 1.000000
    BNBT2T   BN2T     1.000000   BT2T     -1.000000
    BNBT2T   OBJ      961.880000   0BNBT2   1.000000
    BNBT2T   UPBROW33994 1.000000
    BNBT3T   BN3T     1.000000   BT3T     -1.000000
    BNBT3T   OBJ      370.850000   0BNBT3   1.000000
    BNBT3T   UPBROW33995 1.000000
    BNBT4T   BN4T     1.000000   BT4T     -1.000000
    BNBT4T   OBJ      142.980000   0BNBT4   1.000000
    BNBT4T   UPBROW33996 1.000000
    BNBT5T   BN5T     1.000000   BT5T     -1.000000
    BNBT5T   OBJ      55.120000   0BNBT5   1.000000
    BNBT5T   UPBROW33997 1.000000
    BPBS1R   BP1R     1.000000   BS1R     -1.000000
    BPBS1R   OBJ      1815.600000   0BPBS1   1.000000
    BPBS1R   UPBROW33998 1.000000
    BPBS2R   BP2R     1.000000   BS2R     -1.000000
    BPBS2R   OBJ      699.980000   0BPBS2   1.000000
    BPBS2R   UPBROW33999 1.000000
    BPBS3R   BP3R     1.000000   BS3R     -1.000000
    BPBS3R   OBJ      269.870000   0BPBS3   1.000000
    BPBS3R   UPBROW34000 1.000000
    BPBS4R   BP4R     1.000000   BS4R     -1.000000
    BPBS4R   OBJ      104.050000   0BPBS4   1.000000
    BPBS4R   UPBROW34001 1.000000
    BPBS5R   BP5R     1.000000   BS5R     -1.000000
    BPBS5R   OBJ      40.120000   0BPBS5   1.000000
    BPBS5R   UPBROW34002 1.000000
    BPBS1T   BP1T     1.000000   BS1T     -1.000000
    BPBS1T   OBJ      12118.000000   0BPBS1   1.000000
    BPBS1T   UPBROW34003 1.000000
    BPBS2T   BP2T     1.000000   BS2T     -1.000000
    BPBS2T   OBJ      4672.000000   0BPBS2   1.000000
    BPBS2T   UPBROW34004 1.000000
    BPBS3T   BP3T     1.000000   BS3T     -1.000000
    BPBS3T   OBJ      1801.200000   0BPBS3   1.000000
    BPBS3T   UPBROW34005 1.000000
    BPBS4T   BP4T     1.000000   BS4T     -1.000000
    BPBS4T   OBJ      694.460000   0BPBS4   1.000000
    BPBS4T   UPBROW34006 1.000000
    BPBS5T   BP5T     1.000000   BS5T     -1.000000
    BPBS5T   OBJ      267.740000   0BPBS5   1.000000
    BPBS5T   UPBROW34007 1.000000
    BQBP1R   BQ1R     1.000000   BP1R     -1.000000
    BQBP1R   OBJ      800.990000   0BQBP1   1.000000
    BQBP1R   UPBROW34008 1.000000
    BQBP2R   BQ2R     1.000000   BP2R     -1.000000
    BQBP2R   OBJ      308.820000   0BQBP2   1.000000
    BQBP2R   UPBROW34009 1.000000
    BQBP3R   BQ3R     1.000000   BP3R     -1.000000
    BQBP3R   OBJ      119.060000   0BQBP3   1.000000
    BQBP3R   UPBROW34010 1.000000
    BQBP4R   BQ4R     1.000000   BP4R     -1.000000
    BQBP4R   OBJ      45.900000   0BQBP4   1.000000
    BQBP4R   UPBROW34011 1.000000
    BQBP5R   BQ5R     1.000000   BP5R     -1.000000
    BQBP5R   OBJ      17.700000   0BQBP5   1.000000
    BQBP5R   UPBROW34012 1.000000
    BQBP1T   BQ1T     1.000000   BP1T     -1.000000
    BQBP1T   OBJ      5346.100000   0BQBP1   1.000000
    BQBP1T   UPBROW34013 1.000000
    BQBP2T   BQ2T     1.000000   BP2T     -1.000000
    BQBP2T   OBJ      2061.200000   0BQBP2   1.000000
    BQBP2T   UPBROW34014 1.000000
    BQBP3T   BQ3T     1.000000   BP3T     -1.000000
    BQBP3T   OBJ      794.670000   0BQBP3   1.000000
    BQBP3T   UPBROW34015 1.000000
    BQBP4T   BQ4T     1.000000   BP4T     -1.000000
    BQBP4T   OBJ      306.380000   0BQBP4   1.000000
    BQBP4T   UPBROW34016 1.000000
    BQBP5T   BQ5T     1.000000   BP5T     -1.000000
    BQBP5T   OBJ      118.120000   0BQBP5   1.000000
    BQBP5T   UPBROW34017 1.000000
    BSBT1R   BS1R     1.000000   BT1R     -1.000000
    BSBT1R   OBJ      200.560000   0BSBT1   1.000000
    BSBT1R   UPBROW34018 1.000000
    BSBT2R   BS2R     1.000000   BT2R     -1.000000
    BSBT2R   OBJ      77.320000   0BSBT2   1.000000
    BSBT2R   UPBROW34019 1.000000
    BSBT3R   BS3R     1.000000   BT3R     -1.000000
    BSBT3R   OBJ      29.810000   0BSBT3   1.000000
    BSBT3R   UPBROW34020 1.000000
    BSBT4R   BS4R     1.000000   BT4R     -1.000000
    BSBT4R   OBJ      11.490000   0BSBT4   1.000000
    BSBT4R   UPBROW34021 1.000000
    BSBT5R   BS5R     1.000000   BT5R     -1.000000
    BSBT5R   OBJ      4.430000   0BSBT5   1.000000
    BSBT5R   UPBROW34022 1.000000
    BSBT1T   BS1T     1.000000   BT1T     -1.000000
    BSBT1T   OBJ      1695.100000   0BSBT1   1.000000
    BSBT1T   UPBROW34023 1.000000
    BSBT2T   BS2T     1.000000   BT2T     -1.000000
    BSBT2T   OBJ      653.540000   0BSBT2   1.000000
    BSBT2T   UPBROW34024 1.000000
    BSBT3T   BS3T     1.000000   BT3T     -1.000000
    BSBT3T   OBJ      251.970000   0BSBT3   1.000000
    BSBT3T   UPBROW34025 1.000000
    BSBT4T   BS4T     1.000000   BT4T     -1.000000
    BSBT4T   OBJ      97.150000   0BSBT4   1.000000
    BSBT4T   UPBROW34026 1.000000
    BSBT5T   BS5T     1.000000   BT5T     -1.000000
    BSBT5T   OBJ      37.450000   0BSBT5   1.000000
    BSBT5T   UPBROW34027 1.000000
    BTBW1R   BT1R     1.000000   BW1R     -1.000000
    BTBW1R   OBJ      520.950000   0BTBW1   1.000000
    BTBW1R   UPBROW34028 1.000000
    BTBW2R   BT2R     1.000000   BW2R     -1.000000
    BTBW2R   OBJ      200.850000   0BTBW2   1.000000
    BTBW2R   UPBROW34029 1.000000
    BTBW3R   BT3R     1.000000   BW3R     -1.000000
    BTBW3R   OBJ      77.440000   0BTBW3   1.000000
    BTBW3R   UPBROW34030 1.000000
    BTBW4R   BT4R     1.000000   BW4R     -1.000000
    BTBW4R   OBJ      29.860000   0BTBW4   1.000000
    BTBW4R   UPBROW34031 1.000000
    BTBW5R   BT5R     1.000000   BW5R     -1.000000
    BTBW5R   OBJ      11.510000   0BTBW5   1.000000
    BTBW5R   UPBROW34032 1.000000
    BTBW1T   BT1T     1.000000   BW1T     -1.000000
    BTBW1T   OBJ      3475.300000   0BTBW1   1.000000
    BTBW1T   UPBROW34033 1.000000
    BTBW2T   BT2T     1.000000   BW2T     -1.000000
    BTBW2T   OBJ      1339.900000   0BTBW2   1.000000
    BTBW2T   UPBROW34034 1.000000
    BTBW3T   BT3T     1.000000   BW3T     -1.000000
    BTBW3T   OBJ      516.580000   0BTBW3   1.000000
    BTBW3T   UPBROW34035 1.000000
    BTBW4T   BT4T     1.000000   BW4T     -1.000000
    BTBW4T   OBJ      199.160000   0BTBW4   1.000000
    BTBW4T   UPBROW34036 1.000000
    BTBW5T   BT5T     1.000000   BW5T     -1.000000
    BTBW5T   OBJ      76.790000   0BTBW5   1.000000
    BTBW5T   UPBROW34037 1.000000
    BUBT1R   BU1R     1.000000   BT1R     -1.000000
    BUBT1R   OBJ      440.850000   0BUBT1   1.000000
    BUBT1R   UPBROW34038 1.000000
    BUBT2R   BU2R     1.000000   BT2R     -1.000000
    BUBT2R   OBJ      169.970000   0BUBT2   1.000000
    BUBT2R   UPBROW34039 1.000000
    BUBT3R   BU3R     1.000000   BT3R     -1.000000
    BUBT3R   OBJ      65.530000   0BUBT3   1.000000
    BUBT3R   UPBROW34040 1.000000
    BUBT4R   BU4R     1.000000   BT4R     -1.000000
    BUBT4R   OBJ      25.270000   0BUBT4   1.000000
    BUBT4R   UPBROW34041 1.000000
    BUBT5R   BU5R     1.000000   BT5R     -1.000000
    BUBT5R   OBJ      9.740000   0BUBT5   1.000000
    BUBT5R   UPBROW34042 1.000000
    BUBT1T   BU1T     1.000000   BT1T     -1.000000
    BUBT1T   OBJ      2940.700000   0BUBT1   1.000000
    BUBT1T   UPBROW34043 1.000000
    BUBT2T   BU2T     1.000000   BT2T     -1.000000
    BUBT2T   OBJ      1133.800000   0BUBT2   1.000000
    BUBT2T   UPBROW34044 1.000000
    BUBT3T   BU3T     1.000000   BT3T     -1.000000
    BUBT3T   OBJ      437.110000   0BUBT3   1.000000
    BUBT3T   UPBROW34045 1.000000
    BUBT4T   BU4T     1.000000   BT4T     -1.000000
    BUBT4T   OBJ      168.530000   0BUBT4   1.000000
    BUBT4T   UPBROW34046 1.000000
    BUBT5T   BU5T     1.000000   BT5T     -1.000000
    BUBT5T   OBJ      64.970000   0BUBT5   1.000000
    BUBT5T   UPBROW34047 1.000000
    BUBV1R   BU1R     1.000000   BV1R     -1.000000
    BUBV1R   OBJ      307.360000   0BUBV1   1.000000
    BUBV1R   UPBROW34048 1.000000
    BUBV2R   BU2R     1.000000   BV2R     -1.000000
    BUBV2R   OBJ      118.500000   0BUBV2   1.000000
    BUBV2R   UPBROW34049 1.000000
    BUBV3R   BU3R     1.000000   BV3R     -1.000000
    BUBV3R   OBJ      45.690000   0BUBV3   1.000000
    BUBV3R   UPBROW34050 1.000000
    BUBV4R   BU4R     1.000000   BV4R     -1.000000
    BUBV4R   OBJ      17.610000   0BUBV4   1.000000
    BUBV4R   UPBROW34051 1.000000
    BUBV5R   BU5R     1.000000   BV5R     -1.000000
    BUBV5R   OBJ      6.790000   0BUBV5   1.000000
    BUBV5R   UPBROW34052 1.000000
    BUBV1T   BU1T     1.000000   BV1T     -1.000000
    BUBV1T   OBJ      2049.700000   0BUBV1   1.000000
    BUBV1T   UPBROW34053 1.000000
    BUBV2T   BU2T     1.000000   BV2T     -1.000000
    BUBV2T   OBJ      790.230000   0BUBV2   1.000000
    BUBV2T   UPBROW34054 1.000000
    BUBV3T   BU3T     1.000000   BV3T     -1.000000
    BUBV3T   OBJ      304.670000   0BUBV3   1.000000
    BUBV3T   UPBROW34055 1.000000
    BUBV4T   BU4T     1.000000   BV4T     -1.000000
    BUBV4T   OBJ      117.460000   0BUBV4   1.000000
    BUBV4T   UPBROW34056 1.000000
    BUBV5T   BU5T     1.000000   BV5T     -1.000000
    BUBV5T   OBJ      45.290000   0BUBV5   1.000000
    BUBV5T   UPBROW34057 1.000000
    BUBX1R   BU1R     1.000000   BX1R     -1.000000
    BUBX1R   OBJ      587.390000   0BUBX1   1.000000
    BUBX1R   UPBROW34058 1.000000
    BUBX2R   BU2R     1.000000   BX2R     -1.000000
    BUBX2R   OBJ      226.460000   0BUBX2   1.000000
    BUBX2R   UPBROW34059 1.000000
    BUBX3R   BU3R     1.000000   BX3R     -1.000000
    BUBX3R   OBJ      87.310000   0BUBX3   1.000000
    BUBX3R   UPBROW34060 1.000000
    BUBX4R   BU4R     1.000000   BX4R     -1.000000
    BUBX4R   OBJ      33.660000   0BUBX4   1.000000
    BUBX4R   UPBROW34061 1.000000
    BUBX5R   BU5R     1.000000   BX5R     -1.000000
    BUBX5R   OBJ      12.980000   0BUBX5   1.000000
    BUBX5R   UPBROW34062 1.000000
    BUBX1T   BU1T     1.000000   BX1T     -1.000000
    BUBX1T   0BUBX1   1.000000   UPBROW34063 1.000000
    BUBX2T   BU2T     1.000000   BX2T     -1.000000
    BUBX2T   0BUBX2   1.000000   UPBROW34064 1.000000
    BUBX3T   BU3T     1.000000   BX3T     -1.000000
    BUBX3T   0BUBX3   1.000000   UPBROW34065 1.000000
    BUBX4T   BU4T     1.000000   BX4T     -1.000000
    BUBX4T   0BUBX4   1.000000   UPBROW34066 1.000000
    BUBX5T   BU5T     1.000000   BX5T     -1.000000
    BUBX5T   0BUBX5   1.000000   UPBROW34067 1.000000
    BVBU1R   BV1R     1.000000   BU1R     -1.000000
    BVBU1R   OBJ      307.360000   0BVBU1   1.000000
    BVBU1R   UPBROW34068 1.000000
    BVBU2R   BV2R     1.000000   BU2R     -1.000000
    BVBU2R   OBJ      118.500000   0BVBU2   1.000000
    BVBU2R   UPBROW34069 1.000000
    BVBU3R   BV3R     1.000000   BU3R     -1.000000
    BVBU3R   OBJ      45.690000   0BVBU3   1.000000
    BVBU3R   UPBROW34070 1.000000
    BVBU4R   BV4R     1.000000   BU4R     -1.000000
    BVBU4R   OBJ      17.610000   0BVBU4   1.000000
    BVBU4R   UPBROW34071 1.000000
    BVBU5R   BV5R     1.000000   BU5R     -1.000000
    BVBU5R   OBJ      6.790000   0BVBU5   1.000000
    BVBU5R   UPBROW34072 1.000000
    BVBU1T   BV1T     1.000000   BU1T     -1.000000
    BVBU1T   OBJ      2049.700000   0BVBU1   1.000000
    BVBU1T   UPBROW34073 1.000000
    BVBU2T   BV2T     1.000000   BU2T     -1.000000
    BVBU2T   OBJ      790.230000   0BVBU2   1.000000
    BVBU2T   UPBROW34074 1.000000
    BVBU3T   BV3T     1.000000   BU3T     -1.000000
    BVBU3T   OBJ      304.670000   0BVBU3   1.000000
    BVBU3T   UPBROW34075 1.000000
    BVBU4T   BV4T     1.000000   BU4T     -1.000000
    BVBU4T   OBJ      117.460000   0BVBU4   1.000000
    BVBU4T   UPBROW34076 1.000000
    BVBU5T   BV5T     1.000000   BU5T     -1.000000
    BVBU5T   OBJ      45.290000   0BVBU5   1.000000
    BVBU5T   UPBROW34077 1.000000
    BVCA1R   BV1R     1.000000   CA1R     -1.000000
    BVCA1R   OBJ      533.990000   0BVCA1   1.000000
    BVCA1R   UPBROW34078 1.000000
    BVCA2R   BV2R     1.000000   CA2R     -1.000000
    BVCA2R   OBJ      205.880000   0BVCA2   1.000000
    BVCA2R   UPBROW34079 1.000000
    BVCA3R   BV3R     1.000000   CA3R     -1.000000
    BVCA3R   OBJ      79.380000   0BVCA3   1.000000
    BVCA3R   UPBROW34080 1.000000
    BVCA4R   BV4R     1.000000   CA4R     -1.000000
    BVCA4R   OBJ      30.600000   0BVCA4   1.000000
    BVCA4R   UPBROW34081 1.000000
    BVCA5R   BV5R     1.000000   CA5R     -1.000000
    BVCA5R   OBJ      11.800000   0BVCA5   1.000000
    BVCA5R   UPBROW34082 1.000000
    BVCA1T   BV1T     1.000000   CA1T     -1.000000
    BVCA1T   OBJ      3564.100000   0BVCA1   1.000000
    BVCA1T   UPBROW34083 1.000000
    BVCA2T   BV2T     1.000000   CA2T     -1.000000
    BVCA2T   OBJ      1374.100000   0BVCA2   1.000000
    BVCA2T   UPBROW34084 1.000000
    BVCA3T   BV3T     1.000000   CA3T     -1.000000
    BVCA3T   OBJ      529.780000   0BVCA3   1.000000
    BVCA3T   UPBROW34085 1.000000
    BVCA4T   BV4T     1.000000   CA4T     -1.000000
    BVCA4T   OBJ      204.250000   0BVCA4   1.000000
    BVCA4T   UPBROW34086 1.000000
    BVCA5T   BV5T     1.000000   CA5T     -1.000000
    BVCA5T   OBJ      78.750000   0BVCA5   1.000000
    BVCA5T   UPBROW34087 1.000000
    BWBY1R   BW1R     1.000000   BY1R     -1.000000
    BWBY1R   OBJ      2376.300000   0BWBY1   1.000000
    BWBY1R   UPBROW34088 1.000000
    BWBY2R   BW2R     1.000000   BY2R     -1.000000
    BWBY2R   OBJ      916.150000   0BWBY2   1.000000
    BWBY2R   UPBROW34089 1.000000
    BWBY3R   BW3R     1.000000   BY3R     -1.000000
    BWBY3R   OBJ      353.220000   0BWBY3   1.000000
    BWBY3R   UPBROW34090 1.000000
    BWBY4R   BW4R     1.000000   BY4R     -1.000000
    BWBY4R   OBJ      136.180000   0BWBY4   1.000000
    BWBY4R   UPBROW34091 1.000000
    BWBY5R   BW5R     1.000000   BY5R     -1.000000
    BWBY5R   OBJ      52.500000   0BWBY5   1.000000
    BWBY5R   UPBROW34092 1.000000
    BWBY1T   BW1T     1.000000   BY1T     -1.000000
    BWBY1T   OBJ      15860.000000   0BWBY1   1.000000
    BWBY1T   UPBROW34093 1.000000
    BWBY2T   BW2T     1.000000   BY2T     -1.000000
    BWBY2T   OBJ      6114.800000   0BWBY2   1.000000
    BWBY2T   UPBROW34094 1.000000
    BWBY3T   BW3T     1.000000   BY3T     -1.000000
    BWBY3T   OBJ      2357.500000   0BWBY3   1.000000
    BWBY3T   UPBROW34095 1.000000
    BWBY4T   BW4T     1.000000   BY4T     -1.000000
    BWBY4T   OBJ      908.920000   0BWBY4   1.000000
    BWBY4T   UPBROW34096 1.000000
    BWBY5T   BW5T     1.000000   BY5T     -1.000000
    BWBY5T   OBJ      350.430000   0BWBY5   1.000000
    BWBY5T   UPBROW34097 1.000000
    BXBZ1R   BX1R     1.000000   BZ1R     -1.000000
    BXBZ1R   OBJ      787.950000   0BXBZ1   1.000000
    BXBZ1R   UPBROW34098 1.000000
    BXBZ2R   BX2R     1.000000   BZ2R     -1.000000
    BXBZ2R   OBJ      303.790000   0BXBZ2   1.000000
    BXBZ2R   UPBROW34099 1.000000
    BXBZ3R   BX3R     1.000000   BZ3R     -1.000000
    BXBZ3R   OBJ      117.120000   0BXBZ3   1.000000
    BXBZ3R   UPBROW34100 1.000000
    BXBZ4R   BX4R     1.000000   BZ4R     -1.000000
    BXBZ4R   OBJ      45.160000   0BXBZ4   1.000000
    BXBZ4R   UPBROW34101 1.000000
    BXBZ5R   BX5R     1.000000   BZ5R     -1.000000
    BXBZ5R   OBJ      17.410000   0BXBZ5   1.000000
    BXBZ5R   UPBROW34102 1.000000
    BXBZ1T   BX1T     1.000000   BZ1T     -1.000000
    BXBZ1T   0BXBZ1   1.000000   UPBROW34103 1.000000
    BXBZ2T   BX2T     1.000000   BZ2T     -1.000000
    BXBZ2T   0BXBZ2   1.000000   UPBROW34104 1.000000
    BXBZ3T   BX3T     1.000000   BZ3T     -1.000000
    BXBZ3T   0BXBZ3   1.000000   UPBROW34105 1.000000
    BXBZ4T   BX4T     1.000000   BZ4T     -1.000000
    BXBZ4T   0BXBZ4   1.000000   UPBROW34106 1.000000
    BXBZ5T   BX5T     1.000000   BZ5T     -1.000000
    BXBZ5T   0BXBZ5   1.000000   UPBROW34107 1.000000
    BYSC1R   BY1R     1.000000   SC1R     -1.000000
    BYSC1R   OBJ      1174.800000   0BYSC1   1.000000
    BYSC1R   UPBROW34108 1.000000
    BYSC2R   BY2R     1.000000   SC2R     -1.000000
    BYSC2R   OBJ      452.930000   0BYSC2   1.000000
    BYSC2R   UPBROW34109 1.000000
    BYSC3R   BY3R     1.000000   SC3R     -1.000000
    BYSC3R   OBJ      174.620000   0BYSC3   1.000000
    BYSC3R   UPBROW34110 1.000000
    BYSC4R   BY4R     1.000000   SC4R     -1.000000
    BYSC4R   OBJ      67.330000   0BYSC4   1.000000
    BYSC4R   UPBROW34111 1.000000
    BYSC5R   BY5R     1.000000   SC5R     -1.000000
    BYSC5R   OBJ      25.960000   0BYSC5   1.000000
    BYSC5R   UPBROW34112 1.000000
    BYSC1T   BY1T     1.000000   SC1T     -1.000000
    BYSC1T   OBJ      7841.000000   0BYSC1   1.000000
    BYSC1T   UPBROW34113 1.000000
    BYSC2T   BY2T     1.000000   SC2T     -1.000000
    BYSC2T   OBJ      3023.000000   0BYSC2   1.000000
    BYSC2T   UPBROW34114 1.000000
    BYSC3T   BY3T     1.000000   SC3T     -1.000000
    BYSC3T   OBJ      1165.500000   0BYSC3   1.000000
    BYSC3T   UPBROW34115 1.000000
    BYSC4T   BY4T     1.000000   SC4T     -1.000000
    BYSC4T   OBJ      449.360000   0BYSC4   1.000000
    BYSC4T   UPBROW34116 1.000000
    BYSC5T   BY5T     1.000000   SC5T     -1.000000
    BYSC5T   OBJ      173.250000   0BYSC5   1.000000
    BYSC5T   UPBROW34117 1.000000
    BZBY1R   BZ1R     1.000000   BY1R     -1.000000
    BZBY1R   OBJ      1281.600000   0BZBY1   1.000000
    BZBY1R   UPBROW34118 1.000000
    BZBY2R   BZ2R     1.000000   BY2R     -1.000000
    BZBY2R   OBJ      494.110000   0BZBY2   1.000000
    BZBY2R   UPBROW34119 1.000000
    BZBY3R   BZ3R     1.000000   BY3R     -1.000000
    BZBY3R   OBJ      190.500000   0BZBY3   1.000000
    BZBY3R   UPBROW34120 1.000000
    BZBY4R   BZ4R     1.000000   BY4R     -1.000000
    BZBY4R   OBJ      73.450000   0BZBY4   1.000000
    BZBY4R   UPBROW34121 1.000000
    BZBY5R   BZ5R     1.000000   BY5R     -1.000000
    BZBY5R   OBJ      28.320000   0BZBY5   1.000000
    BZBY5R   UPBROW34122 1.000000
    BZBY1T   BZ1T     1.000000   BY1T     -1.000000
    BZBY1T   OBJ      10849.000000   0BZBY1   1.000000
    BZBY1T   UPBROW34123 1.000000
    BZBY2T   BZ2T     1.000000   BY2T     -1.000000
    BZBY2T   OBJ      4182.700000   0BZBY2   1.000000
    BZBY2T   UPBROW34124 1.000000
    BZBY3T   BZ3T     1.000000   BY3T     -1.000000
    BZBY3T   OBJ      1612.600000   0BZBY3   1.000000
    BZBY3T   UPBROW34125 1.000000
    BZBY4T   BZ4T     1.000000   BY4T     -1.000000
    BZBY4T   OBJ      621.730000   0BZBY4   1.000000
    BZBY4T   UPBROW34126 1.000000
    BZBY5T   BZ5T     1.000000   BY5T     -1.000000
    BZBY5T   OBJ      239.700000   0BZBY5   1.000000
    BZBY5T   UPBROW34127 1.000000
    CADA1R   CA1R     1.000000   DA1R     -1.000000
    CADA1R   OBJ      694.190000   0CADA1   1.000000
    CADA1R   UPBROW34128 1.000000
    CADA2R   CA2R     1.000000   DA2R     -1.000000
    CADA2R   OBJ      267.640000   0CADA2   1.000000
    CADA2R   UPBROW34129 1.000000
    CADA3R   CA3R     1.000000   DA3R     -1.000000
    CADA3R   OBJ      103.190000   0CADA3   1.000000
    CADA3R   UPBROW34130 1.000000
    CADA4R   CA4R     1.000000   DA4R     -1.000000
    CADA4R   OBJ      39.780000   0CADA4   1.000000
    CADA4R   UPBROW34131 1.000000
    CADA5R   CA5R     1.000000   DA5R     -1.000000
    CADA5R   OBJ      15.340000   0CADA5   1.000000
    CADA5R   UPBROW34132 1.000000
    CADA1T   CA1T     1.000000   DA1T     -1.000000
    CADA1T   OBJ      4633.300000   0CADA1   1.000000
    CADA1T   UPBROW34133 1.000000
    CADA2T   CA2T     1.000000   DA2T     -1.000000
    CADA2T   OBJ      1786.300000   0CADA2   1.000000
    CADA2T   UPBROW34134 1.000000
    CADA3T   CA3T     1.000000   DA3T     -1.000000
    CADA3T   OBJ      688.710000   0CADA3   1.000000
    CADA3T   UPBROW34135 1.000000
    CADA4T   CA4T     1.000000   DA4T     -1.000000
    CADA4T   OBJ      265.530000   0CADA4   1.000000
    CADA4T   UPBROW34136 1.000000
    CADA5T   CA5T     1.000000   DA5T     -1.000000
    CADA5T   OBJ      102.370000   0CADA5   1.000000
    CADA5T   UPBROW34137 1.000000
    CBCA1R   CB1R     1.000000   CA1R     -1.000000
    CBCA1R   OBJ      635.820000   0CBCA1   1.000000
    CBCA1R   UPBROW34138 1.000000
    CBCA2R   CB2R     1.000000   CA2R     -1.000000
    CBCA2R   OBJ      245.140000   0CBCA2   1.000000
    CBCA2R   UPBROW34139 1.000000
    CBCA3R   CB3R     1.000000   CA3R     -1.000000
    CBCA3R   OBJ      94.510000   0CBCA3   1.000000
    CBCA3R   UPBROW34140 1.000000
    CBCA4R   CB4R     1.000000   CA4R     -1.000000
    CBCA4R   OBJ      36.440000   0CBCA4   1.000000
    CBCA4R   UPBROW34141 1.000000
    CBCA5R   CB5R     1.000000   CA5R     -1.000000
    CBCA5R   OBJ      14.050000   0CBCA5   1.000000
    CBCA5R   UPBROW34142 1.000000
    CBCA1T   CB1T     1.000000   CA1T     -1.000000
    CBCA1T   OBJ      4322.900000   0CBCA1   1.000000
    CBCA1T   UPBROW34143 1.000000
    CBCA2T   CB2T     1.000000   CA2T     -1.000000
    CBCA2T   OBJ      1666.600000   0CBCA2   1.000000
    CBCA2T   UPBROW34144 1.000000
    CBCA3T   CB3T     1.000000   CA3T     -1.000000
    CBCA3T   OBJ      642.560000   0CBCA3   1.000000
    CBCA3T   UPBROW34145 1.000000
    CBCA4T   CB4T     1.000000   CA4T     -1.000000
    CBCA4T   OBJ      247.740000   0CBCA4   1.000000
    CBCA4T   UPBROW34146 1.000000
    CBCA5T   CB5T     1.000000   CA5T     -1.000000
    CBCA5T   OBJ      95.510000   0CBCA5   1.000000
    CBCA5T   UPBROW34147 1.000000
    CBCC1R   CB1R     1.000000   CC1R     -1.000000
    CBCC1R   OBJ      1495.200000   0CBCC1   1.000000
    CBCC1R   UPBROW34148 1.000000
    CBCC2R   CB2R     1.000000   CC2R     -1.000000
    CBCC2R   OBJ      576.460000   0CBCC2   1.000000
    CBCC2R   UPBROW34149 1.000000
    CBCC3R   CB3R     1.000000   CC3R     -1.000000
    CBCC3R   OBJ      222.250000   0CBCC3   1.000000
    CBCC3R   UPBROW34150 1.000000
    CBCC4R   CB4R     1.000000   CC4R     -1.000000
    CBCC4R   OBJ      85.690000   0CBCC4   1.000000
    CBCC4R   UPBROW34151 1.000000
    CBCC5R   CB5R     1.000000   CC5R     -1.000000
    CBCC5R   OBJ      33.040000   0CBCC5   1.000000
    CBCC5R   UPBROW34152 1.000000
    CBCC1T   CB1T     1.000000   CC1T     -1.000000
    CBCC1T   OBJ      10171.000000   0CBCC1   1.000000
    CBCC1T   UPBROW34153 1.000000
    CBCC2T   CB2T     1.000000   CC2T     -1.000000
    CBCC2T   OBJ      3921.200000   0CBCC2   1.000000
    CBCC2T   UPBROW34154 1.000000
    CBCC3T   CB3T     1.000000   CC3T     -1.000000
    CBCC3T   OBJ      1511.800000   0CBCC3   1.000000
    CBCC3T   UPBROW34155 1.000000
    CBCC4T   CB4T     1.000000   CC4T     -1.000000
    CBCC4T   OBJ      582.870000   0CBCC4   1.000000
    CBCC4T   UPBROW34156 1.000000
    CBCC5T   CB5T     1.000000   CC5T     -1.000000
    CBCC5T   OBJ      224.720000   0CBCC5   1.000000
    CBCC5T   UPBROW34157 1.000000
    CBDW1R   CB1R     1.000000   DW1R     -1.000000
    CBDW1R   OBJ      2018.600000   0CBDW1   1.000000
    CBDW1R   UPBROW34158 1.000000
    CBDW2R   CB2R     1.000000   DW2R     -1.000000
    CBDW2R   OBJ      778.260000   0CBDW2   1.000000
    CBDW2R   UPBROW34159 1.000000
    CBDW3R   CB3R     1.000000   DW3R     -1.000000
    CBDW3R   OBJ      300.050000   0CBDW3   1.000000
    CBDW3R   UPBROW34160 1.000000
    CBDW4R   CB4R     1.000000   DW4R     -1.000000
    CBDW4R   OBJ      115.680000   0CBDW4   1.000000
    CBDW4R   UPBROW34161 1.000000
    CBDW5R   CB5R     1.000000   DW5R     -1.000000
    CBDW5R   OBJ      44.600000   0CBDW5   1.000000
    CBDW5R   UPBROW34162 1.000000
    CBDW1T   CB1T     1.000000   DW1T     -1.000000
    CBDW1T   OBJ      13730.000000   0CBDW1   1.000000
    CBDW1T   UPBROW34163 1.000000
    CBDW2T   CB2T     1.000000   DW2T     -1.000000
    CBDW2T   OBJ      5293.700000   0CBDW2   1.000000
    CBDW2T   UPBROW34164 1.000000
    CBDW3T   CB3T     1.000000   DW3T     -1.000000
    CBDW3T   OBJ      2040.900000   0CBDW3   1.000000
    CBDW3T   UPBROW34165 1.000000
    CBDW4T   CB4T     1.000000   DW4T     -1.000000
    CBDW4T   OBJ      786.870000   0CBDW4   1.000000
    CBDW4T   UPBROW34166 1.000000
    CBDW5T   CB5T     1.000000   DW5T     -1.000000
    CBDW5T   OBJ      303.370000   0CBDW5   1.000000
    CBDW5T   UPBROW34167 1.000000
    CCCB1R   CC1R     1.000000   CB1R     -1.000000
    CCCB1R   OBJ      1495.200000   0CCCB1   1.000000
    CCCB1R   UPBROW34168 1.000000
    CCCB2R   CC2R     1.000000   CB2R     -1.000000
    CCCB2R   OBJ      576.460000   0CCCB2   1.000000
    CCCB2R   UPBROW34169 1.000000
    CCCB3R   CC3R     1.000000   CB3R     -1.000000
    CCCB3R   OBJ      222.250000   0CCCB3   1.000000
    CCCB3R   UPBROW34170 1.000000
    CCCB4R   CC4R     1.000000   CB4R     -1.000000
    CCCB4R   OBJ      85.690000   0CCCB4   1.000000
    CCCB4R   UPBROW34171 1.000000
    CCCB5R   CC5R     1.000000   CB5R     -1.000000
    CCCB5R   OBJ      33.040000   0CCCB5   1.000000
    CCCB5R   UPBROW34172 1.000000
    CCCB1T   CC1T     1.000000   CB1T     -1.000000
    CCCB1T   OBJ      10171.000000   0CCCB1   1.000000
    CCCB1T   UPBROW34173 1.000000
    CCCB2T   CC2T     1.000000   CB2T     -1.000000
    CCCB2T   OBJ      3921.200000   0CCCB2   1.000000
    CCCB2T   UPBROW34174 1.000000
    CCCB3T   CC3T     1.000000   CB3T     -1.000000
    CCCB3T   OBJ      1511.800000   0CCCB3   1.000000
    CCCB3T   UPBROW34175 1.000000
    CCCB4T   CC4T     1.000000   CB4T     -1.000000
    CCCB4T   OBJ      582.870000   0CCCB4   1.000000
    CCCB4T   UPBROW34176 1.000000
    CCCB5T   CC5T     1.000000   CB5T     -1.000000
    CCCB5T   OBJ      224.720000   0CCCB5   1.000000
    CCCB5T   UPBROW34177 1.000000
    CCCD1R   CC1R     1.000000   CD1R     -1.000000
    CCCD1R   OBJ      1906.800000   0CCCD1   1.000000
    CCCD1R   UPBROW34178 1.000000
    CCCD2R   CC2R     1.000000   CD2R     -1.000000
    CCCD2R   OBJ      735.170000   0CCCD2   1.000000
    CCCD2R   UPBROW34179 1.000000
    CCCD3R   CC3R     1.000000   CD3R     -1.000000
    CCCD3R   OBJ      283.440000   0CCCD3   1.000000
    CCCD3R   UPBROW34180 1.000000
    CCCD4R   CC4R     1.000000   CD4R     -1.000000
    CCCD4R   OBJ      109.280000   0CCCD4   1.000000
    CCCD4R   UPBROW34181 1.000000
    CCCD5R   CC5R     1.000000   CD5R     -1.000000
    CCCD5R   OBJ      42.130000   0CCCD5   1.000000
    CCCD5R   UPBROW34182 1.000000
    CCCD1T   CC1T     1.000000   CD1T     -1.000000
    CCCD1T   OBJ      12968.000000   0CCCD1   1.000000
    CCCD1T   UPBROW34183 1.000000
    CCCD2T   CC2T     1.000000   CD2T     -1.000000
    CCCD2T   OBJ      4999.700000   0CCCD2   1.000000
    CCCD2T   UPBROW34184 1.000000
    CCCD3T   CC3T     1.000000   CD3T     -1.000000
    CCCD3T   OBJ      1927.600000   0CCCD3   1.000000
    CCCD3T   UPBROW34185 1.000000
    CCCD4T   CC4T     1.000000   CD4T     -1.000000
    CCCD4T   OBJ      743.170000   0CCCD4   1.000000
    CCCD4T   UPBROW34186 1.000000
    CCCD5T   CC5T     1.000000   CD5T     -1.000000
    CCCD5T   OBJ      286.530000   0CCCD5   1.000000
    CCCD5T   UPBROW34187 1.000000
    CSCF1R   CS1R     1.000000   CF1R     -1.000000
    CSCF1R   OBJ      1228.200000   0CSCF1   1.000000
    CSCF1R   UPBROW34188 1.000000
    CSCF2R   CS2R     1.000000   CF2R     -1.000000
    CSCF2R   OBJ      473.520000   0CSCF2   1.000000
    CSCF2R   UPBROW34189 1.000000
    CSCF3R   CS3R     1.000000   CF3R     -1.000000
    CSCF3R   OBJ      182.560000   0CSCF3   1.000000
    CSCF3R   UPBROW34190 1.000000
    CSCF4R   CS4R     1.000000   CF4R     -1.000000
    CSCF4R   OBJ      70.390000   0CSCF4   1.000000
    CSCF4R   UPBROW34191 1.000000
    CSCF5R   CS5R     1.000000   CF5R     -1.000000
    CSCF5R   OBJ      27.140000   0CSCF5   1.000000
    CSCF5R   UPBROW34192 1.000000
    CSCF1T   CS1T     1.000000   CF1T     -1.000000
    CSCF1T   OBJ      8197.400000   0CSCF1   1.000000
    CSCF1T   UPBROW34193 1.000000
    CSCF2T   CS2T     1.000000   CF2T     -1.000000
    CSCF2T   OBJ      3160.500000   0CSCF2   1.000000
    CSCF2T   UPBROW34194 1.000000
    CSCF3T   CS3T     1.000000   CF3T     -1.000000
    CSCF3T   OBJ      1218.500000   0CSCF3   1.000000
    CSCF3T   UPBROW34195 1.000000
    CSCF4T   CS4T     1.000000   CF4T     -1.000000
    CSCF4T   OBJ      469.780000   0CSCF4   1.000000
    CSCF4T   UPBROW34196 1.000000
    CSCF5T   CS5T     1.000000   CF5T     -1.000000
    CSCF5T   OBJ      181.120000   0CSCF5   1.000000
    CSCF5T   UPBROW34197 1.000000
    CVCZ1R   CV1R     1.000000   CZ1R     -1.000000
    CVCZ1R   OBJ      640.790000   0CVCZ1   1.000000
    CVCZ1R   UPBROW34198 1.000000
    CVCZ2R   CV2R     1.000000   CZ2R     -1.000000
    CVCZ2R   OBJ      247.050000   0CVCZ2   1.000000
    CVCZ2R   UPBROW34199 1.000000
    CVCZ3R   CV3R     1.000000   CZ3R     -1.000000
    CVCZ3R   OBJ      95.250000   0CVCZ3   1.000000
    CVCZ3R   UPBROW34200 1.000000
    CVCZ4R   CV4R     1.000000   CZ4R     -1.000000
    CVCZ4R   OBJ      36.720000   0CVCZ4   1.000000
    CVCZ4R   UPBROW34201 1.000000
    CVCZ5R   CV5R     1.000000   CZ5R     -1.000000
    CVCZ5R   OBJ      14.160000   0CVCZ5   1.000000
    CVCZ5R   UPBROW34202 1.000000
    CVCZ1T   CV1T     1.000000   CZ1T     -1.000000
    CVCZ1T   OBJ      4276.900000   0CVCZ1   1.000000
    CVCZ1T   UPBROW34203 1.000000
    CVCZ2T   CV2T     1.000000   CZ2T     -1.000000
    CVCZ2T   OBJ      1648.900000   0CVCZ2   1.000000
    CVCZ2T   UPBROW34204 1.000000
    CVCZ3T   CV3T     1.000000   CZ3T     -1.000000
    CVCZ3T   OBJ      635.730000   0CVCZ3   1.000000
    CVCZ3T   UPBROW34205 1.000000
    CVCZ4T   CV4T     1.000000   CZ4T     -1.000000
    CVCZ4T   OBJ      245.100000   0CVCZ4   1.000000
    CVCZ4T   UPBROW34206 1.000000
    CVCZ5T   CV5T     1.000000   CZ5T     -1.000000
    CVCZ5T   OBJ      94.500000   0CVCZ5   1.000000
    CVCZ5T   UPBROW34207 1.000000
    CVDQ1R   CV1R     1.000000   DQ1R     -1.000000
    CVDQ1R   OBJ      1949.700000   0CVDQ1   1.000000
    CVDQ1R   UPBROW34208 1.000000
    CVDQ2R   CV2R     1.000000   DQ2R     -1.000000
    CVDQ2R   OBJ      751.690000   0CVDQ2   1.000000
    CVDQ2R   UPBROW34209 1.000000
    CVDQ3R   CV3R     1.000000   DQ3R     -1.000000
    CVDQ3R   OBJ      289.810000   0CVDQ3   1.000000
    CVDQ3R   UPBROW34210 1.000000
    CVDQ4R   CV4R     1.000000   DQ4R     -1.000000
    CVDQ4R   OBJ      111.730000   0CVDQ4   1.000000
    CVDQ4R   UPBROW34211 1.000000
    CVDQ5R   CV5R     1.000000   DQ5R     -1.000000
    CVDQ5R   OBJ      43.080000   0CVDQ5   1.000000
    CVDQ5R   UPBROW34212 1.000000
    CVDQ1T   CV1T     1.000000   DQ1T     -1.000000
    CVDQ1T   OBJ      13009.000000   0CVDQ1   1.000000
    CVDQ1T   UPBROW34213 1.000000
    CVDQ2T   CV2T     1.000000   DQ2T     -1.000000
    CVDQ2T   OBJ      5015.500000   0CVDQ2   1.000000
    CVDQ2T   UPBROW34214 1.000000
    CVDQ3T   CV3T     1.000000   DQ3T     -1.000000
    CVDQ3T   OBJ      1933.700000   0CVDQ3   1.000000
    CVDQ3T   UPBROW34215 1.000000
    CVDQ4T   CV4T     1.000000   DQ4T     -1.000000
    CVDQ4T   OBJ      745.520000   0CVDQ4   1.000000
    CVDQ4T   UPBROW34216 1.000000
    CVDQ5T   CV5T     1.000000   DQ5T     -1.000000
    CVDQ5T   OBJ      287.430000   0CVDQ5   1.000000
    CVDQ5T   UPBROW34217 1.000000
    CZCV1R   CZ1R     1.000000   CV1R     -1.000000
    CZCV1R   OBJ      640.790000   0CZCV1   1.000000
    CZCV1R   UPBROW34218 1.000000
    CZCV2R   CZ2R     1.000000   CV2R     -1.000000
    CZCV2R   OBJ      247.050000   0CZCV2   1.000000
    CZCV2R   UPBROW34219 1.000000
    CZCV3R   CZ3R     1.000000   CV3R     -1.000000
    CZCV3R   OBJ      95.250000   0CZCV3   1.000000
    CZCV3R   UPBROW34220 1.000000
    CZCV4R   CZ4R     1.000000   CV4R     -1.000000
    CZCV4R   OBJ      36.720000   0CZCV4   1.000000
    CZCV4R   UPBROW34221 1.000000
    CZCV5R   CZ5R     1.000000   CV5R     -1.000000
    CZCV5R   OBJ      14.160000   0CZCV5   1.000000
    CZCV5R   UPBROW34222 1.000000
    CZCV1T   CZ1T     1.000000   CV1T     -1.000000
    CZCV1T   OBJ      4276.900000   0CZCV1   1.000000
    CZCV1T   UPBROW34223 1.000000
    CZCV2T   CZ2T     1.000000   CV2T     -1.000000
    CZCV2T   OBJ      1648.900000   0CZCV2   1.000000
    CZCV2T   UPBROW34224 1.000000
    CZCV3T   CZ3T     1.000000   CV3T     -1.000000
    CZCV3T   OBJ      635.730000   0CZCV3   1.000000
    CZCV3T   UPBROW34225 1.000000
    CZCV4T   CZ4T     1.000000   CV4T     -1.000000
    CZCV4T   OBJ      245.100000   0CZCV4   1.000000
    CZCV4T   UPBROW34226 1.000000
    CZCV5T   CZ5T     1.000000   CV5T     -1.000000
    CZCV5T   OBJ      94.500000   0CZCV5   1.000000
    CZCV5T   UPBROW34227 1.000000
    CZFX1R   CZ1R     1.000000   FX1R     -1.000000
    CZFX1R   OBJ      1682.700000   0CZFX1   1.000000
    CZFX1R   UPBROW34228 1.000000
    CZFX2R   CZ2R     1.000000   FX2R     -1.000000
    CZFX2R   OBJ      648.750000   0CZFX2   1.000000
    CZFX2R   UPBROW34229 1.000000
    CZFX3R   CZ3R     1.000000   FX3R     -1.000000
    CZFX3R   OBJ      250.120000   0CZFX3   1.000000
    CZFX3R   UPBROW34230 1.000000
    CZFX4R   CZ4R     1.000000   FX4R     -1.000000
    CZFX4R   OBJ      96.430000   0CZFX4   1.000000
    CZFX4R   UPBROW34231 1.000000
    CZFX5R   CZ5R     1.000000   FX5R     -1.000000
    CZFX5R   OBJ      37.180000   0CZFX5   1.000000
    CZFX5R   UPBROW34232 1.000000
    CZFX1T   CZ1T     1.000000   FX1T     -1.000000
    CZFX1T   OBJ      11442.000000   0CZFX1   1.000000
    CZFX1T   UPBROW34233 1.000000
    CZFX2T   CZ2T     1.000000   FX2T     -1.000000
    CZFX2T   OBJ      4411.500000   0CZFX2   1.000000
    CZFX2T   UPBROW34234 1.000000
    CZFX3T   CZ3T     1.000000   FX3T     -1.000000
    CZFX3T   OBJ      1700.800000   0CZFX3   1.000000
    CZFX3T   UPBROW34235 1.000000
    CZFX4T   CZ4T     1.000000   FX4T     -1.000000
    CZFX4T   OBJ      655.740000   0CZFX4   1.000000
    CZFX4T   UPBROW34236 1.000000
    CZFX5T   CZ5T     1.000000   FX5T     -1.000000
    CZFX5T   OBJ      252.820000   0CZFX5   1.000000
    CZFX5T   UPBROW34237 1.000000
    DABZ1R   DA1R     1.000000   BZ1R     -1.000000
    DABZ1R   OBJ      347.090000   0DABZ1   1.000000
    DABZ1R   UPBROW34238 1.000000
    DABZ2R   DA2R     1.000000   BZ2R     -1.000000
    DABZ2R   OBJ      133.820000   0DABZ2   1.000000
    DABZ2R   UPBROW34239 1.000000
    DABZ3R   DA3R     1.000000   BZ3R     -1.000000
    DABZ3R   OBJ      51.590000   0DABZ3   1.000000
    DABZ3R   UPBROW34240 1.000000
    DABZ4R   DA4R     1.000000   BZ4R     -1.000000
    DABZ4R   OBJ      19.890000   0DABZ4   1.000000
    DABZ4R   UPBROW34241 1.000000
    DABZ5R   DA5R     1.000000   BZ5R     -1.000000
    DABZ5R   OBJ      7.670000   0DABZ5   1.000000
    DABZ5R   UPBROW34242 1.000000
    DABZ1T   DA1T     1.000000   BZ1T     -1.000000
    DABZ1T   OBJ      2938.200000   0DABZ1   1.000000
    DABZ1T   UPBROW34243 1.000000
    DABZ2T   DA2T     1.000000   BZ2T     -1.000000
    DABZ2T   OBJ      1132.800000   0DABZ2   1.000000
    DABZ2T   UPBROW34244 1.000000
    DABZ3T   DA3T     1.000000   BZ3T     -1.000000
    DABZ3T   OBJ      436.740000   0DABZ3   1.000000
    DABZ3T   UPBROW34245 1.000000
    DABZ4T   DA4T     1.000000   BZ4T     -1.000000
    DABZ4T   OBJ      168.380000   0DABZ4   1.000000
    DABZ4T   UPBROW34246 1.000000
    DABZ5T   DA5T     1.000000   BZ5T     -1.000000
    DABZ5T   OBJ      64.920000   0DABZ5   1.000000
    DABZ5T   UPBROW34247 1.000000
    DBDA1R   DB1R     1.000000   DA1R     -1.000000
    DBDA1R   OBJ      267.000000   0DBDA1   1.000000
    DBDA1R   UPBROW34248 1.000000
    DBDA2R   DB2R     1.000000   DA2R     -1.000000
    DBDA2R   OBJ      102.940000   0DBDA2   1.000000
    DBDA2R   UPBROW34249 1.000000
    DBDA3R   DB3R     1.000000   DA3R     -1.000000
    DBDA3R   OBJ      39.690000   0DBDA3   1.000000
    DBDA3R   UPBROW34250 1.000000
    DBDA4R   DB4R     1.000000   DA4R     -1.000000
    DBDA4R   OBJ      15.300000   0DBDA4   1.000000
    DBDA4R   UPBROW34251 1.000000
    DBDA5R   DB5R     1.000000   DA5R     -1.000000
    DBDA5R   OBJ      5.900000   0DBDA5   1.000000
    DBDA5R   UPBROW34252 1.000000
    DBDA1T   DB1T     1.000000   DA1T     -1.000000
    DBDA1T   OBJ      2260.200000   0DBDA1   1.000000
    DBDA1T   UPBROW34253 1.000000
    DBDA2T   DB2T     1.000000   DA2T     -1.000000
    DBDA2T   OBJ      871.390000   0DBDA2   1.000000
    DBDA2T   UPBROW34254 1.000000
    DBDA3T   DB3T     1.000000   DA3T     -1.000000
    DBDA3T   OBJ      335.960000   0DBDA3   1.000000
    DBDA3T   UPBROW34255 1.000000
    DBDA4T   DB4T     1.000000   DA4T     -1.000000
    DBDA4T   OBJ      129.530000   0DBDA4   1.000000
    DBDA4T   UPBROW34256 1.000000
    DBDA5T   DB5T     1.000000   DA5T     -1.000000
    DBDA5T   OBJ      49.940000   0DBDA5   1.000000
    DBDA5T   UPBROW34257 1.000000
    DBDH1R   DB1R     1.000000   DH1R     -1.000000
    DBDH1R   OBJ      1569.700000   0DBDH1   1.000000
    DBDH1R   UPBROW34258 1.000000
    DBDH2R   DB2R     1.000000   DH2R     -1.000000
    DBDH2R   OBJ      605.180000   0DBDH2   1.000000
    DBDH2R   UPBROW34259 1.000000
    DBDH3R   DB3R     1.000000   DH3R     -1.000000
    DBDH3R   OBJ      233.320000   0DBDH3   1.000000
    DBDH3R   UPBROW34260 1.000000
    DBDH4R   DB4R     1.000000   DH4R     -1.000000
    DBDH4R   OBJ      89.960000   0DBDH4   1.000000
    DBDH4R   UPBROW34261 1.000000
    DBDH5R   DB5R     1.000000   DH5R     -1.000000
    DBDH5R   OBJ      34.680000   0DBDH5   1.000000
    DBDH5R   UPBROW34262 1.000000
    DBDH1T   DB1T     1.000000   DH1T     -1.000000
    DBDH1T   OBJ      10679.000000   0DBDH1   1.000000
    DBDH1T   UPBROW34263 1.000000
    DBDH2T   DB2T     1.000000   DH2T     -1.000000
    DBDH2T   OBJ      4117.300000   0DBDH2   1.000000
    DBDH2T   UPBROW34264 1.000000
    DBDH3T   DB3T     1.000000   DH3T     -1.000000
    DBDH3T   OBJ      1587.400000   0DBDH3   1.000000
    DBDH3T   UPBROW34265 1.000000
    DBDH4T   DB4T     1.000000   DH4T     -1.000000
    DBDH4T   OBJ      612.010000   0DBDH4   1.000000
    DBDH4T   UPBROW34266 1.000000
    DBDH5T   DB5T     1.000000   DH5T     -1.000000
    DBDH5T   OBJ      235.960000   0DBDH5   1.000000
    DBDH5T   UPBROW34267 1.000000
    DDDB1R   DD1R     1.000000   DB1R     -1.000000
    DDDB1R   OBJ      1533.100000   0DDDB1   1.000000
    DDDB1R   UPBROW34268 1.000000
    DDDB2R   DD2R     1.000000   DB2R     -1.000000
    DDDB2R   OBJ      591.060000   0DDDB2   1.000000
    DDDB2R   UPBROW34269 1.000000
    DDDB3R   DD3R     1.000000   DB3R     -1.000000
    DDDB3R   OBJ      227.880000   0DDDB3   1.000000
    DDDB3R   UPBROW34270 1.000000
    DDDB4R   DD4R     1.000000   DB4R     -1.000000
    DDDB4R   OBJ      87.860000   0DDDB4   1.000000
    DDDB4R   UPBROW34271 1.000000
    DDDB5R   DD5R     1.000000   DB5R     -1.000000
    DDDB5R   OBJ      33.870000   0DDDB5   1.000000
    DDDB5R   UPBROW34272 1.000000
    DDDB1T   DD1T     1.000000   DB1T     -1.000000
    DDDB1T   OBJ      10425.000000   0DDDB1   1.000000
    DDDB1T   UPBROW34273 1.000000
    DDDB2T   DD2T     1.000000   DB2T     -1.000000
    DDDB2T   OBJ      4019.400000   0DDDB2   1.000000
    DDDB2T   UPBROW34274 1.000000
    DDDB3T   DD3T     1.000000   DB3T     -1.000000
    DDDB3T   OBJ      1549.600000   0DDDB3   1.000000
    DDDB3T   UPBROW34275 1.000000
    DDDB4T   DD4T     1.000000   DB4T     -1.000000
    DDDB4T   OBJ      597.460000   0DDDB4   1.000000
    DDDB4T   UPBROW34276 1.000000
    DDDB5T   DD5T     1.000000   DB5T     -1.000000
    DDDB5T   OBJ      230.350000   0DDDB5   1.000000
    DDDB5T   UPBROW34277 1.000000
    DDDL1R   DD1R     1.000000   DL1R     -1.000000
    DDDL1R   OBJ      2579.300000   0DDDL1   1.000000
    DDDL1R   UPBROW34278 1.000000
    DDDL2R   DD2R     1.000000   DL2R     -1.000000
    DDDL2R   OBJ      994.430000   0DDDL2   1.000000
    DDDL2R   UPBROW34279 1.000000
    DDDL3R   DD3R     1.000000   DL3R     -1.000000
    DDDL3R   OBJ      383.400000   0DDDL3   1.000000
    DDDL3R   UPBROW34280 1.000000
    DDDL4R   DD4R     1.000000   DL4R     -1.000000
    DDDL4R   OBJ      147.820000   0DDDL4   1.000000
    DDDL4R   UPBROW34281 1.000000
    DDDL5R   DD5R     1.000000   DL5R     -1.000000
    DDDL5R   OBJ      56.990000   0DDDL5   1.000000
    DDDL5R   UPBROW34282 1.000000
    DDDL1T   DD1T     1.000000   DL1T     -1.000000
    DDDL1T   OBJ      17545.000000   0DDDL1   1.000000
    DDDL1T   UPBROW34283 1.000000
    DDDL2T   DD2T     1.000000   DL2T     -1.000000
    DDDL2T   OBJ      6764.300000   0DDDL2   1.000000
    DDDL2T   UPBROW34284 1.000000
    DDDL3T   DD3T     1.000000   DL3T     -1.000000
    DDDL3T   OBJ      2607.900000   0DDDL3   1.000000
    DDDL3T   UPBROW34285 1.000000
    DDDL4T   DD4T     1.000000   DL4T     -1.000000
    DDDL4T   OBJ      1005.500000   0DDDL4   1.000000
    DDDL4T   UPBROW34286 1.000000
    DDDL5T   DD5T     1.000000   DL5T     -1.000000
    DDDL5T   OBJ      387.650000   0DDDL5   1.000000
    DDDL5T   UPBROW34287 1.000000
    DEDD1R   DE1R     1.000000   DD1R     -1.000000
    DEDD1R   OBJ      935.110000   0DEDD1   1.000000
    DEDD1R   UPBROW34288 1.000000
    DEDD2R   DE2R     1.000000   DD2R     -1.000000
    DEDD2R   OBJ      360.520000   0DEDD2   1.000000
    DEDD2R   UPBROW34289 1.000000
    DEDD3R   DE3R     1.000000   DD3R     -1.000000
    DEDD3R   OBJ      139.000000   0DEDD3   1.000000
    DEDD3R   UPBROW34290 1.000000
    DEDD4R   DE4R     1.000000   DD4R     -1.000000
    DEDD4R   OBJ      53.590000   0DEDD4   1.000000
    DEDD4R   UPBROW34291 1.000000
    DEDD5R   DE5R     1.000000   DD5R     -1.000000
    DEDD5R   OBJ      20.660000   0DEDD5   1.000000
    DEDD5R   UPBROW34292 1.000000
    DEDD1T   DE1T     1.000000   DD1T     -1.000000
    DEDD1T   OBJ      6357.000000   0DEDD1   1.000000
    DEDD1T   UPBROW34293 1.000000
    DEDD2T   DE2T     1.000000   DD2T     -1.000000
    DEDD2T   OBJ      2450.900000   0DEDD2   1.000000
    DEDD2T   UPBROW34294 1.000000
    DEDD3T   DE3T     1.000000   DD3T     -1.000000
    DEDD3T   OBJ      944.930000   0DEDD3   1.000000
    DEDD3T   UPBROW34295 1.000000
    DEDD4T   DE4T     1.000000   DD4T     -1.000000
    DEDD4T   OBJ      364.310000   0DEDD4   1.000000
    DEDD4T   UPBROW34296 1.000000
    DEDD5T   DE5T     1.000000   DD5T     -1.000000
    DEDD5T   OBJ      140.460000   0DEDD5   1.000000
    DEDD5T   UPBROW34297 1.000000
    DEDL1R   DE1R     1.000000   DL1R     -1.000000
    DEDL1R   OBJ      3812.500000   0DEDL1   1.000000
    DEDL1R   UPBROW34298 1.000000
    DEDL2R   DE2R     1.000000   DL2R     -1.000000
    DEDL2R   OBJ      1469.900000   0DEDL2   1.000000
    DEDL2R   UPBROW34299 1.000000
    DEDL3R   DE3R     1.000000   DL3R     -1.000000
    DEDL3R   OBJ      566.700000   0DEDL3   1.000000
    DEDL3R   UPBROW34300 1.000000
    DEDL4R   DE4R     1.000000   DL4R     -1.000000
    DEDL4R   OBJ      218.490000   0DEDL4   1.000000
    DEDL4R   UPBROW34301 1.000000
    DEDL5R   DE5R     1.000000   DL5R     -1.000000
    DEDL5R   OBJ      84.240000   0DEDL5   1.000000
    DEDL5R   UPBROW34302 1.000000
    DEDL1T   DE1T     1.000000   DL1T     -1.000000
    DEDL1T   OBJ      25935.000000   0DEDL1   1.000000
    DEDL1T   UPBROW34303 1.000000
    DEDL2T   DE2T     1.000000   DL2T     -1.000000
    DEDL2T   OBJ      9999.200000   0DEDL2   1.000000
    DEDL2T   UPBROW34304 1.000000
    DEDL3T   DE3T     1.000000   DL3T     -1.000000
    DEDL3T   OBJ      3855.100000   0DEDL3   1.000000
    DEDL3T   UPBROW34305 1.000000
    DEDL4T   DE4T     1.000000   DL4T     -1.000000
    DEDL4T   OBJ      1486.300000   0DEDL4   1.000000
    DEDL4T   UPBROW34306 1.000000
    DEDL5T   DE5T     1.000000   DL5T     -1.000000
    DEDL5T   OBJ      573.040000   0DEDL5   1.000000
    DEDL5T   UPBROW34307 1.000000
    DGDA1R   DG1R     1.000000   DA1R     -1.000000
    DGDA1R   OBJ      1388.400000   0DGDA1   1.000000
    DGDA1R   UPBROW34308 1.000000
    DGDA2R   DG2R     1.000000   DA2R     -1.000000
    DGDA2R   OBJ      535.280000   0DGDA2   1.000000
    DGDA2R   UPBROW34309 1.000000
    DGDA3R   DG3R     1.000000   DA3R     -1.000000
    DGDA3R   OBJ      206.370000   0DGDA3   1.000000
    DGDA3R   UPBROW34310 1.000000
    DGDA4R   DG4R     1.000000   DA4R     -1.000000
    DGDA4R   OBJ      79.570000   0DGDA4   1.000000
    DGDA4R   UPBROW34311 1.000000
    DGDA5R   DG5R     1.000000   DA5R     -1.000000
    DGDA5R   OBJ      30.680000   0DGDA5   1.000000
    DGDA5R   UPBROW34312 1.000000
    DGDA1T   DG1T     1.000000   DA1T     -1.000000
    DGDA1T   OBJ      9266.600000   0DGDA1   1.000000
    DGDA1T   UPBROW34313 1.000000
    DGDA2T   DG2T     1.000000   DA2T     -1.000000
    DGDA2T   OBJ      3572.700000   0DGDA2   1.000000
    DGDA2T   UPBROW34314 1.000000
    DGDA3T   DG3T     1.000000   DA3T     -1.000000
    DGDA3T   OBJ      1377.400000   0DGDA3   1.000000
    DGDA3T   UPBROW34315 1.000000
    DGDA4T   DG4T     1.000000   DA4T     -1.000000
    DGDA4T   OBJ      531.060000   0DGDA4   1.000000
    DGDA4T   UPBROW34316 1.000000
    DGDA5T   DG5T     1.000000   DA5T     -1.000000
    DGDA5T   OBJ      204.750000   0DGDA5   1.000000
    DGDA5T   UPBROW34317 1.000000
    DHDG1R   DH1R     1.000000   DG1R     -1.000000
    DHDG1R   OBJ      881.710000   0DHDG1   1.000000
    DHDG1R   UPBROW34318 1.000000
    DHDG2R   DH2R     1.000000   DG2R     -1.000000
    DHDG2R   OBJ      339.940000   0DHDG2   1.000000
    DHDG2R   UPBROW34319 1.000000
    DHDG3R   DH3R     1.000000   DG3R     -1.000000
    DHDG3R   OBJ      131.060000   0DHDG3   1.000000
    DHDG3R   UPBROW34320 1.000000
    DHDG4R   DH4R     1.000000   DG4R     -1.000000
    DHDG4R   OBJ      50.530000   0DHDG4   1.000000
    DHDG4R   UPBROW34321 1.000000
    DHDG5R   DH5R     1.000000   DG5R     -1.000000
    DHDG5R   OBJ      19.480000   0DHDG5   1.000000
    DHDG5R   UPBROW34322 1.000000
    DHDG1T   DH1T     1.000000   DG1T     -1.000000
    DHDG1T   OBJ      5880.700000   0DHDG1   1.000000
    DHDG1T   UPBROW34323 1.000000
    DHDG2T   DH2T     1.000000   DG2T     -1.000000
    DHDG2T   OBJ      2267.300000   0DHDG2   1.000000
    DHDG2T   UPBROW34324 1.000000
    DHDG3T   DH3T     1.000000   DG3T     -1.000000
    DHDG3T   OBJ      874.140000   0DHDG3   1.000000
    DHDG3T   UPBROW34325 1.000000
    DHDG4T   DH4T     1.000000   DG4T     -1.000000
    DHDG4T   OBJ      337.020000   0DHDG4   1.000000
    DHDG4T   UPBROW34326 1.000000
    DHDG5T   DH5T     1.000000   DG5T     -1.000000
    DHDG5T   OBJ      129.930000   0DHDG5   1.000000
    DHDG5T   UPBROW34327 1.000000
    DJDH1R   DJ1R     1.000000   DH1R     -1.000000
    DJDH1R   OBJ      961.190000   0DJDH1   1.000000
    DJDH1R   UPBROW34328 1.000000
    DJDH2R   DJ2R     1.000000   DH2R     -1.000000
    DJDH2R   OBJ      370.580000   0DJDH2   1.000000
    DJDH2R   UPBROW34329 1.000000
    DJDH3R   DJ3R     1.000000   DH3R     -1.000000
    DJDH3R   OBJ      142.870000   0DJDH3   1.000000
    DJDH3R   UPBROW34330 1.000000
    DJDH4R   DJ4R     1.000000   DH4R     -1.000000
    DJDH4R   OBJ      55.080000   0DJDH4   1.000000
    DJDH4R   UPBROW34331 1.000000
    DJDH5R   DJ5R     1.000000   DH5R     -1.000000
    DJDH5R   OBJ      21.240000   0DJDH5   1.000000
    DJDH5R   UPBROW34332 1.000000
    DJDH1T   DJ1T     1.000000   DH1T     -1.000000
    DJDH1T   OBJ      6415.400000   0DJDH1   1.000000
    DJDH1T   UPBROW34333 1.000000
    DJDH2T   DJ2T     1.000000   DH2T     -1.000000
    DJDH2T   OBJ      2473.400000   0DJDH2   1.000000
    DJDH2T   UPBROW34334 1.000000
    DJDH3T   DJ3T     1.000000   DH3T     -1.000000
    DJDH3T   OBJ      953.600000   0DJDH3   1.000000
    DJDH3T   UPBROW34335 1.000000
    DJDH4T   DJ4T     1.000000   DH4T     -1.000000
    DJDH4T   OBJ      367.650000   0DJDH4   1.000000
    DJDH4T   UPBROW34336 1.000000
    DJDH5T   DJ5T     1.000000   DH5T     -1.000000
    DJDH5T   OBJ      141.750000   0DJDH5   1.000000
    DJDH5T   UPBROW34337 1.000000
    DLDD1R   DL1R     1.000000   DD1R     -1.000000
    DLDD1R   OBJ      2579.300000   0DLDD1   1.000000
    DLDD1R   UPBROW34338 1.000000
    DLDD2R   DL2R     1.000000   DD2R     -1.000000
    DLDD2R   OBJ      994.430000   0DLDD2   1.000000
    DLDD2R   UPBROW34339 1.000000
    DLDD3R   DL3R     1.000000   DD3R     -1.000000
    DLDD3R   OBJ      383.400000   0DLDD3   1.000000
    DLDD3R   UPBROW34340 1.000000
    DLDD4R   DL4R     1.000000   DD4R     -1.000000
    DLDD4R   OBJ      147.820000   0DLDD4   1.000000
    DLDD4R   UPBROW34341 1.000000
    DLDD5R   DL5R     1.000000   DD5R     -1.000000
    DLDD5R   OBJ      56.990000   0DLDD5   1.000000
    DLDD5R   UPBROW34342 1.000000
    DLDD1T   DL1T     1.000000   DD1T     -1.000000
    DLDD1T   OBJ      17545.000000   0DLDD1   1.000000
    DLDD1T   UPBROW34343 1.000000
    DLDD2T   DL2T     1.000000   DD2T     -1.000000
    DLDD2T   OBJ      6764.300000   0DLDD2   1.000000
    DLDD2T   UPBROW34344 1.000000
    DLDD3T   DL3T     1.000000   DD3T     -1.000000
    DLDD3T   OBJ      2607.900000   0DLDD3   1.000000
    DLDD3T   UPBROW34345 1.000000
    DLDD4T   DL4T     1.000000   DD4T     -1.000000
    DLDD4T   OBJ      1005.500000   0DLDD4   1.000000
    DLDD4T   UPBROW34346 1.000000
    DLDD5T   DL5T     1.000000   DD5T     -1.000000
    DLDD5T   OBJ      387.650000   0DLDD5   1.000000
    DLDD5T   UPBROW34347 1.000000
    DLDE1R   DL1R     1.000000   DE1R     -1.000000
    DLDE1R   OBJ      3812.500000   0DLDE1   1.000000
    DLDE1R   UPBROW34348 1.000000
    DLDE2R   DL2R     1.000000   DE2R     -1.000000
    DLDE2R   OBJ      1469.900000   0DLDE2   1.000000
    DLDE2R   UPBROW34349 1.000000
    DLDE3R   DL3R     1.000000   DE3R     -1.000000
    DLDE3R   OBJ      566.700000   0DLDE3   1.000000
    DLDE3R   UPBROW34350 1.000000
    DLDE4R   DL4R     1.000000   DE4R     -1.000000
    DLDE4R   OBJ      218.490000   0DLDE4   1.000000
    DLDE4R   UPBROW34351 1.000000
    DLDE5R   DL5R     1.000000   DE5R     -1.000000
    DLDE5R   OBJ      84.240000   0DLDE5   1.000000
    DLDE5R   UPBROW34352 1.000000
    DLDE1T   DL1T     1.000000   DE1T     -1.000000
    DLDE1T   OBJ      25935.000000   0DLDE1   1.000000
    DLDE1T   UPBROW34353 1.000000
    DLDE2T   DL2T     1.000000   DE2T     -1.000000
    DLDE2T   OBJ      9999.200000   0DLDE2   1.000000
    DLDE2T   UPBROW34354 1.000000
    DLDE3T   DL3T     1.000000   DE3T     -1.000000
    DLDE3T   OBJ      3855.100000   0DLDE3   1.000000
    DLDE3T   UPBROW34355 1.000000
    DLDE4T   DL4T     1.000000   DE4T     -1.000000
    DLDE4T   OBJ      1486.300000   0DLDE4   1.000000
    DLDE4T   UPBROW34356 1.000000
    DLDE5T   DL5T     1.000000   DE5T     -1.000000
    DLDE5T   OBJ      573.040000   0DLDE5   1.000000
    DLDE5T   UPBROW34357 1.000000
    DLDM1R   DL1R     1.000000   DM1R     -1.000000
    DLDM1R   OBJ      1195.900000   0DLDM1   1.000000
    DLDM1R   UPBROW34358 1.000000
    DLDM2R   DL2R     1.000000   DM2R     -1.000000
    DLDM2R   OBJ      461.070000   0DLDM2   1.000000
    DLDM2R   UPBROW34359 1.000000
    DLDM3R   DL3R     1.000000   DM3R     -1.000000
    DLDM3R   OBJ      177.760000   0DLDM3   1.000000
    DLDM3R   UPBROW34360 1.000000
    DLDM4R   DL4R     1.000000   DM4R     -1.000000
    DLDM4R   OBJ      68.540000   0DLDM4   1.000000
    DLDM4R   UPBROW34361 1.000000
    DLDM5R   DL5R     1.000000   DM5R     -1.000000
    DLDM5R   OBJ      26.420000   0DLDM5   1.000000
    DLDM5R   UPBROW34362 1.000000
    DLDM1T   DL1T     1.000000   DM1T     -1.000000
    DLDM1T   OBJ      8136.600000   0DLDM1   1.000000
    DLDM1T   UPBROW34363 1.000000
    DLDM2T   DL2T     1.000000   DM2T     -1.000000
    DLDM2T   OBJ      3137.000000   0DLDM2   1.000000
    DLDM2T   UPBROW34364 1.000000
    DLDM3T   DL3T     1.000000   DM3T     -1.000000
    DLDM3T   OBJ      1209.400000   0DLDM3   1.000000
    DLDM3T   UPBROW34365 1.000000
    DLDM4T   DL4T     1.000000   DM4T     -1.000000
    DLDM4T   OBJ      466.290000   0DLDM4   1.000000
    DLDM4T   UPBROW34366 1.000000
    DLDM5T   DL5T     1.000000   DM5T     -1.000000
    DLDM5T   OBJ      179.780000   0DLDM5   1.000000
    DLDM5T   UPBROW34367 1.000000
    DMDJ1R   DM1R     1.000000   DJ1R     -1.000000
    DMDJ1R   OBJ      1095.300000   0DMDJ1   1.000000
    DMDJ1R   UPBROW34368 1.000000
    DMDJ2R   DM2R     1.000000   DJ2R     -1.000000
    DMDJ2R   OBJ      422.290000   0DMDJ2   1.000000
    DMDJ2R   UPBROW34369 1.000000
    DMDJ3R   DM3R     1.000000   DJ3R     -1.000000
    DMDJ3R   OBJ      162.810000   0DMDJ3   1.000000
    DMDJ3R   UPBROW34370 1.000000
    DMDJ4R   DM4R     1.000000   DJ4R     -1.000000
    DMDJ4R   OBJ      62.770000   0DMDJ4   1.000000
    DMDJ4R   UPBROW34371 1.000000
    DMDJ5R   DM5R     1.000000   DJ5R     -1.000000
    DMDJ5R   OBJ      24.200000   0DMDJ5   1.000000
    DMDJ5R   UPBROW34372 1.000000
    DMDJ1T   DM1T     1.000000   DJ1T     -1.000000
    DMDJ1T   OBJ      7306.400000   0DMDJ1   1.000000
    DMDJ1T   UPBROW34373 1.000000
    DMDJ2T   DM2T     1.000000   DJ2T     -1.000000
    DMDJ2T   OBJ      2816.900000   0DMDJ2   1.000000
    DMDJ2T   UPBROW34374 1.000000
    DMDJ3T   DM3T     1.000000   DJ3T     -1.000000
    DMDJ3T   OBJ      1086.000000   0DMDJ3   1.000000
    DMDJ3T   UPBROW34375 1.000000
    DMDJ4T   DM4T     1.000000   DJ4T     -1.000000
    DMDJ4T   OBJ      418.720000   0DMDJ4   1.000000
    DMDJ4T   UPBROW34376 1.000000
    DMDJ5T   DM5T     1.000000   DJ5T     -1.000000
    DMDJ5T   OBJ      161.430000   0DMDJ5   1.000000
    DMDJ5T   UPBROW34377 1.000000
    DNDM1R   DN1R     1.000000   DM1R     -1.000000
    DNDM1R   OBJ      1388.400000   0DNDM1   1.000000
    DNDM1R   UPBROW34378 1.000000
    DNDM2R   DN2R     1.000000   DM2R     -1.000000
    DNDM2R   OBJ      535.280000   0DNDM2   1.000000
    DNDM2R   UPBROW34379 1.000000
    DNDM3R   DN3R     1.000000   DM3R     -1.000000
    DNDM3R   OBJ      206.370000   0DNDM3   1.000000
    DNDM3R   UPBROW34380 1.000000
    DNDM4R   DN4R     1.000000   DM4R     -1.000000
    DNDM4R   OBJ      79.570000   0DNDM4   1.000000
    DNDM4R   UPBROW34381 1.000000
    DNDM5R   DN5R     1.000000   DM5R     -1.000000
    DNDM5R   OBJ      30.680000   0DNDM5   1.000000
    DNDM5R   UPBROW34382 1.000000
    DNDM1T   DN1T     1.000000   DM1T     -1.000000
    DNDM1T   OBJ      9266.600000   0DNDM1   1.000000
    DNDM1T   UPBROW34383 1.000000
    DNDM2T   DN2T     1.000000   DM2T     -1.000000
    DNDM2T   OBJ      3572.700000   0DNDM2   1.000000
    DNDM2T   UPBROW34384 1.000000
    DNDM3T   DN3T     1.000000   DM3T     -1.000000
    DNDM3T   OBJ      1377.400000   0DNDM3   1.000000
    DNDM3T   UPBROW34385 1.000000
    DNDM4T   DN4T     1.000000   DM4T     -1.000000
    DNDM4T   OBJ      531.060000   0DNDM4   1.000000
    DNDM4T   UPBROW34386 1.000000
    DNDM5T   DN5T     1.000000   DM5T     -1.000000
    DNDM5T   OBJ      204.750000   0DNDM5   1.000000
    DNDM5T   UPBROW34387 1.000000
    DPDN1R   DP1R     1.000000   DN1R     -1.000000
    DPDN1R   OBJ      907.790000   0DPDN1   1.000000
    DPDN1R   UPBROW34388 1.000000
    DPDN2R   DP2R     1.000000   DN2R     -1.000000
    DPDN2R   OBJ      349.990000   0DPDN2   1.000000
    DPDN2R   UPBROW34389 1.000000
    DPDN3R   DP3R     1.000000   DN3R     -1.000000
    DPDN3R   OBJ      134.940000   0DPDN3   1.000000
    DPDN3R   UPBROW34390 1.000000
    DPDN4R   DP4R     1.000000   DN4R     -1.000000
    DPDN4R   OBJ      52.020000   0DPDN4   1.000000
    DPDN4R   UPBROW34391 1.000000
    DPDN5R   DP5R     1.000000   DN5R     -1.000000
    DPDN5R   OBJ      20.060000   0DPDN5   1.000000
    DPDN5R   UPBROW34392 1.000000
    DPDN1T   DP1T     1.000000   DN1T     -1.000000
    DPDN1T   OBJ      6058.900000   0DPDN1   1.000000
    DPDN1T   UPBROW34393 1.000000
    DPDN2T   DP2T     1.000000   DN2T     -1.000000
    DPDN2T   OBJ      2336.000000   0DPDN2   1.000000
    DPDN2T   UPBROW34394 1.000000
    DPDN3T   DP3T     1.000000   DN3T     -1.000000
    DPDN3T   OBJ      900.620000   0DPDN3   1.000000
    DPDN3T   UPBROW34395 1.000000
    DPDN4T   DP4T     1.000000   DN4T     -1.000000
    DPDN4T   OBJ      347.230000   0DPDN4   1.000000
    DPDN4T   UPBROW34396 1.000000
    DPDN5T   DP5T     1.000000   DN5T     -1.000000
    DPDN5T   OBJ      133.870000   0DPDN5   1.000000
    DPDN5T   UPBROW34397 1.000000
    DQDP1R   DQ1R     1.000000   DP1R     -1.000000
    DQDP1R   OBJ      1121.400000   0DQDP1   1.000000
    DQDP1R   UPBROW34398 1.000000
    DQDP2R   DQ2R     1.000000   DP2R     -1.000000
    DQDP2R   OBJ      432.340000   0DQDP2   1.000000
    DQDP2R   UPBROW34399 1.000000
    DQDP3R   DQ3R     1.000000   DP3R     -1.000000
    DQDP3R   OBJ      166.690000   0DQDP3   1.000000
    DQDP3R   UPBROW34400 1.000000
    DQDP4R   DQ4R     1.000000   DP4R     -1.000000
    DQDP4R   OBJ      64.270000   0DQDP4   1.000000
    DQDP4R   UPBROW34401 1.000000
    DQDP5R   DQ5R     1.000000   DP5R     -1.000000
    DQDP5R   OBJ      24.780000   0DQDP5   1.000000
    DQDP5R   UPBROW34402 1.000000
    DQDP1T   DQ1T     1.000000   DP1T     -1.000000
    DQDP1T   OBJ      7484.600000   0DQDP1   1.000000
    DQDP1T   UPBROW34403 1.000000
    DQDP2T   DQ2T     1.000000   DP2T     -1.000000
    DQDP2T   OBJ      2885.600000   0DQDP2   1.000000
    DQDP2T   UPBROW34404 1.000000
    DQDP3T   DQ3T     1.000000   DP3T     -1.000000
    DQDP3T   OBJ      1112.500000   0DQDP3   1.000000
    DQDP3T   UPBROW34405 1.000000
    DQDP4T   DQ4T     1.000000   DP4T     -1.000000
    DQDP4T   OBJ      428.930000   0DQDP4   1.000000
    DQDP4T   UPBROW34406 1.000000
    DQDP5T   DQ5T     1.000000   DP5T     -1.000000
    DQDP5T   OBJ      165.370000   0DQDP5   1.000000
    DQDP5T   UPBROW34407 1.000000
    DRDA1R   DR1R     1.000000   DA1R     -1.000000
    DRDA1R   OBJ      868.050000   0DRDA1   1.000000
    DRDA1R   UPBROW34408 1.000000
    DRDA2R   DR2R     1.000000   DA2R     -1.000000
    DRDA2R   OBJ      334.670000   0DRDA2   1.000000
    DRDA2R   UPBROW34409 1.000000
    DRDA3R   DR3R     1.000000   DA3R     -1.000000
    DRDA3R   OBJ      129.030000   0DRDA3   1.000000
    DRDA3R   UPBROW34410 1.000000
    DRDA4R   DR4R     1.000000   DA4R     -1.000000
    DRDA4R   OBJ      49.750000   0DRDA4   1.000000
    DRDA4R   UPBROW34411 1.000000
    DRDA5R   DR5R     1.000000   DA5R     -1.000000
    DRDA5R   OBJ      19.180000   0DRDA5   1.000000
    DRDA5R   UPBROW34412 1.000000
    DRDA1T   DR1T     1.000000   DA1T     -1.000000
    DRDA1T   OBJ      7345.500000   0DRDA1   1.000000
    DRDA1T   UPBROW34413 1.000000
    DRDA2T   DR2T     1.000000   DA2T     -1.000000
    DRDA2T   OBJ      2832.000000   0DRDA2   1.000000
    DRDA2T   UPBROW34414 1.000000
    DRDA3T   DR3T     1.000000   DA3T     -1.000000
    DRDA3T   OBJ      1091.900000   0DRDA3   1.000000
    DRDA3T   UPBROW34415 1.000000
    DRDA4T   DR4T     1.000000   DA4T     -1.000000
    DRDA4T   OBJ      420.960000   0DRDA4   1.000000
    DRDA4T   UPBROW34416 1.000000
    DRDA5T   DR5T     1.000000   DA5T     -1.000000
    DRDA5T   OBJ      162.300000   0DRDA5   1.000000
    DRDA5T   UPBROW34417 1.000000
    DRDS1R   DR1R     1.000000   DS1R     -1.000000
    DRDS1R   OBJ      868.050000   0DRDS1   1.000000
    DRDS1R   UPBROW34418 1.000000
    DRDS2R   DR2R     1.000000   DS2R     -1.000000
    DRDS2R   OBJ      334.670000   0DRDS2   1.000000
    DRDS2R   UPBROW34419 1.000000
    DRDS3R   DR3R     1.000000   DS3R     -1.000000
    DRDS3R   OBJ      129.030000   0DRDS3   1.000000
    DRDS3R   UPBROW34420 1.000000
    DRDS4R   DR4R     1.000000   DS4R     -1.000000
    DRDS4R   OBJ      49.750000   0DRDS4   1.000000
    DRDS4R   UPBROW34421 1.000000
    DRDS5R   DR5R     1.000000   DS5R     -1.000000
    DRDS5R   OBJ      19.180000   0DRDS5   1.000000
    DRDS5R   UPBROW34422 1.000000
    DRDS1T   DR1T     1.000000   DS1T     -1.000000
    DRDS1T   OBJ      9464.700000   0DRDS1   1.000000
    DRDS1T   UPBROW34423 1.000000
    DRDS2T   DR2T     1.000000   DS2T     -1.000000
    DRDS2T   OBJ      3649.100000   0DRDS2   1.000000
    DRDS2T   UPBROW34424 1.000000
    DRDS3T   DR3T     1.000000   DS3T     -1.000000
    DRDS3T   OBJ      1406.900000   0DRDS3   1.000000
    DRDS3T   UPBROW34425 1.000000
    DRDS4T   DR4T     1.000000   DS4T     -1.000000
    DRDS4T   OBJ      542.410000   0DRDS4   1.000000
    DRDS4T   UPBROW34426 1.000000
    DRDS5T   DR5T     1.000000   DS5T     -1.000000
    DRDS5T   OBJ      209.120000   0DRDS5   1.000000
    DRDS5T   UPBROW34427 1.000000
    DRFA1R   DR1R     1.000000   FA1R     -1.000000
    DRFA1R   OBJ      987.890000   0DRFA1   1.000000
    DRFA1R   UPBROW34428 1.000000
    DRFA2R   DR2R     1.000000   FA2R     -1.000000
    DRFA2R   OBJ      380.870000   0DRFA2   1.000000
    DRFA2R   UPBROW34429 1.000000
    DRFA3R   DR3R     1.000000   FA3R     -1.000000
    DRFA3R   OBJ      146.840000   0DRFA3   1.000000
    DRFA3R   UPBROW34430 1.000000
    DRFA4R   DR4R     1.000000   FA4R     -1.000000
    DRFA4R   OBJ      56.610000   0DRFA4   1.000000
    DRFA4R   UPBROW34431 1.000000
    DRFA5R   DR5R     1.000000   FA5R     -1.000000
    DRFA5R   OBJ      21.830000   0DRFA5   1.000000
    DRFA5R   UPBROW34432 1.000000
    DRFA1T   DR1T     1.000000   FA1T     -1.000000
    DRFA1T   OBJ      6593.600000   0DRFA1   1.000000
    DRFA1T   UPBROW34433 1.000000
    DRFA2T   DR2T     1.000000   FA2T     -1.000000
    DRFA2T   OBJ      2542.100000   0DRFA2   1.000000
    DRFA2T   UPBROW34434 1.000000
    DRFA3T   DR3T     1.000000   FA3T     -1.000000
    DRFA3T   OBJ      980.090000   0DRFA3   1.000000
    DRFA3T   UPBROW34435 1.000000
    DRFA4T   DR4T     1.000000   FA4T     -1.000000
    DRFA4T   OBJ      377.870000   0DRFA4   1.000000
    DRFA4T   UPBROW34436 1.000000
    DRFA5T   DR5T     1.000000   FA5T     -1.000000
    DRFA5T   OBJ      145.680000   0DRFA5   1.000000
    DRFA5T   UPBROW34437 1.000000
    DSDR1R   DS1R     1.000000   DR1R     -1.000000
    DSDR1R   OBJ      868.050000   0DSDR1   1.000000
    DSDR1R   UPBROW34438 1.000000
    DSDR2R   DS2R     1.000000   DR2R     -1.000000
    DSDR2R   OBJ      334.670000   0DSDR2   1.000000
    DSDR2R   UPBROW34439 1.000000
    DSDR3R   DS3R     1.000000   DR3R     -1.000000
    DSDR3R   OBJ      129.030000   0DSDR3   1.000000
    DSDR3R   UPBROW34440 1.000000
    DSDR4R   DS4R     1.000000   DR4R     -1.000000
    DSDR4R   OBJ      49.750000   0DSDR4   1.000000
    DSDR4R   UPBROW34441 1.000000
    DSDR5R   DS5R     1.000000   DR5R     -1.000000
    DSDR5R   OBJ      19.180000   0DSDR5   1.000000
    DSDR5R   UPBROW34442 1.000000
    DSDR1T   DS1T     1.000000   DR1T     -1.000000
    DSDR1T   OBJ      9464.700000   0DSDR1   1.000000
    DSDR1T   UPBROW34443 1.000000
    DSDR2T   DS2T     1.000000   DR2T     -1.000000
    DSDR2T   OBJ      3649.100000   0DSDR2   1.000000
    DSDR2T   UPBROW34444 1.000000
    DSDR3T   DS3T     1.000000   DR3T     -1.000000
    DSDR3T   OBJ      1406.900000   0DSDR3   1.000000
    DSDR3T   UPBROW34445 1.000000
    DSDR4T   DS4T     1.000000   DR4T     -1.000000
    DSDR4T   OBJ      542.410000   0DSDR4   1.000000
    DSDR4T   UPBROW34446 1.000000
    DSDR5T   DS5T     1.000000   DR5T     -1.000000
    DSDR5T   OBJ      209.120000   0DSDR5   1.000000
    DSDR5T   UPBROW34447 1.000000
    DWCB1R   DW1R     1.000000   CB1R     -1.000000
    DWCB1R   OBJ      2018.600000   0DWCB1   1.000000
    DWCB1R   UPBROW34448 1.000000
    DWCB2R   DW2R     1.000000   CB2R     -1.000000
    DWCB2R   OBJ      778.260000   0DWCB2   1.000000
    DWCB2R   UPBROW34449 1.000000
    DWCB3R   DW3R     1.000000   CB3R     -1.000000
    DWCB3R   OBJ      300.050000   0DWCB3   1.000000
    DWCB3R   UPBROW34450 1.000000
    DWCB4R   DW4R     1.000000   CB4R     -1.000000
    DWCB4R   OBJ      115.680000   0DWCB4   1.000000
    DWCB4R   UPBROW34451 1.000000
    DWCB5R   DW5R     1.000000   CB5R     -1.000000
    DWCB5R   OBJ      44.600000   0DWCB5   1.000000
    DWCB5R   UPBROW34452 1.000000
    DWCB1T   DW1T     1.000000   CB1T     -1.000000
    DWCB1T   OBJ      13730.000000   0DWCB1   1.000000
    DWCB1T   UPBROW34453 1.000000
    DWCB2T   DW2T     1.000000   CB2T     -1.000000
    DWCB2T   OBJ      5293.700000   0DWCB2   1.000000
    DWCB2T   UPBROW34454 1.000000
    DWCB3T   DW3T     1.000000   CB3T     -1.000000
    DWCB3T   OBJ      2040.900000   0DWCB3   1.000000
    DWCB3T   UPBROW34455 1.000000
    DWCB4T   DW4T     1.000000   CB4T     -1.000000
    DWCB4T   OBJ      786.870000   0DWCB4   1.000000
    DWCB4T   UPBROW34456 1.000000
    DWCB5T   DW5T     1.000000   CB5T     -1.000000
    DWCB5T   OBJ      303.370000   0DWCB5   1.000000
    DWCB5T   UPBROW34457 1.000000
    DWDE1R   DW1R     1.000000   DE1R     -1.000000
    DWDE1R   OBJ      1794.500000   0DWDE1   1.000000
    DWDE1R   UPBROW34458 1.000000
    DWDE2R   DW2R     1.000000   DE2R     -1.000000
    DWDE2R   OBJ      691.840000   0DWDE2   1.000000
    DWDE2R   UPBROW34459 1.000000
    DWDE3R   DW3R     1.000000   DE3R     -1.000000
    DWDE3R   OBJ      266.740000   0DWDE3   1.000000
    DWDE3R   UPBROW34460 1.000000
    DWDE4R   DW4R     1.000000   DE4R     -1.000000
    DWDE4R   OBJ      102.840000   0DWDE4   1.000000
    DWDE4R   UPBROW34461 1.000000
    DWDE5R   DW5R     1.000000   DE5R     -1.000000
    DWDE5R   OBJ      39.650000   0DWDE5   1.000000
    DWDE5R   UPBROW34462 1.000000
    DWDE1T   DW1T     1.000000   DE1T     -1.000000
    DWDE1T   OBJ      12205.000000   0DWDE1   1.000000
    DWDE1T   UPBROW34463 1.000000
    DWDE2T   DW2T     1.000000   DE2T     -1.000000
    DWDE2T   OBJ      4705.500000   0DWDE2   1.000000
    DWDE2T   UPBROW34464 1.000000
    DWDE3T   DW3T     1.000000   DE3T     -1.000000
    DWDE3T   OBJ      1814.200000   0DWDE3   1.000000
    DWDE3T   UPBROW34465 1.000000
    DWDE4T   DW4T     1.000000   DE4T     -1.000000
    DWDE4T   OBJ      699.440000   0DWDE4   1.000000
    DWDE4T   UPBROW34466 1.000000
    DWDE5T   DW5T     1.000000   DE5T     -1.000000
    DWDE5T   OBJ      269.660000   0DWDE5   1.000000
    DWDE5T   UPBROW34467 1.000000
    DWDN1R   DW1R     1.000000   DN1R     -1.000000
    DWDN1R   OBJ      2728.900000   0DWDN1   1.000000
    DWDN1R   UPBROW34468 1.000000
    DWDN2R   DW2R     1.000000   DN2R     -1.000000
    DWDN2R   OBJ      1052.100000   0DWDN2   1.000000
    DWDN2R   UPBROW34469 1.000000
    DWDN3R   DW3R     1.000000   DN3R     -1.000000
    DWDN3R   OBJ      405.640000   0DWDN3   1.000000
    DWDN3R   UPBROW34470 1.000000
    DWDN4R   DW4R     1.000000   DN4R     -1.000000
    DWDN4R   OBJ      156.390000   0DWDN4   1.000000
    DWDN4R   UPBROW34471 1.000000
    DWDN5R   DW5R     1.000000   DN5R     -1.000000
    DWDN5R   OBJ      60.300000   0DWDN5   1.000000
    DWDN5R   UPBROW34472 1.000000
    DWDN1T   DW1T     1.000000   DN1T     -1.000000
    DWDN1T   OBJ      18562.000000   0DWDN1   1.000000
    DWDN1T   UPBROW34473 1.000000
    DWDN2T   DW2T     1.000000   DN2T     -1.000000
    DWDN2T   OBJ      7156.400000   0DWDN2   1.000000
    DWDN2T   UPBROW34474 1.000000
    DWDN3T   DW3T     1.000000   DN3T     -1.000000
    DWDN3T   OBJ      2759.100000   0DWDN3   1.000000
    DWDN3T   UPBROW34475 1.000000
    DWDN4T   DW4T     1.000000   DN4T     -1.000000
    DWDN4T   OBJ      1063.800000   0DWDN4   1.000000
    DWDN4T   UPBROW34476 1.000000
    DWDN5T   DW5T     1.000000   DN5T     -1.000000
    DWDN5T   OBJ      410.120000   0DWDN5   1.000000
    DWDN5T   UPBROW34477 1.000000
    FADR1R   FA1R     1.000000   DR1R     -1.000000
    FADR1R   OBJ      987.890000   0FADR1   1.000000
    FADR1R   UPBROW34478 1.000000
    FADR2R   FA2R     1.000000   DR2R     -1.000000
    FADR2R   OBJ      380.870000   0FADR2   1.000000
    FADR2R   UPBROW34479 1.000000
    FADR3R   FA3R     1.000000   DR3R     -1.000000
    FADR3R   OBJ      146.840000   0FADR3   1.000000
    FADR3R   UPBROW34480 1.000000
    FADR4R   FA4R     1.000000   DR4R     -1.000000
    FADR4R   OBJ      56.610000   0FADR4   1.000000
    FADR4R   UPBROW34481 1.000000
    FADR5R   FA5R     1.000000   DR5R     -1.000000
    FADR5R   OBJ      21.830000   0FADR5   1.000000
    FADR5R   UPBROW34482 1.000000
    FADR1T   FA1T     1.000000   DR1T     -1.000000
    FADR1T   OBJ      6593.600000   0FADR1   1.000000
    FADR1T   UPBROW34483 1.000000
    FADR2T   FA2T     1.000000   DR2T     -1.000000
    FADR2T   OBJ      2542.100000   0FADR2   1.000000
    FADR2T   UPBROW34484 1.000000
    FADR3T   FA3T     1.000000   DR3T     -1.000000
    FADR3T   OBJ      980.090000   0FADR3   1.000000
    FADR3T   UPBROW34485 1.000000
    FADR4T   FA4T     1.000000   DR4T     -1.000000
    FADR4T   OBJ      377.870000   0FADR4   1.000000
    FADR4T   UPBROW34486 1.000000
    FADR5T   FA5T     1.000000   DR5T     -1.000000
    FADR5T   OBJ      145.680000   0FADR5   1.000000
    FADR5T   UPBROW34487 1.000000
    FAFE1R   FA1R     1.000000   FE1R     -1.000000
    FAFE1R   OBJ      213.600000   0FAFE1   1.000000
    FAFE1R   UPBROW34488 1.000000
    FAFE2R   FA2R     1.000000   FE2R     -1.000000
    FAFE2R   OBJ      82.350000   0FAFE2   1.000000
    FAFE2R   UPBROW34489 1.000000
    FAFE3R   FA3R     1.000000   FE3R     -1.000000
    FAFE3R   OBJ      31.750000   0FAFE3   1.000000
    FAFE3R   UPBROW34490 1.000000
    FAFE4R   FA4R     1.000000   FE4R     -1.000000
    FAFE4R   OBJ      12.240000   0FAFE4   1.000000
    FAFE4R   UPBROW34491 1.000000
    FAFE5R   FA5R     1.000000   FE5R     -1.000000
    FAFE5R   OBJ      4.720000   0FAFE5   1.000000
    FAFE5R   UPBROW34492 1.000000
    FAFE1T   FA1T     1.000000   FE1T     -1.000000
    FAFE1T   OBJ      1425.600000   0FAFE1   1.000000
    FAFE1T   UPBROW34493 1.000000
    FAFE2T   FA2T     1.000000   FE2T     -1.000000
    FAFE2T   OBJ      549.640000   0FAFE2   1.000000
    FAFE2T   UPBROW34494 1.000000
    FAFE3T   FA3T     1.000000   FE3T     -1.000000
    FAFE3T   OBJ      211.910000   0FAFE3   1.000000
    FAFE3T   UPBROW34495 1.000000
    FAFE4T   FA4T     1.000000   FE4T     -1.000000
    FAFE4T   OBJ      81.700000   0FAFE4   1.000000
    FAFE4T   UPBROW34496 1.000000
    FAFE5T   FA5T     1.000000   FE5T     -1.000000
    FAFE5T   OBJ      31.500000   0FAFE5   1.000000
    FAFE5T   UPBROW34497 1.000000
    FBFA1R   FB1R     1.000000   FA1R     -1.000000
    FBFA1R   OBJ      213.600000   0FBFA1   1.000000
    FBFA1R   UPBROW34498 1.000000
    FBFA2R   FB2R     1.000000   FA2R     -1.000000
    FBFA2R   OBJ      82.350000   0FBFA2   1.000000
    FBFA2R   UPBROW34499 1.000000
    FBFA3R   FB3R     1.000000   FA3R     -1.000000
    FBFA3R   OBJ      31.750000   0FBFA3   1.000000
    FBFA3R   UPBROW34500 1.000000
    FBFA4R   FB4R     1.000000   FA4R     -1.000000
    FBFA4R   OBJ      12.240000   0FBFA4   1.000000
    FBFA4R   UPBROW34501 1.000000
    FBFA5R   FB5R     1.000000   FA5R     -1.000000
    FBFA5R   OBJ      4.720000   0FBFA5   1.000000
    FBFA5R   UPBROW34502 1.000000
    FBFA1T   FB1T     1.000000   FA1T     -1.000000
    FBFA1T   OBJ      1808.100000   0FBFA1   1.000000
    FBFA1T   UPBROW34503 1.000000
    FBFA2T   FB2T     1.000000   FA2T     -1.000000
    FBFA2T   OBJ      697.110000   0FBFA2   1.000000
    FBFA2T   UPBROW34504 1.000000
    FBFA3T   FB3T     1.000000   FA3T     -1.000000
    FBFA3T   OBJ      268.770000   0FBFA3   1.000000
    FBFA3T   UPBROW34505 1.000000
    FBFA4T   FB4T     1.000000   FA4T     -1.000000
    FBFA4T   OBJ      103.620000   0FBFA4   1.000000
    FBFA4T   UPBROW34506 1.000000
    FBFA5T   FB5T     1.000000   FA5T     -1.000000
    FBFA5T   OBJ      39.950000   0FBFA5   1.000000
    FBFA5T   UPBROW34507 1.000000
    FESC1R   FE1R     1.000000   SC1R     -1.000000
    FESC1R   OBJ      7155.500000   0FESC1   1.000000
    FESC1R   UPBROW34508 1.000000
    FESC2R   FE2R     1.000000   SC2R     -1.000000
    FESC2R   OBJ      2758.800000   0FESC2   1.000000
    FESC2R   UPBROW34509 1.000000
    FESC3R   FE3R     1.000000   SC3R     -1.000000
    FESC3R   OBJ      1063.600000   0FESC3   1.000000
    FESC3R   UPBROW34510 1.000000
    FESC4R   FE4R     1.000000   SC4R     -1.000000
    FESC4R   OBJ      410.070000   0FESC4   1.000000
    FESC4R   UPBROW34511 1.000000
    FESC5R   FE5R     1.000000   SC5R     -1.000000
    FESC5R   OBJ      158.100000   0FESC5   1.000000
    FESC5R   UPBROW34512 1.000000
    FESC1T   FE1T     1.000000   SC1T     -1.000000
    FESC1T   OBJ      47759.000000   0FESC1   1.000000
    FESC1T   UPBROW34513 1.000000
    FESC2T   FE2T     1.000000   SC2T     -1.000000
    FESC2T   OBJ      18413.000000   0FESC2   1.000000
    FESC2T   UPBROW34514 1.000000
    FESC3T   FE3T     1.000000   SC3T     -1.000000
    FESC3T   OBJ      7099.000000   0FESC3   1.000000
    FESC3T   UPBROW34515 1.000000
    FESC4T   FE4T     1.000000   SC4T     -1.000000
    FESC4T   OBJ      2737.000000   0FESC4   1.000000
    FESC4T   UPBROW34516 1.000000
    FESC5T   FE5T     1.000000   SC5T     -1.000000
    FESC5T   OBJ      1055.200000   0FESC5   1.000000
    FESC5T   UPBROW34517 1.000000
    FXCZ1R   FX1R     1.000000   CZ1R     -1.000000
    FXCZ1R   OBJ      1682.700000   0FXCZ1   1.000000
    FXCZ1R   UPBROW34518 1.000000
    FXCZ2R   FX2R     1.000000   CZ2R     -1.000000
    FXCZ2R   OBJ      648.750000   0FXCZ2   1.000000
    FXCZ2R   UPBROW34519 1.000000
    FXCZ3R   FX3R     1.000000   CZ3R     -1.000000
    FXCZ3R   OBJ      250.120000   0FXCZ3   1.000000
    FXCZ3R   UPBROW34520 1.000000
    FXCZ4R   FX4R     1.000000   CZ4R     -1.000000
    FXCZ4R   OBJ      96.430000   0FXCZ4   1.000000
    FXCZ4R   UPBROW34521 1.000000
    FXCZ5R   FX5R     1.000000   CZ5R     -1.000000
    FXCZ5R   OBJ      37.180000   0FXCZ5   1.000000
    FXCZ5R   UPBROW34522 1.000000
    FXCZ1T   FX1T     1.000000   CZ1T     -1.000000
    FXCZ1T   OBJ      11442.000000   0FXCZ1   1.000000
    FXCZ1T   UPBROW34523 1.000000
    FXCZ2T   FX2T     1.000000   CZ2T     -1.000000
    FXCZ2T   OBJ      4411.500000   0FXCZ2   1.000000
    FXCZ2T   UPBROW34524 1.000000
    FXCZ3T   FX3T     1.000000   CZ3T     -1.000000
    FXCZ3T   OBJ      1700.800000   0FXCZ3   1.000000
    FXCZ3T   UPBROW34525 1.000000
    FXCZ4T   FX4T     1.000000   CZ4T     -1.000000
    FXCZ4T   OBJ      655.740000   0FXCZ4   1.000000
    FXCZ4T   UPBROW34526 1.000000
    FXCZ5T   FX5T     1.000000   CZ5T     -1.000000
    FXCZ5T   OBJ      252.820000   0FXCZ5   1.000000
    FXCZ5T   UPBROW34527 1.000000
    SCSO1R   SC1R     1.000000   SO1R     -1.000000
    SCSO1R   OBJ      2509.800000   0SCSO1   1.000000
    SCSO1R   UPBROW34528 1.000000
    SCSO2R   SC2R     1.000000   SO2R     -1.000000
    SCSO2R   OBJ      967.620000   0SCSO2   1.000000
    SCSO2R   UPBROW34529 1.000000
    SCSO3R   SC3R     1.000000   SO3R     -1.000000
    SCSO3R   OBJ      373.060000   0SCSO3   1.000000
    SCSO3R   UPBROW34530 1.000000
    SCSO4R   SC4R     1.000000   SO4R     -1.000000
    SCSO4R   OBJ      143.830000   0SCSO4   1.000000
    SCSO4R   UPBROW34531 1.000000
    SCSO5R   SC5R     1.000000   SO5R     -1.000000
    SCSO5R   OBJ      55.450000   0SCSO5   1.000000
    SCSO5R   UPBROW34532 1.000000
    SCSO1T   SC1T     1.000000   SO1T     -1.000000
    SCSO1T   OBJ      16751.000000   0SCSO1   1.000000
    SCSO1T   UPBROW34533 1.000000
    SCSO2T   SC2T     1.000000   SO2T     -1.000000
    SCSO2T   OBJ      6458.300000   0SCSO2   1.000000
    SCSO2T   UPBROW34534 1.000000
    SCSO3T   SC3T     1.000000   SO3T     -1.000000
    SCSO3T   OBJ      2490.000000   0SCSO3   1.000000
    SCSO3T   UPBROW34535 1.000000
    SCSO4T   SC4T     1.000000   SO4T     -1.000000
    SCSO4T   OBJ      959.990000   0SCSO4   1.000000
    SCSO4T   UPBROW34536 1.000000
    SCSO5T   SC5T     1.000000   SO5T     -1.000000
    SCSO5T   OBJ      370.120000   0SCSO5   1.000000
    SCSO5T   UPBROW34537 1.000000
    SCYN1R   SC1R     1.000000   YN1R     -1.000000
    SCYN1R   OBJ      2136.000000   0SCYN1   1.000000
    SCYN1R   UPBROW34538 1.000000
    SCYN2R   SC2R     1.000000   YN2R     -1.000000
    SCYN2R   OBJ      823.510000   0SCYN2   1.000000
    SCYN2R   UPBROW34539 1.000000
    SCYN3R   SC3R     1.000000   YN3R     -1.000000
    SCYN3R   OBJ      317.500000   0SCYN3   1.000000
    SCYN3R   UPBROW34540 1.000000
    SCYN4R   SC4R     1.000000   YN4R     -1.000000
    SCYN4R   OBJ      122.410000   0SCYN4   1.000000
    SCYN4R   UPBROW34541 1.000000
    SCYN5R   SC5R     1.000000   YN5R     -1.000000
    SCYN5R   OBJ      47.190000   0SCYN5   1.000000
    SCYN5R   UPBROW34542 1.000000
    SCYN1T   SC1T     1.000000   YN1T     -1.000000
    SCYN1T   OBJ      14256.000000   0SCYN1   1.000000
    SCYN1T   UPBROW34543 1.000000
    SCYN2T   SC2T     1.000000   YN2T     -1.000000
    SCYN2T   OBJ      5496.400000   0SCYN2   1.000000
    SCYN2T   UPBROW34544 1.000000
    SCYN3T   SC3T     1.000000   YN3T     -1.000000
    SCYN3T   OBJ      2119.100000   0SCYN3   1.000000
    SCYN3T   UPBROW34545 1.000000
    SCYN4T   SC4T     1.000000   YN4T     -1.000000
    SCYN4T   OBJ      817.010000   0SCYN4   1.000000
    SCYN4T   UPBROW34546 1.000000
    SCYN5T   SC5T     1.000000   YN5T     -1.000000
    SCYN5T   OBJ      314.990000   0SCYN5   1.000000
    SCYN5T   UPBROW34547 1.000000
    BBBL-1   RBBBL1   100000.000000   PBBBL    1.000000
    BBBL-1   OBJ      63123.000000   UPBROW34548 1.000000
    BBBL1A   BB1R     1.000000   BL1R     -1.000000
    BBBL1A   1BBBL1   1.000000   RBBBL1   -1.000000
    BBBL1A   OBJ      1831.700000   UPBROW34549 1.000000
    BLBB1A   BL1R     1.000000   BB1R     -1.000000
    BLBB1A   1BBBL1   1.000000   RBBBL1   -1.000000
    BLBB1A   OBJ      1831.700000   UPBROW34550 1.000000
    BBBL1F   BB1T     1.000000   BL1T     -1.000000
    BBBL1F   1BBBL1   1.000000   RBBBL1   -1.000000
    BBBL1F   OBJ      12459.000000   UPBROW34551 1.000000
    BLBB1F   BL1T     1.000000   BB1T     -1.000000
    BLBB1F   1BBBL1   1.000000   RBBBL1   -1.000000
    BLBB1F   OBJ      12459.000000   UPBROW34552 1.000000
    BBBL2A   BB2R     1.000000   BL2R     -1.000000
    BBBL2A   1BBBL2   1.000000   RBBBL1   -1.000000
    BBBL2A   OBJ      504.640000   UPBROW34553 1.000000
    BLBB2A   BL2R     1.000000   BB2R     -1.000000
    BLBB2A   1BBBL2   1.000000   RBBBL1   -1.000000
    BLBB2A   OBJ      504.640000   UPBROW34554 1.000000
    BBBL2F   BB2T     1.000000   BL2T     -1.000000
    BBBL2F   1BBBL2   1.000000   RBBBL1   -1.000000
    BBBL2F   OBJ      3366.600000   UPBROW34555 1.000000
    BLBB2F   BL2T     1.000000   BB2T     -1.000000
    BLBB2F   1BBBL2   1.000000   RBBBL1   -1.000000
    BLBB2F   OBJ      3366.600000   UPBROW34556 1.000000
    BBBL3A   BB3R     1.000000   BL3R     -1.000000
    BBBL3A   1BBBL3   1.000000   RBBBL1   -1.000000
    BBBL3A   OBJ      194.560000   UPBROW34557 1.000000
    BLBB3A   BL3R     1.000000   BB3R     -1.000000
    BLBB3A   1BBBL3   1.000000   RBBBL1   -1.000000
    BLBB3A   OBJ      194.560000   UPBROW34558 1.000000
    BBBL3F   BB3T     1.000000   BL3T     -1.000000
    BBBL3F   1BBBL3   1.000000   RBBBL1   -1.000000
    BBBL3F   OBJ      1298.000000   UPBROW34559 1.000000
    BLBB3F   BL3T     1.000000   BB3T     -1.000000
    BLBB3F   1BBBL3   1.000000   RBBBL1   -1.000000
    BLBB3F   OBJ      1298.000000   UPBROW34560 1.000000
    BBBL4A   BB4R     1.000000   BL4R     -1.000000
    BBBL4A   1BBBL4   1.000000   RBBBL1   -1.000000
    BBBL4A   OBJ      75.010000   UPBROW34561 1.000000
    BLBB4A   BL4R     1.000000   BB4R     -1.000000
    BLBB4A   1BBBL4   1.000000   RBBBL1   -1.000000
    BLBB4A   OBJ      75.010000   UPBROW34562 1.000000
    BBBL4F   BB4T     1.000000   BL4T     -1.000000
    BBBL4F   1BBBL4   1.000000   RBBBL1   -1.000000
    BBBL4F   OBJ      500.420000   UPBROW34563 1.000000
    BLBB4F   BL4T     1.000000   BB4T     -1.000000
    BLBB4F   1BBBL4   1.000000   RBBBL1   -1.000000
    BLBB4F   OBJ      500.420000   UPBROW34564 1.000000
    BBBL5A   BB5R     1.000000   BL5R     -1.000000
    BBBL5A   1BBBL5   1.000000   RBBBL1   -1.000000
    BBBL5A   OBJ      28.920000   UPBROW34565 1.000000
    BLBB5A   BL5R     1.000000   BB5R     -1.000000
    BLBB5A   1BBBL5   1.000000   RBBBL1   -1.000000
    BLBB5A   OBJ      28.920000   UPBROW34566 1.000000
    BBBL5F   BB5T     1.000000   BL5T     -1.000000
    BBBL5F   1BBBL5   1.000000   RBBBL1   -1.000000
    BBBL5F   OBJ      192.930000   UPBROW34567 1.000000
    BLBB5F   BL5T     1.000000   BB5T     -1.000000
    BLBB5F   1BBBL5   1.000000   RBBBL1   -1.000000
    BLBB5F   OBJ      192.930000   UPBROW34568 1.000000
    BBBL-2   RBBBL2   100000.000000   PBBBL    1.000000
    BBBL-2   OBJ      50510.000000   UPBROW34569 1.000000
    BBBL1B   BB1R     1.000000   BL1R     -1.000000
    BBBL1B   2BBBL1   1.000000   RBBBL2   -1.000000
    BBBL1B   OBJ      1831.700000   UPBROW34570 1.000000
    BLBB1B   BL1R     1.000000   BB1R     -1.000000
    BLBB1B   2BBBL1   1.000000   RBBBL2   -1.000000
    BLBB1B   OBJ      1831.700000   UPBROW34571 1.000000
    BBBL1G   BB1T     1.000000   BL1T     -1.000000
    BBBL1G   2BBBL1   1.000000   RBBBL2   -1.000000
    BBBL1G   OBJ      12459.000000   UPBROW34572 1.000000
    BLBB1G   BL1T     1.000000   BB1T     -1.000000
    BLBB1G   2BBBL1   1.000000   RBBBL2   -1.000000
    BLBB1G   OBJ      12459.000000   UPBROW34573 1.000000
    BBBL2B   BB2R     1.000000   BL2R     -1.000000
    BBBL2B   2BBBL2   1.000000   RBBBL2   -1.000000
    BBBL2B   OBJ      706.210000   UPBROW34574 1.000000
    BLBB2B   BL2R     1.000000   BB2R     -1.000000
    BLBB2B   2BBBL2   1.000000   RBBBL2   -1.000000
    BLBB2B   OBJ      706.210000   UPBROW34575 1.000000
    BBBL2G   BB2T     1.000000   BL2T     -1.000000
    BBBL2G   2BBBL2   1.000000   RBBBL2   -1.000000
    BBBL2G   OBJ      4803.600000   UPBROW34576 1.000000
    BLBB2G   BL2T     1.000000   BB2T     -1.000000
    BLBB2G   2BBBL2   1.000000   RBBBL2   -1.000000
    BLBB2G   OBJ      4803.600000   UPBROW34577 1.000000
    BBBL3B   BB3R     1.000000   BL3R     -1.000000
    BBBL3B   2BBBL3   1.000000   RBBBL2   -1.000000
    BBBL3B   OBJ      194.560000   UPBROW34578 1.000000
    BLBB3B   BL3R     1.000000   BB3R     -1.000000
    BLBB3B   2BBBL3   1.000000   RBBBL2   -1.000000
    BLBB3B   OBJ      194.560000   UPBROW34579 1.000000
    BBBL3G   BB3T     1.000000   BL3T     -1.000000
    BBBL3G   2BBBL3   1.000000   RBBBL2   -1.000000
    BBBL3G   OBJ      1298.000000   UPBROW34580 1.000000
    BLBB3G   BL3T     1.000000   BB3T     -1.000000
    BLBB3G   2BBBL3   1.000000   RBBBL2   -1.000000
    BLBB3G   OBJ      1298.000000   UPBROW34581 1.000000
    BBBL4B   BB4R     1.000000   BL4R     -1.000000
    BBBL4B   2BBBL4   1.000000   RBBBL2   -1.000000
    BBBL4B   OBJ      75.010000   UPBROW34582 1.000000
    BLBB4B   BL4R     1.000000   BB4R     -1.000000
    BLBB4B   2BBBL4   1.000000   RBBBL2   -1.000000
    BLBB4B   OBJ      75.010000   UPBROW34583 1.000000
    BBBL4G   BB4T     1.000000   BL4T     -1.000000
    BBBL4G   2BBBL4   1.000000   RBBBL2   -1.000000
    BBBL4G   OBJ      500.420000   UPBROW34584 1.000000
    BLBB4G   BL4T     1.000000   BB4T     -1.000000
    BLBB4G   2BBBL4   1.000000   RBBBL2   -1.000000
    BLBB4G   OBJ      500.420000   UPBROW34585 1.000000
    BBBL5B   BB5R     1.000000   BL5R     -1.000000
    BBBL5B   2BBBL5   1.000000   RBBBL2   -1.000000
    BBBL5B   OBJ      28.920000   UPBROW34586 1.000000
    BLBB5B   BL5R     1.000000   BB5R     -1.000000
    BLBB5B   2BBBL5   1.000000   RBBBL2   -1.000000
    BLBB5B   OBJ      28.920000   UPBROW34587 1.000000
    BBBL5G   BB5T     1.000000   BL5T     -1.000000
    BBBL5G   2BBBL5   1.000000   RBBBL2   -1.000000
    BBBL5G   OBJ      192.930000   UPBROW34588 1.000000
    BLBB5G   BL5T     1.000000   BB5T     -1.000000
    BLBB5G   2BBBL5   1.000000   RBBBL2   -1.000000
    BLBB5G   OBJ      192.930000   UPBROW34589 1.000000
    BBBL-3   RBBBL3   100000.000000   PBBBL    1.000000
    BBBL-3   OBJ      16422.000000   UPBROW34590 1.000000
    BBBL1C   BB1R     1.000000   BL1R     -1.000000
    BBBL1C   3BBBL1   1.000000   RBBBL3   -1.000000
    BBBL1C   OBJ      1308.900000   UPBROW34591 1.000000
    BLBB1C   BL1R     1.000000   BB1R     -1.000000
    BLBB1C   3BBBL1   1.000000   RBBBL3   -1.000000
    BLBB1C   OBJ      1308.900000   UPBROW34592 1.000000
    BBBL1H   BB1T     1.000000   BL1T     -1.000000
    BBBL1H   3BBBL1   1.000000   RBBBL3   -1.000000
    BBBL1H   OBJ      11927.000000   UPBROW34593 1.000000
    BLBB1H   BL1T     1.000000   BB1T     -1.000000
    BLBB1H   3BBBL1   1.000000   RBBBL3   -1.000000
    BLBB1H   OBJ      11927.000000   UPBROW34594 1.000000
    BBBL2C   BB2R     1.000000   BL2R     -1.000000
    BBBL2C   3BBBL2   1.000000   RBBBL3   -1.000000
    BBBL2C   OBJ      706.210000   UPBROW34595 1.000000
    BLBB2C   BL2R     1.000000   BB2R     -1.000000
    BLBB2C   3BBBL2   1.000000   RBBBL3   -1.000000
    BLBB2C   OBJ      706.210000   UPBROW34596 1.000000
    BBBL2H   BB2T     1.000000   BL2T     -1.000000
    BBBL2H   3BBBL2   1.000000   RBBBL3   -1.000000
    BBBL2H   OBJ      4803.600000   UPBROW34597 1.000000
    BLBB2H   BL2T     1.000000   BB2T     -1.000000
    BLBB2H   3BBBL2   1.000000   RBBBL3   -1.000000
    BLBB2H   OBJ      4803.600000   UPBROW34598 1.000000
    BBBL3C   BB3R     1.000000   BL3R     -1.000000
    BBBL3C   3BBBL3   1.000000   RBBBL3   -1.000000
    BBBL3C   OBJ      272.270000   UPBROW34599 1.000000
    BLBB3C   BL3R     1.000000   BB3R     -1.000000
    BLBB3C   3BBBL3   1.000000   RBBBL3   -1.000000
    BLBB3C   OBJ      272.270000   UPBROW34600 1.000000
    BBBL3H   BB3T     1.000000   BL3T     -1.000000
    BBBL3H   3BBBL3   1.000000   RBBBL3   -1.000000
    BBBL3H   OBJ      1852.000000   UPBROW34601 1.000000
    BLBB3H   BL3T     1.000000   BB3T     -1.000000
    BLBB3H   3BBBL3   1.000000   RBBBL3   -1.000000
    BLBB3H   OBJ      1852.000000   UPBROW34602 1.000000
    BBBL4C   BB4R     1.000000   BL4R     -1.000000
    BBBL4C   3BBBL4   1.000000   RBBBL3   -1.000000
    BBBL4C   OBJ      104.970000   UPBROW34603 1.000000
    BLBB4C   BL4R     1.000000   BB4R     -1.000000
    BLBB4C   3BBBL4   1.000000   RBBBL3   -1.000000
    BLBB4C   OBJ      104.970000   UPBROW34604 1.000000
    BBBL4H   BB4T     1.000000   BL4T     -1.000000
    BBBL4H   3BBBL4   1.000000   RBBBL3   -1.000000
    BBBL4H   OBJ      714.030000   UPBROW34605 1.000000
    BLBB4H   BL4T     1.000000   BB4T     -1.000000
    BLBB4H   3BBBL4   1.000000   RBBBL3   -1.000000
    BLBB4H   OBJ      714.030000   UPBROW34606 1.000000
    BBBL5C   BB5R     1.000000   BL5R     -1.000000
    BBBL5C   3BBBL5   1.000000   RBBBL3   -1.000000
    BBBL5C   OBJ      40.470000   UPBROW34607 1.000000
    BLBB5C   BL5R     1.000000   BB5R     -1.000000
    BLBB5C   3BBBL5   1.000000   RBBBL3   -1.000000
    BLBB5C   OBJ      40.470000   UPBROW34608 1.000000
    BBBL5H   BB5T     1.000000   BL5T     -1.000000
    BBBL5H   3BBBL5   1.000000   RBBBL3   -1.000000
    BBBL5H   OBJ      275.290000   UPBROW34609 1.000000
    BLBB5H   BL5T     1.000000   BB5T     -1.000000
    BLBB5H   3BBBL5   1.000000   RBBBL3   -1.000000
    BLBB5H   OBJ      275.290000   UPBROW34610 1.000000
    BBBL-4   RBBBL4   100000.000000   PBBBL    1.000000
    BBBL-4   OBJ      6331.500000   UPBROW34611 1.000000
    BBBL1D   BB1R     1.000000   BL1R     -1.000000
    BBBL1D   4BBBL1   1.000000   RBBBL4   -1.000000
    BBBL1D   OBJ      1308.900000   UPBROW34612 1.000000
    BLBB1D   BL1R     1.000000   BB1R     -1.000000
    BLBB1D   4BBBL1   1.000000   RBBBL4   -1.000000
    BLBB1D   OBJ      1308.900000   UPBROW34613 1.000000
    BBBL1I   BB1T     1.000000   BL1T     -1.000000
    BBBL1I   4BBBL1   1.000000   RBBBL4   -1.000000
    BBBL1I   OBJ      11927.000000   UPBROW34614 1.000000
    BLBB1I   BL1T     1.000000   BB1T     -1.000000
    BLBB1I   4BBBL1   1.000000   RBBBL4   -1.000000
    BLBB1I   OBJ      11927.000000   UPBROW34615 1.000000
    BBBL2D   BB2R     1.000000   BL2R     -1.000000
    BBBL2D   4BBBL2   1.000000   RBBBL4   -1.000000
    BBBL2D   OBJ      504.640000   UPBROW34616 1.000000
    BLBB2D   BL2R     1.000000   BB2R     -1.000000
    BLBB2D   4BBBL2   1.000000   RBBBL4   -1.000000
    BLBB2D   OBJ      504.640000   UPBROW34617 1.000000
    BBBL2I   BB2T     1.000000   BL2T     -1.000000
    BBBL2I   4BBBL2   1.000000   RBBBL4   -1.000000
    BBBL2I   OBJ      4598.200000   UPBROW34618 1.000000
    BLBB2I   BL2T     1.000000   BB2T     -1.000000
    BLBB2I   4BBBL2   1.000000   RBBBL4   -1.000000
    BLBB2I   OBJ      4598.200000   UPBROW34619 1.000000
    BBBL3D   BB3R     1.000000   BL3R     -1.000000
    BBBL3D   4BBBL3   1.000000   RBBBL4   -1.000000
    BBBL3D   OBJ      272.270000   UPBROW34620 1.000000
    BLBB3D   BL3R     1.000000   BB3R     -1.000000
    BLBB3D   4BBBL3   1.000000   RBBBL4   -1.000000
    BLBB3D   OBJ      272.270000   UPBROW34621 1.000000
    BBBL3I   BB3T     1.000000   BL3T     -1.000000
    BBBL3I   4BBBL3   1.000000   RBBBL4   -1.000000
    BBBL3I   OBJ      1852.000000   UPBROW34622 1.000000
    BLBB3I   BL3T     1.000000   BB3T     -1.000000
    BLBB3I   4BBBL3   1.000000   RBBBL4   -1.000000
    BLBB3I   OBJ      1852.000000   UPBROW34623 1.000000
    BBBL4D   BB4R     1.000000   BL4R     -1.000000
    BBBL4D   4BBBL4   1.000000   RBBBL4   -1.000000
    BBBL4D   OBJ      104.970000   UPBROW34624 1.000000
    BLBB4D   BL4R     1.000000   BB4R     -1.000000
    BLBB4D   4BBBL4   1.000000   RBBBL4   -1.000000
    BLBB4D   OBJ      104.970000   UPBROW34625 1.000000
    BBBL4I   BB4T     1.000000   BL4T     -1.000000
    BBBL4I   4BBBL4   1.000000   RBBBL4   -1.000000
    BBBL4I   OBJ      714.030000   UPBROW34626 1.000000
    BLBB4I   BL4T     1.000000   BB4T     -1.000000
    BLBB4I   4BBBL4   1.000000   RBBBL4   -1.000000
    BLBB4I   OBJ      714.030000   UPBROW34627 1.000000
    BBBL5D   BB5R     1.000000   BL5R     -1.000000
    BBBL5D   4BBBL5   1.000000   RBBBL4   -1.000000
    BBBL5D   OBJ      40.470000   UPBROW34628 1.000000
    BLBB5D   BL5R     1.000000   BB5R     -1.000000
    BLBB5D   4BBBL5   1.000000   RBBBL4   -1.000000
    BLBB5D   OBJ      40.470000   UPBROW34629 1.000000
    BBBL5I   BB5T     1.000000   BL5T     -1.000000
    BBBL5I   4BBBL5   1.000000   RBBBL4   -1.000000
    BBBL5I   OBJ      275.290000   UPBROW34630 1.000000
    BLBB5I   BL5T     1.000000   BB5T     -1.000000
    BLBB5I   4BBBL5   1.000000   RBBBL4   -1.000000
    BLBB5I   OBJ      275.290000   UPBROW34631 1.000000
    BBBL-5   RBBBL5   100000.000000   PBBBL    1.000000
    BBBL-5   UPBROW34632 1.000000
    BBBL1E   BB1R     1.000000   BL1R     -1.000000
    BBBL1E   5BBBL1   1.000000   RBBBL5   -1.000000
    BBBL1E   OBJ      1308.900000   UPBROW34633 1.000000
    BLBB1E   BL1R     1.000000   BB1R     -1.000000
    BLBB1E   5BBBL1   1.000000   RBBBL5   -1.000000
    BLBB1E   OBJ      1308.900000   UPBROW34634 1.000000
    BBBL1J   BB1T     1.000000   BL1T     -1.000000
    BBBL1J   5BBBL1   1.000000   RBBBL5   -1.000000
    BBBL1J   OBJ      11927.000000   UPBROW34635 1.000000
    BLBB1J   BL1T     1.000000   BB1T     -1.000000
    BLBB1J   5BBBL1   1.000000   RBBBL5   -1.000000
    BLBB1J   OBJ      11927.000000   UPBROW34636 1.000000
    BBBL2E   BB2R     1.000000   BL2R     -1.000000
    BBBL2E   5BBBL2   1.000000   RBBBL5   -1.000000
    BBBL2E   OBJ      504.640000   UPBROW34637 1.000000
    BLBB2E   BL2R     1.000000   BB2R     -1.000000
    BLBB2E   5BBBL2   1.000000   RBBBL5   -1.000000
    BLBB2E   OBJ      504.640000   UPBROW34638 1.000000
    BBBL2J   BB2T     1.000000   BL2T     -1.000000
    BBBL2J   5BBBL2   1.000000   RBBBL5   -1.000000
    BBBL2J   OBJ      4598.200000   UPBROW34639 1.000000
    BLBB2J   BL2T     1.000000   BB2T     -1.000000
    BLBB2J   5BBBL2   1.000000   RBBBL5   -1.000000
    BLBB2J   OBJ      4598.200000   UPBROW34640 1.000000
    BBBL3E   BB3R     1.000000   BL3R     -1.000000
    BBBL3E   5BBBL3   1.000000   RBBBL5   -1.000000
    BBBL3E   OBJ      194.560000   UPBROW34641 1.000000
    BLBB3E   BL3R     1.000000   BB3R     -1.000000
    BLBB3E   5BBBL3   1.000000   RBBBL5   -1.000000
    BLBB3E   OBJ      194.560000   UPBROW34642 1.000000
    BBBL3J   BB3T     1.000000   BL3T     -1.000000
    BBBL3J   5BBBL3   1.000000   RBBBL5   -1.000000
    BBBL3J   OBJ      1772.800000   UPBROW34643 1.000000
    BLBB3J   BL3T     1.000000   BB3T     -1.000000
    BLBB3J   5BBBL3   1.000000   RBBBL5   -1.000000
    BLBB3J   OBJ      1772.800000   UPBROW34644 1.000000
    BBBL4E   BB4R     1.000000   BL4R     -1.000000
    BBBL4E   5BBBL4   1.000000   RBBBL5   -1.000000
    BBBL4E   OBJ      75.010000   UPBROW34645 1.000000
    BLBB4E   BL4R     1.000000   BB4R     -1.000000
    BLBB4E   5BBBL4   1.000000   RBBBL5   -1.000000
    BLBB4E   OBJ      75.010000   UPBROW34646 1.000000
    BBBL4J   BB4T     1.000000   BL4T     -1.000000
    BBBL4J   5BBBL4   1.000000   RBBBL5   -1.000000
    BBBL4J   OBJ      683.500000   UPBROW34647 1.000000
    BLBB4J   BL4T     1.000000   BB4T     -1.000000
    BLBB4J   5BBBL4   1.000000   RBBBL5   -1.000000
    BLBB4J   OBJ      683.500000   UPBROW34648 1.000000
    BBBL5E   BB5R     1.000000   BL5R     -1.000000
    BBBL5E   5BBBL5   1.000000   RBBBL5   -1.000000
    BBBL5E   OBJ      28.920000   UPBROW34649 1.000000
    BLBB5E   BL5R     1.000000   BB5R     -1.000000
    BLBB5E   5BBBL5   1.000000   RBBBL5   -1.000000
    BLBB5E   OBJ      28.920000   UPBROW34650 1.000000
    BBBL5J   BB5T     1.000000   BL5T     -1.000000
    BBBL5J   5BBBL5   1.000000   RBBBL5   -1.000000
    BBBL5J   OBJ      263.520000   UPBROW34651 1.000000
    BLBB5J   BL5T     1.000000   BB5T     -1.000000
    BLBB5J   5BBBL5   1.000000   RBBBL5   -1.000000
    BLBB5J   OBJ      263.520000   UPBROW34652 1.000000
    BLBM-1   RBLBM1   100000.000000   PBLBM    1.000000
    BLBM-1   OBJ      39935.000000   UPBROW34653 1.000000
    BLBM1A   BL1R     1.000000   BM1R     -1.000000
    BLBM1A   1BLBM1   1.000000   RBLBM1   -1.000000
    BLBM1A   OBJ      1159.300000   UPBROW34654 1.000000
    BMBL1A   BM1R     1.000000   BL1R     -1.000000
    BMBL1A   1BLBM1   1.000000   RBLBM1   -1.000000
    BMBL1A   OBJ      1159.300000   UPBROW34655 1.000000
    BLBM1F   BL1T     1.000000   BM1T     -1.000000
    BLBM1F   1BLBM1   1.000000   RBLBM1   -1.000000
    BLBM1F   OBJ      7882.600000   UPBROW34656 1.000000
    BMBL1F   BM1T     1.000000   BL1T     -1.000000
    BMBL1F   1BLBM1   1.000000   RBLBM1   -1.000000
    BMBL1F   OBJ      7882.600000   UPBROW34657 1.000000
    BLBM2A   BL2R     1.000000   BM2R     -1.000000
    BLBM2A   1BLBM2   1.000000   RBLBM1   -1.000000
    BLBM2A   OBJ      319.350000   UPBROW34658 1.000000
    BMBL2A   BM2R     1.000000   BL2R     -1.000000
    BMBL2A   1BLBM2   1.000000   RBLBM1   -1.000000
    BMBL2A   OBJ      319.350000   UPBROW34659 1.000000
    BLBM2F   BL2T     1.000000   BM2T     -1.000000
    BLBM2F   1BLBM2   1.000000   RBLBM1   -1.000000
    BLBM2F   OBJ      2129.900000   UPBROW34660 1.000000
    BMBL2F   BM2T     1.000000   BL2T     -1.000000
    BMBL2F   1BLBM2   1.000000   RBLBM1   -1.000000
    BMBL2F   OBJ      2129.900000   UPBROW34661 1.000000
    BLBM3A   BL3R     1.000000   BM3R     -1.000000
    BLBM3A   1BLBM3   1.000000   RBLBM1   -1.000000
    BLBM3A   OBJ      123.120000   UPBROW34662 1.000000
    BMBL3A   BM3R     1.000000   BL3R     -1.000000
    BMBL3A   1BLBM3   1.000000   RBLBM1   -1.000000
    BMBL3A   OBJ      123.120000   UPBROW34663 1.000000
    BLBM3F   BL3T     1.000000   BM3T     -1.000000
    BLBM3F   1BLBM3   1.000000   RBLBM1   -1.000000
    BLBM3F   OBJ      821.160000   UPBROW34664 1.000000
    BMBL3F   BM3T     1.000000   BL3T     -1.000000
    BMBL3F   1BLBM3   1.000000   RBLBM1   -1.000000
    BMBL3F   OBJ      821.160000   UPBROW34665 1.000000
    BLBM4A   BL4R     1.000000   BM4R     -1.000000
    BLBM4A   1BLBM4   1.000000   RBLBM1   -1.000000
    BLBM4A   OBJ      47.470000   UPBROW34666 1.000000
    BMBL4A   BM4R     1.000000   BL4R     -1.000000
    BMBL4A   1BLBM4   1.000000   RBLBM1   -1.000000
    BMBL4A   OBJ      47.470000   UPBROW34667 1.000000
    BLBM4F   BL4T     1.000000   BM4T     -1.000000
    BLBM4F   1BLBM4   1.000000   RBLBM1   -1.000000
    BLBM4F   OBJ      316.590000   UPBROW34668 1.000000
    BMBL4F   BM4T     1.000000   BL4T     -1.000000
    BMBL4F   1BLBM4   1.000000   RBLBM1   -1.000000
    BMBL4F   OBJ      316.590000   UPBROW34669 1.000000
    BLBM5A   BL5R     1.000000   BM5R     -1.000000
    BLBM5A   1BLBM5   1.000000   RBLBM1   -1.000000
    BLBM5A   OBJ      18.300000   UPBROW34670 1.000000
    BMBL5A   BM5R     1.000000   BL5R     -1.000000
    BMBL5A   1BLBM5   1.000000   RBLBM1   -1.000000
    BMBL5A   OBJ      18.300000   UPBROW34671 1.000000
    BLBM5F   BL5T     1.000000   BM5T     -1.000000
    BLBM5F   1BLBM5   1.000000   RBLBM1   -1.000000
    BLBM5F   OBJ      122.060000   UPBROW34672 1.000000
    BMBL5F   BM5T     1.000000   BL5T     -1.000000
    BMBL5F   1BLBM5   1.000000   RBLBM1   -1.000000
    BMBL5F   OBJ      122.060000   UPBROW34673 1.000000
    BLBM-2   RBLBM2   100000.000000   PBLBM    1.000000
    BLBM-2   OBJ      31955.000000   UPBROW34674 1.000000
    BLBM1B   BL1R     1.000000   BM1R     -1.000000
    BLBM1B   2BLBM1   1.000000   RBLBM2   -1.000000
    BLBM1B   OBJ      1159.300000   UPBROW34675 1.000000
    BMBL1B   BM1R     1.000000   BL1R     -1.000000
    BMBL1B   2BLBM1   1.000000   RBLBM2   -1.000000
    BMBL1B   OBJ      1159.300000   UPBROW34676 1.000000
    BLBM1G   BL1T     1.000000   BM1T     -1.000000
    BLBM1G   2BLBM1   1.000000   RBLBM2   -1.000000
    BLBM1G   OBJ      7882.600000   UPBROW34677 1.000000
    BMBL1G   BM1T     1.000000   BL1T     -1.000000
    BMBL1G   2BLBM1   1.000000   RBLBM2   -1.000000
    BMBL1G   OBJ      7882.600000   UPBROW34678 1.000000
    BLBM2B   BL2R     1.000000   BM2R     -1.000000
    BLBM2B   2BLBM2   1.000000   RBLBM2   -1.000000
    BLBM2B   OBJ      446.940000   UPBROW34679 1.000000
    BMBL2B   BM2R     1.000000   BL2R     -1.000000
    BMBL2B   2BLBM2   1.000000   RBLBM2   -1.000000
    BMBL2B   OBJ      446.940000   UPBROW34680 1.000000
    BLBM2G   BL2T     1.000000   BM2T     -1.000000
    BLBM2G   2BLBM2   1.000000   RBLBM2   -1.000000
    BLBM2G   OBJ      3039.100000   UPBROW34681 1.000000
    BMBL2G   BM2T     1.000000   BL2T     -1.000000
    BMBL2G   2BLBM2   1.000000   RBLBM2   -1.000000
    BMBL2G   OBJ      3039.100000   UPBROW34682 1.000000
    BLBM3B   BL3R     1.000000   BM3R     -1.000000
    BLBM3B   2BLBM3   1.000000   RBLBM2   -1.000000
    BLBM3B   OBJ      123.120000   UPBROW34683 1.000000
    BMBL3B   BM3R     1.000000   BL3R     -1.000000
    BMBL3B   2BLBM3   1.000000   RBLBM2   -1.000000
    BMBL3B   OBJ      123.120000   UPBROW34684 1.000000
    BLBM3G   BL3T     1.000000   BM3T     -1.000000
    BLBM3G   2BLBM3   1.000000   RBLBM2   -1.000000
    BLBM3G   OBJ      821.160000   UPBROW34685 1.000000
    BMBL3G   BM3T     1.000000   BL3T     -1.000000
    BMBL3G   2BLBM3   1.000000   RBLBM2   -1.000000
    BMBL3G   OBJ      821.160000   UPBROW34686 1.000000
    BLBM4B   BL4R     1.000000   BM4R     -1.000000
    BLBM4B   2BLBM4   1.000000   RBLBM2   -1.000000
    BLBM4B   OBJ      47.470000   UPBROW34687 1.000000
    BMBL4B   BM4R     1.000000   BL4R     -1.000000
    BMBL4B   2BLBM4   1.000000   RBLBM2   -1.000000
    BMBL4B   OBJ      47.470000   UPBROW34688 1.000000
    BLBM4G   BL4T     1.000000   BM4T     -1.000000
    BLBM4G   2BLBM4   1.000000   RBLBM2   -1.000000
    BLBM4G   OBJ      316.590000   UPBROW34689 1.000000
    BMBL4G   BM4T     1.000000   BL4T     -1.000000
    BMBL4G   2BLBM4   1.000000   RBLBM2   -1.000000
    BMBL4G   OBJ      316.590000   UPBROW34690 1.000000
    BLBM5B   BL5R     1.000000   BM5R     -1.000000
    BLBM5B   2BLBM5   1.000000   RBLBM2   -1.000000
    BLBM5B   OBJ      18.300000   UPBROW34691 1.000000
    BMBL5B   BM5R     1.000000   BL5R     -1.000000
    BMBL5B   2BLBM5   1.000000   RBLBM2   -1.000000
    BMBL5B   OBJ      18.300000   UPBROW34692 1.000000
    BLBM5G   BL5T     1.000000   BM5T     -1.000000
    BLBM5G   2BLBM5   1.000000   RBLBM2   -1.000000
    BLBM5G   OBJ      122.060000   UPBROW34693 1.000000
    BMBL5G   BM5T     1.000000   BL5T     -1.000000
    BMBL5G   2BLBM5   1.000000   RBLBM2   -1.000000
    BMBL5G   OBJ      122.060000   UPBROW34694 1.000000
    BLBM-3   RBLBM3   100000.000000   PBLBM    1.000000
    BLBM-3   OBJ      10390.000000   UPBROW34695 1.000000
    BLBM1C   BL1R     1.000000   BM1R     -1.000000
    BLBM1C   3BLBM1   1.000000   RBLBM3   -1.000000
    BLBM1C   OBJ      828.310000   UPBROW34696 1.000000
    BMBL1C   BM1R     1.000000   BL1R     -1.000000
    BMBL1C   3BLBM1   1.000000   RBLBM3   -1.000000
    BMBL1C   OBJ      828.310000   UPBROW34697 1.000000
    BLBM1H   BL1T     1.000000   BM1T     -1.000000
    BLBM1H   3BLBM1   1.000000   RBLBM3   -1.000000
    BLBM1H   OBJ      7545.400000   UPBROW34698 1.000000
    BMBL1H   BM1T     1.000000   BL1T     -1.000000
    BMBL1H   3BLBM1   1.000000   RBLBM3   -1.000000
    BMBL1H   OBJ      7545.400000   UPBROW34699 1.000000
    BLBM2C   BL2R     1.000000   BM2R     -1.000000
    BLBM2C   3BLBM2   1.000000   RBLBM3   -1.000000
    BLBM2C   OBJ      446.940000   UPBROW34700 1.000000
    BMBL2C   BM2R     1.000000   BL2R     -1.000000
    BMBL2C   3BLBM2   1.000000   RBLBM3   -1.000000
    BMBL2C   OBJ      446.940000   UPBROW34701 1.000000
    BLBM2H   BL2T     1.000000   BM2T     -1.000000
    BLBM2H   3BLBM2   1.000000   RBLBM3   -1.000000
    BLBM2H   OBJ      3039.100000   UPBROW34702 1.000000
    BMBL2H   BM2T     1.000000   BL2T     -1.000000
    BMBL2H   3BLBM2   1.000000   RBLBM3   -1.000000
    BMBL2H   OBJ      3039.100000   UPBROW34703 1.000000
    BLBM3C   BL3R     1.000000   BM3R     -1.000000
    BLBM3C   3BLBM3   1.000000   RBLBM3   -1.000000
    BLBM3C   OBJ      172.320000   UPBROW34704 1.000000
    BMBL3C   BM3R     1.000000   BL3R     -1.000000
    BMBL3C   3BLBM3   1.000000   RBLBM3   -1.000000
    BMBL3C   OBJ      172.320000   UPBROW34705 1.000000
    BLBM3H   BL3T     1.000000   BM3T     -1.000000
    BLBM3H   3BLBM3   1.000000   RBLBM3   -1.000000
    BLBM3H   OBJ      1171.700000   UPBROW34706 1.000000
    BMBL3H   BM3T     1.000000   BL3T     -1.000000
    BMBL3H   3BLBM3   1.000000   RBLBM3   -1.000000
    BMBL3H   OBJ      1171.700000   UPBROW34707 1.000000
    BLBM4C   BL4R     1.000000   BM4R     -1.000000
    BLBM4C   3BLBM4   1.000000   RBLBM3   -1.000000
    BLBM4C   OBJ      66.440000   UPBROW34708 1.000000
    BMBL4C   BM4R     1.000000   BL4R     -1.000000
    BMBL4C   3BLBM4   1.000000   RBLBM3   -1.000000
    BMBL4C   OBJ      66.440000   UPBROW34709 1.000000
    BLBM4H   BL4T     1.000000   BM4T     -1.000000
    BLBM4H   3BLBM4   1.000000   RBLBM3   -1.000000
    BLBM4H   OBJ      451.740000   UPBROW34710 1.000000
    BMBL4H   BM4T     1.000000   BL4T     -1.000000
    BMBL4H   3BLBM4   1.000000   RBLBM3   -1.000000
    BMBL4H   OBJ      451.740000   UPBROW34711 1.000000
    BLBM5C   BL5R     1.000000   BM5R     -1.000000
    BLBM5C   3BLBM5   1.000000   RBLBM3   -1.000000
    BLBM5C   OBJ      25.610000   UPBROW34712 1.000000
    BMBL5C   BM5R     1.000000   BL5R     -1.000000
    BMBL5C   3BLBM5   1.000000   RBLBM3   -1.000000
    BMBL5C   OBJ      25.610000   UPBROW34713 1.000000
    BLBM5H   BL5T     1.000000   BM5T     -1.000000
    BLBM5H   3BLBM5   1.000000   RBLBM3   -1.000000
    BLBM5H   OBJ      174.170000   UPBROW34714 1.000000
    BMBL5H   BM5T     1.000000   BL5T     -1.000000
    BMBL5H   3BLBM5   1.000000   RBLBM3   -1.000000
    BMBL5H   OBJ      174.170000   UPBROW34715 1.000000
    BLBM-4   RBLBM4   100000.000000   PBLBM    1.000000
    BLBM-4   OBJ      4005.700000   UPBROW34716 1.000000
    BLBM1D   BL1R     1.000000   BM1R     -1.000000
    BLBM1D   4BLBM1   1.000000   RBLBM4   -1.000000
    BLBM1D   OBJ      828.310000   UPBROW34717 1.000000
    BMBL1D   BM1R     1.000000   BL1R     -1.000000
    BMBL1D   4BLBM1   1.000000   RBLBM4   -1.000000
    BMBL1D   OBJ      828.310000   UPBROW34718 1.000000
    BLBM1I   BL1T     1.000000   BM1T     -1.000000
    BLBM1I   4BLBM1   1.000000   RBLBM4   -1.000000
    BLBM1I   OBJ      7545.400000   UPBROW34719 1.000000
    BMBL1I   BM1T     1.000000   BL1T     -1.000000
    BMBL1I   4BLBM1   1.000000   RBLBM4   -1.000000
    BMBL1I   OBJ      7545.400000   UPBROW34720 1.000000
    BLBM2D   BL2R     1.000000   BM2R     -1.000000
    BLBM2D   4BLBM2   1.000000   RBLBM4   -1.000000
    BLBM2D   OBJ      319.350000   UPBROW34721 1.000000
    BMBL2D   BM2R     1.000000   BL2R     -1.000000
    BMBL2D   4BLBM2   1.000000   RBLBM4   -1.000000
    BMBL2D   OBJ      319.350000   UPBROW34722 1.000000
    BLBM2I   BL2T     1.000000   BM2T     -1.000000
    BLBM2I   4BLBM2   1.000000   RBLBM4   -1.000000
    BLBM2I   OBJ      2909.100000   UPBROW34723 1.000000
    BMBL2I   BM2T     1.000000   BL2T     -1.000000
    BMBL2I   4BLBM2   1.000000   RBLBM4   -1.000000
    BMBL2I   OBJ      2909.100000   UPBROW34724 1.000000
    BLBM3D   BL3R     1.000000   BM3R     -1.000000
    BLBM3D   4BLBM3   1.000000   RBLBM4   -1.000000
    BLBM3D   OBJ      172.320000   UPBROW34725 1.000000
    BMBL3D   BM3R     1.000000   BL3R     -1.000000
    BMBL3D   4BLBM3   1.000000   RBLBM4   -1.000000
    BMBL3D   OBJ      172.320000   UPBROW34726 1.000000
    BLBM3I   BL3T     1.000000   BM3T     -1.000000
    BLBM3I   4BLBM3   1.000000   RBLBM4   -1.000000
    BLBM3I   OBJ      1171.700000   UPBROW34727 1.000000
    BMBL3I   BM3T     1.000000   BL3T     -1.000000
    BMBL3I   4BLBM3   1.000000   RBLBM4   -1.000000
    BMBL3I   OBJ      1171.700000   UPBROW34728 1.000000
    BLBM4D   BL4R     1.000000   BM4R     -1.000000
    BLBM4D   4BLBM4   1.000000   RBLBM4   -1.000000
    BLBM4D   OBJ      66.440000   UPBROW34729 1.000000
    BMBL4D   BM4R     1.000000   BL4R     -1.000000
    BMBL4D   4BLBM4   1.000000   RBLBM4   -1.000000
    BMBL4D   OBJ      66.440000   UPBROW34730 1.000000
    BLBM4I   BL4T     1.000000   BM4T     -1.000000
    BLBM4I   4BLBM4   1.000000   RBLBM4   -1.000000
    BLBM4I   OBJ      451.740000   UPBROW34731 1.000000
    BMBL4I   BM4T     1.000000   BL4T     -1.000000
    BMBL4I   4BLBM4   1.000000   RBLBM4   -1.000000
    BMBL4I   OBJ      451.740000   UPBROW34732 1.000000
    BLBM5D   BL5R     1.000000   BM5R     -1.000000
    BLBM5D   4BLBM5   1.000000   RBLBM4   -1.000000
    BLBM5D   OBJ      25.610000   UPBROW34733 1.000000
    BMBL5D   BM5R     1.000000   BL5R     -1.000000
    BMBL5D   4BLBM5   1.000000   RBLBM4   -1.000000
    BMBL5D   OBJ      25.610000   UPBROW34734 1.000000
    BLBM5I   BL5T     1.000000   BM5T     -1.000000
    BLBM5I   4BLBM5   1.000000   RBLBM4   -1.000000
    BLBM5I   OBJ      174.170000   UPBROW34735 1.000000
    BMBL5I   BM5T     1.000000   BL5T     -1.000000
    BMBL5I   4BLBM5   1.000000   RBLBM4   -1.000000
    BMBL5I   OBJ      174.170000   UPBROW34736 1.000000
    BLBM-5   RBLBM5   100000.000000   PBLBM    1.000000
    BLBM-5   UPBROW34737 1.000000
    BLBM1E   BL1R     1.000000   BM1R     -1.000000
    BLBM1E   5BLBM1   1.000000   RBLBM5   -1.000000
    BLBM1E   OBJ      828.310000   UPBROW34738 1.000000
    BMBL1E   BM1R     1.000000   BL1R     -1.000000
    BMBL1E   5BLBM1   1.000000   RBLBM5   -1.000000
    BMBL1E   OBJ      828.310000   UPBROW34739 1.000000
    BLBM1J   BL1T     1.000000   BM1T     -1.000000
    BLBM1J   5BLBM1   1.000000   RBLBM5   -1.000000
    BLBM1J   OBJ      7545.400000   UPBROW34740 1.000000
    BMBL1J   BM1T     1.000000   BL1T     -1.000000
    BMBL1J   5BLBM1   1.000000   RBLBM5   -1.000000
    BMBL1J   OBJ      7545.400000   UPBROW34741 1.000000
    BLBM2E   BL2R     1.000000   BM2R     -1.000000
    BLBM2E   5BLBM2   1.000000   RBLBM5   -1.000000
    BLBM2E   OBJ      319.350000   UPBROW34742 1.000000
    BMBL2E   BM2R     1.000000   BL2R     -1.000000
    BMBL2E   5BLBM2   1.000000   RBLBM5   -1.000000
    BMBL2E   OBJ      319.350000   UPBROW34743 1.000000
    BLBM2J   BL2T     1.000000   BM2T     -1.000000
    BLBM2J   5BLBM2   1.000000   RBLBM5   -1.000000
    BLBM2J   OBJ      2909.100000   UPBROW34744 1.000000
    BMBL2J   BM2T     1.000000   BL2T     -1.000000
    BMBL2J   5BLBM2   1.000000   RBLBM5   -1.000000
    BMBL2J   OBJ      2909.100000   UPBROW34745 1.000000
    BLBM3E   BL3R     1.000000   BM3R     -1.000000
    BLBM3E   5BLBM3   1.000000   RBLBM5   -1.000000
    BLBM3E   OBJ      123.120000   UPBROW34746 1.000000
    BMBL3E   BM3R     1.000000   BL3R     -1.000000
    BMBL3E   5BLBM3   1.000000   RBLBM5   -1.000000
    BMBL3E   OBJ      123.120000   UPBROW34747 1.000000
    BLBM3J   BL3T     1.000000   BM3T     -1.000000
    BLBM3J   5BLBM3   1.000000   RBLBM5   -1.000000
    BLBM3J   OBJ      1121.600000   UPBROW34748 1.000000
    BMBL3J   BM3T     1.000000   BL3T     -1.000000
    BMBL3J   5BLBM3   1.000000   RBLBM5   -1.000000
    BMBL3J   OBJ      1121.600000   UPBROW34749 1.000000
    BLBM4E   BL4R     1.000000   BM4R     -1.000000
    BLBM4E   5BLBM4   1.000000   RBLBM5   -1.000000
    BLBM4E   OBJ      47.470000   UPBROW34750 1.000000
    BMBL4E   BM4R     1.000000   BL4R     -1.000000
    BMBL4E   5BLBM4   1.000000   RBLBM5   -1.000000
    BMBL4E   OBJ      47.470000   UPBROW34751 1.000000
    BLBM4J   BL4T     1.000000   BM4T     -1.000000
    BLBM4J   5BLBM4   1.000000   RBLBM5   -1.000000
    BLBM4J   OBJ      432.420000   UPBROW34752 1.000000
    BMBL4J   BM4T     1.000000   BL4T     -1.000000
    BMBL4J   5BLBM4   1.000000   RBLBM5   -1.000000
    BMBL4J   OBJ      432.420000   UPBROW34753 1.000000
    BLBM5E   BL5R     1.000000   BM5R     -1.000000
    BLBM5E   5BLBM5   1.000000   RBLBM5   -1.000000
    BLBM5E   OBJ      18.300000   UPBROW34754 1.000000
    BMBL5E   BM5R     1.000000   BL5R     -1.000000
    BMBL5E   5BLBM5   1.000000   RBLBM5   -1.000000
    BMBL5E   OBJ      18.300000   UPBROW34755 1.000000
    BLBM5J   BL5T     1.000000   BM5T     -1.000000
    BLBM5J   5BLBM5   1.000000   RBLBM5   -1.000000
    BLBM5J   OBJ      166.720000   UPBROW34756 1.000000
    BMBL5J   BM5T     1.000000   BL5T     -1.000000
    BMBL5J   5BLBM5   1.000000   RBLBM5   -1.000000
    BMBL5J   OBJ      166.720000   UPBROW34757 1.000000
    BNBO-1   RBNBO1   100000.000000   PBNBO    1.000000
    BNBO-1   OBJ      40857.000000   UPBROW34758 1.000000
    BNBO1A   BN1R     1.000000   BO1R     -1.000000
    BNBO1A   1BNBO1   1.000000   RBNBO1   -1.000000
    BNBO1A   OBJ      1757.200000   UPBROW34759 1.000000
    BOBN1A   BO1R     1.000000   BN1R     -1.000000
    BOBN1A   1BNBO1   1.000000   RBNBO1   -1.000000
    BOBN1A   OBJ      1757.200000   UPBROW34760 1.000000
    BNBO1F   BN1T     1.000000   BO1T     -1.000000
    BNBO1F   1BNBO1   1.000000   RBNBO1   -1.000000
    BNBO1F   OBJ      11951.000000   UPBROW34761 1.000000
    BOBN1F   BO1T     1.000000   BN1T     -1.000000
    BOBN1F   1BNBO1   1.000000   RBNBO1   -1.000000
    BOBN1F   OBJ      11951.000000   UPBROW34762 1.000000
    BNBO2A   BN2R     1.000000   BO2R     -1.000000
    BNBO2A   1BNBO2   1.000000   RBNBO1   -1.000000
    BNBO2A   OBJ      677.480000   UPBROW34763 1.000000
    BOBN2A   BO2R     1.000000   BN2R     -1.000000
    BOBN2A   1BNBO2   1.000000   RBNBO1   -1.000000
    BOBN2A   OBJ      677.480000   UPBROW34764 1.000000
    BNBO2F   BN2T     1.000000   BO2T     -1.000000
    BNBO2F   1BNBO2   1.000000   RBNBO1   -1.000000
    BNBO2F   OBJ      4607.600000   UPBROW34765 1.000000
    BOBN2F   BO2T     1.000000   BN2T     -1.000000
    BOBN2F   1BNBO2   1.000000   RBNBO1   -1.000000
    BOBN2F   OBJ      4607.600000   UPBROW34766 1.000000
    BNBO3A   BN3R     1.000000   BO3R     -1.000000
    BNBO3A   1BNBO3   1.000000   RBNBO1   -1.000000
    BNBO3A   OBJ      261.200000   UPBROW34767 1.000000
    BOBN3A   BO3R     1.000000   BN3R     -1.000000
    BOBN3A   1BNBO3   1.000000   RBNBO1   -1.000000
    BOBN3A   OBJ      261.200000   UPBROW34768 1.000000
    BNBO3F   BN3T     1.000000   BO3T     -1.000000
    BNBO3F   1BNBO3   1.000000   RBNBO1   -1.000000
    BNBO3F   OBJ      1776.400000   UPBROW34769 1.000000
    BOBN3F   BO3T     1.000000   BN3T     -1.000000
    BOBN3F   1BNBO3   1.000000   RBNBO1   -1.000000
    BOBN3F   OBJ      1776.400000   UPBROW34770 1.000000
    BNBO4A   BN4R     1.000000   BO4R     -1.000000
    BNBO4A   1BNBO4   1.000000   RBNBO1   -1.000000
    BNBO4A   OBJ      100.700000   UPBROW34771 1.000000
    BOBN4A   BO4R     1.000000   BN4R     -1.000000
    BOBN4A   1BNBO4   1.000000   RBNBO1   -1.000000
    BOBN4A   OBJ      100.700000   UPBROW34772 1.000000
    BNBO4F   BN4T     1.000000   BO4T     -1.000000
    BNBO4F   1BNBO4   1.000000   RBNBO1   -1.000000
    BNBO4F   OBJ      684.890000   UPBROW34773 1.000000
    BOBN4F   BO4T     1.000000   BN4T     -1.000000
    BOBN4F   1BNBO4   1.000000   RBNBO1   -1.000000
    BOBN4F   OBJ      684.890000   UPBROW34774 1.000000
    BNBO5A   BN5R     1.000000   BO5R     -1.000000
    BNBO5A   1BNBO5   1.000000   RBNBO1   -1.000000
    BNBO5A   OBJ      38.830000   UPBROW34775 1.000000
    BOBN5A   BO5R     1.000000   BN5R     -1.000000
    BOBN5A   1BNBO5   1.000000   RBNBO1   -1.000000
    BOBN5A   OBJ      38.830000   UPBROW34776 1.000000
    BNBO5F   BN5T     1.000000   BO5T     -1.000000
    BNBO5F   1BNBO5   1.000000   RBNBO1   -1.000000
    BNBO5F   OBJ      264.050000   UPBROW34777 1.000000
    BOBN5F   BO5T     1.000000   BN5T     -1.000000
    BOBN5F   1BNBO5   1.000000   RBNBO1   -1.000000
    BOBN5F   OBJ      264.050000   UPBROW34778 1.000000
    BNBO-2   RBNBO2   100000.000000   PBNBO    1.000000
    BNBO-2   OBJ      15752.000000   UPBROW34779 1.000000
    BNBO1B   BN1R     1.000000   BO1R     -1.000000
    BNBO1B   2BNBO1   1.000000   RBNBO2   -1.000000
    BNBO1B   OBJ      1255.500000   UPBROW34780 1.000000
    BOBN1B   BO1R     1.000000   BN1R     -1.000000
    BOBN1B   2BNBO1   1.000000   RBNBO2   -1.000000
    BOBN1B   OBJ      1255.500000   UPBROW34781 1.000000
    BNBO1G   BN1T     1.000000   BO1T     -1.000000
    BNBO1G   2BNBO1   1.000000   RBNBO2   -1.000000
    BNBO1G   OBJ      11440.000000   UPBROW34782 1.000000
    BOBN1G   BO1T     1.000000   BN1T     -1.000000
    BOBN1G   2BNBO1   1.000000   RBNBO2   -1.000000
    BOBN1G   OBJ      11440.000000   UPBROW34783 1.000000
    BNBO2B   BN2R     1.000000   BO2R     -1.000000
    BNBO2B   2BNBO2   1.000000   RBNBO2   -1.000000
    BNBO2B   OBJ      677.480000   UPBROW34784 1.000000
    BOBN2B   BO2R     1.000000   BN2R     -1.000000
    BOBN2B   2BNBO2   1.000000   RBNBO2   -1.000000
    BOBN2B   OBJ      677.480000   UPBROW34785 1.000000
    BNBO2G   BN2T     1.000000   BO2T     -1.000000
    BNBO2G   2BNBO2   1.000000   RBNBO2   -1.000000
    BNBO2G   OBJ      4607.600000   UPBROW34786 1.000000
    BOBN2G   BO2T     1.000000   BN2T     -1.000000
    BOBN2G   2BNBO2   1.000000   RBNBO2   -1.000000
    BOBN2G   OBJ      4607.600000   UPBROW34787 1.000000
    BNBO3B   BN3R     1.000000   BO3R     -1.000000
    BNBO3B   2BNBO3   1.000000   RBNBO2   -1.000000
    BNBO3B   OBJ      261.200000   UPBROW34788 1.000000
    BOBN3B   BO3R     1.000000   BN3R     -1.000000
    BOBN3B   2BNBO3   1.000000   RBNBO2   -1.000000
    BOBN3B   OBJ      261.200000   UPBROW34789 1.000000
    BNBO3G   BN3T     1.000000   BO3T     -1.000000
    BNBO3G   2BNBO3   1.000000   RBNBO2   -1.000000
    BNBO3G   OBJ      1776.400000   UPBROW34790 1.000000
    BOBN3G   BO3T     1.000000   BN3T     -1.000000
    BOBN3G   2BNBO3   1.000000   RBNBO2   -1.000000
    BOBN3G   OBJ      1776.400000   UPBROW34791 1.000000
    BNBO4B   BN4R     1.000000   BO4R     -1.000000
    BNBO4B   2BNBO4   1.000000   RBNBO2   -1.000000
    BNBO4B   OBJ      100.700000   UPBROW34792 1.000000
    BOBN4B   BO4R     1.000000   BN4R     -1.000000
    BOBN4B   2BNBO4   1.000000   RBNBO2   -1.000000
    BOBN4B   OBJ      100.700000   UPBROW34793 1.000000
    BNBO4G   BN4T     1.000000   BO4T     -1.000000
    BNBO4G   2BNBO4   1.000000   RBNBO2   -1.000000
    BNBO4G   OBJ      684.890000   UPBROW34794 1.000000
    BOBN4G   BO4T     1.000000   BN4T     -1.000000
    BOBN4G   2BNBO4   1.000000   RBNBO2   -1.000000
    BOBN4G   OBJ      684.890000   UPBROW34795 1.000000
    BNBO5B   BN5R     1.000000   BO5R     -1.000000
    BNBO5B   2BNBO5   1.000000   RBNBO2   -1.000000
    BNBO5B   OBJ      38.830000   UPBROW34796 1.000000
    BOBN5B   BO5R     1.000000   BN5R     -1.000000
    BOBN5B   2BNBO5   1.000000   RBNBO2   -1.000000
    BOBN5B   OBJ      38.830000   UPBROW34797 1.000000
    BNBO5G   BN5T     1.000000   BO5T     -1.000000
    BNBO5G   2BNBO5   1.000000   RBNBO2   -1.000000
    BNBO5G   OBJ      264.050000   UPBROW34798 1.000000
    BOBN5G   BO5T     1.000000   BN5T     -1.000000
    BOBN5G   2BNBO5   1.000000   RBNBO2   -1.000000
    BOBN5G   OBJ      264.050000   UPBROW34799 1.000000
    BNBO-3   RBNBO3   100000.000000   PBNBO    1.000000
    BNBO-3   OBJ      6073.100000   UPBROW34800 1.000000
    BNBO1C   BN1R     1.000000   BO1R     -1.000000
    BNBO1C   3BNBO1   1.000000   RBNBO3   -1.000000
    BNBO1C   OBJ      1255.500000   UPBROW34801 1.000000
    BOBN1C   BO1R     1.000000   BN1R     -1.000000
    BOBN1C   3BNBO1   1.000000   RBNBO3   -1.000000
    BOBN1C   OBJ      1255.500000   UPBROW34802 1.000000
    BNBO1H   BN1T     1.000000   BO1T     -1.000000
    BNBO1H   3BNBO1   1.000000   RBNBO3   -1.000000
    BNBO1H   OBJ      11440.000000   UPBROW34803 1.000000
    BOBN1H   BO1T     1.000000   BN1T     -1.000000
    BOBN1H   3BNBO1   1.000000   RBNBO3   -1.000000
    BOBN1H   OBJ      11440.000000   UPBROW34804 1.000000
    BNBO2C   BN2R     1.000000   BO2R     -1.000000
    BNBO2C   3BNBO2   1.000000   RBNBO3   -1.000000
    BNBO2C   OBJ      484.050000   UPBROW34805 1.000000
    BOBN2C   BO2R     1.000000   BN2R     -1.000000
    BOBN2C   3BNBO2   1.000000   RBNBO3   -1.000000
    BOBN2C   OBJ      484.050000   UPBROW34806 1.000000
    BNBO2H   BN2T     1.000000   BO2T     -1.000000
    BNBO2H   3BNBO2   1.000000   RBNBO3   -1.000000
    BNBO2H   OBJ      4410.600000   UPBROW34807 1.000000
    BOBN2H   BO2T     1.000000   BN2T     -1.000000
    BOBN2H   3BNBO2   1.000000   RBNBO3   -1.000000
    BOBN2H   OBJ      4410.600000   UPBROW34808 1.000000
    BNBO3C   BN3R     1.000000   BO3R     -1.000000
    BNBO3C   3BNBO3   1.000000   RBNBO3   -1.000000
    BNBO3C   OBJ      261.200000   UPBROW34809 1.000000
    BOBN3C   BO3R     1.000000   BN3R     -1.000000
    BOBN3C   3BNBO3   1.000000   RBNBO3   -1.000000
    BOBN3C   OBJ      261.200000   UPBROW34810 1.000000
    BNBO3H   BN3T     1.000000   BO3T     -1.000000
    BNBO3H   3BNBO3   1.000000   RBNBO3   -1.000000
    BNBO3H   OBJ      1776.400000   UPBROW34811 1.000000
    BOBN3H   BO3T     1.000000   BN3T     -1.000000
    BOBN3H   3BNBO3   1.000000   RBNBO3   -1.000000
    BOBN3H   OBJ      1776.400000   UPBROW34812 1.000000
    BNBO4C   BN4R     1.000000   BO4R     -1.000000
    BNBO4C   3BNBO4   1.000000   RBNBO3   -1.000000
    BNBO4C   OBJ      100.700000   UPBROW34813 1.000000
    BOBN4C   BO4R     1.000000   BN4R     -1.000000
    BOBN4C   3BNBO4   1.000000   RBNBO3   -1.000000
    BOBN4C   OBJ      100.700000   UPBROW34814 1.000000
    BNBO4H   BN4T     1.000000   BO4T     -1.000000
    BNBO4H   3BNBO4   1.000000   RBNBO3   -1.000000
    BNBO4H   OBJ      684.890000   UPBROW34815 1.000000
    BOBN4H   BO4T     1.000000   BN4T     -1.000000
    BOBN4H   3BNBO4   1.000000   RBNBO3   -1.000000
    BOBN4H   OBJ      684.890000   UPBROW34816 1.000000
    BNBO5C   BN5R     1.000000   BO5R     -1.000000
    BNBO5C   3BNBO5   1.000000   RBNBO3   -1.000000
    BNBO5C   OBJ      38.830000   UPBROW34817 1.000000
    BOBN5C   BO5R     1.000000   BN5R     -1.000000
    BOBN5C   3BNBO5   1.000000   RBNBO3   -1.000000
    BOBN5C   OBJ      38.830000   UPBROW34818 1.000000
    BNBO5H   BN5T     1.000000   BO5T     -1.000000
    BNBO5H   3BNBO5   1.000000   RBNBO3   -1.000000
    BNBO5H   OBJ      264.050000   UPBROW34819 1.000000
    BOBN5H   BO5T     1.000000   BN5T     -1.000000
    BOBN5H   3BNBO5   1.000000   RBNBO3   -1.000000
    BOBN5H   OBJ      264.050000   UPBROW34820 1.000000
    BNBO-4   RBNBO4   100000.000000   PBNBO    1.000000
    BNBO-4   UPBROW34821 1.000000
    BNBO1D   BN1R     1.000000   BO1R     -1.000000
    BNBO1D   4BNBO1   1.000000   RBNBO4   -1.000000
    BNBO1D   OBJ      1255.500000   UPBROW34822 1.000000
    BOBN1D   BO1R     1.000000   BN1R     -1.000000
    BOBN1D   4BNBO1   1.000000   RBNBO4   -1.000000
    BOBN1D   OBJ      1255.500000   UPBROW34823 1.000000
    BNBO1I   BN1T     1.000000   BO1T     -1.000000
    BNBO1I   4BNBO1   1.000000   RBNBO4   -1.000000
    BNBO1I   OBJ      11440.000000   UPBROW34824 1.000000
    BOBN1I   BO1T     1.000000   BN1T     -1.000000
    BOBN1I   4BNBO1   1.000000   RBNBO4   -1.000000
    BOBN1I   OBJ      11440.000000   UPBROW34825 1.000000
    BNBO2D   BN2R     1.000000   BO2R     -1.000000
    BNBO2D   4BNBO2   1.000000   RBNBO4   -1.000000
    BNBO2D   OBJ      484.050000   UPBROW34826 1.000000
    BOBN2D   BO2R     1.000000   BN2R     -1.000000
    BOBN2D   4BNBO2   1.000000   RBNBO4   -1.000000
    BOBN2D   OBJ      484.050000   UPBROW34827 1.000000
    BNBO2I   BN2T     1.000000   BO2T     -1.000000
    BNBO2I   4BNBO2   1.000000   RBNBO4   -1.000000
    BNBO2I   OBJ      4410.600000   UPBROW34828 1.000000
    BOBN2I   BO2T     1.000000   BN2T     -1.000000
    BOBN2I   4BNBO2   1.000000   RBNBO4   -1.000000
    BOBN2I   OBJ      4410.600000   UPBROW34829 1.000000
    BNBO3D   BN3R     1.000000   BO3R     -1.000000
    BNBO3D   4BNBO3   1.000000   RBNBO4   -1.000000
    BNBO3D   OBJ      186.620000   UPBROW34830 1.000000
    BOBN3D   BO3R     1.000000   BN3R     -1.000000
    BOBN3D   4BNBO3   1.000000   RBNBO4   -1.000000
    BOBN3D   OBJ      186.620000   UPBROW34831 1.000000
    BNBO3I   BN3T     1.000000   BO3T     -1.000000
    BNBO3I   4BNBO3   1.000000   RBNBO4   -1.000000
    BNBO3I   OBJ      1700.500000   UPBROW34832 1.000000
    BOBN3I   BO3T     1.000000   BN3T     -1.000000
    BOBN3I   4BNBO3   1.000000   RBNBO4   -1.000000
    BOBN3I   OBJ      1700.500000   UPBROW34833 1.000000
    BNBO4D   BN4R     1.000000   BO4R     -1.000000
    BNBO4D   4BNBO4   1.000000   RBNBO4   -1.000000
    BNBO4D   OBJ      71.950000   UPBROW34834 1.000000
    BOBN4D   BO4R     1.000000   BN4R     -1.000000
    BOBN4D   4BNBO4   1.000000   RBNBO4   -1.000000
    BOBN4D   OBJ      71.950000   UPBROW34835 1.000000
    BNBO4I   BN4T     1.000000   BO4T     -1.000000
    BNBO4I   4BNBO4   1.000000   RBNBO4   -1.000000
    BNBO4I   OBJ      655.600000   UPBROW34836 1.000000
    BOBN4I   BO4T     1.000000   BN4T     -1.000000
    BOBN4I   4BNBO4   1.000000   RBNBO4   -1.000000
    BOBN4I   OBJ      655.600000   UPBROW34837 1.000000
    BNBO5D   BN5R     1.000000   BO5R     -1.000000
    BNBO5D   4BNBO5   1.000000   RBNBO4   -1.000000
    BNBO5D   OBJ      27.740000   UPBROW34838 1.000000
    BOBN5D   BO5R     1.000000   BN5R     -1.000000
    BOBN5D   4BNBO5   1.000000   RBNBO4   -1.000000
    BOBN5D   OBJ      27.740000   UPBROW34839 1.000000
    BNBO5I   BN5T     1.000000   BO5T     -1.000000
    BNBO5I   4BNBO5   1.000000   RBNBO4   -1.000000
    BNBO5I   OBJ      252.760000   UPBROW34840 1.000000
    BOBN5I   BO5T     1.000000   BN5T     -1.000000
    BOBN5I   4BNBO5   1.000000   RBNBO4   -1.000000
    BOBN5I   OBJ      252.760000   UPBROW34841 1.000000
    BOBP-1   RBOBP1   100000.000000   PBOBP    1.000000
    BOBP-1   OBJ      32164.000000   UPBROW34842 1.000000
    BOBP1A   BO1R     1.000000   BP1R     -1.000000
    BOBP1A   1BOBP1   1.000000   RBOBP1   -1.000000
    BOBP1A   OBJ      1383.400000   UPBROW34843 1.000000
    BPBO1A   BP1R     1.000000   BO1R     -1.000000
    BPBO1A   1BOBP1   1.000000   RBOBP1   -1.000000
    BPBO1A   OBJ      1383.400000   UPBROW34844 1.000000
    BOBP1F   BO1T     1.000000   BP1T     -1.000000
    BOBP1F   1BOBP1   1.000000   RBOBP1   -1.000000
    BOBP1F   OBJ      9408.200000   UPBROW34845 1.000000
    BPBO1F   BP1T     1.000000   BO1T     -1.000000
    BPBO1F   1BOBP1   1.000000   RBOBP1   -1.000000
    BPBO1F   OBJ      9408.200000   UPBROW34846 1.000000
    BOBP2A   BO2R     1.000000   BP2R     -1.000000
    BOBP2A   1BOBP2   1.000000   RBOBP1   -1.000000
    BOBP2A   OBJ      533.370000   UPBROW34847 1.000000
    BPBO2A   BP2R     1.000000   BO2R     -1.000000
    BPBO2A   1BOBP2   1.000000   RBOBP1   -1.000000
    BPBO2A   OBJ      533.370000   UPBROW34848 1.000000
    BOBP2F   BO2T     1.000000   BP2T     -1.000000
    BOBP2F   1BOBP2   1.000000   RBOBP1   -1.000000
    BOBP2F   OBJ      3627.300000   UPBROW34849 1.000000
    BPBO2F   BP2T     1.000000   BO2T     -1.000000
    BPBO2F   1BOBP2   1.000000   RBOBP1   -1.000000
    BPBO2F   OBJ      3627.300000   UPBROW34850 1.000000
    BOBP3A   BO3R     1.000000   BP3R     -1.000000
    BOBP3A   1BOBP3   1.000000   RBOBP1   -1.000000
    BOBP3A   OBJ      205.640000   UPBROW34851 1.000000
    BPBO3A   BP3R     1.000000   BO3R     -1.000000
    BPBO3A   1BOBP3   1.000000   RBOBP1   -1.000000
    BPBO3A   OBJ      205.640000   UPBROW34852 1.000000
    BOBP3F   BO3T     1.000000   BP3T     -1.000000
    BOBP3F   1BOBP3   1.000000   RBOBP1   -1.000000
    BOBP3F   OBJ      1398.500000   UPBROW34853 1.000000
    BPBO3F   BP3T     1.000000   BO3T     -1.000000
    BPBO3F   1BOBP3   1.000000   RBOBP1   -1.000000
    BPBO3F   OBJ      1398.500000   UPBROW34854 1.000000
    BOBP4A   BO4R     1.000000   BP4R     -1.000000
    BOBP4A   1BOBP4   1.000000   RBOBP1   -1.000000
    BOBP4A   OBJ      79.280000   UPBROW34855 1.000000
    BPBO4A   BP4R     1.000000   BO4R     -1.000000
    BPBO4A   1BOBP4   1.000000   RBOBP1   -1.000000
    BPBO4A   OBJ      79.280000   UPBROW34856 1.000000
    BOBP4F   BO4T     1.000000   BP4T     -1.000000
    BOBP4F   1BOBP4   1.000000   RBOBP1   -1.000000
    BOBP4F   OBJ      539.170000   UPBROW34857 1.000000
    BPBO4F   BP4T     1.000000   BO4T     -1.000000
    BPBO4F   1BOBP4   1.000000   RBOBP1   -1.000000
    BPBO4F   OBJ      539.170000   UPBROW34858 1.000000
    BOBP5A   BO5R     1.000000   BP5R     -1.000000
    BOBP5A   1BOBP5   1.000000   RBOBP1   -1.000000
    BOBP5A   OBJ      30.570000   UPBROW34859 1.000000
    BPBO5A   BP5R     1.000000   BO5R     -1.000000
    BPBO5A   1BOBP5   1.000000   RBOBP1   -1.000000
    BPBO5A   OBJ      30.570000   UPBROW34860 1.000000
    BOBP5F   BO5T     1.000000   BP5T     -1.000000
    BOBP5F   1BOBP5   1.000000   RBOBP1   -1.000000
    BOBP5F   OBJ      207.870000   UPBROW34861 1.000000
    BPBO5F   BP5T     1.000000   BO5T     -1.000000
    BPBO5F   1BOBP5   1.000000   RBOBP1   -1.000000
    BPBO5F   OBJ      207.870000   UPBROW34862 1.000000
    BOBP-2   RBOBP2   100000.000000   PBOBP    1.000000
    BOBP-2   OBJ      12401.000000   UPBROW34863 1.000000
    BOBP1B   BO1R     1.000000   BP1R     -1.000000
    BOBP1B   2BOBP1   1.000000   RBOBP2   -1.000000
    BOBP1B   OBJ      988.510000   UPBROW34864 1.000000
    BPBO1B   BP1R     1.000000   BO1R     -1.000000
    BPBO1B   2BOBP1   1.000000   RBOBP2   -1.000000
    BPBO1B   OBJ      988.510000   UPBROW34865 1.000000
    BOBP1G   BO1T     1.000000   BP1T     -1.000000
    BOBP1G   2BOBP1   1.000000   RBOBP2   -1.000000
    BOBP1G   OBJ      9005.800000   UPBROW34866 1.000000
    BPBO1G   BP1T     1.000000   BO1T     -1.000000
    BPBO1G   2BOBP1   1.000000   RBOBP2   -1.000000
    BPBO1G   OBJ      9005.800000   UPBROW34867 1.000000
    BOBP2B   BO2R     1.000000   BP2R     -1.000000
    BOBP2B   2BOBP2   1.000000   RBOBP2   -1.000000
    BOBP2B   OBJ      533.370000   UPBROW34868 1.000000
    BPBO2B   BP2R     1.000000   BO2R     -1.000000
    BPBO2B   2BOBP2   1.000000   RBOBP2   -1.000000
    BPBO2B   OBJ      533.370000   UPBROW34869 1.000000
    BOBP2G   BO2T     1.000000   BP2T     -1.000000
    BOBP2G   2BOBP2   1.000000   RBOBP2   -1.000000
    BOBP2G   OBJ      3627.300000   UPBROW34870 1.000000
    BPBO2G   BP2T     1.000000   BO2T     -1.000000
    BPBO2G   2BOBP2   1.000000   RBOBP2   -1.000000
    BPBO2G   OBJ      3627.300000   UPBROW34871 1.000000
    BOBP3B   BO3R     1.000000   BP3R     -1.000000
    BOBP3B   2BOBP3   1.000000   RBOBP2   -1.000000
    BOBP3B   OBJ      205.640000   UPBROW34872 1.000000
    BPBO3B   BP3R     1.000000   BO3R     -1.000000
    BPBO3B   2BOBP3   1.000000   RBOBP2   -1.000000
    BPBO3B   OBJ      205.640000   UPBROW34873 1.000000
    BOBP3G   BO3T     1.000000   BP3T     -1.000000
    BOBP3G   2BOBP3   1.000000   RBOBP2   -1.000000
    BOBP3G   OBJ      1398.500000   UPBROW34874 1.000000
    BPBO3G   BP3T     1.000000   BO3T     -1.000000
    BPBO3G   2BOBP3   1.000000   RBOBP2   -1.000000
    BPBO3G   OBJ      1398.500000   UPBROW34875 1.000000
    BOBP4B   BO4R     1.000000   BP4R     -1.000000
    BOBP4B   2BOBP4   1.000000   RBOBP2   -1.000000
    BOBP4B   OBJ      79.280000   UPBROW34876 1.000000
    BPBO4B   BP4R     1.000000   BO4R     -1.000000
    BPBO4B   2BOBP4   1.000000   RBOBP2   -1.000000
    BPBO4B   OBJ      79.280000   UPBROW34877 1.000000
    BOBP4G   BO4T     1.000000   BP4T     -1.000000
    BOBP4G   2BOBP4   1.000000   RBOBP2   -1.000000
    BOBP4G   OBJ      539.170000   UPBROW34878 1.000000
    BPBO4G   BP4T     1.000000   BO4T     -1.000000
    BPBO4G   2BOBP4   1.000000   RBOBP2   -1.000000
    BPBO4G   OBJ      539.170000   UPBROW34879 1.000000
    BOBP5B   BO5R     1.000000   BP5R     -1.000000
    BOBP5B   2BOBP5   1.000000   RBOBP2   -1.000000
    BOBP5B   OBJ      30.570000   UPBROW34880 1.000000
    BPBO5B   BP5R     1.000000   BO5R     -1.000000
    BPBO5B   2BOBP5   1.000000   RBOBP2   -1.000000
    BPBO5B   OBJ      30.570000   UPBROW34881 1.000000
    BOBP5G   BO5T     1.000000   BP5T     -1.000000
    BOBP5G   2BOBP5   1.000000   RBOBP2   -1.000000
    BOBP5G   OBJ      207.870000   UPBROW34882 1.000000
    BPBO5G   BP5T     1.000000   BO5T     -1.000000
    BPBO5G   2BOBP5   1.000000   RBOBP2   -1.000000
    BPBO5G   OBJ      207.870000   UPBROW34883 1.000000
    BOBP-3   RBOBP3   100000.000000   PBOBP    1.000000
    BOBP-3   OBJ      4781.000000   UPBROW34884 1.000000
    BOBP1C   BO1R     1.000000   BP1R     -1.000000
    BOBP1C   3BOBP1   1.000000   RBOBP3   -1.000000
    BOBP1C   OBJ      988.510000   UPBROW34885 1.000000
    BPBO1C   BP1R     1.000000   BO1R     -1.000000
    BPBO1C   3BOBP1   1.000000   RBOBP3   -1.000000
    BPBO1C   OBJ      988.510000   UPBROW34886 1.000000
    BOBP1H   BO1T     1.000000   BP1T     -1.000000
    BOBP1H   3BOBP1   1.000000   RBOBP3   -1.000000
    BOBP1H   OBJ      9005.800000   UPBROW34887 1.000000
    BPBO1H   BP1T     1.000000   BO1T     -1.000000
    BPBO1H   3BOBP1   1.000000   RBOBP3   -1.000000
    BPBO1H   OBJ      9005.800000   UPBROW34888 1.000000
    BOBP2C   BO2R     1.000000   BP2R     -1.000000
    BOBP2C   3BOBP2   1.000000   RBOBP3   -1.000000
    BOBP2C   OBJ      381.110000   UPBROW34889 1.000000
    BPBO2C   BP2R     1.000000   BO2R     -1.000000
    BPBO2C   3BOBP2   1.000000   RBOBP3   -1.000000
    BPBO2C   OBJ      381.110000   UPBROW34890 1.000000
    BOBP2H   BO2T     1.000000   BP2T     -1.000000
    BOBP2H   3BOBP2   1.000000   RBOBP3   -1.000000
    BOBP2H   OBJ      3472.100000   UPBROW34891 1.000000
    BPBO2H   BP2T     1.000000   BO2T     -1.000000
    BPBO2H   3BOBP2   1.000000   RBOBP3   -1.000000
    BPBO2H   OBJ      3472.100000   UPBROW34892 1.000000
    BOBP3C   BO3R     1.000000   BP3R     -1.000000
    BOBP3C   3BOBP3   1.000000   RBOBP3   -1.000000
    BOBP3C   OBJ      205.640000   UPBROW34893 1.000000
    BPBO3C   BP3R     1.000000   BO3R     -1.000000
    BPBO3C   3BOBP3   1.000000   RBOBP3   -1.000000
    BPBO3C   OBJ      205.640000   UPBROW34894 1.000000
    BOBP3H   BO3T     1.000000   BP3T     -1.000000
    BOBP3H   3BOBP3   1.000000   RBOBP3   -1.000000
    BOBP3H   OBJ      1398.500000   UPBROW34895 1.000000
    BPBO3H   BP3T     1.000000   BO3T     -1.000000
    BPBO3H   3BOBP3   1.000000   RBOBP3   -1.000000
    BPBO3H   OBJ      1398.500000   UPBROW34896 1.000000
    BOBP4C   BO4R     1.000000   BP4R     -1.000000
    BOBP4C   3BOBP4   1.000000   RBOBP3   -1.000000
    BOBP4C   OBJ      79.280000   UPBROW34897 1.000000
    BPBO4C   BP4R     1.000000   BO4R     -1.000000
    BPBO4C   3BOBP4   1.000000   RBOBP3   -1.000000
    BPBO4C   OBJ      79.280000   UPBROW34898 1.000000
    BOBP4H   BO4T     1.000000   BP4T     -1.000000
    BOBP4H   3BOBP4   1.000000   RBOBP3   -1.000000
    BOBP4H   OBJ      539.170000   UPBROW34899 1.000000
    BPBO4H   BP4T     1.000000   BO4T     -1.000000
    BPBO4H   3BOBP4   1.000000   RBOBP3   -1.000000
    BPBO4H   OBJ      539.170000   UPBROW34900 1.000000
    BOBP5C   BO5R     1.000000   BP5R     -1.000000
    BOBP5C   3BOBP5   1.000000   RBOBP3   -1.000000
    BOBP5C   OBJ      30.570000   UPBROW34901 1.000000
    BPBO5C   BP5R     1.000000   BO5R     -1.000000
    BPBO5C   3BOBP5   1.000000   RBOBP3   -1.000000
    BPBO5C   OBJ      30.570000   UPBROW34902 1.000000
    BOBP5H   BO5T     1.000000   BP5T     -1.000000
    BOBP5H   3BOBP5   1.000000   RBOBP3   -1.000000
    BOBP5H   OBJ      207.870000   UPBROW34903 1.000000
    BPBO5H   BP5T     1.000000   BO5T     -1.000000
    BPBO5H   3BOBP5   1.000000   RBOBP3   -1.000000
    BPBO5H   OBJ      207.870000   UPBROW34904 1.000000
    BOBP-4   RBOBP4   100000.000000   PBOBP    1.000000
    BOBP-4   UPBROW34905 1.000000
    BOBP1D   BO1R     1.000000   BP1R     -1.000000
    BOBP1D   4BOBP1   1.000000   RBOBP4   -1.000000
    BOBP1D   OBJ      988.510000   UPBROW34906 1.000000
    BPBO1D   BP1R     1.000000   BO1R     -1.000000
    BPBO1D   4BOBP1   1.000000   RBOBP4   -1.000000
    BPBO1D   OBJ      988.510000   UPBROW34907 1.000000
    BOBP1I   BO1T     1.000000   BP1T     -1.000000
    BOBP1I   4BOBP1   1.000000   RBOBP4   -1.000000
    BOBP1I   OBJ      9005.800000   UPBROW34908 1.000000
    BPBO1I   BP1T     1.000000   BO1T     -1.000000
    BPBO1I   4BOBP1   1.000000   RBOBP4   -1.000000
    BPBO1I   OBJ      9005.800000   UPBROW34909 1.000000
    BOBP2D   BO2R     1.000000   BP2R     -1.000000
    BOBP2D   4BOBP2   1.000000   RBOBP4   -1.000000
    BOBP2D   OBJ      381.110000   UPBROW34910 1.000000
    BPBO2D   BP2R     1.000000   BO2R     -1.000000
    BPBO2D   4BOBP2   1.000000   RBOBP4   -1.000000
    BPBO2D   OBJ      381.110000   UPBROW34911 1.000000
    BOBP2I   BO2T     1.000000   BP2T     -1.000000
    BOBP2I   4BOBP2   1.000000   RBOBP4   -1.000000
    BOBP2I   OBJ      3472.100000   UPBROW34912 1.000000
    BPBO2I   BP2T     1.000000   BO2T     -1.000000
    BPBO2I   4BOBP2   1.000000   RBOBP4   -1.000000
    BPBO2I   OBJ      3472.100000   UPBROW34913 1.000000
    BOBP3D   BO3R     1.000000   BP3R     -1.000000
    BOBP3D   4BOBP3   1.000000   RBOBP4   -1.000000
    BOBP3D   OBJ      146.940000   UPBROW34914 1.000000
    BPBO3D   BP3R     1.000000   BO3R     -1.000000
    BPBO3D   4BOBP3   1.000000   RBOBP4   -1.000000
    BPBO3D   OBJ      146.940000   UPBROW34915 1.000000
    BOBP3I   BO3T     1.000000   BP3T     -1.000000
    BOBP3I   4BOBP3   1.000000   RBOBP4   -1.000000
    BOBP3I   OBJ      1338.700000   UPBROW34916 1.000000
    BPBO3I   BP3T     1.000000   BO3T     -1.000000
    BPBO3I   4BOBP3   1.000000   RBOBP4   -1.000000
    BPBO3I   OBJ      1338.700000   UPBROW34917 1.000000
    BOBP4D   BO4R     1.000000   BP4R     -1.000000
    BOBP4D   4BOBP4   1.000000   RBOBP4   -1.000000
    BOBP4D   OBJ      56.650000   UPBROW34918 1.000000
    BPBO4D   BP4R     1.000000   BO4R     -1.000000
    BPBO4D   4BOBP4   1.000000   RBOBP4   -1.000000
    BPBO4D   OBJ      56.650000   UPBROW34919 1.000000
    BOBP4I   BO4T     1.000000   BP4T     -1.000000
    BOBP4I   4BOBP4   1.000000   RBOBP4   -1.000000
    BOBP4I   OBJ      516.110000   UPBROW34920 1.000000
    BPBO4I   BP4T     1.000000   BO4T     -1.000000
    BPBO4I   4BOBP4   1.000000   RBOBP4   -1.000000
    BPBO4I   OBJ      516.110000   UPBROW34921 1.000000
    BOBP5D   BO5R     1.000000   BP5R     -1.000000
    BOBP5D   4BOBP5   1.000000   RBOBP4   -1.000000
    BOBP5D   OBJ      21.840000   UPBROW34922 1.000000
    BPBO5D   BP5R     1.000000   BO5R     -1.000000
    BPBO5D   4BOBP5   1.000000   RBOBP4   -1.000000
    BPBO5D   OBJ      21.840000   UPBROW34923 1.000000
    BOBP5I   BO5T     1.000000   BP5T     -1.000000
    BOBP5I   4BOBP5   1.000000   RBOBP4   -1.000000
    BOBP5I   OBJ      198.980000   UPBROW34924 1.000000
    BPBO5I   BP5T     1.000000   BO5T     -1.000000
    BPBO5I   4BOBP5   1.000000   RBOBP4   -1.000000
    BPBO5I   OBJ      198.980000   UPBROW34925 1.000000
    BPBR-1   RBPBR1   100000.000000   PBPBR    1.000000
    BPBR-1   OBJ      39988.000000   UPBROW34926 1.000000
    BPBR1A   BP1R     1.000000   BR1R     -1.000000
    BPBR1A   1BPBR1   1.000000   RBPBR1   -1.000000
    BPBR1A   OBJ      1719.300000   UPBROW34927 1.000000
    BRBP1A   BR1R     1.000000   BP1R     -1.000000
    BRBP1A   1BPBR1   1.000000   RBPBR1   -1.000000
    BRBP1A   OBJ      1719.300000   UPBROW34928 1.000000
    BPBR1F   BP1T     1.000000   BR1T     -1.000000
    BPBR1F   1BPBR1   1.000000   RBPBR1   -1.000000
    BPBR1F   OBJ      11696.000000   UPBROW34929 1.000000
    BRBP1F   BR1T     1.000000   BP1T     -1.000000
    BRBP1F   1BPBR1   1.000000   RBPBR1   -1.000000
    BRBP1F   OBJ      11696.000000   UPBROW34930 1.000000
    BPBR2A   BP2R     1.000000   BR2R     -1.000000
    BPBR2A   1BPBR2   1.000000   RBPBR1   -1.000000
    BPBR2A   OBJ      662.880000   UPBROW34931 1.000000
    BRBP2A   BR2R     1.000000   BP2R     -1.000000
    BRBP2A   1BPBR2   1.000000   RBPBR1   -1.000000
    BRBP2A   OBJ      662.880000   UPBROW34932 1.000000
    BPBR2F   BP2T     1.000000   BR2T     -1.000000
    BPBR2F   1BPBR2   1.000000   RBPBR1   -1.000000
    BPBR2F   OBJ      4509.400000   UPBROW34933 1.000000
    BRBP2F   BR2T     1.000000   BP2T     -1.000000
    BRBP2F   1BPBR2   1.000000   RBPBR1   -1.000000
    BRBP2F   OBJ      4509.400000   UPBROW34934 1.000000
    BPBR3A   BP3R     1.000000   BR3R     -1.000000
    BPBR3A   1BPBR3   1.000000   RBPBR1   -1.000000
    BPBR3A   OBJ      255.570000   UPBROW34935 1.000000
    BRBP3A   BR3R     1.000000   BP3R     -1.000000
    BRBP3A   1BPBR3   1.000000   RBPBR1   -1.000000
    BRBP3A   OBJ      255.570000   UPBROW34936 1.000000
    BPBR3F   BP3T     1.000000   BR3T     -1.000000
    BPBR3F   1BPBR3   1.000000   RBPBR1   -1.000000
    BPBR3F   OBJ      1738.600000   UPBROW34937 1.000000
    BRBP3F   BR3T     1.000000   BP3T     -1.000000
    BRBP3F   1BPBR3   1.000000   RBPBR1   -1.000000
    BRBP3F   OBJ      1738.600000   UPBROW34938 1.000000
    BPBR4A   BP4R     1.000000   BR4R     -1.000000
    BPBR4A   1BPBR4   1.000000   RBPBR1   -1.000000
    BPBR4A   OBJ      98.530000   UPBROW34939 1.000000
    BRBP4A   BR4R     1.000000   BP4R     -1.000000
    BRBP4A   1BPBR4   1.000000   RBPBR1   -1.000000
    BRBP4A   OBJ      98.530000   UPBROW34940 1.000000
    BPBR4F   BP4T     1.000000   BR4T     -1.000000
    BPBR4F   1BPBR4   1.000000   RBPBR1   -1.000000
    BPBR4F   OBJ      670.300000   UPBROW34941 1.000000
    BRBP4F   BR4T     1.000000   BP4T     -1.000000
    BRBP4F   1BPBR4   1.000000   RBPBR1   -1.000000
    BRBP4F   OBJ      670.300000   UPBROW34942 1.000000
    BPBR5A   BP5R     1.000000   BR5R     -1.000000
    BPBR5A   1BPBR5   1.000000   RBPBR1   -1.000000
    BPBR5A   OBJ      37.990000   UPBROW34943 1.000000
    BRBP5A   BR5R     1.000000   BP5R     -1.000000
    BRBP5A   1BPBR5   1.000000   RBPBR1   -1.000000
    BRBP5A   OBJ      37.990000   UPBROW34944 1.000000
    BPBR5F   BP5T     1.000000   BR5T     -1.000000
    BPBR5F   1BPBR5   1.000000   RBPBR1   -1.000000
    BPBR5F   OBJ      258.430000   UPBROW34945 1.000000
    BRBP5F   BR5T     1.000000   BP5T     -1.000000
    BRBP5F   1BPBR5   1.000000   RBPBR1   -1.000000
    BRBP5F   OBJ      258.430000   UPBROW34946 1.000000
    BPBR-2   RBPBR2   100000.000000   PBPBR    1.000000
    BPBR-2   OBJ      15417.000000   UPBROW34947 1.000000
    BPBR1B   BP1R     1.000000   BR1R     -1.000000
    BPBR1B   2BPBR1   1.000000   RBPBR2   -1.000000
    BPBR1B   OBJ      1228.200000   UPBROW34948 1.000000
    BRBP1B   BR1R     1.000000   BP1R     -1.000000
    BRBP1B   2BPBR1   1.000000   RBPBR2   -1.000000
    BRBP1B   OBJ      1228.200000   UPBROW34949 1.000000
    BPBR1G   BP1T     1.000000   BR1T     -1.000000
    BPBR1G   2BPBR1   1.000000   RBPBR2   -1.000000
    BPBR1G   OBJ      11196.000000   UPBROW34950 1.000000
    BRBP1G   BR1T     1.000000   BP1T     -1.000000
    BRBP1G   2BPBR1   1.000000   RBPBR2   -1.000000
    BRBP1G   OBJ      11196.000000   UPBROW34951 1.000000
    BPBR2B   BP2R     1.000000   BR2R     -1.000000
    BPBR2B   2BPBR2   1.000000   RBPBR2   -1.000000
    BPBR2B   OBJ      662.880000   UPBROW34952 1.000000
    BRBP2B   BR2R     1.000000   BP2R     -1.000000
    BRBP2B   2BPBR2   1.000000   RBPBR2   -1.000000
    BRBP2B   OBJ      662.880000   UPBROW34953 1.000000
    BPBR2G   BP2T     1.000000   BR2T     -1.000000
    BPBR2G   2BPBR2   1.000000   RBPBR2   -1.000000
    BPBR2G   OBJ      4509.400000   UPBROW34954 1.000000
    BRBP2G   BR2T     1.000000   BP2T     -1.000000
    BRBP2G   2BPBR2   1.000000   RBPBR2   -1.000000
    BRBP2G   OBJ      4509.400000   UPBROW34955 1.000000
    BPBR3B   BP3R     1.000000   BR3R     -1.000000
    BPBR3B   2BPBR3   1.000000   RBPBR2   -1.000000
    BPBR3B   OBJ      255.570000   UPBROW34956 1.000000
    BRBP3B   BR3R     1.000000   BP3R     -1.000000
    BRBP3B   2BPBR3   1.000000   RBPBR2   -1.000000
    BRBP3B   OBJ      255.570000   UPBROW34957 1.000000
    BPBR3G   BP3T     1.000000   BR3T     -1.000000
    BPBR3G   2BPBR3   1.000000   RBPBR2   -1.000000
    BPBR3G   OBJ      1738.600000   UPBROW34958 1.000000
    BRBP3G   BR3T     1.000000   BP3T     -1.000000
    BRBP3G   2BPBR3   1.000000   RBPBR2   -1.000000
    BRBP3G   OBJ      1738.600000   UPBROW34959 1.000000
    BPBR4B   BP4R     1.000000   BR4R     -1.000000
    BPBR4B   2BPBR4   1.000000   RBPBR2   -1.000000
    BPBR4B   OBJ      98.530000   UPBROW34960 1.000000
    BRBP4B   BR4R     1.000000   BP4R     -1.000000
    BRBP4B   2BPBR4   1.000000   RBPBR2   -1.000000
    BRBP4B   OBJ      98.530000   UPBROW34961 1.000000
    BPBR4G   BP4T     1.000000   BR4T     -1.000000
    BPBR4G   2BPBR4   1.000000   RBPBR2   -1.000000
    BPBR4G   OBJ      670.300000   UPBROW34962 1.000000
    BRBP4G   BR4T     1.000000   BP4T     -1.000000
    BRBP4G   2BPBR4   1.000000   RBPBR2   -1.000000
    BRBP4G   OBJ      670.300000   UPBROW34963 1.000000
    BPBR5B   BP5R     1.000000   BR5R     -1.000000
    BPBR5B   2BPBR5   1.000000   RBPBR2   -1.000000
    BPBR5B   OBJ      37.990000   UPBROW34964 1.000000
    BRBP5B   BR5R     1.000000   BP5R     -1.000000
    BRBP5B   2BPBR5   1.000000   RBPBR2   -1.000000
    BRBP5B   OBJ      37.990000   UPBROW34965 1.000000
    BPBR5G   BP5T     1.000000   BR5T     -1.000000
    BPBR5G   2BPBR5   1.000000   RBPBR2   -1.000000
    BPBR5G   OBJ      258.430000   UPBROW34966 1.000000
    BRBP5G   BR5T     1.000000   BP5T     -1.000000
    BRBP5G   2BPBR5   1.000000   RBPBR2   -1.000000
    BRBP5G   OBJ      258.430000   UPBROW34967 1.000000
    BPBR-3   RBPBR3   100000.000000   PBPBR    1.000000
    BPBR-3   OBJ      5943.900000   UPBROW34968 1.000000
    BPBR1C   BP1R     1.000000   BR1R     -1.000000
    BPBR1C   3BPBR1   1.000000   RBPBR3   -1.000000
    BPBR1C   OBJ      1228.200000   UPBROW34969 1.000000
    BRBP1C   BR1R     1.000000   BP1R     -1.000000
    BRBP1C   3BPBR1   1.000000   RBPBR3   -1.000000
    BRBP1C   OBJ      1228.200000   UPBROW34970 1.000000
    BPBR1H   BP1T     1.000000   BR1T     -1.000000
    BPBR1H   3BPBR1   1.000000   RBPBR3   -1.000000
    BPBR1H   OBJ      11196.000000   UPBROW34971 1.000000
    BRBP1H   BR1T     1.000000   BP1T     -1.000000
    BRBP1H   3BPBR1   1.000000   RBPBR3   -1.000000
    BRBP1H   OBJ      11196.000000   UPBROW34972 1.000000
    BPBR2C   BP2R     1.000000   BR2R     -1.000000
    BPBR2C   3BPBR2   1.000000   RBPBR3   -1.000000
    BPBR2C   OBJ      473.520000   UPBROW34973 1.000000
    BRBP2C   BR2R     1.000000   BP2R     -1.000000
    BRBP2C   3BPBR2   1.000000   RBPBR3   -1.000000
    BRBP2C   OBJ      473.520000   UPBROW34974 1.000000
    BPBR2H   BP2T     1.000000   BR2T     -1.000000
    BPBR2H   3BPBR2   1.000000   RBPBR3   -1.000000
    BPBR2H   OBJ      4316.700000   UPBROW34975 1.000000
    BRBP2H   BR2T     1.000000   BP2T     -1.000000
    BRBP2H   3BPBR2   1.000000   RBPBR3   -1.000000
    BRBP2H   OBJ      4316.700000   UPBROW34976 1.000000
    BPBR3C   BP3R     1.000000   BR3R     -1.000000
    BPBR3C   3BPBR3   1.000000   RBPBR3   -1.000000
    BPBR3C   OBJ      255.570000   UPBROW34977 1.000000
    BRBP3C   BR3R     1.000000   BP3R     -1.000000
    BRBP3C   3BPBR3   1.000000   RBPBR3   -1.000000
    BRBP3C   OBJ      255.570000   UPBROW34978 1.000000
    BPBR3H   BP3T     1.000000   BR3T     -1.000000
    BPBR3H   3BPBR3   1.000000   RBPBR3   -1.000000
    BPBR3H   OBJ      1738.600000   UPBROW34979 1.000000
    BRBP3H   BR3T     1.000000   BP3T     -1.000000
    BRBP3H   3BPBR3   1.000000   RBPBR3   -1.000000
    BRBP3H   OBJ      1738.600000   UPBROW34980 1.000000
    BPBR4C   BP4R     1.000000   BR4R     -1.000000
    BPBR4C   3BPBR4   1.000000   RBPBR3   -1.000000
    BPBR4C   OBJ      98.530000   UPBROW34981 1.000000
    BRBP4C   BR4R     1.000000   BP4R     -1.000000
    BRBP4C   3BPBR4   1.000000   RBPBR3   -1.000000
    BRBP4C   OBJ      98.530000   UPBROW34982 1.000000
    BPBR4H   BP4T     1.000000   BR4T     -1.000000
    BPBR4H   3BPBR4   1.000000   RBPBR3   -1.000000
    BPBR4H   OBJ      670.300000   UPBROW34983 1.000000
    BRBP4H   BR4T     1.000000   BP4T     -1.000000
    BRBP4H   3BPBR4   1.000000   RBPBR3   -1.000000
    BRBP4H   OBJ      670.300000   UPBROW34984 1.000000
    BPBR5C   BP5R     1.000000   BR5R     -1.000000
    BPBR5C   3BPBR5   1.000000   RBPBR3   -1.000000
    BPBR5C   OBJ      37.990000   UPBROW34985 1.000000
    BRBP5C   BR5R     1.000000   BP5R     -1.000000
    BRBP5C   3BPBR5   1.000000   RBPBR3   -1.000000
    BRBP5C   OBJ      37.990000   UPBROW34986 1.000000
    BPBR5H   BP5T     1.000000   BR5T     -1.000000
    BPBR5H   3BPBR5   1.000000   RBPBR3   -1.000000
    BPBR5H   OBJ      258.430000   UPBROW34987 1.000000
    BRBP5H   BR5T     1.000000   BP5T     -1.000000
    BRBP5H   3BPBR5   1.000000   RBPBR3   -1.000000
    BRBP5H   OBJ      258.430000   UPBROW34988 1.000000
    BPBR-4   RBPBR4   100000.000000   PBPBR    1.000000
    BPBR-4   UPBROW34989 1.000000
    BPBR1D   BP1R     1.000000   BR1R     -1.000000
    BPBR1D   4BPBR1   1.000000   RBPBR4   -1.000000
    BPBR1D   OBJ      1228.200000   UPBROW34990 1.000000
    BRBP1D   BR1R     1.000000   BP1R     -1.000000
    BRBP1D   4BPBR1   1.000000   RBPBR4   -1.000000
    BRBP1D   OBJ      1228.200000   UPBROW34991 1.000000
    BPBR1I   BP1T     1.000000   BR1T     -1.000000
    BPBR1I   4BPBR1   1.000000   RBPBR4   -1.000000
    BPBR1I   OBJ      11196.000000   UPBROW34992 1.000000
    BRBP1I   BR1T     1.000000   BP1T     -1.000000
    BRBP1I   4BPBR1   1.000000   RBPBR4   -1.000000
    BRBP1I   OBJ      11196.000000   UPBROW34993 1.000000
    BPBR2D   BP2R     1.000000   BR2R     -1.000000
    BPBR2D   4BPBR2   1.000000   RBPBR4   -1.000000
    BPBR2D   OBJ      473.520000   UPBROW34994 1.000000
    BRBP2D   BR2R     1.000000   BP2R     -1.000000
    BRBP2D   4BPBR2   1.000000   RBPBR4   -1.000000
    BRBP2D   OBJ      473.520000   UPBROW34995 1.000000
    BPBR2I   BP2T     1.000000   BR2T     -1.000000
    BPBR2I   4BPBR2   1.000000   RBPBR4   -1.000000
    BPBR2I   OBJ      4316.700000   UPBROW34996 1.000000
    BRBP2I   BR2T     1.000000   BP2T     -1.000000
    BRBP2I   4BPBR2   1.000000   RBPBR4   -1.000000
    BRBP2I   OBJ      4316.700000   UPBROW34997 1.000000
    BPBR3D   BP3R     1.000000   BR3R     -1.000000
    BPBR3D   4BPBR3   1.000000   RBPBR4   -1.000000
    BPBR3D   OBJ      182.560000   UPBROW34998 1.000000
    BRBP3D   BR3R     1.000000   BP3R     -1.000000
    BRBP3D   4BPBR3   1.000000   RBPBR4   -1.000000
    BRBP3D   OBJ      182.560000   UPBROW34999 1.000000
    BPBR3I   BP3T     1.000000   BR3T     -1.000000
    BPBR3I   4BPBR3   1.000000   RBPBR4   -1.000000
    BPBR3I   OBJ      1664.300000   UPBROW35000 1.000000
    BRBP3I   BR3T     1.000000   BP3T     -1.000000
    BRBP3I   4BPBR3   1.000000   RBPBR4   -1.000000
    BRBP3I   OBJ      1664.300000   UPBROW35001 1.000000
    BPBR4D   BP4R     1.000000   BR4R     -1.000000
    BPBR4D   4BPBR4   1.000000   RBPBR4   -1.000000
    BPBR4D   OBJ      70.390000   UPBROW35002 1.000000
    BRBP4D   BR4R     1.000000   BP4R     -1.000000
    BRBP4D   4BPBR4   1.000000   RBPBR4   -1.000000
    BRBP4D   OBJ      70.390000   UPBROW35003 1.000000
    BPBR4I   BP4T     1.000000   BR4T     -1.000000
    BPBR4I   4BPBR4   1.000000   RBPBR4   -1.000000
    BPBR4I   OBJ      641.650000   UPBROW35004 1.000000
    BRBP4I   BR4T     1.000000   BP4T     -1.000000
    BRBP4I   4BPBR4   1.000000   RBPBR4   -1.000000
    BRBP4I   OBJ      641.650000   UPBROW35005 1.000000
    BPBR5D   BP5R     1.000000   BR5R     -1.000000
    BPBR5D   4BPBR5   1.000000   RBPBR4   -1.000000
    BPBR5D   OBJ      27.140000   UPBROW35006 1.000000
    BRBP5D   BR5R     1.000000   BP5R     -1.000000
    BRBP5D   4BPBR5   1.000000   RBPBR4   -1.000000
    BRBP5D   OBJ      27.140000   UPBROW35007 1.000000
    BPBR5I   BP5T     1.000000   BR5T     -1.000000
    BPBR5I   4BPBR5   1.000000   RBPBR4   -1.000000
    BPBR5I   OBJ      247.380000   UPBROW35008 1.000000
    BRBP5I   BR5T     1.000000   BP5T     -1.000000
    BRBP5I   4BPBR5   1.000000   RBPBR4   -1.000000
    BRBP5I   OBJ      247.380000   UPBROW35009 1.000000
    BQCE-1   RBQCE1   100000.000000   PBQCE    1.000000
    BQCE-1   OBJ      59764.000000   UPBROW35010 1.000000
    BQCE1A   BQ1R     1.000000   CE1R     -1.000000
    BQCE1A   1BQCE1   1.000000   RBQCE1   -1.000000
    BQCE1A   OBJ      1469.100000   UPBROW35011 1.000000
    CEBQ1A   CE1R     1.000000   BQ1R     -1.000000
    CEBQ1A   1BQCE1   1.000000   RBQCE1   -1.000000
    CEBQ1A   OBJ      1469.100000   UPBROW35012 1.000000
    BQCE1F   BQ1T     1.000000   CE1T     -1.000000
    BQCE1F   1BQCE1   1.000000   RBQCE1   -1.000000
    BQCE1F   OBJ      9801.200000   UPBROW35013 1.000000
    CEBQ1F   CE1T     1.000000   BQ1T     -1.000000
    CEBQ1F   1BQCE1   1.000000   RBQCE1   -1.000000
    CEBQ1F   OBJ      9801.200000   UPBROW35014 1.000000
    BQCE2A   BQ2R     1.000000   CE2R     -1.000000
    BQCE2A   1BQCE2   1.000000   RBQCE1   -1.000000
    BQCE2A   OBJ      566.400000   UPBROW35015 1.000000
    CEBQ2A   CE2R     1.000000   BQ2R     -1.000000
    CEBQ2A   1BQCE2   1.000000   RBQCE1   -1.000000
    CEBQ2A   OBJ      566.400000   UPBROW35016 1.000000
    BQCE2F   BQ2T     1.000000   CE2T     -1.000000
    BQCE2F   1BQCE2   1.000000   RBQCE1   -1.000000
    BQCE2F   OBJ      3778.800000   UPBROW35017 1.000000
    CEBQ2F   CE2T     1.000000   BQ2T     -1.000000
    CEBQ2F   1BQCE2   1.000000   RBQCE1   -1.000000
    CEBQ2F   OBJ      3778.800000   UPBROW35018 1.000000
    BQCE3A   BQ3R     1.000000   CE3R     -1.000000
    BQCE3A   1BQCE3   1.000000   RBQCE1   -1.000000
    BQCE3A   OBJ      218.370000   UPBROW35019 1.000000
    CEBQ3A   CE3R     1.000000   BQ3R     -1.000000
    CEBQ3A   1BQCE3   1.000000   RBQCE1   -1.000000
    CEBQ3A   OBJ      218.370000   UPBROW35020 1.000000
    BQCE3F   BQ3T     1.000000   CE3T     -1.000000
    BQCE3F   1BQCE3   1.000000   RBQCE1   -1.000000
    BQCE3F   OBJ      1456.900000   UPBROW35021 1.000000
    CEBQ3F   CE3T     1.000000   BQ3T     -1.000000
    CEBQ3F   1BQCE3   1.000000   RBQCE1   -1.000000
    CEBQ3F   OBJ      1456.900000   UPBROW35022 1.000000
    BQCE4A   BQ4R     1.000000   CE4R     -1.000000
    BQCE4A   1BQCE4   1.000000   RBQCE1   -1.000000
    BQCE4A   OBJ      84.190000   UPBROW35023 1.000000
    CEBQ4A   CE4R     1.000000   BQ4R     -1.000000
    CEBQ4A   1BQCE4   1.000000   RBQCE1   -1.000000
    CEBQ4A   OBJ      84.190000   UPBROW35024 1.000000
    BQCE4F   BQ4T     1.000000   CE4T     -1.000000
    BQCE4F   1BQCE4   1.000000   RBQCE1   -1.000000
    BQCE4F   OBJ      561.700000   UPBROW35025 1.000000
    CEBQ4F   CE4T     1.000000   BQ4T     -1.000000
    CEBQ4F   1BQCE4   1.000000   RBQCE1   -1.000000
    CEBQ4F   OBJ      561.700000   UPBROW35026 1.000000
    BQCE5A   BQ5R     1.000000   CE5R     -1.000000
    BQCE5A   1BQCE5   1.000000   RBQCE1   -1.000000
    BQCE5A   OBJ      32.460000   UPBROW35027 1.000000
    CEBQ5A   CE5R     1.000000   BQ5R     -1.000000
    CEBQ5A   1BQCE5   1.000000   RBQCE1   -1.000000
    CEBQ5A   OBJ      32.460000   UPBROW35028 1.000000
    BQCE5F   BQ5T     1.000000   CE5T     -1.000000
    BQCE5F   1BQCE5   1.000000   RBQCE1   -1.000000
    BQCE5F   OBJ      216.560000   UPBROW35029 1.000000
    CEBQ5F   CE5T     1.000000   BQ5T     -1.000000
    CEBQ5F   1BQCE5   1.000000   RBQCE1   -1.000000
    CEBQ5F   OBJ      216.560000   UPBROW35030 1.000000
    BQCE-2   RBQCE2   100000.000000   PBQCE    1.000000
    BQCE-2   OBJ      23042.000000   UPBROW35031 1.000000
    BQCE1B   BQ1R     1.000000   CE1R     -1.000000
    BQCE1B   2BQCE1   1.000000   RBQCE2   -1.000000
    BQCE1B   OBJ      2056.500000   UPBROW35032 1.000000
    CEBQ1B   CE1R     1.000000   BQ1R     -1.000000
    CEBQ1B   2BQCE1   1.000000   RBQCE2   -1.000000
    CEBQ1B   OBJ      2056.500000   UPBROW35033 1.000000
    BQCE1G   BQ1T     1.000000   CE1T     -1.000000
    BQCE1G   2BQCE1   1.000000   RBQCE2   -1.000000
    BQCE1G   OBJ      13985.000000   UPBROW35034 1.000000
    CEBQ1G   CE1T     1.000000   BQ1T     -1.000000
    CEBQ1G   2BQCE1   1.000000   RBQCE2   -1.000000
    CEBQ1G   OBJ      13985.000000   UPBROW35035 1.000000
    BQCE2B   BQ2R     1.000000   CE2R     -1.000000
    BQCE2B   2BQCE2   1.000000   RBQCE2   -1.000000
    BQCE2B   OBJ      566.400000   UPBROW35036 1.000000
    CEBQ2B   CE2R     1.000000   BQ2R     -1.000000
    CEBQ2B   2BQCE2   1.000000   RBQCE2   -1.000000
    CEBQ2B   OBJ      566.400000   UPBROW35037 1.000000
    BQCE2G   BQ2T     1.000000   CE2T     -1.000000
    BQCE2G   2BQCE2   1.000000   RBQCE2   -1.000000
    BQCE2G   OBJ      3778.800000   UPBROW35038 1.000000
    CEBQ2G   CE2T     1.000000   BQ2T     -1.000000
    CEBQ2G   2BQCE2   1.000000   RBQCE2   -1.000000
    CEBQ2G   OBJ      3778.800000   UPBROW35039 1.000000
    BQCE3B   BQ3R     1.000000   CE3R     -1.000000
    BQCE3B   2BQCE3   1.000000   RBQCE2   -1.000000
    BQCE3B   OBJ      218.370000   UPBROW35040 1.000000
    CEBQ3B   CE3R     1.000000   BQ3R     -1.000000
    CEBQ3B   2BQCE3   1.000000   RBQCE2   -1.000000
    CEBQ3B   OBJ      218.370000   UPBROW35041 1.000000
    BQCE3G   BQ3T     1.000000   CE3T     -1.000000
    BQCE3G   2BQCE3   1.000000   RBQCE2   -1.000000
    BQCE3G   OBJ      1456.900000   UPBROW35042 1.000000
    CEBQ3G   CE3T     1.000000   BQ3T     -1.000000
    CEBQ3G   2BQCE3   1.000000   RBQCE2   -1.000000
    CEBQ3G   OBJ      1456.900000   UPBROW35043 1.000000
    BQCE4B   BQ4R     1.000000   CE4R     -1.000000
    BQCE4B   2BQCE4   1.000000   RBQCE2   -1.000000
    BQCE4B   OBJ      84.190000   UPBROW35044 1.000000
    CEBQ4B   CE4R     1.000000   BQ4R     -1.000000
    CEBQ4B   2BQCE4   1.000000   RBQCE2   -1.000000
    CEBQ4B   OBJ      84.190000   UPBROW35045 1.000000
    BQCE4G   BQ4T     1.000000   CE4T     -1.000000
    BQCE4G   2BQCE4   1.000000   RBQCE2   -1.000000
    BQCE4G   OBJ      561.700000   UPBROW35046 1.000000
    CEBQ4G   CE4T     1.000000   BQ4T     -1.000000
    CEBQ4G   2BQCE4   1.000000   RBQCE2   -1.000000
    CEBQ4G   OBJ      561.700000   UPBROW35047 1.000000
    BQCE5B   BQ5R     1.000000   CE5R     -1.000000
    BQCE5B   2BQCE5   1.000000   RBQCE2   -1.000000
    BQCE5B   OBJ      32.460000   UPBROW35048 1.000000
    CEBQ5B   CE5R     1.000000   BQ5R     -1.000000
    CEBQ5B   2BQCE5   1.000000   RBQCE2   -1.000000
    CEBQ5B   OBJ      32.460000   UPBROW35049 1.000000
    BQCE5G   BQ5T     1.000000   CE5T     -1.000000
    BQCE5G   2BQCE5   1.000000   RBQCE2   -1.000000
    BQCE5G   OBJ      216.560000   UPBROW35050 1.000000
    CEBQ5G   CE5T     1.000000   BQ5T     -1.000000
    CEBQ5G   2BQCE5   1.000000   RBQCE2   -1.000000
    CEBQ5G   OBJ      216.560000   UPBROW35051 1.000000
    BQCE-3   RBQCE3   100000.000000   PBQCE    1.000000
    BQCE-3   OBJ      8883.500000   UPBROW35052 1.000000
    BQCE1C   BQ1R     1.000000   CE1R     -1.000000
    BQCE1C   3BQCE1   1.000000   RBQCE3   -1.000000
    BQCE1C   OBJ      2056.500000   UPBROW35053 1.000000
    CEBQ1C   CE1R     1.000000   BQ1R     -1.000000
    CEBQ1C   3BQCE1   1.000000   RBQCE3   -1.000000
    CEBQ1C   OBJ      2056.500000   UPBROW35054 1.000000
    BQCE1H   BQ1T     1.000000   CE1T     -1.000000
    BQCE1H   3BQCE1   1.000000   RBQCE3   -1.000000
    BQCE1H   OBJ      13985.000000   UPBROW35055 1.000000
    CEBQ1H   CE1T     1.000000   BQ1T     -1.000000
    CEBQ1H   3BQCE1   1.000000   RBQCE3   -1.000000
    CEBQ1H   OBJ      13985.000000   UPBROW35056 1.000000
    BQCE2C   BQ2R     1.000000   CE2R     -1.000000
    BQCE2C   3BQCE2   1.000000   RBQCE3   -1.000000
    BQCE2C   OBJ      792.870000   UPBROW35057 1.000000
    CEBQ2C   CE2R     1.000000   BQ2R     -1.000000
    CEBQ2C   3BQCE2   1.000000   RBQCE3   -1.000000
    CEBQ2C   OBJ      792.870000   UPBROW35058 1.000000
    BQCE2H   BQ2T     1.000000   CE2T     -1.000000
    BQCE2H   3BQCE2   1.000000   RBQCE3   -1.000000
    BQCE2H   OBJ      5391.800000   UPBROW35059 1.000000
    CEBQ2H   CE2T     1.000000   BQ2T     -1.000000
    CEBQ2H   3BQCE2   1.000000   RBQCE3   -1.000000
    CEBQ2H   OBJ      5391.800000   UPBROW35060 1.000000
    BQCE3C   BQ3R     1.000000   CE3R     -1.000000
    BQCE3C   3BQCE3   1.000000   RBQCE3   -1.000000
    BQCE3C   OBJ      218.370000   UPBROW35061 1.000000
    CEBQ3C   CE3R     1.000000   BQ3R     -1.000000
    CEBQ3C   3BQCE3   1.000000   RBQCE3   -1.000000
    CEBQ3C   OBJ      218.370000   UPBROW35062 1.000000
    BQCE3H   BQ3T     1.000000   CE3T     -1.000000
    BQCE3H   3BQCE3   1.000000   RBQCE3   -1.000000
    BQCE3H   OBJ      1456.900000   UPBROW35063 1.000000
    CEBQ3H   CE3T     1.000000   BQ3T     -1.000000
    CEBQ3H   3BQCE3   1.000000   RBQCE3   -1.000000
    CEBQ3H   OBJ      1456.900000   UPBROW35064 1.000000
    BQCE4C   BQ4R     1.000000   CE4R     -1.000000
    BQCE4C   3BQCE4   1.000000   RBQCE3   -1.000000
    BQCE4C   OBJ      84.190000   UPBROW35065 1.000000
    CEBQ4C   CE4R     1.000000   BQ4R     -1.000000
    CEBQ4C   3BQCE4   1.000000   RBQCE3   -1.000000
    CEBQ4C   OBJ      84.190000   UPBROW35066 1.000000
    BQCE4H   BQ4T     1.000000   CE4T     -1.000000
    BQCE4H   3BQCE4   1.000000   RBQCE3   -1.000000
    BQCE4H   OBJ      561.700000   UPBROW35067 1.000000
    CEBQ4H   CE4T     1.000000   BQ4T     -1.000000
    CEBQ4H   3BQCE4   1.000000   RBQCE3   -1.000000
    CEBQ4H   OBJ      561.700000   UPBROW35068 1.000000
    BQCE5C   BQ5R     1.000000   CE5R     -1.000000
    BQCE5C   3BQCE5   1.000000   RBQCE3   -1.000000
    BQCE5C   OBJ      32.460000   UPBROW35069 1.000000
    CEBQ5C   CE5R     1.000000   BQ5R     -1.000000
    CEBQ5C   3BQCE5   1.000000   RBQCE3   -1.000000
    CEBQ5C   OBJ      32.460000   UPBROW35070 1.000000
    BQCE5H   BQ5T     1.000000   CE5T     -1.000000
    BQCE5H   3BQCE5   1.000000   RBQCE3   -1.000000
    BQCE5H   OBJ      216.560000   UPBROW35071 1.000000
    CEBQ5H   CE5T     1.000000   BQ5T     -1.000000
    CEBQ5H   3BQCE5   1.000000   RBQCE3   -1.000000
    CEBQ5H   OBJ      216.560000   UPBROW35072 1.000000
    BQCE-4   RBQCE4   100000.000000   PBQCE    1.000000
    BQCE-4   UPBROW35073 1.000000
    BQCE1D   BQ1R     1.000000   CE1R     -1.000000
    BQCE1D   4BQCE1   1.000000   RBQCE4   -1.000000
    BQCE1D   OBJ      2056.500000   UPBROW35074 1.000000
    CEBQ1D   CE1R     1.000000   BQ1R     -1.000000
    CEBQ1D   4BQCE1   1.000000   RBQCE4   -1.000000
    CEBQ1D   OBJ      2056.500000   UPBROW35075 1.000000
    BQCE1I   BQ1T     1.000000   CE1T     -1.000000
    BQCE1I   4BQCE1   1.000000   RBQCE4   -1.000000
    BQCE1I   OBJ      13985.000000   UPBROW35076 1.000000
    CEBQ1I   CE1T     1.000000   BQ1T     -1.000000
    CEBQ1I   4BQCE1   1.000000   RBQCE4   -1.000000
    CEBQ1I   OBJ      13985.000000   UPBROW35077 1.000000
    BQCE2D   BQ2R     1.000000   CE2R     -1.000000
    BQCE2D   4BQCE2   1.000000   RBQCE4   -1.000000
    BQCE2D   OBJ      792.870000   UPBROW35078 1.000000
    CEBQ2D   CE2R     1.000000   BQ2R     -1.000000
    CEBQ2D   4BQCE2   1.000000   RBQCE4   -1.000000
    CEBQ2D   OBJ      792.870000   UPBROW35079 1.000000
    BQCE2I   BQ2T     1.000000   CE2T     -1.000000
    BQCE2I   4BQCE2   1.000000   RBQCE4   -1.000000
    BQCE2I   OBJ      5391.800000   UPBROW35080 1.000000
    CEBQ2I   CE2T     1.000000   BQ2T     -1.000000
    CEBQ2I   4BQCE2   1.000000   RBQCE4   -1.000000
    CEBQ2I   OBJ      5391.800000   UPBROW35081 1.000000
    BQCE3D   BQ3R     1.000000   CE3R     -1.000000
    BQCE3D   4BQCE3   1.000000   RBQCE4   -1.000000
    BQCE3D   OBJ      305.680000   UPBROW35082 1.000000
    CEBQ3D   CE3R     1.000000   BQ3R     -1.000000
    CEBQ3D   4BQCE3   1.000000   RBQCE4   -1.000000
    CEBQ3D   OBJ      305.680000   UPBROW35083 1.000000
    BQCE3I   BQ3T     1.000000   CE3T     -1.000000
    BQCE3I   4BQCE3   1.000000   RBQCE4   -1.000000
    BQCE3I   OBJ      2078.800000   UPBROW35084 1.000000
    CEBQ3I   CE3T     1.000000   BQ3T     -1.000000
    CEBQ3I   4BQCE3   1.000000   RBQCE4   -1.000000
    CEBQ3I   OBJ      2078.800000   UPBROW35085 1.000000
    BQCE4D   BQ4R     1.000000   CE4R     -1.000000
    BQCE4D   4BQCE4   1.000000   RBQCE4   -1.000000
    BQCE4D   OBJ      117.850000   UPBROW35086 1.000000
    CEBQ4D   CE4R     1.000000   BQ4R     -1.000000
    CEBQ4D   4BQCE4   1.000000   RBQCE4   -1.000000
    CEBQ4D   OBJ      117.850000   UPBROW35087 1.000000
    BQCE4I   BQ4T     1.000000   CE4T     -1.000000
    BQCE4I   4BQCE4   1.000000   RBQCE4   -1.000000
    BQCE4I   OBJ      801.460000   UPBROW35088 1.000000
    CEBQ4I   CE4T     1.000000   BQ4T     -1.000000
    CEBQ4I   4BQCE4   1.000000   RBQCE4   -1.000000
    CEBQ4I   OBJ      801.460000   UPBROW35089 1.000000
    BQCE5D   BQ5R     1.000000   CE5R     -1.000000
    BQCE5D   4BQCE5   1.000000   RBQCE4   -1.000000
    BQCE5D   OBJ      45.440000   UPBROW35090 1.000000
    CEBQ5D   CE5R     1.000000   BQ5R     -1.000000
    CEBQ5D   4BQCE5   1.000000   RBQCE4   -1.000000
    CEBQ5D   OBJ      45.440000   UPBROW35091 1.000000
    BQCE5I   BQ5T     1.000000   CE5T     -1.000000
    BQCE5I   4BQCE5   1.000000   RBQCE4   -1.000000
    BQCE5I   OBJ      309.000000   UPBROW35092 1.000000
    CEBQ5I   CE5T     1.000000   BQ5T     -1.000000
    CEBQ5I   4BQCE5   1.000000   RBQCE4   -1.000000
    CEBQ5I   OBJ      309.000000   UPBROW35093 1.000000
    BRBV-1   RBRBV1   100000.000000   PBRBV    1.000000
    BRBV-1   OBJ      20646.000000   UPBROW35094 1.000000
    BRBV1A   BR1R     1.000000   BV1R     -1.000000
    BRBV1A   1BRBV1   1.000000   RBRBV1   -1.000000
    BRBV1A   OBJ      1281.600000   UPBROW35095 1.000000
    BVBR1A   BV1R     1.000000   BR1R     -1.000000
    BVBR1A   1BRBV1   1.000000   RBRBV1   -1.000000
    BVBR1A   OBJ      1281.600000   UPBROW35096 1.000000
    BRBV1F   BR1T     1.000000   BV1T     -1.000000
    BRBV1F   1BRBV1   1.000000   RBRBV1   -1.000000
    BRBV1F   OBJ      8553.800000   UPBROW35097 1.000000
    BVBR1F   BV1T     1.000000   BR1T     -1.000000
    BVBR1F   1BRBV1   1.000000   RBRBV1   -1.000000
    BVBR1F   OBJ      8553.800000   UPBROW35098 1.000000
    BRBV2A   BR2R     1.000000   BV2R     -1.000000
    BRBV2A   1BRBV2   1.000000   RBRBV1   -1.000000
    BRBV2A   OBJ      494.110000   UPBROW35099 1.000000
    BVBR2A   BV2R     1.000000   BR2R     -1.000000
    BVBR2A   1BRBV2   1.000000   RBRBV1   -1.000000
    BVBR2A   OBJ      494.110000   UPBROW35100 1.000000
    BRBV2F   BR2T     1.000000   BV2T     -1.000000
    BRBV2F   1BRBV2   1.000000   RBRBV1   -1.000000
    BRBV2F   OBJ      3297.900000   UPBROW35101 1.000000
    BVBR2F   BV2T     1.000000   BR2T     -1.000000
    BVBR2F   1BRBV2   1.000000   RBRBV1   -1.000000
    BVBR2F   OBJ      3297.900000   UPBROW35102 1.000000
    BRBV3A   BR3R     1.000000   BV3R     -1.000000
    BRBV3A   1BRBV3   1.000000   RBRBV1   -1.000000
    BRBV3A   OBJ      190.500000   UPBROW35103 1.000000
    BVBR3A   BV3R     1.000000   BR3R     -1.000000
    BVBR3A   1BRBV3   1.000000   RBRBV1   -1.000000
    BVBR3A   OBJ      190.500000   UPBROW35104 1.000000
    BRBV3F   BR3T     1.000000   BV3T     -1.000000
    BRBV3F   1BRBV3   1.000000   RBRBV1   -1.000000
    BRBV3F   OBJ      1271.500000   UPBROW35105 1.000000
    BVBR3F   BV3T     1.000000   BR3T     -1.000000
    BVBR3F   1BRBV3   1.000000   RBRBV1   -1.000000
    BVBR3F   OBJ      1271.500000   UPBROW35106 1.000000
    BRBV4A   BR4R     1.000000   BV4R     -1.000000
    BRBV4A   1BRBV4   1.000000   RBRBV1   -1.000000
    BRBV4A   OBJ      73.450000   UPBROW35107 1.000000
    BVBR4A   BV4R     1.000000   BR4R     -1.000000
    BVBR4A   1BRBV4   1.000000   RBRBV1   -1.000000
    BVBR4A   OBJ      73.450000   UPBROW35108 1.000000
    BRBV4F   BR4T     1.000000   BV4T     -1.000000
    BRBV4F   1BRBV4   1.000000   RBRBV1   -1.000000
    BRBV4F   OBJ      490.210000   UPBROW35109 1.000000
    BVBR4F   BV4T     1.000000   BR4T     -1.000000
    BVBR4F   1BRBV4   1.000000   RBRBV1   -1.000000
    BVBR4F   OBJ      490.210000   UPBROW35110 1.000000
    BRBV5A   BR5R     1.000000   BV5R     -1.000000
    BRBV5A   1BRBV5   1.000000   RBRBV1   -1.000000
    BRBV5A   OBJ      28.320000   UPBROW35111 1.000000
    BVBR5A   BV5R     1.000000   BR5R     -1.000000
    BVBR5A   1BRBV5   1.000000   RBRBV1   -1.000000
    BVBR5A   OBJ      28.320000   UPBROW35112 1.000000
    BRBV5F   BR5T     1.000000   BV5T     -1.000000
    BRBV5F   1BRBV5   1.000000   RBRBV1   -1.000000
    BRBV5F   OBJ      189.000000   UPBROW35113 1.000000
    BVBR5F   BV5T     1.000000   BR5T     -1.000000
    BVBR5F   1BRBV5   1.000000   RBRBV1   -1.000000
    BVBR5F   OBJ      189.000000   UPBROW35114 1.000000
    BRBV-2   RBRBV2   100000.000000   PBRBV    1.000000
    BRBV-2   OBJ      7959.900000   UPBROW35115 1.000000
    BRBV1B   BR1R     1.000000   BV1R     -1.000000
    BRBV1B   2BRBV1   1.000000   RBRBV2   -1.000000
    BRBV1B   OBJ      1496.400000   UPBROW35116 1.000000
    BVBR1B   BV1R     1.000000   BR1R     -1.000000
    BVBR1B   2BRBV1   1.000000   RBRBV2   -1.000000
    BVBR1B   OBJ      1496.400000   UPBROW35117 1.000000
    BRBV1G   BR1T     1.000000   BV1T     -1.000000
    BRBV1G   2BRBV1   1.000000   RBRBV2   -1.000000
    BRBV1G   OBJ      9999.300000   UPBROW35118 1.000000
    BVBR1G   BV1T     1.000000   BR1T     -1.000000
    BVBR1G   2BRBV1   1.000000   RBRBV2   -1.000000
    BVBR1G   OBJ      9999.300000   UPBROW35119 1.000000
    BRBV2B   BR2R     1.000000   BV2R     -1.000000
    BRBV2B   2BRBV2   1.000000   RBRBV2   -1.000000
    BRBV2B   OBJ      494.110000   UPBROW35120 1.000000
    BVBR2B   BV2R     1.000000   BR2R     -1.000000
    BVBR2B   2BRBV2   1.000000   RBRBV2   -1.000000
    BVBR2B   OBJ      494.110000   UPBROW35121 1.000000
    BRBV2G   BR2T     1.000000   BV2T     -1.000000
    BRBV2G   2BRBV2   1.000000   RBRBV2   -1.000000
    BRBV2G   OBJ      3297.900000   UPBROW35122 1.000000
    BVBR2G   BV2T     1.000000   BR2T     -1.000000
    BVBR2G   2BRBV2   1.000000   RBRBV2   -1.000000
    BVBR2G   OBJ      3297.900000   UPBROW35123 1.000000
    BRBV3B   BR3R     1.000000   BV3R     -1.000000
    BRBV3B   2BRBV3   1.000000   RBRBV2   -1.000000
    BRBV3B   OBJ      190.500000   UPBROW35124 1.000000
    BVBR3B   BV3R     1.000000   BR3R     -1.000000
    BVBR3B   2BRBV3   1.000000   RBRBV2   -1.000000
    BVBR3B   OBJ      190.500000   UPBROW35125 1.000000
    BRBV3G   BR3T     1.000000   BV3T     -1.000000
    BRBV3G   2BRBV3   1.000000   RBRBV2   -1.000000
    BRBV3G   OBJ      1271.500000   UPBROW35126 1.000000
    BVBR3G   BV3T     1.000000   BR3T     -1.000000
    BVBR3G   2BRBV3   1.000000   RBRBV2   -1.000000
    BVBR3G   OBJ      1271.500000   UPBROW35127 1.000000
    BRBV4B   BR4R     1.000000   BV4R     -1.000000
    BRBV4B   2BRBV4   1.000000   RBRBV2   -1.000000
    BRBV4B   OBJ      73.450000   UPBROW35128 1.000000
    BVBR4B   BV4R     1.000000   BR4R     -1.000000
    BVBR4B   2BRBV4   1.000000   RBRBV2   -1.000000
    BVBR4B   OBJ      73.450000   UPBROW35129 1.000000
    BRBV4G   BR4T     1.000000   BV4T     -1.000000
    BRBV4G   2BRBV4   1.000000   RBRBV2   -1.000000
    BRBV4G   OBJ      490.210000   UPBROW35130 1.000000
    BVBR4G   BV4T     1.000000   BR4T     -1.000000
    BVBR4G   2BRBV4   1.000000   RBRBV2   -1.000000
    BVBR4G   OBJ      490.210000   UPBROW35131 1.000000
    BRBV5B   BR5R     1.000000   BV5R     -1.000000
    BRBV5B   2BRBV5   1.000000   RBRBV2   -1.000000
    BRBV5B   OBJ      28.320000   UPBROW35132 1.000000
    BVBR5B   BV5R     1.000000   BR5R     -1.000000
    BVBR5B   2BRBV5   1.000000   RBRBV2   -1.000000
    BVBR5B   OBJ      28.320000   UPBROW35133 1.000000
    BRBV5G   BR5T     1.000000   BV5T     -1.000000
    BRBV5G   2BRBV5   1.000000   RBRBV2   -1.000000
    BRBV5G   OBJ      189.000000   UPBROW35134 1.000000
    BVBR5G   BV5T     1.000000   BR5T     -1.000000
    BVBR5G   2BRBV5   1.000000   RBRBV2   -1.000000
    BVBR5G   OBJ      189.000000   UPBROW35135 1.000000
    BRBV-3   RBRBV3   100000.000000   PBRBV    1.000000
    BRBV-3   OBJ      3068.900000   UPBROW35136 1.000000
    BRBV1C   BR1R     1.000000   BV1R     -1.000000
    BRBV1C   3BRBV1   1.000000   RBRBV3   -1.000000
    BRBV1C   OBJ      1496.400000   UPBROW35137 1.000000
    BVBR1C   BV1R     1.000000   BR1R     -1.000000
    BVBR1C   3BRBV1   1.000000   RBRBV3   -1.000000
    BVBR1C   OBJ      1496.400000   UPBROW35138 1.000000
    BRBV1H   BR1T     1.000000   BV1T     -1.000000
    BRBV1H   3BRBV1   1.000000   RBRBV3   -1.000000
    BRBV1H   OBJ      9999.300000   UPBROW35139 1.000000
    BVBR1H   BV1T     1.000000   BR1T     -1.000000
    BVBR1H   3BRBV1   1.000000   RBRBV3   -1.000000
    BVBR1H   OBJ      9999.300000   UPBROW35140 1.000000
    BRBV2C   BR2R     1.000000   BV2R     -1.000000
    BRBV2C   3BRBV2   1.000000   RBRBV3   -1.000000
    BRBV2C   OBJ      576.930000   UPBROW35141 1.000000
    BVBR2C   BV2R     1.000000   BR2R     -1.000000
    BVBR2C   3BRBV2   1.000000   RBRBV3   -1.000000
    BVBR2C   OBJ      576.930000   UPBROW35142 1.000000
    BRBV2H   BR2T     1.000000   BV2T     -1.000000
    BRBV2H   3BRBV2   1.000000   RBRBV3   -1.000000
    BRBV2H   OBJ      3855.200000   UPBROW35143 1.000000
    BVBR2H   BV2T     1.000000   BR2T     -1.000000
    BVBR2H   3BRBV2   1.000000   RBRBV3   -1.000000
    BVBR2H   OBJ      3855.200000   UPBROW35144 1.000000
    BRBV3C   BR3R     1.000000   BV3R     -1.000000
    BRBV3C   3BRBV3   1.000000   RBRBV3   -1.000000
    BRBV3C   OBJ      190.500000   UPBROW35145 1.000000
    BVBR3C   BV3R     1.000000   BR3R     -1.000000
    BVBR3C   3BRBV3   1.000000   RBRBV3   -1.000000
    BVBR3C   OBJ      190.500000   UPBROW35146 1.000000
    BRBV3H   BR3T     1.000000   BV3T     -1.000000
    BRBV3H   3BRBV3   1.000000   RBRBV3   -1.000000
    BRBV3H   OBJ      1271.500000   UPBROW35147 1.000000
    BVBR3H   BV3T     1.000000   BR3T     -1.000000
    BVBR3H   3BRBV3   1.000000   RBRBV3   -1.000000
    BVBR3H   OBJ      1271.500000   UPBROW35148 1.000000
    BRBV4C   BR4R     1.000000   BV4R     -1.000000
    BRBV4C   3BRBV4   1.000000   RBRBV3   -1.000000
    BRBV4C   OBJ      73.450000   UPBROW35149 1.000000
    BVBR4C   BV4R     1.000000   BR4R     -1.000000
    BVBR4C   3BRBV4   1.000000   RBRBV3   -1.000000
    BVBR4C   OBJ      73.450000   UPBROW35150 1.000000
    BRBV4H   BR4T     1.000000   BV4T     -1.000000
    BRBV4H   3BRBV4   1.000000   RBRBV3   -1.000000
    BRBV4H   OBJ      490.210000   UPBROW35151 1.000000
    BVBR4H   BV4T     1.000000   BR4T     -1.000000
    BVBR4H   3BRBV4   1.000000   RBRBV3   -1.000000
    BVBR4H   OBJ      490.210000   UPBROW35152 1.000000
    BRBV5C   BR5R     1.000000   BV5R     -1.000000
    BRBV5C   3BRBV5   1.000000   RBRBV3   -1.000000
    BRBV5C   OBJ      28.320000   UPBROW35153 1.000000
    BVBR5C   BV5R     1.000000   BR5R     -1.000000
    BVBR5C   3BRBV5   1.000000   RBRBV3   -1.000000
    BVBR5C   OBJ      28.320000   UPBROW35154 1.000000
    BRBV5H   BR5T     1.000000   BV5T     -1.000000
    BRBV5H   3BRBV5   1.000000   RBRBV3   -1.000000
    BRBV5H   OBJ      189.000000   UPBROW35155 1.000000
    BVBR5H   BV5T     1.000000   BR5T     -1.000000
    BVBR5H   3BRBV5   1.000000   RBRBV3   -1.000000
    BVBR5H   OBJ      189.000000   UPBROW35156 1.000000
    BRBV-4   RBRBV4   100000.000000   PBRBV    1.000000
    BRBV-4   UPBROW35157 1.000000
    BRBV1D   BR1R     1.000000   BV1R     -1.000000
    BRBV1D   4BRBV1   1.000000   RBRBV4   -1.000000
    BRBV1D   OBJ      1496.400000   UPBROW35158 1.000000
    BVBR1D   BV1R     1.000000   BR1R     -1.000000
    BVBR1D   4BRBV1   1.000000   RBRBV4   -1.000000
    BVBR1D   OBJ      1496.400000   UPBROW35159 1.000000
    BRBV1I   BR1T     1.000000   BV1T     -1.000000
    BRBV1I   4BRBV1   1.000000   RBRBV4   -1.000000
    BRBV1I   OBJ      9999.300000   UPBROW35160 1.000000
    BVBR1I   BV1T     1.000000   BR1T     -1.000000
    BVBR1I   4BRBV1   1.000000   RBRBV4   -1.000000
    BVBR1I   OBJ      9999.300000   UPBROW35161 1.000000
    BRBV2D   BR2R     1.000000   BV2R     -1.000000
    BRBV2D   4BRBV2   1.000000   RBRBV4   -1.000000
    BRBV2D   OBJ      576.930000   UPBROW35162 1.000000
    BVBR2D   BV2R     1.000000   BR2R     -1.000000
    BVBR2D   4BRBV2   1.000000   RBRBV4   -1.000000
    BVBR2D   OBJ      576.930000   UPBROW35163 1.000000
    BRBV2I   BR2T     1.000000   BV2T     -1.000000
    BRBV2I   4BRBV2   1.000000   RBRBV4   -1.000000
    BRBV2I   OBJ      3855.200000   UPBROW35164 1.000000
    BVBR2I   BV2T     1.000000   BR2T     -1.000000
    BVBR2I   4BRBV2   1.000000   RBRBV4   -1.000000
    BVBR2I   OBJ      3855.200000   UPBROW35165 1.000000
    BRBV3D   BR3R     1.000000   BV3R     -1.000000
    BRBV3D   4BRBV3   1.000000   RBRBV4   -1.000000
    BRBV3D   OBJ      222.430000   UPBROW35166 1.000000
    BVBR3D   BV3R     1.000000   BR3R     -1.000000
    BVBR3D   4BRBV3   1.000000   RBRBV4   -1.000000
    BVBR3D   OBJ      222.430000   UPBROW35167 1.000000
    BRBV3I   BR3T     1.000000   BV3T     -1.000000
    BRBV3I   4BRBV3   1.000000   RBRBV4   -1.000000
    BRBV3I   OBJ      1486.300000   UPBROW35168 1.000000
    BVBR3I   BV3T     1.000000   BR3T     -1.000000
    BVBR3I   4BRBV3   1.000000   RBRBV4   -1.000000
    BVBR3I   OBJ      1486.300000   UPBROW35169 1.000000
    BRBV4D   BR4R     1.000000   BV4R     -1.000000
    BRBV4D   4BRBV4   1.000000   RBRBV4   -1.000000
    BRBV4D   OBJ      85.760000   UPBROW35170 1.000000
    BVBR4D   BV4R     1.000000   BR4R     -1.000000
    BVBR4D   4BRBV4   1.000000   RBRBV4   -1.000000
    BVBR4D   OBJ      85.760000   UPBROW35171 1.000000
    BRBV4I   BR4T     1.000000   BV4T     -1.000000
    BRBV4I   4BRBV4   1.000000   RBRBV4   -1.000000
    BRBV4I   OBJ      573.050000   UPBROW35172 1.000000
    BVBR4I   BV4T     1.000000   BR4T     -1.000000
    BVBR4I   4BRBV4   1.000000   RBRBV4   -1.000000
    BVBR4I   OBJ      573.050000   UPBROW35173 1.000000
    BRBV5D   BR5R     1.000000   BV5R     -1.000000
    BRBV5D   4BRBV5   1.000000   RBRBV4   -1.000000
    BRBV5D   OBJ      33.060000   UPBROW35174 1.000000
    BVBR5D   BV5R     1.000000   BR5R     -1.000000
    BVBR5D   4BRBV5   1.000000   RBRBV4   -1.000000
    BVBR5D   OBJ      33.060000   UPBROW35175 1.000000
    BRBV5I   BR5T     1.000000   BV5T     -1.000000
    BRBV5I   4BRBV5   1.000000   RBRBV4   -1.000000
    BRBV5I   OBJ      220.930000   UPBROW35176 1.000000
    BVBR5I   BV5T     1.000000   BR5T     -1.000000
    BVBR5I   4BRBV5   1.000000   RBRBV4   -1.000000
    BVBR5I   OBJ      220.930000   UPBROW35177 1.000000
    BRCD-1   RBRCD1   100000.000000   PBRCD    1.000000
    BRCD-1   OBJ      49984.000000   UPBROW35178 1.000000
    BRCD1A   BR1R     1.000000   CD1R     -1.000000
    BRCD1A   1BRCD1   1.000000   RBRCD1   -1.000000
    BRCD1A   OBJ      1228.200000   UPBROW35179 1.000000
    CDBR1A   CD1R     1.000000   BR1R     -1.000000
    CDBR1A   1BRCD1   1.000000   RBRCD1   -1.000000
    CDBR1A   OBJ      1228.200000   UPBROW35180 1.000000
    BRCD1F   BR1T     1.000000   CD1T     -1.000000
    BRCD1F   1BRCD1   1.000000   RBRCD1   -1.000000
    BRCD1F   OBJ      8197.400000   UPBROW35181 1.000000
    CDBR1F   CD1T     1.000000   BR1T     -1.000000
    CDBR1F   1BRCD1   1.000000   RBRCD1   -1.000000
    CDBR1F   OBJ      8197.400000   UPBROW35182 1.000000
    BRCD2A   BR2R     1.000000   CD2R     -1.000000
    BRCD2A   1BRCD2   1.000000   RBRCD1   -1.000000
    BRCD2A   OBJ      473.520000   UPBROW35183 1.000000
    CDBR2A   CD2R     1.000000   BR2R     -1.000000
    CDBR2A   1BRCD2   1.000000   RBRCD1   -1.000000
    CDBR2A   OBJ      473.520000   UPBROW35184 1.000000
    BRCD2F   BR2T     1.000000   CD2T     -1.000000
    BRCD2F   1BRCD2   1.000000   RBRCD1   -1.000000
    BRCD2F   OBJ      3160.500000   UPBROW35185 1.000000
    CDBR2F   CD2T     1.000000   BR2T     -1.000000
    CDBR2F   1BRCD2   1.000000   RBRCD1   -1.000000
    CDBR2F   OBJ      3160.500000   UPBROW35186 1.000000
    BRCD3A   BR3R     1.000000   CD3R     -1.000000
    BRCD3A   1BRCD3   1.000000   RBRCD1   -1.000000
    BRCD3A   OBJ      182.560000   UPBROW35187 1.000000
    CDBR3A   CD3R     1.000000   BR3R     -1.000000
    CDBR3A   1BRCD3   1.000000   RBRCD1   -1.000000
    CDBR3A   OBJ      182.560000   UPBROW35188 1.000000
    BRCD3F   BR3T     1.000000   CD3T     -1.000000
    BRCD3F   1BRCD3   1.000000   RBRCD1   -1.000000
    BRCD3F   OBJ      1218.500000   UPBROW35189 1.000000
    CDBR3F   CD3T     1.000000   BR3T     -1.000000
    CDBR3F   1BRCD3   1.000000   RBRCD1   -1.000000
    CDBR3F   OBJ      1218.500000   UPBROW35190 1.000000
    BRCD4A   BR4R     1.000000   CD4R     -1.000000
    BRCD4A   1BRCD4   1.000000   RBRCD1   -1.000000
    BRCD4A   OBJ      70.390000   UPBROW35191 1.000000
    CDBR4A   CD4R     1.000000   BR4R     -1.000000
    CDBR4A   1BRCD4   1.000000   RBRCD1   -1.000000
    CDBR4A   OBJ      70.390000   UPBROW35192 1.000000
    BRCD4F   BR4T     1.000000   CD4T     -1.000000
    BRCD4F   1BRCD4   1.000000   RBRCD1   -1.000000
    BRCD4F   OBJ      469.780000   UPBROW35193 1.000000
    CDBR4F   CD4T     1.000000   BR4T     -1.000000
    CDBR4F   1BRCD4   1.000000   RBRCD1   -1.000000
    CDBR4F   OBJ      469.780000   UPBROW35194 1.000000
    BRCD5A   BR5R     1.000000   CD5R     -1.000000
    BRCD5A   1BRCD5   1.000000   RBRCD1   -1.000000
    BRCD5A   OBJ      27.140000   UPBROW35195 1.000000
    CDBR5A   CD5R     1.000000   BR5R     -1.000000
    CDBR5A   1BRCD5   1.000000   RBRCD1   -1.000000
    CDBR5A   OBJ      27.140000   UPBROW35196 1.000000
    BRCD5F   BR5T     1.000000   CD5T     -1.000000
    BRCD5F   1BRCD5   1.000000   RBRCD1   -1.000000
    BRCD5F   OBJ      181.120000   UPBROW35197 1.000000
    CDBR5F   CD5T     1.000000   BR5T     -1.000000
    CDBR5F   1BRCD5   1.000000   RBRCD1   -1.000000
    CDBR5F   OBJ      181.120000   UPBROW35198 1.000000
    BRCD-2   RBRCD2   100000.000000   PBRCD    1.000000
    BRCD-2   OBJ      19271.000000   UPBROW35199 1.000000
    BRCD1B   BR1R     1.000000   CD1R     -1.000000
    BRCD1B   2BRCD1   1.000000   RBRCD2   -1.000000
    BRCD1B   OBJ      1719.300000   UPBROW35200 1.000000
    CDBR1B   CD1R     1.000000   BR1R     -1.000000
    CDBR1B   2BRCD1   1.000000   RBRCD2   -1.000000
    CDBR1B   OBJ      1719.300000   UPBROW35201 1.000000
    BRCD1G   BR1T     1.000000   CD1T     -1.000000
    BRCD1G   2BRCD1   1.000000   RBRCD2   -1.000000
    BRCD1G   OBJ      11696.000000   UPBROW35202 1.000000
    CDBR1G   CD1T     1.000000   BR1T     -1.000000
    CDBR1G   2BRCD1   1.000000   RBRCD2   -1.000000
    CDBR1G   OBJ      11696.000000   UPBROW35203 1.000000
    BRCD2B   BR2R     1.000000   CD2R     -1.000000
    BRCD2B   2BRCD2   1.000000   RBRCD2   -1.000000
    BRCD2B   OBJ      473.520000   UPBROW35204 1.000000
    CDBR2B   CD2R     1.000000   BR2R     -1.000000
    CDBR2B   2BRCD2   1.000000   RBRCD2   -1.000000
    CDBR2B   OBJ      473.520000   UPBROW35205 1.000000
    BRCD2G   BR2T     1.000000   CD2T     -1.000000
    BRCD2G   2BRCD2   1.000000   RBRCD2   -1.000000
    BRCD2G   OBJ      3160.500000   UPBROW35206 1.000000
    CDBR2G   CD2T     1.000000   BR2T     -1.000000
    CDBR2G   2BRCD2   1.000000   RBRCD2   -1.000000
    CDBR2G   OBJ      3160.500000   UPBROW35207 1.000000
    BRCD3B   BR3R     1.000000   CD3R     -1.000000
    BRCD3B   2BRCD3   1.000000   RBRCD2   -1.000000
    BRCD3B   OBJ      182.560000   UPBROW35208 1.000000
    CDBR3B   CD3R     1.000000   BR3R     -1.000000
    CDBR3B   2BRCD3   1.000000   RBRCD2   -1.000000
    CDBR3B   OBJ      182.560000   UPBROW35209 1.000000
    BRCD3G   BR3T     1.000000   CD3T     -1.000000
    BRCD3G   2BRCD3   1.000000   RBRCD2   -1.000000
    BRCD3G   OBJ      1218.500000   UPBROW35210 1.000000
    CDBR3G   CD3T     1.000000   BR3T     -1.000000
    CDBR3G   2BRCD3   1.000000   RBRCD2   -1.000000
    CDBR3G   OBJ      1218.500000   UPBROW35211 1.000000
    BRCD4B   BR4R     1.000000   CD4R     -1.000000
    BRCD4B   2BRCD4   1.000000   RBRCD2   -1.000000
    BRCD4B   OBJ      70.390000   UPBROW35212 1.000000
    CDBR4B   CD4R     1.000000   BR4R     -1.000000
    CDBR4B   2BRCD4   1.000000   RBRCD2   -1.000000
    CDBR4B   OBJ      70.390000   UPBROW35213 1.000000
    BRCD4G   BR4T     1.000000   CD4T     -1.000000
    BRCD4G   2BRCD4   1.000000   RBRCD2   -1.000000
    BRCD4G   OBJ      469.780000   UPBROW35214 1.000000
    CDBR4G   CD4T     1.000000   BR4T     -1.000000
    CDBR4G   2BRCD4   1.000000   RBRCD2   -1.000000
    CDBR4G   OBJ      469.780000   UPBROW35215 1.000000
    BRCD5B   BR5R     1.000000   CD5R     -1.000000
    BRCD5B   2BRCD5   1.000000   RBRCD2   -1.000000
    BRCD5B   OBJ      27.140000   UPBROW35216 1.000000
    CDBR5B   CD5R     1.000000   BR5R     -1.000000
    CDBR5B   2BRCD5   1.000000   RBRCD2   -1.000000
    CDBR5B   OBJ      27.140000   UPBROW35217 1.000000
    BRCD5G   BR5T     1.000000   CD5T     -1.000000
    BRCD5G   2BRCD5   1.000000   RBRCD2   -1.000000
    BRCD5G   OBJ      181.120000   UPBROW35218 1.000000
    CDBR5G   CD5T     1.000000   BR5T     -1.000000
    CDBR5G   2BRCD5   1.000000   RBRCD2   -1.000000
    CDBR5G   OBJ      181.120000   UPBROW35219 1.000000
    BRCD-3   RBRCD3   100000.000000   PBRCD    1.000000
    BRCD-3   OBJ      7429.800000   UPBROW35220 1.000000
    BRCD1C   BR1R     1.000000   CD1R     -1.000000
    BRCD1C   3BRCD1   1.000000   RBRCD3   -1.000000
    BRCD1C   OBJ      1719.300000   UPBROW35221 1.000000
    CDBR1C   CD1R     1.000000   BR1R     -1.000000
    CDBR1C   3BRCD1   1.000000   RBRCD3   -1.000000
    CDBR1C   OBJ      1719.300000   UPBROW35222 1.000000
    BRCD1H   BR1T     1.000000   CD1T     -1.000000
    BRCD1H   3BRCD1   1.000000   RBRCD3   -1.000000
    BRCD1H   OBJ      11696.000000   UPBROW35223 1.000000
    CDBR1H   CD1T     1.000000   BR1T     -1.000000
    CDBR1H   3BRCD1   1.000000   RBRCD3   -1.000000
    CDBR1H   OBJ      11696.000000   UPBROW35224 1.000000
    BRCD2C   BR2R     1.000000   CD2R     -1.000000
    BRCD2C   3BRCD2   1.000000   RBRCD3   -1.000000
    BRCD2C   OBJ      662.880000   UPBROW35225 1.000000
    CDBR2C   CD2R     1.000000   BR2R     -1.000000
    CDBR2C   3BRCD2   1.000000   RBRCD3   -1.000000
    CDBR2C   OBJ      662.880000   UPBROW35226 1.000000
    BRCD2H   BR2T     1.000000   CD2T     -1.000000
    BRCD2H   3BRCD2   1.000000   RBRCD3   -1.000000
    BRCD2H   OBJ      4509.400000   UPBROW35227 1.000000
    CDBR2H   CD2T     1.000000   BR2T     -1.000000
    CDBR2H   3BRCD2   1.000000   RBRCD3   -1.000000
    CDBR2H   OBJ      4509.400000   UPBROW35228 1.000000
    BRCD3C   BR3R     1.000000   CD3R     -1.000000
    BRCD3C   3BRCD3   1.000000   RBRCD3   -1.000000
    BRCD3C   OBJ      182.560000   UPBROW35229 1.000000
    CDBR3C   CD3R     1.000000   BR3R     -1.000000
    CDBR3C   3BRCD3   1.000000   RBRCD3   -1.000000
    CDBR3C   OBJ      182.560000   UPBROW35230 1.000000
    BRCD3H   BR3T     1.000000   CD3T     -1.000000
    BRCD3H   3BRCD3   1.000000   RBRCD3   -1.000000
    BRCD3H   OBJ      1218.500000   UPBROW35231 1.000000
    CDBR3H   CD3T     1.000000   BR3T     -1.000000
    CDBR3H   3BRCD3   1.000000   RBRCD3   -1.000000
    CDBR3H   OBJ      1218.500000   UPBROW35232 1.000000
    BRCD4C   BR4R     1.000000   CD4R     -1.000000
    BRCD4C   3BRCD4   1.000000   RBRCD3   -1.000000
    BRCD4C   OBJ      70.390000   UPBROW35233 1.000000
    CDBR4C   CD4R     1.000000   BR4R     -1.000000
    CDBR4C   3BRCD4   1.000000   RBRCD3   -1.000000
    CDBR4C   OBJ      70.390000   UPBROW35234 1.000000
    BRCD4H   BR4T     1.000000   CD4T     -1.000000
    BRCD4H   3BRCD4   1.000000   RBRCD3   -1.000000
    BRCD4H   OBJ      469.780000   UPBROW35235 1.000000
    CDBR4H   CD4T     1.000000   BR4T     -1.000000
    CDBR4H   3BRCD4   1.000000   RBRCD3   -1.000000
    CDBR4H   OBJ      469.780000   UPBROW35236 1.000000
    BRCD5C   BR5R     1.000000   CD5R     -1.000000
    BRCD5C   3BRCD5   1.000000   RBRCD3   -1.000000
    BRCD5C   OBJ      27.140000   UPBROW35237 1.000000
    CDBR5C   CD5R     1.000000   BR5R     -1.000000
    CDBR5C   3BRCD5   1.000000   RBRCD3   -1.000000
    CDBR5C   OBJ      27.140000   UPBROW35238 1.000000
    BRCD5H   BR5T     1.000000   CD5T     -1.000000
    BRCD5H   3BRCD5   1.000000   RBRCD3   -1.000000
    BRCD5H   OBJ      181.120000   UPBROW35239 1.000000
    CDBR5H   CD5T     1.000000   BR5T     -1.000000
    CDBR5H   3BRCD5   1.000000   RBRCD3   -1.000000
    CDBR5H   OBJ      181.120000   UPBROW35240 1.000000
    BRCD-4   RBRCD4   100000.000000   PBRCD    1.000000
    BRCD-4   UPBROW35241 1.000000
    BRCD1D   BR1R     1.000000   CD1R     -1.000000
    BRCD1D   4BRCD1   1.000000   RBRCD4   -1.000000
    BRCD1D   OBJ      1719.300000   UPBROW35242 1.000000
    CDBR1D   CD1R     1.000000   BR1R     -1.000000
    CDBR1D   4BRCD1   1.000000   RBRCD4   -1.000000
    CDBR1D   OBJ      1719.300000   UPBROW35243 1.000000
    BRCD1I   BR1T     1.000000   CD1T     -1.000000
    BRCD1I   4BRCD1   1.000000   RBRCD4   -1.000000
    BRCD1I   OBJ      11696.000000   UPBROW35244 1.000000
    CDBR1I   CD1T     1.000000   BR1T     -1.000000
    CDBR1I   4BRCD1   1.000000   RBRCD4   -1.000000
    CDBR1I   OBJ      11696.000000   UPBROW35245 1.000000
    BRCD2D   BR2R     1.000000   CD2R     -1.000000
    BRCD2D   4BRCD2   1.000000   RBRCD4   -1.000000
    BRCD2D   OBJ      662.880000   UPBROW35246 1.000000
    CDBR2D   CD2R     1.000000   BR2R     -1.000000
    CDBR2D   4BRCD2   1.000000   RBRCD4   -1.000000
    CDBR2D   OBJ      662.880000   UPBROW35247 1.000000
    BRCD2I   BR2T     1.000000   CD2T     -1.000000
    BRCD2I   4BRCD2   1.000000   RBRCD4   -1.000000
    BRCD2I   OBJ      4509.400000   UPBROW35248 1.000000
    CDBR2I   CD2T     1.000000   BR2T     -1.000000
    CDBR2I   4BRCD2   1.000000   RBRCD4   -1.000000
    CDBR2I   OBJ      4509.400000   UPBROW35249 1.000000
    BRCD3D   BR3R     1.000000   CD3R     -1.000000
    BRCD3D   4BRCD3   1.000000   RBRCD4   -1.000000
    BRCD3D   OBJ      255.570000   UPBROW35250 1.000000
    CDBR3D   CD3R     1.000000   BR3R     -1.000000
    CDBR3D   4BRCD3   1.000000   RBRCD4   -1.000000
    CDBR3D   OBJ      255.570000   UPBROW35251 1.000000
    BRCD3I   BR3T     1.000000   CD3T     -1.000000
    BRCD3I   4BRCD3   1.000000   RBRCD4   -1.000000
    BRCD3I   OBJ      1738.600000   UPBROW35252 1.000000
    CDBR3I   CD3T     1.000000   BR3T     -1.000000
    CDBR3I   4BRCD3   1.000000   RBRCD4   -1.000000
    CDBR3I   OBJ      1738.600000   UPBROW35253 1.000000
    BRCD4D   BR4R     1.000000   CD4R     -1.000000
    BRCD4D   4BRCD4   1.000000   RBRCD4   -1.000000
    BRCD4D   OBJ      98.530000   UPBROW35254 1.000000
    CDBR4D   CD4R     1.000000   BR4R     -1.000000
    CDBR4D   4BRCD4   1.000000   RBRCD4   -1.000000
    CDBR4D   OBJ      98.530000   UPBROW35255 1.000000
    BRCD4I   BR4T     1.000000   CD4T     -1.000000
    BRCD4I   4BRCD4   1.000000   RBRCD4   -1.000000
    BRCD4I   OBJ      670.300000   UPBROW35256 1.000000
    CDBR4I   CD4T     1.000000   BR4T     -1.000000
    CDBR4I   4BRCD4   1.000000   RBRCD4   -1.000000
    CDBR4I   OBJ      670.300000   UPBROW35257 1.000000
    BRCD5D   BR5R     1.000000   CD5R     -1.000000
    BRCD5D   4BRCD5   1.000000   RBRCD4   -1.000000
    BRCD5D   OBJ      37.990000   UPBROW35258 1.000000
    CDBR5D   CD5R     1.000000   BR5R     -1.000000
    CDBR5D   4BRCD5   1.000000   RBRCD4   -1.000000
    CDBR5D   OBJ      37.990000   UPBROW35259 1.000000
    BRCD5I   BR5T     1.000000   CD5T     -1.000000
    BRCD5I   4BRCD5   1.000000   RBRCD4   -1.000000
    BRCD5I   OBJ      258.430000   UPBROW35260 1.000000
    CDBR5I   CD5T     1.000000   BR5T     -1.000000
    CDBR5I   4BRCD5   1.000000   RBRCD4   -1.000000
    CDBR5I   OBJ      258.430000   UPBROW35261 1.000000
    CDCE-1   RCDCE1   100000.000000   PCDCE    1.000000
    CDCE-1   OBJ      17386.000000   UPBROW35262 1.000000
    CDCE1A   CD1R     1.000000   CE1R     -1.000000
    CDCE1A   1CDCE1   1.000000   RCDCE1   -1.000000
    CDCE1A   OBJ      427.190000   UPBROW35263 1.000000
    CECD1A   CE1R     1.000000   CD1R     -1.000000
    CECD1A   1CDCE1   1.000000   RCDCE1   -1.000000
    CECD1A   OBJ      427.190000   UPBROW35264 1.000000
    CDCE1F   CD1T     1.000000   CE1T     -1.000000
    CDCE1F   1CDCE1   1.000000   RCDCE1   -1.000000
    CDCE1F   OBJ      2851.300000   UPBROW35265 1.000000
    CECD1F   CE1T     1.000000   CD1T     -1.000000
    CECD1F   1CDCE1   1.000000   RCDCE1   -1.000000
    CECD1F   OBJ      2851.300000   UPBROW35266 1.000000
    CDCE2A   CD2R     1.000000   CE2R     -1.000000
    CDCE2A   1CDCE2   1.000000   RCDCE1   -1.000000
    CDCE2A   OBJ      164.700000   UPBROW35267 1.000000
    CECD2A   CE2R     1.000000   CD2R     -1.000000
    CECD2A   1CDCE2   1.000000   RCDCE1   -1.000000
    CECD2A   OBJ      164.700000   UPBROW35268 1.000000
    CDCE2F   CD2T     1.000000   CE2T     -1.000000
    CDCE2F   1CDCE2   1.000000   RCDCE1   -1.000000
    CDCE2F   OBJ      1099.300000   UPBROW35269 1.000000
    CECD2F   CE2T     1.000000   CD2T     -1.000000
    CECD2F   1CDCE2   1.000000   RCDCE1   -1.000000
    CECD2F   OBJ      1099.300000   UPBROW35270 1.000000
    CDCE3A   CD3R     1.000000   CE3R     -1.000000
    CDCE3A   1CDCE3   1.000000   RCDCE1   -1.000000
    CDCE3A   OBJ      63.500000   UPBROW35271 1.000000
    CECD3A   CE3R     1.000000   CD3R     -1.000000
    CECD3A   1CDCE3   1.000000   RCDCE1   -1.000000
    CECD3A   OBJ      63.500000   UPBROW35272 1.000000
    CDCE3F   CD3T     1.000000   CE3T     -1.000000
    CDCE3F   1CDCE3   1.000000   RCDCE1   -1.000000
    CDCE3F   OBJ      423.820000   UPBROW35273 1.000000
    CECD3F   CE3T     1.000000   CD3T     -1.000000
    CECD3F   1CDCE3   1.000000   RCDCE1   -1.000000
    CECD3F   OBJ      423.820000   UPBROW35274 1.000000
    CDCE4A   CD4R     1.000000   CE4R     -1.000000
    CDCE4A   1CDCE4   1.000000   RCDCE1   -1.000000
    CDCE4A   OBJ      24.480000   UPBROW35275 1.000000
    CECD4A   CE4R     1.000000   CD4R     -1.000000
    CECD4A   1CDCE4   1.000000   RCDCE1   -1.000000
    CECD4A   OBJ      24.480000   UPBROW35276 1.000000
    CDCE4F   CD4T     1.000000   CE4T     -1.000000
    CDCE4F   1CDCE4   1.000000   RCDCE1   -1.000000
    CDCE4F   OBJ      163.400000   UPBROW35277 1.000000
    CECD4F   CE4T     1.000000   CD4T     -1.000000
    CECD4F   1CDCE4   1.000000   RCDCE1   -1.000000
    CECD4F   OBJ      163.400000   UPBROW35278 1.000000
    CDCE5A   CD5R     1.000000   CE5R     -1.000000
    CDCE5A   1CDCE5   1.000000   RCDCE1   -1.000000
    CDCE5A   OBJ      9.440000   UPBROW35279 1.000000
    CECD5A   CE5R     1.000000   CD5R     -1.000000
    CECD5A   1CDCE5   1.000000   RCDCE1   -1.000000
    CECD5A   OBJ      9.440000   UPBROW35280 1.000000
    CDCE5F   CD5T     1.000000   CE5T     -1.000000
    CDCE5F   1CDCE5   1.000000   RCDCE1   -1.000000
    CDCE5F   OBJ      63.000000   UPBROW35281 1.000000
    CECD5F   CE5T     1.000000   CD5T     -1.000000
    CECD5F   1CDCE5   1.000000   RCDCE1   -1.000000
    CECD5F   OBJ      63.000000   UPBROW35282 1.000000
    CDCE-2   RCDCE2   100000.000000   PCDCE    1.000000
    CDCE-2   OBJ      6703.100000   UPBROW35283 1.000000
    CDCE1B   CD1R     1.000000   CE1R     -1.000000
    CDCE1B   2CDCE1   1.000000   RCDCE2   -1.000000
    CDCE1B   OBJ      597.950000   UPBROW35284 1.000000
    CECD1B   CE1R     1.000000   CD1R     -1.000000
    CECD1B   2CDCE1   1.000000   RCDCE2   -1.000000
    CECD1B   OBJ      597.950000   UPBROW35285 1.000000
    CDCE1G   CD1T     1.000000   CE1T     -1.000000
    CDCE1G   2CDCE1   1.000000   RCDCE2   -1.000000
    CDCE1G   OBJ      4068.300000   UPBROW35286 1.000000
    CECD1G   CE1T     1.000000   CD1T     -1.000000
    CECD1G   2CDCE1   1.000000   RCDCE2   -1.000000
    CECD1G   OBJ      4068.300000   UPBROW35287 1.000000
    CDCE2B   CD2R     1.000000   CE2R     -1.000000
    CDCE2B   2CDCE2   1.000000   RCDCE2   -1.000000
    CDCE2B   OBJ      164.700000   UPBROW35288 1.000000
    CECD2B   CE2R     1.000000   CD2R     -1.000000
    CECD2B   2CDCE2   1.000000   RCDCE2   -1.000000
    CECD2B   OBJ      164.700000   UPBROW35289 1.000000
    CDCE2G   CD2T     1.000000   CE2T     -1.000000
    CDCE2G   2CDCE2   1.000000   RCDCE2   -1.000000
    CDCE2G   OBJ      1099.300000   UPBROW35290 1.000000
    CECD2G   CE2T     1.000000   CD2T     -1.000000
    CECD2G   2CDCE2   1.000000   RCDCE2   -1.000000
    CECD2G   OBJ      1099.300000   UPBROW35291 1.000000
    CDCE3B   CD3R     1.000000   CE3R     -1.000000
    CDCE3B   2CDCE3   1.000000   RCDCE2   -1.000000
    CDCE3B   OBJ      63.500000   UPBROW35292 1.000000
    CECD3B   CE3R     1.000000   CD3R     -1.000000
    CECD3B   2CDCE3   1.000000   RCDCE2   -1.000000
    CECD3B   OBJ      63.500000   UPBROW35293 1.000000
    CDCE3G   CD3T     1.000000   CE3T     -1.000000
    CDCE3G   2CDCE3   1.000000   RCDCE2   -1.000000
    CDCE3G   OBJ      423.820000   UPBROW35294 1.000000
    CECD3G   CE3T     1.000000   CD3T     -1.000000
    CECD3G   2CDCE3   1.000000   RCDCE2   -1.000000
    CECD3G   OBJ      423.820000   UPBROW35295 1.000000
    CDCE4B   CD4R     1.000000   CE4R     -1.000000
    CDCE4B   2CDCE4   1.000000   RCDCE2   -1.000000
    CDCE4B   OBJ      24.480000   UPBROW35296 1.000000
    CECD4B   CE4R     1.000000   CD4R     -1.000000
    CECD4B   2CDCE4   1.000000   RCDCE2   -1.000000
    CECD4B   OBJ      24.480000   UPBROW35297 1.000000
    CDCE4G   CD4T     1.000000   CE4T     -1.000000
    CDCE4G   2CDCE4   1.000000   RCDCE2   -1.000000
    CDCE4G   OBJ      163.400000   UPBROW35298 1.000000
    CECD4G   CE4T     1.000000   CD4T     -1.000000
    CECD4G   2CDCE4   1.000000   RCDCE2   -1.000000
    CECD4G   OBJ      163.400000   UPBROW35299 1.000000
    CDCE5B   CD5R     1.000000   CE5R     -1.000000
    CDCE5B   2CDCE5   1.000000   RCDCE2   -1.000000
    CDCE5B   OBJ      9.440000   UPBROW35300 1.000000
    CECD5B   CE5R     1.000000   CD5R     -1.000000
    CECD5B   2CDCE5   1.000000   RCDCE2   -1.000000
    CECD5B   OBJ      9.440000   UPBROW35301 1.000000
    CDCE5G   CD5T     1.000000   CE5T     -1.000000
    CDCE5G   2CDCE5   1.000000   RCDCE2   -1.000000
    CDCE5G   OBJ      63.000000   UPBROW35302 1.000000
    CECD5G   CE5T     1.000000   CD5T     -1.000000
    CECD5G   2CDCE5   1.000000   RCDCE2   -1.000000
    CECD5G   OBJ      63.000000   UPBROW35303 1.000000
    CDCE-3   RCDCE3   100000.000000   PCDCE    1.000000
    CDCE-3   OBJ      2584.300000   UPBROW35304 1.000000
    CDCE1C   CD1R     1.000000   CE1R     -1.000000
    CDCE1C   3CDCE1   1.000000   RCDCE3   -1.000000
    CDCE1C   OBJ      597.950000   UPBROW35305 1.000000
    CECD1C   CE1R     1.000000   CD1R     -1.000000
    CECD1C   3CDCE1   1.000000   RCDCE3   -1.000000
    CECD1C   OBJ      597.950000   UPBROW35306 1.000000
    CDCE1H   CD1T     1.000000   CE1T     -1.000000
    CDCE1H   3CDCE1   1.000000   RCDCE3   -1.000000
    CDCE1H   OBJ      4068.300000   UPBROW35307 1.000000
    CECD1H   CE1T     1.000000   CD1T     -1.000000
    CECD1H   3CDCE1   1.000000   RCDCE3   -1.000000
    CECD1H   OBJ      4068.300000   UPBROW35308 1.000000
    CDCE2C   CD2R     1.000000   CE2R     -1.000000
    CDCE2C   3CDCE2   1.000000   RCDCE3   -1.000000
    CDCE2C   OBJ      230.530000   UPBROW35309 1.000000
    CECD2C   CE2R     1.000000   CD2R     -1.000000
    CECD2C   3CDCE2   1.000000   RCDCE3   -1.000000
    CECD2C   OBJ      230.530000   UPBROW35310 1.000000
    CDCE2H   CD2T     1.000000   CE2T     -1.000000
    CDCE2H   3CDCE2   1.000000   RCDCE3   -1.000000
    CDCE2H   OBJ      1568.500000   UPBROW35311 1.000000
    CECD2H   CE2T     1.000000   CD2T     -1.000000
    CECD2H   3CDCE2   1.000000   RCDCE3   -1.000000
    CECD2H   OBJ      1568.500000   UPBROW35312 1.000000
    CDCE3C   CD3R     1.000000   CE3R     -1.000000
    CDCE3C   3CDCE3   1.000000   RCDCE3   -1.000000
    CDCE3C   OBJ      63.500000   UPBROW35313 1.000000
    CECD3C   CE3R     1.000000   CD3R     -1.000000
    CECD3C   3CDCE3   1.000000   RCDCE3   -1.000000
    CECD3C   OBJ      63.500000   UPBROW35314 1.000000
    CDCE3H   CD3T     1.000000   CE3T     -1.000000
    CDCE3H   3CDCE3   1.000000   RCDCE3   -1.000000
    CDCE3H   OBJ      423.820000   UPBROW35315 1.000000
    CECD3H   CE3T     1.000000   CD3T     -1.000000
    CECD3H   3CDCE3   1.000000   RCDCE3   -1.000000
    CECD3H   OBJ      423.820000   UPBROW35316 1.000000
    CDCE4C   CD4R     1.000000   CE4R     -1.000000
    CDCE4C   3CDCE4   1.000000   RCDCE3   -1.000000
    CDCE4C   OBJ      24.480000   UPBROW35317 1.000000
    CECD4C   CE4R     1.000000   CD4R     -1.000000
    CECD4C   3CDCE4   1.000000   RCDCE3   -1.000000
    CECD4C   OBJ      24.480000   UPBROW35318 1.000000
    CDCE4H   CD4T     1.000000   CE4T     -1.000000
    CDCE4H   3CDCE4   1.000000   RCDCE3   -1.000000
    CDCE4H   OBJ      163.400000   UPBROW35319 1.000000
    CECD4H   CE4T     1.000000   CD4T     -1.000000
    CECD4H   3CDCE4   1.000000   RCDCE3   -1.000000
    CECD4H   OBJ      163.400000   UPBROW35320 1.000000
    CDCE5C   CD5R     1.000000   CE5R     -1.000000
    CDCE5C   3CDCE5   1.000000   RCDCE3   -1.000000
    CDCE5C   OBJ      9.440000   UPBROW35321 1.000000
    CECD5C   CE5R     1.000000   CD5R     -1.000000
    CECD5C   3CDCE5   1.000000   RCDCE3   -1.000000
    CECD5C   OBJ      9.440000   UPBROW35322 1.000000
    CDCE5H   CD5T     1.000000   CE5T     -1.000000
    CDCE5H   3CDCE5   1.000000   RCDCE3   -1.000000
    CDCE5H   OBJ      63.000000   UPBROW35323 1.000000
    CECD5H   CE5T     1.000000   CD5T     -1.000000
    CECD5H   3CDCE5   1.000000   RCDCE3   -1.000000
    CECD5H   OBJ      63.000000   UPBROW35324 1.000000
    CDCE-4   RCDCE4   100000.000000   PCDCE    1.000000
    CDCE-4   UPBROW35325 1.000000
    CDCE1D   CD1R     1.000000   CE1R     -1.000000
    CDCE1D   4CDCE1   1.000000   RCDCE4   -1.000000
    CDCE1D   OBJ      597.950000   UPBROW35326 1.000000
    CECD1D   CE1R     1.000000   CD1R     -1.000000
    CECD1D   4CDCE1   1.000000   RCDCE4   -1.000000
    CECD1D   OBJ      597.950000   UPBROW35327 1.000000
    CDCE1I   CD1T     1.000000   CE1T     -1.000000
    CDCE1I   4CDCE1   1.000000   RCDCE4   -1.000000
    CDCE1I   OBJ      4068.300000   UPBROW35328 1.000000
    CECD1I   CE1T     1.000000   CD1T     -1.000000
    CECD1I   4CDCE1   1.000000   RCDCE4   -1.000000
    CECD1I   OBJ      4068.300000   UPBROW35329 1.000000
    CDCE2D   CD2R     1.000000   CE2R     -1.000000
    CDCE2D   4CDCE2   1.000000   RCDCE4   -1.000000
    CDCE2D   OBJ      230.530000   UPBROW35330 1.000000
    CECD2D   CE2R     1.000000   CD2R     -1.000000
    CECD2D   4CDCE2   1.000000   RCDCE4   -1.000000
    CECD2D   OBJ      230.530000   UPBROW35331 1.000000
    CDCE2I   CD2T     1.000000   CE2T     -1.000000
    CDCE2I   4CDCE2   1.000000   RCDCE4   -1.000000
    CDCE2I   OBJ      1568.500000   UPBROW35332 1.000000
    CECD2I   CE2T     1.000000   CD2T     -1.000000
    CECD2I   4CDCE2   1.000000   RCDCE4   -1.000000
    CECD2I   OBJ      1568.500000   UPBROW35333 1.000000
    CDCE3D   CD3R     1.000000   CE3R     -1.000000
    CDCE3D   4CDCE3   1.000000   RCDCE4   -1.000000
    CDCE3D   OBJ      88.880000   UPBROW35334 1.000000
    CECD3D   CE3R     1.000000   CD3R     -1.000000
    CECD3D   4CDCE3   1.000000   RCDCE4   -1.000000
    CECD3D   OBJ      88.880000   UPBROW35335 1.000000
    CDCE3I   CD3T     1.000000   CE3T     -1.000000
    CDCE3I   4CDCE3   1.000000   RCDCE4   -1.000000
    CDCE3I   OBJ      604.720000   UPBROW35336 1.000000
    CECD3I   CE3T     1.000000   CD3T     -1.000000
    CECD3I   4CDCE3   1.000000   RCDCE4   -1.000000
    CECD3I   OBJ      604.720000   UPBROW35337 1.000000
    CDCE4D   CD4R     1.000000   CE4R     -1.000000
    CDCE4D   4CDCE4   1.000000   RCDCE4   -1.000000
    CDCE4D   OBJ      34.270000   UPBROW35338 1.000000
    CECD4D   CE4R     1.000000   CD4R     -1.000000
    CECD4D   4CDCE4   1.000000   RCDCE4   -1.000000
    CECD4D   OBJ      34.270000   UPBROW35339 1.000000
    CDCE4I   CD4T     1.000000   CE4T     -1.000000
    CDCE4I   4CDCE4   1.000000   RCDCE4   -1.000000
    CDCE4I   OBJ      233.150000   UPBROW35340 1.000000
    CECD4I   CE4T     1.000000   CD4T     -1.000000
    CECD4I   4CDCE4   1.000000   RCDCE4   -1.000000
    CECD4I   OBJ      233.150000   UPBROW35341 1.000000
    CDCE5D   CD5R     1.000000   CE5R     -1.000000
    CDCE5D   4CDCE5   1.000000   RCDCE4   -1.000000
    CDCE5D   OBJ      13.210000   UPBROW35342 1.000000
    CECD5D   CE5R     1.000000   CD5R     -1.000000
    CECD5D   4CDCE5   1.000000   RCDCE4   -1.000000
    CECD5D   OBJ      13.210000   UPBROW35343 1.000000
    CDCE5I   CD5T     1.000000   CE5T     -1.000000
    CDCE5I   4CDCE5   1.000000   RCDCE4   -1.000000
    CDCE5I   OBJ      89.890000   UPBROW35344 1.000000
    CECD5I   CE5T     1.000000   CD5T     -1.000000
    CECD5I   4CDCE5   1.000000   RCDCE4   -1.000000
    CECD5I   OBJ      89.890000   UPBROW35345 1.000000
    CECF-1   RCECF1   100000.000000   PCECF    1.000000
    CECF-1   OBJ      28252.000000   UPBROW35346 1.000000
    CECF1A   CE1R     1.000000   CF1R     -1.000000
    CECF1A   1CECF1   1.000000   RCECF1   -1.000000
    CECF1A   OBJ      694.190000   UPBROW35347 1.000000
    CFCE1A   CF1R     1.000000   CE1R     -1.000000
    CFCE1A   1CECF1   1.000000   RCECF1   -1.000000
    CFCE1A   OBJ      694.190000   UPBROW35348 1.000000
    CECF1F   CE1T     1.000000   CF1T     -1.000000
    CECF1F   1CECF1   1.000000   RCECF1   -1.000000
    CECF1F   OBJ      4633.300000   UPBROW35349 1.000000
    CFCE1F   CF1T     1.000000   CE1T     -1.000000
    CFCE1F   1CECF1   1.000000   RCECF1   -1.000000
    CFCE1F   OBJ      4633.300000   UPBROW35350 1.000000
    CECF2A   CE2R     1.000000   CF2R     -1.000000
    CECF2A   1CECF2   1.000000   RCECF1   -1.000000
    CECF2A   OBJ      267.640000   UPBROW35351 1.000000
    CFCE2A   CF2R     1.000000   CE2R     -1.000000
    CFCE2A   1CECF2   1.000000   RCECF1   -1.000000
    CFCE2A   OBJ      267.640000   UPBROW35352 1.000000
    CECF2F   CE2T     1.000000   CF2T     -1.000000
    CECF2F   1CECF2   1.000000   RCECF1   -1.000000
    CECF2F   OBJ      1786.300000   UPBROW35353 1.000000
    CFCE2F   CF2T     1.000000   CE2T     -1.000000
    CFCE2F   1CECF2   1.000000   RCECF1   -1.000000
    CFCE2F   OBJ      1786.300000   UPBROW35354 1.000000
    CECF3A   CE3R     1.000000   CF3R     -1.000000
    CECF3A   1CECF3   1.000000   RCECF1   -1.000000
    CECF3A   OBJ      103.190000   UPBROW35355 1.000000
    CFCE3A   CF3R     1.000000   CE3R     -1.000000
    CFCE3A   1CECF3   1.000000   RCECF1   -1.000000
    CFCE3A   OBJ      103.190000   UPBROW35356 1.000000
    CECF3F   CE3T     1.000000   CF3T     -1.000000
    CECF3F   1CECF3   1.000000   RCECF1   -1.000000
    CECF3F   OBJ      688.710000   UPBROW35357 1.000000
    CFCE3F   CF3T     1.000000   CE3T     -1.000000
    CFCE3F   1CECF3   1.000000   RCECF1   -1.000000
    CFCE3F   OBJ      688.710000   UPBROW35358 1.000000
    CECF4A   CE4R     1.000000   CF4R     -1.000000
    CECF4A   1CECF4   1.000000   RCECF1   -1.000000
    CECF4A   OBJ      39.780000   UPBROW35359 1.000000
    CFCE4A   CF4R     1.000000   CE4R     -1.000000
    CFCE4A   1CECF4   1.000000   RCECF1   -1.000000
    CFCE4A   OBJ      39.780000   UPBROW35360 1.000000
    CECF4F   CE4T     1.000000   CF4T     -1.000000
    CECF4F   1CECF4   1.000000   RCECF1   -1.000000
    CECF4F   OBJ      265.530000   UPBROW35361 1.000000
    CFCE4F   CF4T     1.000000   CE4T     -1.000000
    CFCE4F   1CECF4   1.000000   RCECF1   -1.000000
    CFCE4F   OBJ      265.530000   UPBROW35362 1.000000
    CECF5A   CE5R     1.000000   CF5R     -1.000000
    CECF5A   1CECF5   1.000000   RCECF1   -1.000000
    CECF5A   OBJ      15.340000   UPBROW35363 1.000000
    CFCE5A   CF5R     1.000000   CE5R     -1.000000
    CFCE5A   1CECF5   1.000000   RCECF1   -1.000000
    CFCE5A   OBJ      15.340000   UPBROW35364 1.000000
    CECF5F   CE5T     1.000000   CF5T     -1.000000
    CECF5F   1CECF5   1.000000   RCECF1   -1.000000
    CECF5F   OBJ      102.370000   UPBROW35365 1.000000
    CFCE5F   CF5T     1.000000   CE5T     -1.000000
    CFCE5F   1CECF5   1.000000   RCECF1   -1.000000
    CFCE5F   OBJ      102.370000   UPBROW35366 1.000000
    CECF-2   RCECF2   100000.000000   PCECF    1.000000
    CECF-2   OBJ      10892.000000   UPBROW35367 1.000000
    CECF1B   CE1R     1.000000   CF1R     -1.000000
    CECF1B   2CECF1   1.000000   RCECF2   -1.000000
    CECF1B   OBJ      971.740000   UPBROW35368 1.000000
    CFCE1B   CF1R     1.000000   CE1R     -1.000000
    CFCE1B   2CECF1   1.000000   RCECF2   -1.000000
    CFCE1B   OBJ      971.740000   UPBROW35369 1.000000
    CECF1G   CE1T     1.000000   CF1T     -1.000000
    CECF1G   2CECF1   1.000000   RCECF2   -1.000000
    CECF1G   OBJ      6610.900000   UPBROW35370 1.000000
    CFCE1G   CF1T     1.000000   CE1T     -1.000000
    CFCE1G   2CECF1   1.000000   RCECF2   -1.000000
    CFCE1G   OBJ      6610.900000   UPBROW35371 1.000000
    CECF2B   CE2R     1.000000   CF2R     -1.000000
    CECF2B   2CECF2   1.000000   RCECF2   -1.000000
    CECF2B   OBJ      267.640000   UPBROW35372 1.000000
    CFCE2B   CF2R     1.000000   CE2R     -1.000000
    CFCE2B   2CECF2   1.000000   RCECF2   -1.000000
    CFCE2B   OBJ      267.640000   UPBROW35373 1.000000
    CECF2G   CE2T     1.000000   CF2T     -1.000000
    CECF2G   2CECF2   1.000000   RCECF2   -1.000000
    CECF2G   OBJ      1786.300000   UPBROW35374 1.000000
    CFCE2G   CF2T     1.000000   CE2T     -1.000000
    CFCE2G   2CECF2   1.000000   RCECF2   -1.000000
    CFCE2G   OBJ      1786.300000   UPBROW35375 1.000000
    CECF3B   CE3R     1.000000   CF3R     -1.000000
    CECF3B   2CECF3   1.000000   RCECF2   -1.000000
    CECF3B   OBJ      103.190000   UPBROW35376 1.000000
    CFCE3B   CF3R     1.000000   CE3R     -1.000000
    CFCE3B   2CECF3   1.000000   RCECF2   -1.000000
    CFCE3B   OBJ      103.190000   UPBROW35377 1.000000
    CECF3G   CE3T     1.000000   CF3T     -1.000000
    CECF3G   2CECF3   1.000000   RCECF2   -1.000000
    CECF3G   OBJ      688.710000   UPBROW35378 1.000000
    CFCE3G   CF3T     1.000000   CE3T     -1.000000
    CFCE3G   2CECF3   1.000000   RCECF2   -1.000000
    CFCE3G   OBJ      688.710000   UPBROW35379 1.000000
    CECF4B   CE4R     1.000000   CF4R     -1.000000
    CECF4B   2CECF4   1.000000   RCECF2   -1.000000
    CECF4B   OBJ      39.780000   UPBROW35380 1.000000
    CFCE4B   CF4R     1.000000   CE4R     -1.000000
    CFCE4B   2CECF4   1.000000   RCECF2   -1.000000
    CFCE4B   OBJ      39.780000   UPBROW35381 1.000000
    CECF4G   CE4T     1.000000   CF4T     -1.000000
    CECF4G   2CECF4   1.000000   RCECF2   -1.000000
    CECF4G   OBJ      265.530000   UPBROW35382 1.000000
    CFCE4G   CF4T     1.000000   CE4T     -1.000000
    CFCE4G   2CECF4   1.000000   RCECF2   -1.000000
    CFCE4G   OBJ      265.530000   UPBROW35383 1.000000
    CECF5B   CE5R     1.000000   CF5R     -1.000000
    CECF5B   2CECF5   1.000000   RCECF2   -1.000000
    CECF5B   OBJ      15.340000   UPBROW35384 1.000000
    CFCE5B   CF5R     1.000000   CE5R     -1.000000
    CFCE5B   2CECF5   1.000000   RCECF2   -1.000000
    CFCE5B   OBJ      15.340000   UPBROW35385 1.000000
    CECF5G   CE5T     1.000000   CF5T     -1.000000
    CECF5G   2CECF5   1.000000   RCECF2   -1.000000
    CECF5G   OBJ      102.370000   UPBROW35386 1.000000
    CFCE5G   CF5T     1.000000   CE5T     -1.000000
    CFCE5G   2CECF5   1.000000   RCECF2   -1.000000
    CFCE5G   OBJ      102.370000   UPBROW35387 1.000000
    CECF-3   RCECF3   100000.000000   PCECF    1.000000
    CECF-3   OBJ      4199.500000   UPBROW35388 1.000000
    CECF1C   CE1R     1.000000   CF1R     -1.000000
    CECF1C   3CECF1   1.000000   RCECF3   -1.000000
    CECF1C   OBJ      971.740000   UPBROW35389 1.000000
    CFCE1C   CF1R     1.000000   CE1R     -1.000000
    CFCE1C   3CECF1   1.000000   RCECF3   -1.000000
    CFCE1C   OBJ      971.740000   UPBROW35390 1.000000
    CECF1H   CE1T     1.000000   CF1T     -1.000000
    CECF1H   3CECF1   1.000000   RCECF3   -1.000000
    CECF1H   OBJ      6610.900000   UPBROW35391 1.000000
    CFCE1H   CF1T     1.000000   CE1T     -1.000000
    CFCE1H   3CECF1   1.000000   RCECF3   -1.000000
    CFCE1H   OBJ      6610.900000   UPBROW35392 1.000000
    CECF2C   CE2R     1.000000   CF2R     -1.000000
    CECF2C   3CECF2   1.000000   RCECF3   -1.000000
    CECF2C   OBJ      374.650000   UPBROW35393 1.000000
    CFCE2C   CF2R     1.000000   CE2R     -1.000000
    CFCE2C   3CECF2   1.000000   RCECF3   -1.000000
    CFCE2C   OBJ      374.650000   UPBROW35394 1.000000
    CECF2H   CE2T     1.000000   CF2T     -1.000000
    CECF2H   3CECF2   1.000000   RCECF3   -1.000000
    CECF2H   OBJ      2548.800000   UPBROW35395 1.000000
    CFCE2H   CF2T     1.000000   CE2T     -1.000000
    CFCE2H   3CECF2   1.000000   RCECF3   -1.000000
    CFCE2H   OBJ      2548.800000   UPBROW35396 1.000000
    CECF3C   CE3R     1.000000   CF3R     -1.000000
    CECF3C   3CECF3   1.000000   RCECF3   -1.000000
    CECF3C   OBJ      103.190000   UPBROW35397 1.000000
    CFCE3C   CF3R     1.000000   CE3R     -1.000000
    CFCE3C   3CECF3   1.000000   RCECF3   -1.000000
    CFCE3C   OBJ      103.190000   UPBROW35398 1.000000
    CECF3H   CE3T     1.000000   CF3T     -1.000000
    CECF3H   3CECF3   1.000000   RCECF3   -1.000000
    CECF3H   OBJ      688.710000   UPBROW35399 1.000000
    CFCE3H   CF3T     1.000000   CE3T     -1.000000
    CFCE3H   3CECF3   1.000000   RCECF3   -1.000000
    CFCE3H   OBJ      688.710000   UPBROW35400 1.000000
    CECF4C   CE4R     1.000000   CF4R     -1.000000
    CECF4C   3CECF4   1.000000   RCECF3   -1.000000
    CECF4C   OBJ      39.780000   UPBROW35401 1.000000
    CFCE4C   CF4R     1.000000   CE4R     -1.000000
    CFCE4C   3CECF4   1.000000   RCECF3   -1.000000
    CFCE4C   OBJ      39.780000   UPBROW35402 1.000000
    CECF4H   CE4T     1.000000   CF4T     -1.000000
    CECF4H   3CECF4   1.000000   RCECF3   -1.000000
    CECF4H   OBJ      265.530000   UPBROW35403 1.000000
    CFCE4H   CF4T     1.000000   CE4T     -1.000000
    CFCE4H   3CECF4   1.000000   RCECF3   -1.000000
    CFCE4H   OBJ      265.530000   UPBROW35404 1.000000
    CECF5C   CE5R     1.000000   CF5R     -1.000000
    CECF5C   3CECF5   1.000000   RCECF3   -1.000000
    CECF5C   OBJ      15.340000   UPBROW35405 1.000000
    CFCE5C   CF5R     1.000000   CE5R     -1.000000
    CFCE5C   3CECF5   1.000000   RCECF3   -1.000000
    CFCE5C   OBJ      15.340000   UPBROW35406 1.000000
    CECF5H   CE5T     1.000000   CF5T     -1.000000
    CECF5H   3CECF5   1.000000   RCECF3   -1.000000
    CECF5H   OBJ      102.370000   UPBROW35407 1.000000
    CFCE5H   CF5T     1.000000   CE5T     -1.000000
    CFCE5H   3CECF5   1.000000   RCECF3   -1.000000
    CFCE5H   OBJ      102.370000   UPBROW35408 1.000000
    CECF-4   RCECF4   100000.000000   PCECF    1.000000
    CECF-4   UPBROW35409 1.000000
    CECF1D   CE1R     1.000000   CF1R     -1.000000
    CECF1D   4CECF1   1.000000   RCECF4   -1.000000
    CECF1D   OBJ      971.740000   UPBROW35410 1.000000
    CFCE1D   CF1R     1.000000   CE1R     -1.000000
    CFCE1D   4CECF1   1.000000   RCECF4   -1.000000
    CFCE1D   OBJ      971.740000   UPBROW35411 1.000000
    CECF1I   CE1T     1.000000   CF1T     -1.000000
    CECF1I   4CECF1   1.000000   RCECF4   -1.000000
    CECF1I   OBJ      6610.900000   UPBROW35412 1.000000
    CFCE1I   CF1T     1.000000   CE1T     -1.000000
    CFCE1I   4CECF1   1.000000   RCECF4   -1.000000
    CFCE1I   OBJ      6610.900000   UPBROW35413 1.000000
    CECF2D   CE2R     1.000000   CF2R     -1.000000
    CECF2D   4CECF2   1.000000   RCECF4   -1.000000
    CECF2D   OBJ      374.650000   UPBROW35414 1.000000
    CFCE2D   CF2R     1.000000   CE2R     -1.000000
    CFCE2D   4CECF2   1.000000   RCECF4   -1.000000
    CFCE2D   OBJ      374.650000   UPBROW35415 1.000000
    CECF2I   CE2T     1.000000   CF2T     -1.000000
    CECF2I   4CECF2   1.000000   RCECF4   -1.000000
    CECF2I   OBJ      2548.800000   UPBROW35416 1.000000
    CFCE2I   CF2T     1.000000   CE2T     -1.000000
    CFCE2I   4CECF2   1.000000   RCECF4   -1.000000
    CFCE2I   OBJ      2548.800000   UPBROW35417 1.000000
    CECF3D   CE3R     1.000000   CF3R     -1.000000
    CECF3D   4CECF3   1.000000   RCECF4   -1.000000
    CECF3D   OBJ      144.440000   UPBROW35418 1.000000
    CFCE3D   CF3R     1.000000   CE3R     -1.000000
    CFCE3D   4CECF3   1.000000   RCECF4   -1.000000
    CFCE3D   OBJ      144.440000   UPBROW35419 1.000000
    CECF3I   CE3T     1.000000   CF3T     -1.000000
    CECF3I   4CECF3   1.000000   RCECF4   -1.000000
    CECF3I   OBJ      982.680000   UPBROW35420 1.000000
    CFCE3I   CF3T     1.000000   CE3T     -1.000000
    CFCE3I   4CECF3   1.000000   RCECF4   -1.000000
    CFCE3I   OBJ      982.680000   UPBROW35421 1.000000
    CECF4D   CE4R     1.000000   CF4R     -1.000000
    CECF4D   4CECF4   1.000000   RCECF4   -1.000000
    CECF4D   OBJ      55.690000   UPBROW35422 1.000000
    CFCE4D   CF4R     1.000000   CE4R     -1.000000
    CFCE4D   4CECF4   1.000000   RCECF4   -1.000000
    CFCE4D   OBJ      55.690000   UPBROW35423 1.000000
    CECF4I   CE4T     1.000000   CF4T     -1.000000
    CECF4I   4CECF4   1.000000   RCECF4   -1.000000
    CECF4I   OBJ      378.860000   UPBROW35424 1.000000
    CFCE4I   CF4T     1.000000   CE4T     -1.000000
    CFCE4I   4CECF4   1.000000   RCECF4   -1.000000
    CFCE4I   OBJ      378.860000   UPBROW35425 1.000000
    CECF5D   CE5R     1.000000   CF5R     -1.000000
    CECF5D   4CECF5   1.000000   RCECF4   -1.000000
    CECF5D   OBJ      21.470000   UPBROW35426 1.000000
    CFCE5D   CF5R     1.000000   CE5R     -1.000000
    CFCE5D   4CECF5   1.000000   RCECF4   -1.000000
    CFCE5D   OBJ      21.470000   UPBROW35427 1.000000
    CECF5I   CE5T     1.000000   CF5T     -1.000000
    CECF5I   4CECF5   1.000000   RCECF4   -1.000000
    CECF5I   OBJ      146.070000   UPBROW35428 1.000000
    CFCE5I   CF5T     1.000000   CE5T     -1.000000
    CFCE5I   4CECF5   1.000000   RCECF4   -1.000000
    CFCE5I   OBJ      146.070000   UPBROW35429 1.000000
    CSDU-1   RCSDU1   100000.000000   PCSDU    1.000000
    CSDU-1   OBJ      48898.000000   UPBROW35430 1.000000
    CSDU1A   CS1R     1.000000   DU1R     -1.000000
    CSDU1A   1CSDU1   1.000000   RCSDU1   -1.000000
    CSDU1A   OBJ      1202.100000   UPBROW35431 1.000000
    DUCS1A   DU1R     1.000000   CS1R     -1.000000
    DUCS1A   1CSDU1   1.000000   RCSDU1   -1.000000
    DUCS1A   OBJ      1202.100000   UPBROW35432 1.000000
    CSDU1F   CS1T     1.000000   DU1T     -1.000000
    CSDU1F   1CSDU1   1.000000   RCSDU1   -1.000000
    CSDU1F   OBJ      8019.200000   UPBROW35433 1.000000
    DUCS1F   DU1T     1.000000   CS1T     -1.000000
    DUCS1F   1CSDU1   1.000000   RCSDU1   -1.000000
    DUCS1F   OBJ      8019.200000   UPBROW35434 1.000000
    CSDU2A   CS2R     1.000000   DU2R     -1.000000
    CSDU2A   1CSDU2   1.000000   RCSDU1   -1.000000
    CSDU2A   OBJ      463.460000   UPBROW35435 1.000000
    DUCS2A   DU2R     1.000000   CS2R     -1.000000
    DUCS2A   1CSDU2   1.000000   RCSDU1   -1.000000
    DUCS2A   OBJ      463.460000   UPBROW35436 1.000000
    CSDU2F   CS2T     1.000000   DU2T     -1.000000
    CSDU2F   1CSDU2   1.000000   RCSDU1   -1.000000
    CSDU2F   OBJ      3091.700000   UPBROW35437 1.000000
    DUCS2F   DU2T     1.000000   CS2T     -1.000000
    DUCS2F   1CSDU2   1.000000   RCSDU1   -1.000000
    DUCS2F   OBJ      3091.700000   UPBROW35438 1.000000
    CSDU3A   CS3R     1.000000   DU3R     -1.000000
    CSDU3A   1CSDU3   1.000000   RCSDU1   -1.000000
    CSDU3A   OBJ      178.690000   UPBROW35439 1.000000
    DUCS3A   DU3R     1.000000   CS3R     -1.000000
    DUCS3A   1CSDU3   1.000000   RCSDU1   -1.000000
    DUCS3A   OBJ      178.690000   UPBROW35440 1.000000
    CSDU3F   CS3T     1.000000   DU3T     -1.000000
    CSDU3F   1CSDU3   1.000000   RCSDU1   -1.000000
    CSDU3F   OBJ      1192.000000   UPBROW35441 1.000000
    DUCS3F   DU3T     1.000000   CS3T     -1.000000
    DUCS3F   1CSDU3   1.000000   RCSDU1   -1.000000
    DUCS3F   OBJ      1192.000000   UPBROW35442 1.000000
    CSDU4A   CS4R     1.000000   DU4R     -1.000000
    CSDU4A   1CSDU4   1.000000   RCSDU1   -1.000000
    CSDU4A   OBJ      68.890000   UPBROW35443 1.000000
    DUCS4A   DU4R     1.000000   CS4R     -1.000000
    DUCS4A   1CSDU4   1.000000   RCSDU1   -1.000000
    DUCS4A   OBJ      68.890000   UPBROW35444 1.000000
    CSDU4F   CS4T     1.000000   DU4T     -1.000000
    CSDU4F   1CSDU4   1.000000   RCSDU1   -1.000000
    CSDU4F   OBJ      459.570000   UPBROW35445 1.000000
    DUCS4F   DU4T     1.000000   CS4T     -1.000000
    DUCS4F   1CSDU4   1.000000   RCSDU1   -1.000000
    DUCS4F   OBJ      459.570000   UPBROW35446 1.000000
    CSDU5A   CS5R     1.000000   DU5R     -1.000000
    CSDU5A   1CSDU5   1.000000   RCSDU1   -1.000000
    CSDU5A   OBJ      26.560000   UPBROW35447 1.000000
    DUCS5A   DU5R     1.000000   CS5R     -1.000000
    DUCS5A   1CSDU5   1.000000   RCSDU1   -1.000000
    DUCS5A   OBJ      26.560000   UPBROW35448 1.000000
    CSDU5F   CS5T     1.000000   DU5T     -1.000000
    CSDU5F   1CSDU5   1.000000   RCSDU1   -1.000000
    CSDU5F   OBJ      177.180000   UPBROW35449 1.000000
    DUCS5F   DU5T     1.000000   CS5T     -1.000000
    DUCS5F   1CSDU5   1.000000   RCSDU1   -1.000000
    DUCS5F   OBJ      177.180000   UPBROW35450 1.000000
    CSDU-2   RCSDU2   100000.000000   PCSDU    1.000000
    CSDU-2   OBJ      18852.000000   UPBROW35451 1.000000
    CSDU1B   CS1R     1.000000   DU1R     -1.000000
    CSDU1B   2CSDU1   1.000000   RCSDU2   -1.000000
    CSDU1B   OBJ      1682.700000   UPBROW35452 1.000000
    DUCS1B   DU1R     1.000000   CS1R     -1.000000
    DUCS1B   2CSDU1   1.000000   RCSDU2   -1.000000
    DUCS1B   OBJ      1682.700000   UPBROW35453 1.000000
    CSDU1G   CS1T     1.000000   DU1T     -1.000000
    CSDU1G   2CSDU1   1.000000   RCSDU2   -1.000000
    CSDU1G   OBJ      11442.000000   UPBROW35454 1.000000
    DUCS1G   DU1T     1.000000   CS1T     -1.000000
    DUCS1G   2CSDU1   1.000000   RCSDU2   -1.000000
    DUCS1G   OBJ      11442.000000   UPBROW35455 1.000000
    CSDU2B   CS2R     1.000000   DU2R     -1.000000
    CSDU2B   2CSDU2   1.000000   RCSDU2   -1.000000
    CSDU2B   OBJ      463.460000   UPBROW35456 1.000000
    DUCS2B   DU2R     1.000000   CS2R     -1.000000
    DUCS2B   2CSDU2   1.000000   RCSDU2   -1.000000
    DUCS2B   OBJ      463.460000   UPBROW35457 1.000000
    CSDU2G   CS2T     1.000000   DU2T     -1.000000
    CSDU2G   2CSDU2   1.000000   RCSDU2   -1.000000
    CSDU2G   OBJ      3091.700000   UPBROW35458 1.000000
    DUCS2G   DU2T     1.000000   CS2T     -1.000000
    DUCS2G   2CSDU2   1.000000   RCSDU2   -1.000000
    DUCS2G   OBJ      3091.700000   UPBROW35459 1.000000
    CSDU3B   CS3R     1.000000   DU3R     -1.000000
    CSDU3B   2CSDU3   1.000000   RCSDU2   -1.000000
    CSDU3B   OBJ      178.690000   UPBROW35460 1.000000
    DUCS3B   DU3R     1.000000   CS3R     -1.000000
    DUCS3B   2CSDU3   1.000000   RCSDU2   -1.000000
    DUCS3B   OBJ      178.690000   UPBROW35461 1.000000
    CSDU3G   CS3T     1.000000   DU3T     -1.000000
    CSDU3G   2CSDU3   1.000000   RCSDU2   -1.000000
    CSDU3G   OBJ      1192.000000   UPBROW35462 1.000000
    DUCS3G   DU3T     1.000000   CS3T     -1.000000
    DUCS3G   2CSDU3   1.000000   RCSDU2   -1.000000
    DUCS3G   OBJ      1192.000000   UPBROW35463 1.000000
    CSDU4B   CS4R     1.000000   DU4R     -1.000000
    CSDU4B   2CSDU4   1.000000   RCSDU2   -1.000000
    CSDU4B   OBJ      68.890000   UPBROW35464 1.000000
    DUCS4B   DU4R     1.000000   CS4R     -1.000000
    DUCS4B   2CSDU4   1.000000   RCSDU2   -1.000000
    DUCS4B   OBJ      68.890000   UPBROW35465 1.000000
    CSDU4G   CS4T     1.000000   DU4T     -1.000000
    CSDU4G   2CSDU4   1.000000   RCSDU2   -1.000000
    CSDU4G   OBJ      459.570000   UPBROW35466 1.000000
    DUCS4G   DU4T     1.000000   CS4T     -1.000000
    DUCS4G   2CSDU4   1.000000   RCSDU2   -1.000000
    DUCS4G   OBJ      459.570000   UPBROW35467 1.000000
    CSDU5B   CS5R     1.000000   DU5R     -1.000000
    CSDU5B   2CSDU5   1.000000   RCSDU2   -1.000000
    CSDU5B   OBJ      26.560000   UPBROW35468 1.000000
    DUCS5B   DU5R     1.000000   CS5R     -1.000000
    DUCS5B   2CSDU5   1.000000   RCSDU2   -1.000000
    DUCS5B   OBJ      26.560000   UPBROW35469 1.000000
    CSDU5G   CS5T     1.000000   DU5T     -1.000000
    CSDU5G   2CSDU5   1.000000   RCSDU2   -1.000000
    CSDU5G   OBJ      177.180000   UPBROW35470 1.000000
    DUCS5G   DU5T     1.000000   CS5T     -1.000000
    DUCS5G   2CSDU5   1.000000   RCSDU2   -1.000000
    DUCS5G   OBJ      177.180000   UPBROW35471 1.000000
    CSDU-3   RCSDU3   100000.000000   PCSDU    1.000000
    CSDU-3   OBJ      7268.300000   UPBROW35472 1.000000
    CSDU1C   CS1R     1.000000   DU1R     -1.000000
    CSDU1C   3CSDU1   1.000000   RCSDU3   -1.000000
    CSDU1C   OBJ      1682.700000   UPBROW35473 1.000000
    DUCS1C   DU1R     1.000000   CS1R     -1.000000
    DUCS1C   3CSDU1   1.000000   RCSDU3   -1.000000
    DUCS1C   OBJ      1682.700000   UPBROW35474 1.000000
    CSDU1H   CS1T     1.000000   DU1T     -1.000000
    CSDU1H   3CSDU1   1.000000   RCSDU3   -1.000000
    CSDU1H   OBJ      11442.000000   UPBROW35475 1.000000
    DUCS1H   DU1T     1.000000   CS1T     -1.000000
    DUCS1H   3CSDU1   1.000000   RCSDU3   -1.000000
    DUCS1H   OBJ      11442.000000   UPBROW35476 1.000000
    CSDU2C   CS2R     1.000000   DU2R     -1.000000
    CSDU2C   3CSDU2   1.000000   RCSDU3   -1.000000
    CSDU2C   OBJ      648.750000   UPBROW35477 1.000000
    DUCS2C   DU2R     1.000000   CS2R     -1.000000
    DUCS2C   3CSDU2   1.000000   RCSDU3   -1.000000
    DUCS2C   OBJ      648.750000   UPBROW35478 1.000000
    CSDU2H   CS2T     1.000000   DU2T     -1.000000
    CSDU2H   3CSDU2   1.000000   RCSDU3   -1.000000
    CSDU2H   OBJ      4411.500000   UPBROW35479 1.000000
    DUCS2H   DU2T     1.000000   CS2T     -1.000000
    DUCS2H   3CSDU2   1.000000   RCSDU3   -1.000000
    DUCS2H   OBJ      4411.500000   UPBROW35480 1.000000
    CSDU3C   CS3R     1.000000   DU3R     -1.000000
    CSDU3C   3CSDU3   1.000000   RCSDU3   -1.000000
    CSDU3C   OBJ      178.690000   UPBROW35481 1.000000
    DUCS3C   DU3R     1.000000   CS3R     -1.000000
    DUCS3C   3CSDU3   1.000000   RCSDU3   -1.000000
    DUCS3C   OBJ      178.690000   UPBROW35482 1.000000
    CSDU3H   CS3T     1.000000   DU3T     -1.000000
    CSDU3H   3CSDU3   1.000000   RCSDU3   -1.000000
    CSDU3H   OBJ      1192.000000   UPBROW35483 1.000000
    DUCS3H   DU3T     1.000000   CS3T     -1.000000
    DUCS3H   3CSDU3   1.000000   RCSDU3   -1.000000
    DUCS3H   OBJ      1192.000000   UPBROW35484 1.000000
    CSDU4C   CS4R     1.000000   DU4R     -1.000000
    CSDU4C   3CSDU4   1.000000   RCSDU3   -1.000000
    CSDU4C   OBJ      68.890000   UPBROW35485 1.000000
    DUCS4C   DU4R     1.000000   CS4R     -1.000000
    DUCS4C   3CSDU4   1.000000   RCSDU3   -1.000000
    DUCS4C   OBJ      68.890000   UPBROW35486 1.000000
    CSDU4H   CS4T     1.000000   DU4T     -1.000000
    CSDU4H   3CSDU4   1.000000   RCSDU3   -1.000000
    CSDU4H   OBJ      459.570000   UPBROW35487 1.000000
    DUCS4H   DU4T     1.000000   CS4T     -1.000000
    DUCS4H   3CSDU4   1.000000   RCSDU3   -1.000000
    DUCS4H   OBJ      459.570000   UPBROW35488 1.000000
    CSDU5C   CS5R     1.000000   DU5R     -1.000000
    CSDU5C   3CSDU5   1.000000   RCSDU3   -1.000000
    CSDU5C   OBJ      26.560000   UPBROW35489 1.000000
    DUCS5C   DU5R     1.000000   CS5R     -1.000000
    DUCS5C   3CSDU5   1.000000   RCSDU3   -1.000000
    DUCS5C   OBJ      26.560000   UPBROW35490 1.000000
    CSDU5H   CS5T     1.000000   DU5T     -1.000000
    CSDU5H   3CSDU5   1.000000   RCSDU3   -1.000000
    CSDU5H   OBJ      177.180000   UPBROW35491 1.000000
    DUCS5H   DU5T     1.000000   CS5T     -1.000000
    DUCS5H   3CSDU5   1.000000   RCSDU3   -1.000000
    DUCS5H   OBJ      177.180000   UPBROW35492 1.000000
    CSDU-4   RCSDU4   100000.000000   PCSDU    1.000000
    CSDU-4   UPBROW35493 1.000000
    CSDU1D   CS1R     1.000000   DU1R     -1.000000
    CSDU1D   4CSDU1   1.000000   RCSDU4   -1.000000
    CSDU1D   OBJ      1682.700000   UPBROW35494 1.000000
    DUCS1D   DU1R     1.000000   CS1R     -1.000000
    DUCS1D   4CSDU1   1.000000   RCSDU4   -1.000000
    DUCS1D   OBJ      1682.700000   UPBROW35495 1.000000
    CSDU1I   CS1T     1.000000   DU1T     -1.000000
    CSDU1I   4CSDU1   1.000000   RCSDU4   -1.000000
    CSDU1I   OBJ      11442.000000   UPBROW35496 1.000000
    DUCS1I   DU1T     1.000000   CS1T     -1.000000
    DUCS1I   4CSDU1   1.000000   RCSDU4   -1.000000
    DUCS1I   OBJ      11442.000000   UPBROW35497 1.000000
    CSDU2D   CS2R     1.000000   DU2R     -1.000000
    CSDU2D   4CSDU2   1.000000   RCSDU4   -1.000000
    CSDU2D   OBJ      648.750000   UPBROW35498 1.000000
    DUCS2D   DU2R     1.000000   CS2R     -1.000000
    DUCS2D   4CSDU2   1.000000   RCSDU4   -1.000000
    DUCS2D   OBJ      648.750000   UPBROW35499 1.000000
    CSDU2I   CS2T     1.000000   DU2T     -1.000000
    CSDU2I   4CSDU2   1.000000   RCSDU4   -1.000000
    CSDU2I   OBJ      4411.500000   UPBROW35500 1.000000
    DUCS2I   DU2T     1.000000   CS2T     -1.000000
    DUCS2I   4CSDU2   1.000000   RCSDU4   -1.000000
    DUCS2I   OBJ      4411.500000   UPBROW35501 1.000000
    CSDU3D   CS3R     1.000000   DU3R     -1.000000
    CSDU3D   4CSDU3   1.000000   RCSDU4   -1.000000
    CSDU3D   OBJ      250.120000   UPBROW35502 1.000000
    DUCS3D   DU3R     1.000000   CS3R     -1.000000
    DUCS3D   4CSDU3   1.000000   RCSDU4   -1.000000
    DUCS3D   OBJ      250.120000   UPBROW35503 1.000000
    CSDU3I   CS3T     1.000000   DU3T     -1.000000
    CSDU3I   4CSDU3   1.000000   RCSDU4   -1.000000
    CSDU3I   OBJ      1700.800000   UPBROW35504 1.000000
    DUCS3I   DU3T     1.000000   CS3T     -1.000000
    DUCS3I   4CSDU3   1.000000   RCSDU4   -1.000000
    DUCS3I   OBJ      1700.800000   UPBROW35505 1.000000
    CSDU4D   CS4R     1.000000   DU4R     -1.000000
    CSDU4D   4CSDU4   1.000000   RCSDU4   -1.000000
    CSDU4D   OBJ      96.430000   UPBROW35506 1.000000
    DUCS4D   DU4R     1.000000   CS4R     -1.000000
    DUCS4D   4CSDU4   1.000000   RCSDU4   -1.000000
    DUCS4D   OBJ      96.430000   UPBROW35507 1.000000
    CSDU4I   CS4T     1.000000   DU4T     -1.000000
    CSDU4I   4CSDU4   1.000000   RCSDU4   -1.000000
    CSDU4I   OBJ      655.740000   UPBROW35508 1.000000
    DUCS4I   DU4T     1.000000   CS4T     -1.000000
    DUCS4I   4CSDU4   1.000000   RCSDU4   -1.000000
    DUCS4I   OBJ      655.740000   UPBROW35509 1.000000
    CSDU5D   CS5R     1.000000   DU5R     -1.000000
    CSDU5D   4CSDU5   1.000000   RCSDU4   -1.000000
    CSDU5D   OBJ      37.180000   UPBROW35510 1.000000
    DUCS5D   DU5R     1.000000   CS5R     -1.000000
    DUCS5D   4CSDU5   1.000000   RCSDU4   -1.000000
    DUCS5D   OBJ      37.180000   UPBROW35511 1.000000
    CSDU5I   CS5T     1.000000   DU5T     -1.000000
    CSDU5I   4CSDU5   1.000000   RCSDU4   -1.000000
    CSDU5I   OBJ      252.820000   UPBROW35512 1.000000
    DUCS5I   DU5T     1.000000   CS5T     -1.000000
    DUCS5I   4CSDU5   1.000000   RCSDU4   -1.000000
    DUCS5I   OBJ      252.820000   UPBROW35513 1.000000
    DHDI-1   RDHDI1   100000.000000   PDHDI    1.000000
    DHDI-1   OBJ      39242.000000   UPBROW35514 1.000000
    DHDI1A   DH1R     1.000000   DI1R     -1.000000
    DHDI1A   1DHDI1   1.000000   RDHDI1   -1.000000
    DHDI1A   OBJ      299.280000   UPBROW35515 1.000000
    DIDH1A   DI1R     1.000000   DH1R     -1.000000
    DIDH1A   1DHDI1   1.000000   RDHDI1   -1.000000
    DIDH1A   OBJ      299.280000   UPBROW35516 1.000000
    DHDI1F   DH1T     1.000000   DI1T     -1.000000
    DHDI1F   1DHDI1   1.000000   RDHDI1   -1.000000
    DHDI1F   OBJ      2034.100000   UPBROW35517 1.000000
    DIDH1F   DI1T     1.000000   DH1T     -1.000000
    DIDH1F   1DHDI1   1.000000   RDHDI1   -1.000000
    DIDH1F   OBJ      2034.100000   UPBROW35518 1.000000
    DHDI2A   DH2R     1.000000   DI2R     -1.000000
    DHDI2A   1DHDI2   1.000000   RDHDI1   -1.000000
    DHDI2A   OBJ      115.390000   UPBROW35519 1.000000
    DIDH2A   DI2R     1.000000   DH2R     -1.000000
    DIDH2A   1DHDI2   1.000000   RDHDI1   -1.000000
    DIDH2A   OBJ      115.390000   UPBROW35520 1.000000
    DHDI2F   DH2T     1.000000   DI2T     -1.000000
    DHDI2F   1DHDI2   1.000000   RDHDI1   -1.000000
    DHDI2F   OBJ      784.250000   UPBROW35521 1.000000
    DIDH2F   DI2T     1.000000   DH2T     -1.000000
    DIDH2F   1DHDI2   1.000000   RDHDI1   -1.000000
    DIDH2F   OBJ      784.250000   UPBROW35522 1.000000
    DHDI3A   DH3R     1.000000   DI3R     -1.000000
    DHDI3A   1DHDI3   1.000000   RDHDI1   -1.000000
    DHDI3A   OBJ      44.490000   UPBROW35523 1.000000
    DIDH3A   DI3R     1.000000   DH3R     -1.000000
    DIDH3A   1DHDI3   1.000000   RDHDI1   -1.000000
    DIDH3A   OBJ      44.490000   UPBROW35524 1.000000
    DHDI3F   DH3T     1.000000   DI3T     -1.000000
    DHDI3F   1DHDI3   1.000000   RDHDI1   -1.000000
    DHDI3F   OBJ      302.360000   UPBROW35525 1.000000
    DIDH3F   DI3T     1.000000   DH3T     -1.000000
    DIDH3F   1DHDI3   1.000000   RDHDI1   -1.000000
    DIDH3F   OBJ      302.360000   UPBROW35526 1.000000
    DHDI4A   DH4R     1.000000   DI4R     -1.000000
    DHDI4A   1DHDI4   1.000000   RDHDI1   -1.000000
    DHDI4A   OBJ      17.150000   UPBROW35527 1.000000
    DIDH4A   DI4R     1.000000   DH4R     -1.000000
    DIDH4A   1DHDI4   1.000000   RDHDI1   -1.000000
    DIDH4A   OBJ      17.150000   UPBROW35528 1.000000
    DHDI4F   DH4T     1.000000   DI4T     -1.000000
    DHDI4F   1DHDI4   1.000000   RDHDI1   -1.000000
    DHDI4F   OBJ      116.570000   UPBROW35529 1.000000
    DIDH4F   DI4T     1.000000   DH4T     -1.000000
    DIDH4F   1DHDI4   1.000000   RDHDI1   -1.000000
    DIDH4F   OBJ      116.570000   UPBROW35530 1.000000
    DHDI5A   DH5R     1.000000   DI5R     -1.000000
    DHDI5A   1DHDI5   1.000000   RDHDI1   -1.000000
    DHDI5A   OBJ      6.610000   UPBROW35531 1.000000
    DIDH5A   DI5R     1.000000   DH5R     -1.000000
    DIDH5A   1DHDI5   1.000000   RDHDI1   -1.000000
    DIDH5A   OBJ      6.610000   UPBROW35532 1.000000
    DHDI5F   DH5T     1.000000   DI5T     -1.000000
    DHDI5F   1DHDI5   1.000000   RDHDI1   -1.000000
    DHDI5F   OBJ      44.940000   UPBROW35533 1.000000
    DIDH5F   DI5T     1.000000   DH5T     -1.000000
    DIDH5F   1DHDI5   1.000000   RDHDI1   -1.000000
    DIDH5F   OBJ      44.940000   UPBROW35534 1.000000
    DHDI-2   RDHDI2   100000.000000   PDHDI    1.000000
    DHDI-2   OBJ      15130.000000   UPBROW35535 1.000000
    DHDI1B   DH1R     1.000000   DI1R     -1.000000
    DHDI1B   2DHDI1   1.000000   RDHDI2   -1.000000
    DHDI1B   OBJ      213.600000   UPBROW35536 1.000000
    DIDH1B   DI1R     1.000000   DH1R     -1.000000
    DIDH1B   2DHDI1   1.000000   RDHDI2   -1.000000
    DIDH1B   OBJ      213.600000   UPBROW35537 1.000000
    DHDI1G   DH1T     1.000000   DI1T     -1.000000
    DHDI1G   2DHDI1   1.000000   RDHDI2   -1.000000
    DHDI1G   OBJ      1947.200000   UPBROW35538 1.000000
    DIDH1G   DI1T     1.000000   DH1T     -1.000000
    DIDH1G   2DHDI1   1.000000   RDHDI2   -1.000000
    DIDH1G   OBJ      1947.200000   UPBROW35539 1.000000
    DHDI2B   DH2R     1.000000   DI2R     -1.000000
    DHDI2B   2DHDI2   1.000000   RDHDI2   -1.000000
    DHDI2B   OBJ      115.390000   UPBROW35540 1.000000
    DIDH2B   DI2R     1.000000   DH2R     -1.000000
    DIDH2B   2DHDI2   1.000000   RDHDI2   -1.000000
    DIDH2B   OBJ      115.390000   UPBROW35541 1.000000
    DHDI2G   DH2T     1.000000   DI2T     -1.000000
    DHDI2G   2DHDI2   1.000000   RDHDI2   -1.000000
    DHDI2G   OBJ      784.250000   UPBROW35542 1.000000
    DIDH2G   DI2T     1.000000   DH2T     -1.000000
    DIDH2G   2DHDI2   1.000000   RDHDI2   -1.000000
    DIDH2G   OBJ      784.250000   UPBROW35543 1.000000
    DHDI3B   DH3R     1.000000   DI3R     -1.000000
    DHDI3B   2DHDI3   1.000000   RDHDI2   -1.000000
    DHDI3B   OBJ      44.490000   UPBROW35544 1.000000
    DIDH3B   DI3R     1.000000   DH3R     -1.000000
    DIDH3B   2DHDI3   1.000000   RDHDI2   -1.000000
    DIDH3B   OBJ      44.490000   UPBROW35545 1.000000
    DHDI3G   DH3T     1.000000   DI3T     -1.000000
    DHDI3G   2DHDI3   1.000000   RDHDI2   -1.000000
    DHDI3G   OBJ      302.360000   UPBROW35546 1.000000
    DIDH3G   DI3T     1.000000   DH3T     -1.000000
    DIDH3G   2DHDI3   1.000000   RDHDI2   -1.000000
    DIDH3G   OBJ      302.360000   UPBROW35547 1.000000
    DHDI4B   DH4R     1.000000   DI4R     -1.000000
    DHDI4B   2DHDI4   1.000000   RDHDI2   -1.000000
    DHDI4B   OBJ      17.150000   UPBROW35548 1.000000
    DIDH4B   DI4R     1.000000   DH4R     -1.000000
    DIDH4B   2DHDI4   1.000000   RDHDI2   -1.000000
    DIDH4B   OBJ      17.150000   UPBROW35549 1.000000
    DHDI4G   DH4T     1.000000   DI4T     -1.000000
    DHDI4G   2DHDI4   1.000000   RDHDI2   -1.000000
    DHDI4G   OBJ      116.570000   UPBROW35550 1.000000
    DIDH4G   DI4T     1.000000   DH4T     -1.000000
    DIDH4G   2DHDI4   1.000000   RDHDI2   -1.000000
    DIDH4G   OBJ      116.570000   UPBROW35551 1.000000
    DHDI5B   DH5R     1.000000   DI5R     -1.000000
    DHDI5B   2DHDI5   1.000000   RDHDI2   -1.000000
    DHDI5B   OBJ      6.610000   UPBROW35552 1.000000
    DIDH5B   DI5R     1.000000   DH5R     -1.000000
    DIDH5B   2DHDI5   1.000000   RDHDI2   -1.000000
    DIDH5B   OBJ      6.610000   UPBROW35553 1.000000
    DHDI5G   DH5T     1.000000   DI5T     -1.000000
    DHDI5G   2DHDI5   1.000000   RDHDI2   -1.000000
    DHDI5G   OBJ      44.940000   UPBROW35554 1.000000
    DIDH5G   DI5T     1.000000   DH5T     -1.000000
    DIDH5G   2DHDI5   1.000000   RDHDI2   -1.000000
    DIDH5G   OBJ      44.940000   UPBROW35555 1.000000
    DHDI-3   RDHDI3   100000.000000   PDHDI    1.000000
    DHDI-3   OBJ      5833.100000   UPBROW35556 1.000000
    DHDI1C   DH1R     1.000000   DI1R     -1.000000
    DHDI1C   3DHDI1   1.000000   RDHDI3   -1.000000
    DHDI1C   OBJ      213.600000   UPBROW35557 1.000000
    DIDH1C   DI1R     1.000000   DH1R     -1.000000
    DIDH1C   3DHDI1   1.000000   RDHDI3   -1.000000
    DIDH1C   OBJ      213.600000   UPBROW35558 1.000000
    DHDI1H   DH1T     1.000000   DI1T     -1.000000
    DHDI1H   3DHDI1   1.000000   RDHDI3   -1.000000
    DHDI1H   OBJ      1947.200000   UPBROW35559 1.000000
    DIDH1H   DI1T     1.000000   DH1T     -1.000000
    DIDH1H   3DHDI1   1.000000   RDHDI3   -1.000000
    DIDH1H   OBJ      1947.200000   UPBROW35560 1.000000
    DHDI2C   DH2R     1.000000   DI2R     -1.000000
    DHDI2C   3DHDI2   1.000000   RDHDI3   -1.000000
    DHDI2C   OBJ      82.350000   UPBROW35561 1.000000
    DIDH2C   DI2R     1.000000   DH2R     -1.000000
    DIDH2C   3DHDI2   1.000000   RDHDI3   -1.000000
    DIDH2C   OBJ      82.350000   UPBROW35562 1.000000
    DHDI2H   DH2T     1.000000   DI2T     -1.000000
    DHDI2H   3DHDI2   1.000000   RDHDI3   -1.000000
    DHDI2H   OBJ      750.730000   UPBROW35563 1.000000
    DIDH2H   DI2T     1.000000   DH2T     -1.000000
    DIDH2H   3DHDI2   1.000000   RDHDI3   -1.000000
    DIDH2H   OBJ      750.730000   UPBROW35564 1.000000
    DHDI3C   DH3R     1.000000   DI3R     -1.000000
    DHDI3C   3DHDI3   1.000000   RDHDI3   -1.000000
    DHDI3C   OBJ      44.490000   UPBROW35565 1.000000
    DIDH3C   DI3R     1.000000   DH3R     -1.000000
    DIDH3C   3DHDI3   1.000000   RDHDI3   -1.000000
    DIDH3C   OBJ      44.490000   UPBROW35566 1.000000
    DHDI3H   DH3T     1.000000   DI3T     -1.000000
    DHDI3H   3DHDI3   1.000000   RDHDI3   -1.000000
    DHDI3H   OBJ      302.360000   UPBROW35567 1.000000
    DIDH3H   DI3T     1.000000   DH3T     -1.000000
    DIDH3H   3DHDI3   1.000000   RDHDI3   -1.000000
    DIDH3H   OBJ      302.360000   UPBROW35568 1.000000
    DHDI4C   DH4R     1.000000   DI4R     -1.000000
    DHDI4C   3DHDI4   1.000000   RDHDI3   -1.000000
    DHDI4C   OBJ      17.150000   UPBROW35569 1.000000
    DIDH4C   DI4R     1.000000   DH4R     -1.000000
    DIDH4C   3DHDI4   1.000000   RDHDI3   -1.000000
    DIDH4C   OBJ      17.150000   UPBROW35570 1.000000
    DHDI4H   DH4T     1.000000   DI4T     -1.000000
    DHDI4H   3DHDI4   1.000000   RDHDI3   -1.000000
    DHDI4H   OBJ      116.570000   UPBROW35571 1.000000
    DIDH4H   DI4T     1.000000   DH4T     -1.000000
    DIDH4H   3DHDI4   1.000000   RDHDI3   -1.000000
    DIDH4H   OBJ      116.570000   UPBROW35572 1.000000
    DHDI5C   DH5R     1.000000   DI5R     -1.000000
    DHDI5C   3DHDI5   1.000000   RDHDI3   -1.000000
    DHDI5C   OBJ      6.610000   UPBROW35573 1.000000
    DIDH5C   DI5R     1.000000   DH5R     -1.000000
    DIDH5C   3DHDI5   1.000000   RDHDI3   -1.000000
    DIDH5C   OBJ      6.610000   UPBROW35574 1.000000
    DHDI5H   DH5T     1.000000   DI5T     -1.000000
    DHDI5H   3DHDI5   1.000000   RDHDI3   -1.000000
    DHDI5H   OBJ      44.940000   UPBROW35575 1.000000
    DIDH5H   DI5T     1.000000   DH5T     -1.000000
    DIDH5H   3DHDI5   1.000000   RDHDI3   -1.000000
    DIDH5H   OBJ      44.940000   UPBROW35576 1.000000
    DHDI-4   RDHDI4   100000.000000   PDHDI    1.000000
    DHDI-4   UPBROW35577 1.000000
    DHDI1D   DH1R     1.000000   DI1R     -1.000000
    DHDI1D   4DHDI1   1.000000   RDHDI4   -1.000000
    DHDI1D   OBJ      213.600000   UPBROW35578 1.000000
    DIDH1D   DI1R     1.000000   DH1R     -1.000000
    DIDH1D   4DHDI1   1.000000   RDHDI4   -1.000000
    DIDH1D   OBJ      213.600000   UPBROW35579 1.000000
    DHDI1I   DH1T     1.000000   DI1T     -1.000000
    DHDI1I   4DHDI1   1.000000   RDHDI4   -1.000000
    DHDI1I   OBJ      1947.200000   UPBROW35580 1.000000
    DIDH1I   DI1T     1.000000   DH1T     -1.000000
    DIDH1I   4DHDI1   1.000000   RDHDI4   -1.000000
    DIDH1I   OBJ      1947.200000   UPBROW35581 1.000000
    DHDI2D   DH2R     1.000000   DI2R     -1.000000
    DHDI2D   4DHDI2   1.000000   RDHDI4   -1.000000
    DHDI2D   OBJ      82.350000   UPBROW35582 1.000000
    DIDH2D   DI2R     1.000000   DH2R     -1.000000
    DIDH2D   4DHDI2   1.000000   RDHDI4   -1.000000
    DIDH2D   OBJ      82.350000   UPBROW35583 1.000000
    DHDI2I   DH2T     1.000000   DI2T     -1.000000
    DHDI2I   4DHDI2   1.000000   RDHDI4   -1.000000
    DHDI2I   OBJ      750.730000   UPBROW35584 1.000000
    DIDH2I   DI2T     1.000000   DH2T     -1.000000
    DIDH2I   4DHDI2   1.000000   RDHDI4   -1.000000
    DIDH2I   OBJ      750.730000   UPBROW35585 1.000000
    DHDI3D   DH3R     1.000000   DI3R     -1.000000
    DHDI3D   4DHDI3   1.000000   RDHDI4   -1.000000
    DHDI3D   OBJ      31.750000   UPBROW35586 1.000000
    DIDH3D   DI3R     1.000000   DH3R     -1.000000
    DIDH3D   4DHDI3   1.000000   RDHDI4   -1.000000
    DIDH3D   OBJ      31.750000   UPBROW35587 1.000000
    DHDI3I   DH3T     1.000000   DI3T     -1.000000
    DHDI3I   4DHDI3   1.000000   RDHDI4   -1.000000
    DHDI3I   OBJ      289.440000   UPBROW35588 1.000000
    DIDH3I   DI3T     1.000000   DH3T     -1.000000
    DIDH3I   4DHDI3   1.000000   RDHDI4   -1.000000
    DIDH3I   OBJ      289.440000   UPBROW35589 1.000000
    DHDI4D   DH4R     1.000000   DI4R     -1.000000
    DHDI4D   4DHDI4   1.000000   RDHDI4   -1.000000
    DHDI4D   OBJ      12.240000   UPBROW35590 1.000000
    DIDH4D   DI4R     1.000000   DH4R     -1.000000
    DIDH4D   4DHDI4   1.000000   RDHDI4   -1.000000
    DIDH4D   OBJ      12.240000   UPBROW35591 1.000000
    DHDI4I   DH4T     1.000000   DI4T     -1.000000
    DHDI4I   4DHDI4   1.000000   RDHDI4   -1.000000
    DHDI4I   OBJ      111.590000   UPBROW35592 1.000000
    DIDH4I   DI4T     1.000000   DH4T     -1.000000
    DIDH4I   4DHDI4   1.000000   RDHDI4   -1.000000
    DIDH4I   OBJ      111.590000   UPBROW35593 1.000000
    DHDI5D   DH5R     1.000000   DI5R     -1.000000
    DHDI5D   4DHDI5   1.000000   RDHDI4   -1.000000
    DHDI5D   OBJ      4.720000   UPBROW35594 1.000000
    DIDH5D   DI5R     1.000000   DH5R     -1.000000
    DIDH5D   4DHDI5   1.000000   RDHDI4   -1.000000
    DIDH5D   OBJ      4.720000   UPBROW35595 1.000000
    DHDI5I   DH5T     1.000000   DI5T     -1.000000
    DHDI5I   4DHDI5   1.000000   RDHDI4   -1.000000
    DHDI5I   OBJ      43.020000   UPBROW35596 1.000000
    DIDH5I   DI5T     1.000000   DH5T     -1.000000
    DIDH5I   4DHDI5   1.000000   RDHDI4   -1.000000
    DIDH5I   OBJ      43.020000   UPBROW35597 1.000000
    DGDS-1   RDGDS1   100000.000000   PDGDS    1.000000
    DGDS-1   OBJ      33684.000000   UPBROW35598 1.000000
    DGDS1A   DG1R     1.000000   DS1R     -1.000000
    DGDS1A   1DGDS1   1.000000   RDGDS1   -1.000000
    DGDS1A   OBJ      774.290000   UPBROW35599 1.000000
    DSDG1A   DS1R     1.000000   DG1R     -1.000000
    DSDG1A   1DGDS1   1.000000   RDGDS1   -1.000000
    DSDG1A   OBJ      774.290000   UPBROW35600 1.000000
    DGDS1F   DG1T     1.000000   DS1T     -1.000000
    DGDS1F   1DGDS1   1.000000   RDGDS1   -1.000000
    DGDS1F   OBJ      6554.400000   UPBROW35601 1.000000
    DSDG1F   DS1T     1.000000   DG1T     -1.000000
    DSDG1F   1DGDS1   1.000000   RDGDS1   -1.000000
    DSDG1F   OBJ      6554.400000   UPBROW35602 1.000000
    DGDS2A   DG2R     1.000000   DS2R     -1.000000
    DGDS2A   1DGDS2   1.000000   RDGDS1   -1.000000
    DGDS2A   OBJ      298.520000   UPBROW35603 1.000000
    DSDG2A   DS2R     1.000000   DG2R     -1.000000
    DSDG2A   1DGDS2   1.000000   RDGDS1   -1.000000
    DSDG2A   OBJ      298.520000   UPBROW35604 1.000000
    DGDS2F   DG2T     1.000000   DS2T     -1.000000
    DGDS2F   1DGDS2   1.000000   RDGDS1   -1.000000
    DGDS2F   OBJ      2527.000000   UPBROW35605 1.000000
    DSDG2F   DS2T     1.000000   DG2T     -1.000000
    DSDG2F   1DGDS2   1.000000   RDGDS1   -1.000000
    DSDG2F   OBJ      2527.000000   UPBROW35606 1.000000
    DGDS3A   DG3R     1.000000   DS3R     -1.000000
    DGDS3A   1DGDS3   1.000000   RDGDS1   -1.000000
    DGDS3A   OBJ      115.090000   UPBROW35607 1.000000
    DSDG3A   DS3R     1.000000   DG3R     -1.000000
    DSDG3A   1DGDS3   1.000000   RDGDS1   -1.000000
    DSDG3A   OBJ      115.090000   UPBROW35608 1.000000
    DGDS3F   DG3T     1.000000   DS3T     -1.000000
    DGDS3F   1DGDS3   1.000000   RDGDS1   -1.000000
    DGDS3F   OBJ      974.280000   UPBROW35609 1.000000
    DSDG3F   DS3T     1.000000   DG3T     -1.000000
    DSDG3F   1DGDS3   1.000000   RDGDS1   -1.000000
    DSDG3F   OBJ      974.280000   UPBROW35610 1.000000
    DGDS4A   DG4R     1.000000   DS4R     -1.000000
    DGDS4A   1DGDS4   1.000000   RDGDS1   -1.000000
    DGDS4A   OBJ      44.370000   UPBROW35611 1.000000
    DSDG4A   DS4R     1.000000   DG4R     -1.000000
    DSDG4A   1DGDS4   1.000000   RDGDS1   -1.000000
    DSDG4A   OBJ      44.370000   UPBROW35612 1.000000
    DGDS4F   DG4T     1.000000   DS4T     -1.000000
    DGDS4F   1DGDS4   1.000000   RDGDS1   -1.000000
    DGDS4F   OBJ      375.630000   UPBROW35613 1.000000
    DSDG4F   DS4T     1.000000   DG4T     -1.000000
    DSDG4F   1DGDS4   1.000000   RDGDS1   -1.000000
    DSDG4F   OBJ      375.630000   UPBROW35614 1.000000
    DGDS5A   DG5R     1.000000   DS5R     -1.000000
    DGDS5A   1DGDS5   1.000000   RDGDS1   -1.000000
    DGDS5A   OBJ      17.110000   UPBROW35615 1.000000
    DSDG5A   DS5R     1.000000   DG5R     -1.000000
    DSDG5A   1DGDS5   1.000000   RDGDS1   -1.000000
    DSDG5A   OBJ      17.110000   UPBROW35616 1.000000
    DGDS5F   DG5T     1.000000   DS5T     -1.000000
    DGDS5F   1DGDS5   1.000000   RDGDS1   -1.000000
    DGDS5F   OBJ      144.820000   UPBROW35617 1.000000
    DSDG5F   DS5T     1.000000   DG5T     -1.000000
    DSDG5F   1DGDS5   1.000000   RDGDS1   -1.000000
    DSDG5F   OBJ      144.820000   UPBROW35618 1.000000
    DGDS-2   RDGDS2   100000.000000   PDGDS    1.000000
    DGDS-2   OBJ      12987.000000   UPBROW35619 1.000000
    DGDS1B   DG1R     1.000000   DS1R     -1.000000
    DGDS1B   2DGDS1   1.000000   RDGDS2   -1.000000
    DGDS1B   OBJ      774.290000   UPBROW35620 1.000000
    DSDG1B   DS1R     1.000000   DG1R     -1.000000
    DSDG1B   2DGDS1   1.000000   RDGDS2   -1.000000
    DSDG1B   OBJ      774.290000   UPBROW35621 1.000000
    DGDS1G   DG1T     1.000000   DS1T     -1.000000
    DGDS1G   2DGDS1   1.000000   RDGDS2   -1.000000
    DGDS1G   OBJ      7565.300000   UPBROW35622 1.000000
    DSDG1G   DS1T     1.000000   DG1T     -1.000000
    DSDG1G   2DGDS1   1.000000   RDGDS2   -1.000000
    DSDG1G   OBJ      7565.300000   UPBROW35623 1.000000
    DGDS2B   DG2R     1.000000   DS2R     -1.000000
    DGDS2B   2DGDS2   1.000000   RDGDS2   -1.000000
    DGDS2B   OBJ      298.520000   UPBROW35624 1.000000
    DSDG2B   DS2R     1.000000   DG2R     -1.000000
    DSDG2B   2DGDS2   1.000000   RDGDS2   -1.000000
    DSDG2B   OBJ      298.520000   UPBROW35625 1.000000
    DGDS2G   DG2T     1.000000   DS2T     -1.000000
    DGDS2G   2DGDS2   1.000000   RDGDS2   -1.000000
    DGDS2G   OBJ      2527.000000   UPBROW35626 1.000000
    DSDG2G   DS2T     1.000000   DG2T     -1.000000
    DSDG2G   2DGDS2   1.000000   RDGDS2   -1.000000
    DSDG2G   OBJ      2527.000000   UPBROW35627 1.000000
    DGDS3B   DG3R     1.000000   DS3R     -1.000000
    DGDS3B   2DGDS3   1.000000   RDGDS2   -1.000000
    DGDS3B   OBJ      115.090000   UPBROW35628 1.000000
    DSDG3B   DS3R     1.000000   DG3R     -1.000000
    DSDG3B   2DGDS3   1.000000   RDGDS2   -1.000000
    DSDG3B   OBJ      115.090000   UPBROW35629 1.000000
    DGDS3G   DG3T     1.000000   DS3T     -1.000000
    DGDS3G   2DGDS3   1.000000   RDGDS2   -1.000000
    DGDS3G   OBJ      974.280000   UPBROW35630 1.000000
    DSDG3G   DS3T     1.000000   DG3T     -1.000000
    DSDG3G   2DGDS3   1.000000   RDGDS2   -1.000000
    DSDG3G   OBJ      974.280000   UPBROW35631 1.000000
    DGDS4B   DG4R     1.000000   DS4R     -1.000000
    DGDS4B   2DGDS4   1.000000   RDGDS2   -1.000000
    DGDS4B   OBJ      44.370000   UPBROW35632 1.000000
    DSDG4B   DS4R     1.000000   DG4R     -1.000000
    DSDG4B   2DGDS4   1.000000   RDGDS2   -1.000000
    DSDG4B   OBJ      44.370000   UPBROW35633 1.000000
    DGDS4G   DG4T     1.000000   DS4T     -1.000000
    DGDS4G   2DGDS4   1.000000   RDGDS2   -1.000000
    DGDS4G   OBJ      375.630000   UPBROW35634 1.000000
    DSDG4G   DS4T     1.000000   DG4T     -1.000000
    DSDG4G   2DGDS4   1.000000   RDGDS2   -1.000000
    DSDG4G   OBJ      375.630000   UPBROW35635 1.000000
    DGDS5B   DG5R     1.000000   DS5R     -1.000000
    DGDS5B   2DGDS5   1.000000   RDGDS2   -1.000000
    DGDS5B   OBJ      17.110000   UPBROW35636 1.000000
    DSDG5B   DS5R     1.000000   DG5R     -1.000000
    DSDG5B   2DGDS5   1.000000   RDGDS2   -1.000000
    DSDG5B   OBJ      17.110000   UPBROW35637 1.000000
    DGDS5G   DG5T     1.000000   DS5T     -1.000000
    DGDS5G   2DGDS5   1.000000   RDGDS2   -1.000000
    DGDS5G   OBJ      144.820000   UPBROW35638 1.000000
    DSDG5G   DS5T     1.000000   DG5T     -1.000000
    DSDG5G   2DGDS5   1.000000   RDGDS2   -1.000000
    DSDG5G   OBJ      144.820000   UPBROW35639 1.000000
    DGDS-3   RDGDS3   100000.000000   PDGDS    1.000000
    DGDS-3   OBJ      5006.900000   UPBROW35640 1.000000
    DGDS1C   DG1R     1.000000   DS1R     -1.000000
    DGDS1C   3DGDS1   1.000000   RDGDS3   -1.000000
    DGDS1C   OBJ      774.290000   UPBROW35641 1.000000
    DSDG1C   DS1R     1.000000   DG1R     -1.000000
    DSDG1C   3DGDS1   1.000000   RDGDS3   -1.000000
    DSDG1C   OBJ      774.290000   UPBROW35642 1.000000
    DGDS1H   DG1T     1.000000   DS1T     -1.000000
    DGDS1H   3DGDS1   1.000000   RDGDS3   -1.000000
    DGDS1H   OBJ      7565.300000   UPBROW35643 1.000000
    DSDG1H   DS1T     1.000000   DG1T     -1.000000
    DSDG1H   3DGDS1   1.000000   RDGDS3   -1.000000
    DSDG1H   OBJ      7565.300000   UPBROW35644 1.000000
    DGDS2C   DG2R     1.000000   DS2R     -1.000000
    DGDS2C   3DGDS2   1.000000   RDGDS3   -1.000000
    DGDS2C   OBJ      298.520000   UPBROW35645 1.000000
    DSDG2C   DS2R     1.000000   DG2R     -1.000000
    DSDG2C   3DGDS2   1.000000   RDGDS3   -1.000000
    DSDG2C   OBJ      298.520000   UPBROW35646 1.000000
    DGDS2H   DG2T     1.000000   DS2T     -1.000000
    DGDS2H   3DGDS2   1.000000   RDGDS3   -1.000000
    DGDS2H   OBJ      2916.800000   UPBROW35647 1.000000
    DSDG2H   DS2T     1.000000   DG2T     -1.000000
    DSDG2H   3DGDS2   1.000000   RDGDS3   -1.000000
    DSDG2H   OBJ      2916.800000   UPBROW35648 1.000000
    DGDS3C   DG3R     1.000000   DS3R     -1.000000
    DGDS3C   3DGDS3   1.000000   RDGDS3   -1.000000
    DGDS3C   OBJ      115.090000   UPBROW35649 1.000000
    DSDG3C   DS3R     1.000000   DG3R     -1.000000
    DSDG3C   3DGDS3   1.000000   RDGDS3   -1.000000
    DSDG3C   OBJ      115.090000   UPBROW35650 1.000000
    DGDS3H   DG3T     1.000000   DS3T     -1.000000
    DGDS3H   3DGDS3   1.000000   RDGDS3   -1.000000
    DGDS3H   OBJ      974.280000   UPBROW35651 1.000000
    DSDG3H   DS3T     1.000000   DG3T     -1.000000
    DSDG3H   3DGDS3   1.000000   RDGDS3   -1.000000
    DSDG3H   OBJ      974.280000   UPBROW35652 1.000000
    DGDS4C   DG4R     1.000000   DS4R     -1.000000
    DGDS4C   3DGDS4   1.000000   RDGDS3   -1.000000
    DGDS4C   OBJ      44.370000   UPBROW35653 1.000000
    DSDG4C   DS4R     1.000000   DG4R     -1.000000
    DSDG4C   3DGDS4   1.000000   RDGDS3   -1.000000
    DSDG4C   OBJ      44.370000   UPBROW35654 1.000000
    DGDS4H   DG4T     1.000000   DS4T     -1.000000
    DGDS4H   3DGDS4   1.000000   RDGDS3   -1.000000
    DGDS4H   OBJ      375.630000   UPBROW35655 1.000000
    DSDG4H   DS4T     1.000000   DG4T     -1.000000
    DSDG4H   3DGDS4   1.000000   RDGDS3   -1.000000
    DSDG4H   OBJ      375.630000   UPBROW35656 1.000000
    DGDS5C   DG5R     1.000000   DS5R     -1.000000
    DGDS5C   3DGDS5   1.000000   RDGDS3   -1.000000
    DGDS5C   OBJ      17.110000   UPBROW35657 1.000000
    DSDG5C   DS5R     1.000000   DG5R     -1.000000
    DSDG5C   3DGDS5   1.000000   RDGDS3   -1.000000
    DSDG5C   OBJ      17.110000   UPBROW35658 1.000000
    DGDS5H   DG5T     1.000000   DS5T     -1.000000
    DGDS5H   3DGDS5   1.000000   RDGDS3   -1.000000
    DGDS5H   OBJ      144.820000   UPBROW35659 1.000000
    DSDG5H   DS5T     1.000000   DG5T     -1.000000
    DSDG5H   3DGDS5   1.000000   RDGDS3   -1.000000
    DSDG5H   OBJ      144.820000   UPBROW35660 1.000000
    DGDS-4   RDGDS4   100000.000000   PDGDS    1.000000
    DGDS-4   UPBROW35661 1.000000
    DGDS1D   DG1R     1.000000   DS1R     -1.000000
    DGDS1D   4DGDS1   1.000000   RDGDS4   -1.000000
    DGDS1D   OBJ      774.290000   UPBROW35662 1.000000
    DSDG1D   DS1R     1.000000   DG1R     -1.000000
    DSDG1D   4DGDS1   1.000000   RDGDS4   -1.000000
    DSDG1D   OBJ      774.290000   UPBROW35663 1.000000
    DGDS1I   DG1T     1.000000   DS1T     -1.000000
    DGDS1I   4DGDS1   1.000000   RDGDS4   -1.000000
    DGDS1I   OBJ      7565.300000   UPBROW35664 1.000000
    DSDG1I   DS1T     1.000000   DG1T     -1.000000
    DSDG1I   4DGDS1   1.000000   RDGDS4   -1.000000
    DSDG1I   OBJ      7565.300000   UPBROW35665 1.000000
    DGDS2D   DG2R     1.000000   DS2R     -1.000000
    DGDS2D   4DGDS2   1.000000   RDGDS4   -1.000000
    DGDS2D   OBJ      298.520000   UPBROW35666 1.000000
    DSDG2D   DS2R     1.000000   DG2R     -1.000000
    DSDG2D   4DGDS2   1.000000   RDGDS4   -1.000000
    DSDG2D   OBJ      298.520000   UPBROW35667 1.000000
    DGDS2I   DG2T     1.000000   DS2T     -1.000000
    DGDS2I   4DGDS2   1.000000   RDGDS4   -1.000000
    DGDS2I   OBJ      2916.800000   UPBROW35668 1.000000
    DSDG2I   DS2T     1.000000   DG2T     -1.000000
    DSDG2I   4DGDS2   1.000000   RDGDS4   -1.000000
    DSDG2I   OBJ      2916.800000   UPBROW35669 1.000000
    DGDS3D   DG3R     1.000000   DS3R     -1.000000
    DGDS3D   4DGDS3   1.000000   RDGDS4   -1.000000
    DGDS3D   OBJ      115.090000   UPBROW35670 1.000000
    DSDG3D   DS3R     1.000000   DG3R     -1.000000
    DSDG3D   4DGDS3   1.000000   RDGDS4   -1.000000
    DSDG3D   OBJ      115.090000   UPBROW35671 1.000000
    DGDS3I   DG3T     1.000000   DS3T     -1.000000
    DGDS3I   4DGDS3   1.000000   RDGDS4   -1.000000
    DGDS3I   OBJ      1124.500000   UPBROW35672 1.000000
    DSDG3I   DS3T     1.000000   DG3T     -1.000000
    DSDG3I   4DGDS3   1.000000   RDGDS4   -1.000000
    DSDG3I   OBJ      1124.500000   UPBROW35673 1.000000
    DGDS4D   DG4R     1.000000   DS4R     -1.000000
    DGDS4D   4DGDS4   1.000000   RDGDS4   -1.000000
    DGDS4D   OBJ      44.370000   UPBROW35674 1.000000
    DSDG4D   DS4R     1.000000   DG4R     -1.000000
    DSDG4D   4DGDS4   1.000000   RDGDS4   -1.000000
    DSDG4D   OBJ      44.370000   UPBROW35675 1.000000
    DGDS4I   DG4T     1.000000   DS4T     -1.000000
    DGDS4I   4DGDS4   1.000000   RDGDS4   -1.000000
    DGDS4I   OBJ      433.560000   UPBROW35676 1.000000
    DSDG4I   DS4T     1.000000   DG4T     -1.000000
    DSDG4I   4DGDS4   1.000000   RDGDS4   -1.000000
    DSDG4I   OBJ      433.560000   UPBROW35677 1.000000
    DGDS5D   DG5R     1.000000   DS5R     -1.000000
    DGDS5D   4DGDS5   1.000000   RDGDS4   -1.000000
    DGDS5D   OBJ      17.110000   UPBROW35678 1.000000
    DSDG5D   DS5R     1.000000   DG5R     -1.000000
    DSDG5D   4DGDS5   1.000000   RDGDS4   -1.000000
    DSDG5D   OBJ      17.110000   UPBROW35679 1.000000
    DGDS5I   DG5T     1.000000   DS5T     -1.000000
    DGDS5I   4DGDS5   1.000000   RDGDS4   -1.000000
    DGDS5I   OBJ      167.150000   UPBROW35680 1.000000
    DSDG5I   DS5T     1.000000   DG5T     -1.000000
    DSDG5I   4DGDS5   1.000000   RDGDS4   -1.000000
    DSDG5I   OBJ      167.150000   UPBROW35681 1.000000
    CVDU-1   RCVDU1   100000.000000   PCVDU    1.000000
    CVDU-1   OBJ      52157.000000   UPBROW35682 1.000000
    CVDU1A   CV1R     1.000000   DU1R     -1.000000
    CVDU1A   1CVDU1   1.000000   RCVDU1   -1.000000
    CVDU1A   OBJ      1281.600000   UPBROW35683 1.000000
    DUCV1A   DU1R     1.000000   CV1R     -1.000000
    DUCV1A   1CVDU1   1.000000   RCVDU1   -1.000000
    DUCV1A   OBJ      1281.600000   UPBROW35684 1.000000
    CVDU1F   CV1T     1.000000   DU1T     -1.000000
    CVDU1F   1CVDU1   1.000000   RCVDU1   -1.000000
    CVDU1F   OBJ      8553.800000   UPBROW35685 1.000000
    DUCV1F   DU1T     1.000000   CV1T     -1.000000
    DUCV1F   1CVDU1   1.000000   RCVDU1   -1.000000
    DUCV1F   OBJ      8553.800000   UPBROW35686 1.000000
    CVDU2A   CV2R     1.000000   DU2R     -1.000000
    CVDU2A   1CVDU2   1.000000   RCVDU1   -1.000000
    CVDU2A   OBJ      494.110000   UPBROW35687 1.000000
    DUCV2A   DU2R     1.000000   CV2R     -1.000000
    DUCV2A   1CVDU2   1.000000   RCVDU1   -1.000000
    DUCV2A   OBJ      494.110000   UPBROW35688 1.000000
    CVDU2F   CV2T     1.000000   DU2T     -1.000000
    CVDU2F   1CVDU2   1.000000   RCVDU1   -1.000000
    CVDU2F   OBJ      3297.900000   UPBROW35689 1.000000
    DUCV2F   DU2T     1.000000   CV2T     -1.000000
    DUCV2F   1CVDU2   1.000000   RCVDU1   -1.000000
    DUCV2F   OBJ      3297.900000   UPBROW35690 1.000000
    CVDU3A   CV3R     1.000000   DU3R     -1.000000
    CVDU3A   1CVDU3   1.000000   RCVDU1   -1.000000
    CVDU3A   OBJ      190.500000   UPBROW35691 1.000000
    DUCV3A   DU3R     1.000000   CV3R     -1.000000
    DUCV3A   1CVDU3   1.000000   RCVDU1   -1.000000
    DUCV3A   OBJ      190.500000   UPBROW35692 1.000000
    CVDU3F   CV3T     1.000000   DU3T     -1.000000
    CVDU3F   1CVDU3   1.000000   RCVDU1   -1.000000
    CVDU3F   OBJ      1271.500000   UPBROW35693 1.000000
    DUCV3F   DU3T     1.000000   CV3T     -1.000000
    DUCV3F   1CVDU3   1.000000   RCVDU1   -1.000000
    DUCV3F   OBJ      1271.500000   UPBROW35694 1.000000
    CVDU4A   CV4R     1.000000   DU4R     -1.000000
    CVDU4A   1CVDU4   1.000000   RCVDU1   -1.000000
    CVDU4A   OBJ      73.450000   UPBROW35695 1.000000
    DUCV4A   DU4R     1.000000   CV4R     -1.000000
    DUCV4A   1CVDU4   1.000000   RCVDU1   -1.000000
    DUCV4A   OBJ      73.450000   UPBROW35696 1.000000
    CVDU4F   CV4T     1.000000   DU4T     -1.000000
    CVDU4F   1CVDU4   1.000000   RCVDU1   -1.000000
    CVDU4F   OBJ      490.210000   UPBROW35697 1.000000
    DUCV4F   DU4T     1.000000   CV4T     -1.000000
    DUCV4F   1CVDU4   1.000000   RCVDU1   -1.000000
    DUCV4F   OBJ      490.210000   UPBROW35698 1.000000
    CVDU5A   CV5R     1.000000   DU5R     -1.000000
    CVDU5A   1CVDU5   1.000000   RCVDU1   -1.000000
    CVDU5A   OBJ      28.320000   UPBROW35699 1.000000
    DUCV5A   DU5R     1.000000   CV5R     -1.000000
    DUCV5A   1CVDU5   1.000000   RCVDU1   -1.000000
    DUCV5A   OBJ      28.320000   UPBROW35700 1.000000
    CVDU5F   CV5T     1.000000   DU5T     -1.000000
    CVDU5F   1CVDU5   1.000000   RCVDU1   -1.000000
    CVDU5F   OBJ      189.000000   UPBROW35701 1.000000
    DUCV5F   DU5T     1.000000   CV5T     -1.000000
    DUCV5F   1CVDU5   1.000000   RCVDU1   -1.000000
    DUCV5F   OBJ      189.000000   UPBROW35702 1.000000
    CVDU-2   RCVDU2   100000.000000   PCVDU    1.000000
    CVDU-2   OBJ      20109.000000   UPBROW35703 1.000000
    CVDU1B   CV1R     1.000000   DU1R     -1.000000
    CVDU1B   2CVDU1   1.000000   RCVDU2   -1.000000
    CVDU1B   OBJ      1794.500000   UPBROW35704 1.000000
    DUCV1B   DU1R     1.000000   CV1R     -1.000000
    DUCV1B   2CVDU1   1.000000   RCVDU2   -1.000000
    DUCV1B   OBJ      1794.500000   UPBROW35705 1.000000
    CVDU1G   CV1T     1.000000   DU1T     -1.000000
    CVDU1G   2CVDU1   1.000000   RCVDU2   -1.000000
    CVDU1G   OBJ      12205.000000   UPBROW35706 1.000000
    DUCV1G   DU1T     1.000000   CV1T     -1.000000
    DUCV1G   2CVDU1   1.000000   RCVDU2   -1.000000
    DUCV1G   OBJ      12205.000000   UPBROW35707 1.000000
    CVDU2B   CV2R     1.000000   DU2R     -1.000000
    CVDU2B   2CVDU2   1.000000   RCVDU2   -1.000000
    CVDU2B   OBJ      494.110000   UPBROW35708 1.000000
    DUCV2B   DU2R     1.000000   CV2R     -1.000000
    DUCV2B   2CVDU2   1.000000   RCVDU2   -1.000000
    DUCV2B   OBJ      494.110000   UPBROW35709 1.000000
    CVDU2G   CV2T     1.000000   DU2T     -1.000000
    CVDU2G   2CVDU2   1.000000   RCVDU2   -1.000000
    CVDU2G   OBJ      3297.900000   UPBROW35710 1.000000
    DUCV2G   DU2T     1.000000   CV2T     -1.000000
    DUCV2G   2CVDU2   1.000000   RCVDU2   -1.000000
    DUCV2G   OBJ      3297.900000   UPBROW35711 1.000000
    CVDU3B   CV3R     1.000000   DU3R     -1.000000
    CVDU3B   2CVDU3   1.000000   RCVDU2   -1.000000
    CVDU3B   OBJ      190.500000   UPBROW35712 1.000000
    DUCV3B   DU3R     1.000000   CV3R     -1.000000
    DUCV3B   2CVDU3   1.000000   RCVDU2   -1.000000
    DUCV3B   OBJ      190.500000   UPBROW35713 1.000000
    CVDU3G   CV3T     1.000000   DU3T     -1.000000
    CVDU3G   2CVDU3   1.000000   RCVDU2   -1.000000
    CVDU3G   OBJ      1271.500000   UPBROW35714 1.000000
    DUCV3G   DU3T     1.000000   CV3T     -1.000000
    DUCV3G   2CVDU3   1.000000   RCVDU2   -1.000000
    DUCV3G   OBJ      1271.500000   UPBROW35715 1.000000
    CVDU4B   CV4R     1.000000   DU4R     -1.000000
    CVDU4B   2CVDU4   1.000000   RCVDU2   -1.000000
    CVDU4B   OBJ      73.450000   UPBROW35716 1.000000
    DUCV4B   DU4R     1.000000   CV4R     -1.000000
    DUCV4B   2CVDU4   1.000000   RCVDU2   -1.000000
    DUCV4B   OBJ      73.450000   UPBROW35717 1.000000
    CVDU4G   CV4T     1.000000   DU4T     -1.000000
    CVDU4G   2CVDU4   1.000000   RCVDU2   -1.000000
    CVDU4G   OBJ      490.210000   UPBROW35718 1.000000
    DUCV4G   DU4T     1.000000   CV4T     -1.000000
    DUCV4G   2CVDU4   1.000000   RCVDU2   -1.000000
    DUCV4G   OBJ      490.210000   UPBROW35719 1.000000
    CVDU5B   CV5R     1.000000   DU5R     -1.000000
    CVDU5B   2CVDU5   1.000000   RCVDU2   -1.000000
    CVDU5B   OBJ      28.320000   UPBROW35720 1.000000
    DUCV5B   DU5R     1.000000   CV5R     -1.000000
    DUCV5B   2CVDU5   1.000000   RCVDU2   -1.000000
    DUCV5B   OBJ      28.320000   UPBROW35721 1.000000
    CVDU5G   CV5T     1.000000   DU5T     -1.000000
    CVDU5G   2CVDU5   1.000000   RCVDU2   -1.000000
    CVDU5G   OBJ      189.000000   UPBROW35722 1.000000
    DUCV5G   DU5T     1.000000   CV5T     -1.000000
    DUCV5G   2CVDU5   1.000000   RCVDU2   -1.000000
    DUCV5G   OBJ      189.000000   UPBROW35723 1.000000
    CVDU-3   RCVDU3   100000.000000   PCVDU    1.000000
    CVDU-3   OBJ      7752.900000   UPBROW35724 1.000000
    CVDU1C   CV1R     1.000000   DU1R     -1.000000
    CVDU1C   3CVDU1   1.000000   RCVDU3   -1.000000
    CVDU1C   OBJ      1794.500000   UPBROW35725 1.000000
    DUCV1C   DU1R     1.000000   CV1R     -1.000000
    DUCV1C   3CVDU1   1.000000   RCVDU3   -1.000000
    DUCV1C   OBJ      1794.500000   UPBROW35726 1.000000
    CVDU1H   CV1T     1.000000   DU1T     -1.000000
    CVDU1H   3CVDU1   1.000000   RCVDU3   -1.000000
    CVDU1H   OBJ      12205.000000   UPBROW35727 1.000000
    DUCV1H   DU1T     1.000000   CV1T     -1.000000
    DUCV1H   3CVDU1   1.000000   RCVDU3   -1.000000
    DUCV1H   OBJ      12205.000000   UPBROW35728 1.000000
    CVDU2C   CV2R     1.000000   DU2R     -1.000000
    CVDU2C   3CVDU2   1.000000   RCVDU3   -1.000000
    CVDU2C   OBJ      691.840000   UPBROW35729 1.000000
    DUCV2C   DU2R     1.000000   CV2R     -1.000000
    DUCV2C   3CVDU2   1.000000   RCVDU3   -1.000000
    DUCV2C   OBJ      691.840000   UPBROW35730 1.000000
    CVDU2H   CV2T     1.000000   DU2T     -1.000000
    CVDU2H   3CVDU2   1.000000   RCVDU3   -1.000000
    CVDU2H   OBJ      4705.500000   UPBROW35731 1.000000
    DUCV2H   DU2T     1.000000   CV2T     -1.000000
    DUCV2H   3CVDU2   1.000000   RCVDU3   -1.000000
    DUCV2H   OBJ      4705.500000   UPBROW35732 1.000000
    CVDU3C   CV3R     1.000000   DU3R     -1.000000
    CVDU3C   3CVDU3   1.000000   RCVDU3   -1.000000
    CVDU3C   OBJ      190.500000   UPBROW35733 1.000000
    DUCV3C   DU3R     1.000000   CV3R     -1.000000
    DUCV3C   3CVDU3   1.000000   RCVDU3   -1.000000
    DUCV3C   OBJ      190.500000   UPBROW35734 1.000000
    CVDU3H   CV3T     1.000000   DU3T     -1.000000
    CVDU3H   3CVDU3   1.000000   RCVDU3   -1.000000
    CVDU3H   OBJ      1271.500000   UPBROW35735 1.000000
    DUCV3H   DU3T     1.000000   CV3T     -1.000000
    DUCV3H   3CVDU3   1.000000   RCVDU3   -1.000000
    DUCV3H   OBJ      1271.500000   UPBROW35736 1.000000
    CVDU4C   CV4R     1.000000   DU4R     -1.000000
    CVDU4C   3CVDU4   1.000000   RCVDU3   -1.000000
    CVDU4C   OBJ      73.450000   UPBROW35737 1.000000
    DUCV4C   DU4R     1.000000   CV4R     -1.000000
    DUCV4C   3CVDU4   1.000000   RCVDU3   -1.000000
    DUCV4C   OBJ      73.450000   UPBROW35738 1.000000
    CVDU4H   CV4T     1.000000   DU4T     -1.000000
    CVDU4H   3CVDU4   1.000000   RCVDU3   -1.000000
    CVDU4H   OBJ      490.210000   UPBROW35739 1.000000
    DUCV4H   DU4T     1.000000   CV4T     -1.000000
    DUCV4H   3CVDU4   1.000000   RCVDU3   -1.000000
    DUCV4H   OBJ      490.210000   UPBROW35740 1.000000
    CVDU5C   CV5R     1.000000   DU5R     -1.000000
    CVDU5C   3CVDU5   1.000000   RCVDU3   -1.000000
    CVDU5C   OBJ      28.320000   UPBROW35741 1.000000
    DUCV5C   DU5R     1.000000   CV5R     -1.000000
    DUCV5C   3CVDU5   1.000000   RCVDU3   -1.000000
    DUCV5C   OBJ      28.320000   UPBROW35742 1.000000
    CVDU5H   CV5T     1.000000   DU5T     -1.000000
    CVDU5H   3CVDU5   1.000000   RCVDU3   -1.000000
    CVDU5H   OBJ      189.000000   UPBROW35743 1.000000
    DUCV5H   DU5T     1.000000   CV5T     -1.000000
    DUCV5H   3CVDU5   1.000000   RCVDU3   -1.000000
    DUCV5H   OBJ      189.000000   UPBROW35744 1.000000
    CVDU-4   RCVDU4   100000.000000   PCVDU    1.000000
    CVDU-4   UPBROW35745 1.000000
    CVDU1D   CV1R     1.000000   DU1R     -1.000000
    CVDU1D   4CVDU1   1.000000   RCVDU4   -1.000000
    CVDU1D   OBJ      1794.500000   UPBROW35746 1.000000
    DUCV1D   DU1R     1.000000   CV1R     -1.000000
    DUCV1D   4CVDU1   1.000000   RCVDU4   -1.000000
    DUCV1D   OBJ      1794.500000   UPBROW35747 1.000000
    CVDU1I   CV1T     1.000000   DU1T     -1.000000
    CVDU1I   4CVDU1   1.000000   RCVDU4   -1.000000
    CVDU1I   OBJ      12205.000000   UPBROW35748 1.000000
    DUCV1I   DU1T     1.000000   CV1T     -1.000000
    DUCV1I   4CVDU1   1.000000   RCVDU4   -1.000000
    DUCV1I   OBJ      12205.000000   UPBROW35749 1.000000
    CVDU2D   CV2R     1.000000   DU2R     -1.000000
    CVDU2D   4CVDU2   1.000000   RCVDU4   -1.000000
    CVDU2D   OBJ      691.840000   UPBROW35750 1.000000
    DUCV2D   DU2R     1.000000   CV2R     -1.000000
    DUCV2D   4CVDU2   1.000000   RCVDU4   -1.000000
    DUCV2D   OBJ      691.840000   UPBROW35751 1.000000
    CVDU2I   CV2T     1.000000   DU2T     -1.000000
    CVDU2I   4CVDU2   1.000000   RCVDU4   -1.000000
    CVDU2I   OBJ      4705.500000   UPBROW35752 1.000000
    DUCV2I   DU2T     1.000000   CV2T     -1.000000
    DUCV2I   4CVDU2   1.000000   RCVDU4   -1.000000
    DUCV2I   OBJ      4705.500000   UPBROW35753 1.000000
    CVDU3D   CV3R     1.000000   DU3R     -1.000000
    CVDU3D   4CVDU3   1.000000   RCVDU4   -1.000000
    CVDU3D   OBJ      266.740000   UPBROW35754 1.000000
    DUCV3D   DU3R     1.000000   CV3R     -1.000000
    DUCV3D   4CVDU3   1.000000   RCVDU4   -1.000000
    DUCV3D   OBJ      266.740000   UPBROW35755 1.000000
    CVDU3I   CV3T     1.000000   DU3T     -1.000000
    CVDU3I   4CVDU3   1.000000   RCVDU4   -1.000000
    CVDU3I   OBJ      1814.200000   UPBROW35756 1.000000
    DUCV3I   DU3T     1.000000   CV3T     -1.000000
    DUCV3I   4CVDU3   1.000000   RCVDU4   -1.000000
    DUCV3I   OBJ      1814.200000   UPBROW35757 1.000000
    CVDU4D   CV4R     1.000000   DU4R     -1.000000
    CVDU4D   4CVDU4   1.000000   RCVDU4   -1.000000
    CVDU4D   OBJ      102.840000   UPBROW35758 1.000000
    DUCV4D   DU4R     1.000000   CV4R     -1.000000
    DUCV4D   4CVDU4   1.000000   RCVDU4   -1.000000
    DUCV4D   OBJ      102.840000   UPBROW35759 1.000000
    CVDU4I   CV4T     1.000000   DU4T     -1.000000
    CVDU4I   4CVDU4   1.000000   RCVDU4   -1.000000
    CVDU4I   OBJ      699.440000   UPBROW35760 1.000000
    DUCV4I   DU4T     1.000000   CV4T     -1.000000
    DUCV4I   4CVDU4   1.000000   RCVDU4   -1.000000
    DUCV4I   OBJ      699.440000   UPBROW35761 1.000000
    CVDU5D   CV5R     1.000000   DU5R     -1.000000
    CVDU5D   4CVDU5   1.000000   RCVDU4   -1.000000
    CVDU5D   OBJ      39.650000   UPBROW35762 1.000000
    DUCV5D   DU5R     1.000000   CV5R     -1.000000
    DUCV5D   4CVDU5   1.000000   RCVDU4   -1.000000
    DUCV5D   OBJ      39.650000   UPBROW35763 1.000000
    CVDU5I   CV5T     1.000000   DU5T     -1.000000
    CVDU5I   4CVDU5   1.000000   RCVDU4   -1.000000
    CVDU5I   OBJ      269.660000   UPBROW35764 1.000000
    DUCV5I   DU5T     1.000000   CV5T     -1.000000
    DUCV5I   4CVDU5   1.000000   RCVDU4   -1.000000
    DUCV5I   OBJ      269.660000   UPBROW35765 1.000000
    DSFC-1   RDSFC1   100000.000000   PDSFC    1.000000
    DSFC-1   OBJ      44334.000000   UPBROW35766 1.000000
    DSFC1A   DS1R     1.000000   FC1R     -1.000000
    DSFC1A   1DSFC1   1.000000   RDSFC1   -1.000000
    DSFC1A   OBJ      681.150000   UPBROW35767 1.000000
    FCDS1A   FC1R     1.000000   DS1R     -1.000000
    FCDS1A   1DSFC1   1.000000   RDSFC1   -1.000000
    FCDS1A   OBJ      681.150000   UPBROW35768 1.000000
    DSFC1F   DS1T     1.000000   FC1T     -1.000000
    DSFC1F   1DSFC1   1.000000   RDSFC1   -1.000000
    DSFC1F   OBJ      7425.600000   UPBROW35769 1.000000
    FCDS1F   FC1T     1.000000   DS1T     -1.000000
    FCDS1F   1DSFC1   1.000000   RDSFC1   -1.000000
    FCDS1F   OBJ      7425.600000   UPBROW35770 1.000000
    DSFC2A   DS2R     1.000000   FC2R     -1.000000
    DSFC2A   1DSFC2   1.000000   RDSFC1   -1.000000
    DSFC2A   OBJ      262.610000   UPBROW35771 1.000000
    FCDS2A   FC2R     1.000000   DS2R     -1.000000
    FCDS2A   1DSFC2   1.000000   RDSFC1   -1.000000
    FCDS2A   OBJ      262.610000   UPBROW35772 1.000000
    DSFC2F   DS2T     1.000000   FC2T     -1.000000
    DSFC2F   1DSFC2   1.000000   RDSFC1   -1.000000
    DSFC2F   OBJ      2862.900000   UPBROW35773 1.000000
    FCDS2F   FC2T     1.000000   DS2T     -1.000000
    FCDS2F   1DSFC2   1.000000   RDSFC1   -1.000000
    FCDS2F   OBJ      2862.900000   UPBROW35774 1.000000
    DSFC3A   DS3R     1.000000   FC3R     -1.000000
    DSFC3A   1DSFC3   1.000000   RDSFC1   -1.000000
    DSFC3A   OBJ      101.250000   UPBROW35775 1.000000
    FCDS3A   FC3R     1.000000   DS3R     -1.000000
    FCDS3A   1DSFC3   1.000000   RDSFC1   -1.000000
    FCDS3A   OBJ      101.250000   UPBROW35776 1.000000
    DSFC3F   DS3T     1.000000   FC3T     -1.000000
    DSFC3F   1DSFC3   1.000000   RDSFC1   -1.000000
    DSFC3F   OBJ      1103.800000   UPBROW35777 1.000000
    FCDS3F   FC3T     1.000000   DS3T     -1.000000
    FCDS3F   1DSFC3   1.000000   RDSFC1   -1.000000
    FCDS3F   OBJ      1103.800000   UPBROW35778 1.000000
    DSFC4A   DS4R     1.000000   FC4R     -1.000000
    DSFC4A   1DSFC4   1.000000   RDSFC1   -1.000000
    DSFC4A   OBJ      39.040000   UPBROW35779 1.000000
    FCDS4A   FC4R     1.000000   DS4R     -1.000000
    FCDS4A   1DSFC4   1.000000   RDSFC1   -1.000000
    FCDS4A   OBJ      39.040000   UPBROW35780 1.000000
    DSFC4F   DS4T     1.000000   FC4T     -1.000000
    DSFC4F   1DSFC4   1.000000   RDSFC1   -1.000000
    DSFC4F   OBJ      425.550000   UPBROW35781 1.000000
    FCDS4F   FC4T     1.000000   DS4T     -1.000000
    FCDS4F   1DSFC4   1.000000   RDSFC1   -1.000000
    FCDS4F   OBJ      425.550000   UPBROW35782 1.000000
    DSFC5A   DS5R     1.000000   FC5R     -1.000000
    DSFC5A   1DSFC5   1.000000   RDSFC1   -1.000000
    DSFC5A   OBJ      15.050000   UPBROW35783 1.000000
    FCDS5A   FC5R     1.000000   DS5R     -1.000000
    FCDS5A   1DSFC5   1.000000   RDSFC1   -1.000000
    FCDS5A   OBJ      15.050000   UPBROW35784 1.000000
    DSFC5F   DS5T     1.000000   FC5T     -1.000000
    DSFC5F   1DSFC5   1.000000   RDSFC1   -1.000000
    DSFC5F   OBJ      164.070000   UPBROW35785 1.000000
    FCDS5F   FC5T     1.000000   DS5T     -1.000000
    FCDS5F   1DSFC5   1.000000   RDSFC1   -1.000000
    FCDS5F   OBJ      164.070000   UPBROW35786 1.000000
    DSFC-2   RDSFC2   100000.000000   PDSFC    1.000000
    DSFC-2   OBJ      17093.000000   UPBROW35787 1.000000
    DSFC1B   DS1R     1.000000   FC1R     -1.000000
    DSFC1B   2DSFC1   1.000000   RDSFC2   -1.000000
    DSFC1B   OBJ      681.150000   UPBROW35788 1.000000
    FCDS1B   FC1R     1.000000   DS1R     -1.000000
    FCDS1B   2DSFC1   1.000000   RDSFC2   -1.000000
    FCDS1B   OBJ      681.150000   UPBROW35789 1.000000
    DSFC1G   DS1T     1.000000   FC1T     -1.000000
    DSFC1G   2DSFC1   1.000000   RDSFC2   -1.000000
    DSFC1G   OBJ      9088.400000   UPBROW35790 1.000000
    FCDS1G   FC1T     1.000000   DS1T     -1.000000
    FCDS1G   2DSFC1   1.000000   RDSFC2   -1.000000
    FCDS1G   OBJ      9088.400000   UPBROW35791 1.000000
    DSFC2B   DS2R     1.000000   FC2R     -1.000000
    DSFC2B   2DSFC2   1.000000   RDSFC2   -1.000000
    DSFC2B   OBJ      262.610000   UPBROW35792 1.000000
    FCDS2B   FC2R     1.000000   DS2R     -1.000000
    FCDS2B   2DSFC2   1.000000   RDSFC2   -1.000000
    FCDS2B   OBJ      262.610000   UPBROW35793 1.000000
    DSFC2G   DS2T     1.000000   FC2T     -1.000000
    DSFC2G   2DSFC2   1.000000   RDSFC2   -1.000000
    DSFC2G   OBJ      2862.900000   UPBROW35794 1.000000
    FCDS2G   FC2T     1.000000   DS2T     -1.000000
    FCDS2G   2DSFC2   1.000000   RDSFC2   -1.000000
    FCDS2G   OBJ      2862.900000   UPBROW35795 1.000000
    DSFC3B   DS3R     1.000000   FC3R     -1.000000
    DSFC3B   2DSFC3   1.000000   RDSFC2   -1.000000
    DSFC3B   OBJ      101.250000   UPBROW35796 1.000000
    FCDS3B   FC3R     1.000000   DS3R     -1.000000
    FCDS3B   2DSFC3   1.000000   RDSFC2   -1.000000
    FCDS3B   OBJ      101.250000   UPBROW35797 1.000000
    DSFC3G   DS3T     1.000000   FC3T     -1.000000
    DSFC3G   2DSFC3   1.000000   RDSFC2   -1.000000
    DSFC3G   OBJ      1103.800000   UPBROW35798 1.000000
    FCDS3G   FC3T     1.000000   DS3T     -1.000000
    FCDS3G   2DSFC3   1.000000   RDSFC2   -1.000000
    FCDS3G   OBJ      1103.800000   UPBROW35799 1.000000
    DSFC4B   DS4R     1.000000   FC4R     -1.000000
    DSFC4B   2DSFC4   1.000000   RDSFC2   -1.000000
    DSFC4B   OBJ      39.040000   UPBROW35800 1.000000
    FCDS4B   FC4R     1.000000   DS4R     -1.000000
    FCDS4B   2DSFC4   1.000000   RDSFC2   -1.000000
    FCDS4B   OBJ      39.040000   UPBROW35801 1.000000
    DSFC4G   DS4T     1.000000   FC4T     -1.000000
    DSFC4G   2DSFC4   1.000000   RDSFC2   -1.000000
    DSFC4G   OBJ      425.550000   UPBROW35802 1.000000
    FCDS4G   FC4T     1.000000   DS4T     -1.000000
    FCDS4G   2DSFC4   1.000000   RDSFC2   -1.000000
    FCDS4G   OBJ      425.550000   UPBROW35803 1.000000
    DSFC5B   DS5R     1.000000   FC5R     -1.000000
    DSFC5B   2DSFC5   1.000000   RDSFC2   -1.000000
    DSFC5B   OBJ      15.050000   UPBROW35804 1.000000
    FCDS5B   FC5R     1.000000   DS5R     -1.000000
    FCDS5B   2DSFC5   1.000000   RDSFC2   -1.000000
    FCDS5B   OBJ      15.050000   UPBROW35805 1.000000
    DSFC5G   DS5T     1.000000   FC5T     -1.000000
    DSFC5G   2DSFC5   1.000000   RDSFC2   -1.000000
    DSFC5G   OBJ      164.070000   UPBROW35806 1.000000
    FCDS5G   FC5T     1.000000   DS5T     -1.000000
    FCDS5G   2DSFC5   1.000000   RDSFC2   -1.000000
    FCDS5G   OBJ      164.070000   UPBROW35807 1.000000
    DSFC-3   RDSFC3   100000.000000   PDSFC    1.000000
    DSFC-3   OBJ      6590.000000   UPBROW35808 1.000000
    DSFC1C   DS1R     1.000000   FC1R     -1.000000
    DSFC1C   3DSFC1   1.000000   RDSFC3   -1.000000
    DSFC1C   OBJ      681.150000   UPBROW35809 1.000000
    FCDS1C   FC1R     1.000000   DS1R     -1.000000
    FCDS1C   3DSFC1   1.000000   RDSFC3   -1.000000
    FCDS1C   OBJ      681.150000   UPBROW35810 1.000000
    DSFC1H   DS1T     1.000000   FC1T     -1.000000
    DSFC1H   3DSFC1   1.000000   RDSFC3   -1.000000
    DSFC1H   OBJ      9088.400000   UPBROW35811 1.000000
    FCDS1H   FC1T     1.000000   DS1T     -1.000000
    FCDS1H   3DSFC1   1.000000   RDSFC3   -1.000000
    FCDS1H   OBJ      9088.400000   UPBROW35812 1.000000
    DSFC2C   DS2R     1.000000   FC2R     -1.000000
    DSFC2C   3DSFC2   1.000000   RDSFC3   -1.000000
    DSFC2C   OBJ      262.610000   UPBROW35813 1.000000
    FCDS2C   FC2R     1.000000   DS2R     -1.000000
    FCDS2C   3DSFC2   1.000000   RDSFC3   -1.000000
    FCDS2C   OBJ      262.610000   UPBROW35814 1.000000
    DSFC2H   DS2T     1.000000   FC2T     -1.000000
    DSFC2H   3DSFC2   1.000000   RDSFC3   -1.000000
    DSFC2H   OBJ      3504.000000   UPBROW35815 1.000000
    FCDS2H   FC2T     1.000000   DS2T     -1.000000
    FCDS2H   3DSFC2   1.000000   RDSFC3   -1.000000
    FCDS2H   OBJ      3504.000000   UPBROW35816 1.000000
    DSFC3C   DS3R     1.000000   FC3R     -1.000000
    DSFC3C   3DSFC3   1.000000   RDSFC3   -1.000000
    DSFC3C   OBJ      101.250000   UPBROW35817 1.000000
    FCDS3C   FC3R     1.000000   DS3R     -1.000000
    FCDS3C   3DSFC3   1.000000   RDSFC3   -1.000000
    FCDS3C   OBJ      101.250000   UPBROW35818 1.000000
    DSFC3H   DS3T     1.000000   FC3T     -1.000000
    DSFC3H   3DSFC3   1.000000   RDSFC3   -1.000000
    DSFC3H   OBJ      1103.800000   UPBROW35819 1.000000
    FCDS3H   FC3T     1.000000   DS3T     -1.000000
    FCDS3H   3DSFC3   1.000000   RDSFC3   -1.000000
    FCDS3H   OBJ      1103.800000   UPBROW35820 1.000000
    DSFC4C   DS4R     1.000000   FC4R     -1.000000
    DSFC4C   3DSFC4   1.000000   RDSFC3   -1.000000
    DSFC4C   OBJ      39.040000   UPBROW35821 1.000000
    FCDS4C   FC4R     1.000000   DS4R     -1.000000
    FCDS4C   3DSFC4   1.000000   RDSFC3   -1.000000
    FCDS4C   OBJ      39.040000   UPBROW35822 1.000000
    DSFC4H   DS4T     1.000000   FC4T     -1.000000
    DSFC4H   3DSFC4   1.000000   RDSFC3   -1.000000
    DSFC4H   OBJ      425.550000   UPBROW35823 1.000000
    FCDS4H   FC4T     1.000000   DS4T     -1.000000
    FCDS4H   3DSFC4   1.000000   RDSFC3   -1.000000
    FCDS4H   OBJ      425.550000   UPBROW35824 1.000000
    DSFC5C   DS5R     1.000000   FC5R     -1.000000
    DSFC5C   3DSFC5   1.000000   RDSFC3   -1.000000
    DSFC5C   OBJ      15.050000   UPBROW35825 1.000000
    FCDS5C   FC5R     1.000000   DS5R     -1.000000
    FCDS5C   3DSFC5   1.000000   RDSFC3   -1.000000
    FCDS5C   OBJ      15.050000   UPBROW35826 1.000000
    DSFC5H   DS5T     1.000000   FC5T     -1.000000
    DSFC5H   3DSFC5   1.000000   RDSFC3   -1.000000
    DSFC5H   OBJ      164.070000   UPBROW35827 1.000000
    FCDS5H   FC5T     1.000000   DS5T     -1.000000
    FCDS5H   3DSFC5   1.000000   RDSFC3   -1.000000
    FCDS5H   OBJ      164.070000   UPBROW35828 1.000000
    DSFC-4   RDSFC4   100000.000000   PDSFC    1.000000
    DSFC-4   UPBROW35829 1.000000
    DSFC1D   DS1R     1.000000   FC1R     -1.000000
    DSFC1D   4DSFC1   1.000000   RDSFC4   -1.000000
    DSFC1D   OBJ      681.150000   UPBROW35830 1.000000
    FCDS1D   FC1R     1.000000   DS1R     -1.000000
    FCDS1D   4DSFC1   1.000000   RDSFC4   -1.000000
    FCDS1D   OBJ      681.150000   UPBROW35831 1.000000
    DSFC1I   DS1T     1.000000   FC1T     -1.000000
    DSFC1I   4DSFC1   1.000000   RDSFC4   -1.000000
    DSFC1I   OBJ      9088.400000   UPBROW35832 1.000000
    FCDS1I   FC1T     1.000000   DS1T     -1.000000
    FCDS1I   4DSFC1   1.000000   RDSFC4   -1.000000
    FCDS1I   OBJ      9088.400000   UPBROW35833 1.000000
    DSFC2D   DS2R     1.000000   FC2R     -1.000000
    DSFC2D   4DSFC2   1.000000   RDSFC4   -1.000000
    DSFC2D   OBJ      262.610000   UPBROW35834 1.000000
    FCDS2D   FC2R     1.000000   DS2R     -1.000000
    FCDS2D   4DSFC2   1.000000   RDSFC4   -1.000000
    FCDS2D   OBJ      262.610000   UPBROW35835 1.000000
    DSFC2I   DS2T     1.000000   FC2T     -1.000000
    DSFC2I   4DSFC2   1.000000   RDSFC4   -1.000000
    DSFC2I   OBJ      3504.000000   UPBROW35836 1.000000
    FCDS2I   FC2T     1.000000   DS2T     -1.000000
    FCDS2I   4DSFC2   1.000000   RDSFC4   -1.000000
    FCDS2I   OBJ      3504.000000   UPBROW35837 1.000000
    DSFC3D   DS3R     1.000000   FC3R     -1.000000
    DSFC3D   4DSFC3   1.000000   RDSFC4   -1.000000
    DSFC3D   OBJ      101.250000   UPBROW35838 1.000000
    FCDS3D   FC3R     1.000000   DS3R     -1.000000
    FCDS3D   4DSFC3   1.000000   RDSFC4   -1.000000
    FCDS3D   OBJ      101.250000   UPBROW35839 1.000000
    DSFC3I   DS3T     1.000000   FC3T     -1.000000
    DSFC3I   4DSFC3   1.000000   RDSFC4   -1.000000
    DSFC3I   OBJ      1350.900000   UPBROW35840 1.000000
    FCDS3I   FC3T     1.000000   DS3T     -1.000000
    FCDS3I   4DSFC3   1.000000   RDSFC4   -1.000000
    FCDS3I   OBJ      1350.900000   UPBROW35841 1.000000
    DSFC4D   DS4R     1.000000   FC4R     -1.000000
    DSFC4D   4DSFC4   1.000000   RDSFC4   -1.000000
    DSFC4D   OBJ      39.040000   UPBROW35842 1.000000
    FCDS4D   FC4R     1.000000   DS4R     -1.000000
    FCDS4D   4DSFC4   1.000000   RDSFC4   -1.000000
    FCDS4D   OBJ      39.040000   UPBROW35843 1.000000
    DSFC4I   DS4T     1.000000   FC4T     -1.000000
    DSFC4I   4DSFC4   1.000000   RDSFC4   -1.000000
    DSFC4I   OBJ      520.840000   UPBROW35844 1.000000
    FCDS4I   FC4T     1.000000   DS4T     -1.000000
    FCDS4I   4DSFC4   1.000000   RDSFC4   -1.000000
    FCDS4I   OBJ      520.840000   UPBROW35845 1.000000
    DSFC5D   DS5R     1.000000   FC5R     -1.000000
    DSFC5D   4DSFC5   1.000000   RDSFC4   -1.000000
    DSFC5D   OBJ      15.050000   UPBROW35846 1.000000
    FCDS5D   FC5R     1.000000   DS5R     -1.000000
    FCDS5D   4DSFC5   1.000000   RDSFC4   -1.000000
    FCDS5D   OBJ      15.050000   UPBROW35847 1.000000
    DSFC5I   DS5T     1.000000   FC5T     -1.000000
    DSFC5I   4DSFC5   1.000000   RDSFC4   -1.000000
    DSFC5I   OBJ      200.810000   UPBROW35848 1.000000
    FCDS5I   FC5T     1.000000   DS5T     -1.000000
    FCDS5I   4DSFC5   1.000000   RDSFC4   -1.000000
    FCDS5I   OBJ      200.810000   UPBROW35849 1.000000
    FBFC-1   RFBFC1   100000.000000   PFBFC    1.000000
    FBFC-1   OBJ      0.410000   UPBROW35850 1.000000
    FBFC1A   FB1R     1.000000   FC1R     -1.000000
    FBFC1A   1FBFC1   1.000000   RFBFC1   -1.000000
    FBFC1A   OBJ      1108.300000   UPBROW35851 1.000000
    FCFB1A   FC1R     1.000000   FB1R     -1.000000
    FCFB1A   1FBFC1   1.000000   RFBFC1   -1.000000
    FCFB1A   OBJ      1108.300000   UPBROW35852 1.000000
    FBFC1F   FB1T     1.000000   FC1T     -1.000000
    FBFC1F   1FBFC1   1.000000   RFBFC1   -1.000000
    FBFC1F   OBJ      12086.000000   UPBROW35853 1.000000
    FCFB1F   FC1T     1.000000   FB1T     -1.000000
    FCFB1F   1FBFC1   1.000000   RFBFC1   -1.000000
    FCFB1F   OBJ      12086.000000   UPBROW35854 1.000000
    FBFC2A   FB2R     1.000000   FC2R     -1.000000
    FBFC2A   1FBFC2   1.000000   RFBFC1   -1.000000
    FBFC2A   OBJ      427.310000   UPBROW35855 1.000000
    FCFB2A   FC2R     1.000000   FB2R     -1.000000
    FCFB2A   1FBFC2   1.000000   RFBFC1   -1.000000
    FCFB2A   OBJ      427.310000   UPBROW35856 1.000000
    FBFC2F   FB2T     1.000000   FC2T     -1.000000
    FBFC2F   1FBFC2   1.000000   RFBFC1   -1.000000
    FBFC2F   OBJ      4659.800000   UPBROW35857 1.000000
    FCFB2F   FC2T     1.000000   FB2T     -1.000000
    FCFB2F   1FBFC2   1.000000   RFBFC1   -1.000000
    FCFB2F   OBJ      4659.800000   UPBROW35858 1.000000
    FBFC3A   FB3R     1.000000   FC3R     -1.000000
    FBFC3A   1FBFC3   1.000000   RFBFC1   -1.000000
    FBFC3A   OBJ      164.750000   UPBROW35859 1.000000
    FCFB3A   FC3R     1.000000   FB3R     -1.000000
    FCFB3A   1FBFC3   1.000000   RFBFC1   -1.000000
    FCFB3A   OBJ      164.750000   UPBROW35860 1.000000
    FBFC3F   FB3T     1.000000   FC3T     -1.000000
    FBFC3F   1FBFC3   1.000000   RFBFC1   -1.000000
    FBFC3F   OBJ      1796.500000   UPBROW35861 1.000000
    FCFB3F   FC3T     1.000000   FB3T     -1.000000
    FCFB3F   1FBFC3   1.000000   RFBFC1   -1.000000
    FCFB3F   OBJ      1796.500000   UPBROW35862 1.000000
    FBFC4A   FB4R     1.000000   FC4R     -1.000000
    FBFC4A   1FBFC4   1.000000   RFBFC1   -1.000000
    FBFC4A   OBJ      63.520000   UPBROW35863 1.000000
    FCFB4A   FC4R     1.000000   FB4R     -1.000000
    FCFB4A   1FBFC4   1.000000   RFBFC1   -1.000000
    FCFB4A   OBJ      63.520000   UPBROW35864 1.000000
    FBFC4F   FB4T     1.000000   FC4T     -1.000000
    FBFC4F   1FBFC4   1.000000   RFBFC1   -1.000000
    FBFC4F   OBJ      692.640000   UPBROW35865 1.000000
    FCFB4F   FC4T     1.000000   FB4T     -1.000000
    FCFB4F   1FBFC4   1.000000   RFBFC1   -1.000000
    FCFB4F   OBJ      692.640000   UPBROW35866 1.000000
    FBFC5A   FB5R     1.000000   FC5R     -1.000000
    FBFC5A   1FBFC5   1.000000   RFBFC1   -1.000000
    FBFC5A   OBJ      24.490000   UPBROW35867 1.000000
    FCFB5A   FC5R     1.000000   FB5R     -1.000000
    FCFB5A   1FBFC5   1.000000   RFBFC1   -1.000000
    FCFB5A   OBJ      24.490000   UPBROW35868 1.000000
    FBFC5F   FB5T     1.000000   FC5T     -1.000000
    FBFC5F   1FBFC5   1.000000   RFBFC1   -1.000000
    FBFC5F   OBJ      267.040000   UPBROW35869 1.000000
    FCFB5F   FC5T     1.000000   FB5T     -1.000000
    FCFB5F   1FBFC5   1.000000   RFBFC1   -1.000000
    FCFB5F   OBJ      267.040000   UPBROW35870 1.000000
    FBFC-2   RFBFC2   100000.000000   PFBFC    1.000000
    FBFC-2   OBJ      0.160000   UPBROW35871 1.000000
    FBFC1B   FB1R     1.000000   FC1R     -1.000000
    FBFC1B   2FBFC1   1.000000   RFBFC2   -1.000000
    FBFC1B   OBJ      1108.300000   UPBROW35872 1.000000
    FCFB1B   FC1R     1.000000   FB1R     -1.000000
    FCFB1B   2FBFC1   1.000000   RFBFC2   -1.000000
    FCFB1B   OBJ      1108.300000   UPBROW35873 1.000000
    FBFC1G   FB1T     1.000000   FC1T     -1.000000
    FBFC1G   2FBFC1   1.000000   RFBFC2   -1.000000
    FBFC1G   OBJ      14456.000000   UPBROW35874 1.000000
    FCFB1G   FC1T     1.000000   FB1T     -1.000000
    FCFB1G   2FBFC1   1.000000   RFBFC2   -1.000000
    FCFB1G   OBJ      14456.000000   UPBROW35875 1.000000
    FBFC2B   FB2R     1.000000   FC2R     -1.000000
    FBFC2B   2FBFC2   1.000000   RFBFC2   -1.000000
    FBFC2B   OBJ      427.310000   UPBROW35876 1.000000
    FCFB2B   FC2R     1.000000   FB2R     -1.000000
    FCFB2B   2FBFC2   1.000000   RFBFC2   -1.000000
    FCFB2B   OBJ      427.310000   UPBROW35877 1.000000
    FBFC2G   FB2T     1.000000   FC2T     -1.000000
    FBFC2G   2FBFC2   1.000000   RFBFC2   -1.000000
    FBFC2G   OBJ      4659.800000   UPBROW35878 1.000000
    FCFB2G   FC2T     1.000000   FB2T     -1.000000
    FCFB2G   2FBFC2   1.000000   RFBFC2   -1.000000
    FCFB2G   OBJ      4659.800000   UPBROW35879 1.000000
    FBFC3B   FB3R     1.000000   FC3R     -1.000000
    FBFC3B   2FBFC3   1.000000   RFBFC2   -1.000000
    FBFC3B   OBJ      164.750000   UPBROW35880 1.000000
    FCFB3B   FC3R     1.000000   FB3R     -1.000000
    FCFB3B   2FBFC3   1.000000   RFBFC2   -1.000000
    FCFB3B   OBJ      164.750000   UPBROW35881 1.000000
    FBFC3G   FB3T     1.000000   FC3T     -1.000000
    FBFC3G   2FBFC3   1.000000   RFBFC2   -1.000000
    FBFC3G   OBJ      1796.500000   UPBROW35882 1.000000
    FCFB3G   FC3T     1.000000   FB3T     -1.000000
    FCFB3G   2FBFC3   1.000000   RFBFC2   -1.000000
    FCFB3G   OBJ      1796.500000   UPBROW35883 1.000000
    FBFC4B   FB4R     1.000000   FC4R     -1.000000
    FBFC4B   2FBFC4   1.000000   RFBFC2   -1.000000
    FBFC4B   OBJ      63.520000   UPBROW35884 1.000000
    FCFB4B   FC4R     1.000000   FB4R     -1.000000
    FCFB4B   2FBFC4   1.000000   RFBFC2   -1.000000
    FCFB4B   OBJ      63.520000   UPBROW35885 1.000000
    FBFC4G   FB4T     1.000000   FC4T     -1.000000
    FBFC4G   2FBFC4   1.000000   RFBFC2   -1.000000
    FBFC4G   OBJ      692.640000   UPBROW35886 1.000000
    FCFB4G   FC4T     1.000000   FB4T     -1.000000
    FCFB4G   2FBFC4   1.000000   RFBFC2   -1.000000
    FCFB4G   OBJ      692.640000   UPBROW35887 1.000000
    FBFC5B   FB5R     1.000000   FC5R     -1.000000
    FBFC5B   2FBFC5   1.000000   RFBFC2   -1.000000
    FBFC5B   OBJ      24.490000   UPBROW35888 1.000000
    FCFB5B   FC5R     1.000000   FB5R     -1.000000
    FCFB5B   2FBFC5   1.000000   RFBFC2   -1.000000
    FCFB5B   OBJ      24.490000   UPBROW35889 1.000000
    FBFC5G   FB5T     1.000000   FC5T     -1.000000
    FBFC5G   2FBFC5   1.000000   RFBFC2   -1.000000
    FBFC5G   OBJ      267.040000   UPBROW35890 1.000000
    FCFB5G   FC5T     1.000000   FB5T     -1.000000
    FCFB5G   2FBFC5   1.000000   RFBFC2   -1.000000
    FCFB5G   OBJ      267.040000   UPBROW35891 1.000000
    FBFC-3   RFBFC3   100000.000000   PFBFC    1.000000
    FBFC-3   OBJ      0.060000   UPBROW35892 1.000000
    FBFC1C   FB1R     1.000000   FC1R     -1.000000
    FBFC1C   3FBFC1   1.000000   RFBFC3   -1.000000
    FBFC1C   OBJ      1108.300000   UPBROW35893 1.000000
    FCFB1C   FC1R     1.000000   FB1R     -1.000000
    FCFB1C   3FBFC1   1.000000   RFBFC3   -1.000000
    FCFB1C   OBJ      1108.300000   UPBROW35894 1.000000
    FBFC1H   FB1T     1.000000   FC1T     -1.000000
    FBFC1H   3FBFC1   1.000000   RFBFC3   -1.000000
    FBFC1H   OBJ      14456.000000   UPBROW35895 1.000000
    FCFB1H   FC1T     1.000000   FB1T     -1.000000
    FCFB1H   3FBFC1   1.000000   RFBFC3   -1.000000
    FCFB1H   OBJ      14456.000000   UPBROW35896 1.000000
    FBFC2C   FB2R     1.000000   FC2R     -1.000000
    FBFC2C   3FBFC2   1.000000   RFBFC3   -1.000000
    FBFC2C   OBJ      427.310000   UPBROW35897 1.000000
    FCFB2C   FC2R     1.000000   FB2R     -1.000000
    FCFB2C   3FBFC2   1.000000   RFBFC3   -1.000000
    FCFB2C   OBJ      427.310000   UPBROW35898 1.000000
    FBFC2H   FB2T     1.000000   FC2T     -1.000000
    FBFC2H   3FBFC2   1.000000   RFBFC3   -1.000000
    FBFC2H   OBJ      5573.300000   UPBROW35899 1.000000
    FCFB2H   FC2T     1.000000   FB2T     -1.000000
    FCFB2H   3FBFC2   1.000000   RFBFC3   -1.000000
    FCFB2H   OBJ      5573.300000   UPBROW35900 1.000000
    FBFC3C   FB3R     1.000000   FC3R     -1.000000
    FBFC3C   3FBFC3   1.000000   RFBFC3   -1.000000
    FBFC3C   OBJ      164.750000   UPBROW35901 1.000000
    FCFB3C   FC3R     1.000000   FB3R     -1.000000
    FCFB3C   3FBFC3   1.000000   RFBFC3   -1.000000
    FCFB3C   OBJ      164.750000   UPBROW35902 1.000000
    FBFC3H   FB3T     1.000000   FC3T     -1.000000
    FBFC3H   3FBFC3   1.000000   RFBFC3   -1.000000
    FBFC3H   OBJ      1796.500000   UPBROW35903 1.000000
    FCFB3H   FC3T     1.000000   FB3T     -1.000000
    FCFB3H   3FBFC3   1.000000   RFBFC3   -1.000000
    FCFB3H   OBJ      1796.500000   UPBROW35904 1.000000
    FBFC4C   FB4R     1.000000   FC4R     -1.000000
    FBFC4C   3FBFC4   1.000000   RFBFC3   -1.000000
    FBFC4C   OBJ      63.520000   UPBROW35905 1.000000
    FCFB4C   FC4R     1.000000   FB4R     -1.000000
    FCFB4C   3FBFC4   1.000000   RFBFC3   -1.000000
    FCFB4C   OBJ      63.520000   UPBROW35906 1.000000
    FBFC4H   FB4T     1.000000   FC4T     -1.000000
    FBFC4H   3FBFC4   1.000000   RFBFC3   -1.000000
    FBFC4H   OBJ      692.640000   UPBROW35907 1.000000
    FCFB4H   FC4T     1.000000   FB4T     -1.000000
    FCFB4H   3FBFC4   1.000000   RFBFC3   -1.000000
    FCFB4H   OBJ      692.640000   UPBROW35908 1.000000
    FBFC5C   FB5R     1.000000   FC5R     -1.000000
    FBFC5C   3FBFC5   1.000000   RFBFC3   -1.000000
    FBFC5C   OBJ      24.490000   UPBROW35909 1.000000
    FCFB5C   FC5R     1.000000   FB5R     -1.000000
    FCFB5C   3FBFC5   1.000000   RFBFC3   -1.000000
    FCFB5C   OBJ      24.490000   UPBROW35910 1.000000
    FBFC5H   FB5T     1.000000   FC5T     -1.000000
    FBFC5H   3FBFC5   1.000000   RFBFC3   -1.000000
    FBFC5H   OBJ      267.040000   UPBROW35911 1.000000
    FCFB5H   FC5T     1.000000   FB5T     -1.000000
    FCFB5H   3FBFC5   1.000000   RFBFC3   -1.000000
    FCFB5H   OBJ      267.040000   UPBROW35912 1.000000
    FBFC-4   RFBFC4   100000.000000   PFBFC    1.000000
    FBFC-4   UPBROW35913 1.000000
    FBFC1D   FB1R     1.000000   FC1R     -1.000000
    FBFC1D   4FBFC1   1.000000   RFBFC4   -1.000000
    FBFC1D   OBJ      1108.300000   UPBROW35914 1.000000
    FCFB1D   FC1R     1.000000   FB1R     -1.000000
    FCFB1D   4FBFC1   1.000000   RFBFC4   -1.000000
    FCFB1D   OBJ      1108.300000   UPBROW35915 1.000000
    FBFC1I   FB1T     1.000000   FC1T     -1.000000
    FBFC1I   4FBFC1   1.000000   RFBFC4   -1.000000
    FBFC1I   OBJ      14456.000000   UPBROW35916 1.000000
    FCFB1I   FC1T     1.000000   FB1T     -1.000000
    FCFB1I   4FBFC1   1.000000   RFBFC4   -1.000000
    FCFB1I   OBJ      14456.000000   UPBROW35917 1.000000
    FBFC2D   FB2R     1.000000   FC2R     -1.000000
    FBFC2D   4FBFC2   1.000000   RFBFC4   -1.000000
    FBFC2D   OBJ      427.310000   UPBROW35918 1.000000
    FCFB2D   FC2R     1.000000   FB2R     -1.000000
    FCFB2D   4FBFC2   1.000000   RFBFC4   -1.000000
    FCFB2D   OBJ      427.310000   UPBROW35919 1.000000
    FBFC2I   FB2T     1.000000   FC2T     -1.000000
    FBFC2I   4FBFC2   1.000000   RFBFC4   -1.000000
    FBFC2I   OBJ      5573.300000   UPBROW35920 1.000000
    FCFB2I   FC2T     1.000000   FB2T     -1.000000
    FCFB2I   4FBFC2   1.000000   RFBFC4   -1.000000
    FCFB2I   OBJ      5573.300000   UPBROW35921 1.000000
    FBFC3D   FB3R     1.000000   FC3R     -1.000000
    FBFC3D   4FBFC3   1.000000   RFBFC4   -1.000000
    FBFC3D   OBJ      164.750000   UPBROW35922 1.000000
    FCFB3D   FC3R     1.000000   FB3R     -1.000000
    FCFB3D   4FBFC3   1.000000   RFBFC4   -1.000000
    FCFB3D   OBJ      164.750000   UPBROW35923 1.000000
    FBFC3I   FB3T     1.000000   FC3T     -1.000000
    FBFC3I   4FBFC3   1.000000   RFBFC4   -1.000000
    FBFC3I   OBJ      2148.700000   UPBROW35924 1.000000
    FCFB3I   FC3T     1.000000   FB3T     -1.000000
    FCFB3I   4FBFC3   1.000000   RFBFC4   -1.000000
    FCFB3I   OBJ      2148.700000   UPBROW35925 1.000000
    FBFC4D   FB4R     1.000000   FC4R     -1.000000
    FBFC4D   4FBFC4   1.000000   RFBFC4   -1.000000
    FBFC4D   OBJ      63.520000   UPBROW35926 1.000000
    FCFB4D   FC4R     1.000000   FB4R     -1.000000
    FCFB4D   4FBFC4   1.000000   RFBFC4   -1.000000
    FCFB4D   OBJ      63.520000   UPBROW35927 1.000000
    FBFC4I   FB4T     1.000000   FC4T     -1.000000
    FBFC4I   4FBFC4   1.000000   RFBFC4   -1.000000
    FBFC4I   OBJ      828.430000   UPBROW35928 1.000000
    FCFB4I   FC4T     1.000000   FB4T     -1.000000
    FCFB4I   4FBFC4   1.000000   RFBFC4   -1.000000
    FCFB4I   OBJ      828.430000   UPBROW35929 1.000000
    FBFC5D   FB5R     1.000000   FC5R     -1.000000
    FBFC5D   4FBFC5   1.000000   RFBFC4   -1.000000
    FBFC5D   OBJ      24.490000   UPBROW35930 1.000000
    FCFB5D   FC5R     1.000000   FB5R     -1.000000
    FCFB5D   4FBFC5   1.000000   RFBFC4   -1.000000
    FCFB5D   OBJ      24.490000   UPBROW35931 1.000000
    FBFC5I   FB5T     1.000000   FC5T     -1.000000
    FBFC5I   4FBFC5   1.000000   RFBFC4   -1.000000
    FBFC5I   OBJ      319.400000   UPBROW35932 1.000000
    FCFB5I   FC5T     1.000000   FB5T     -1.000000
    FCFB5I   4FBFC5   1.000000   RFBFC4   -1.000000
    FCFB5I   OBJ      319.400000   UPBROW35933 1.000000
    SLACK51762 0BBBC1   1.000000
    SLACK51763 0BBBC2   1.000000
    SLACK51764 0BBBC3   1.000000
    SLACK51765 0BBBC4   1.000000
    SLACK51766 0BBBC5   1.000000
    SLACK51767 0BCBN1   1.000000
    SLACK51768 0BCBN2   1.000000
    SLACK51769 0BCBN3   1.000000
    SLACK51770 0BCBN4   1.000000
    SLACK51771 0BCBN5   1.000000
    SLACK51772 0BMBQ1   1.000000
    SLACK51773 0BMBQ2   1.000000
    SLACK51774 0BMBQ3   1.000000
    SLACK51775 0BMBQ4   1.000000
    SLACK51776 0BMBQ5   1.000000
    SLACK51777 0BNBT1   1.000000
    SLACK51778 0BNBT2   1.000000
    SLACK51779 0BNBT3   1.000000
    SLACK51780 0BNBT4   1.000000
    SLACK51781 0BNBT5   1.000000
    SLACK51782 0BPBS1   1.000000
    SLACK51783 0BPBS2   1.000000
    SLACK51784 0BPBS3   1.000000
    SLACK51785 0BPBS4   1.000000
    SLACK51786 0BPBS5   1.000000
    SLACK51787 0BQBP1   1.000000
    SLACK51788 0BQBP2   1.000000
    SLACK51789 0BQBP3   1.000000
    SLACK51790 0BQBP4   1.000000
    SLACK51791 0BQBP5   1.000000
    SLACK51792 0BSBT1   1.000000
    SLACK51793 0BSBT2   1.000000
    SLACK51794 0BSBT3   1.000000
    SLACK51795 0BSBT4   1.000000
    SLACK51796 0BSBT5   1.000000
    SLACK51797 0BTBW1   1.000000
    SLACK51798 0BTBW2   1.000000
    SLACK51799 0BTBW3   1.000000
    SLACK51800 0BTBW4   1.000000
    SLACK51801 0BTBW5   1.000000
    SLACK51802 0BUBT1   1.000000
    SLACK51803 0BUBT2   1.000000
    SLACK51804 0BUBT3   1.000000
    SLACK51805 0BUBT4   1.000000
    SLACK51806 0BUBT5   1.000000
    SLACK51807 0BUBV1   1.000000
    SLACK51808 0BUBV2   1.000000
    SLACK51809 0BUBV3   1.000000
    SLACK51810 0BUBV4   1.000000
    SLACK51811 0BUBV5   1.000000
    SLACK51812 0BUBX1   1.000000
    SLACK51813 0BUBX2   1.000000
    SLACK51814 0BUBX3   1.000000
    SLACK51815 0BUBX4   1.000000
    SLACK51816 0BUBX5   1.000000
    SLACK51817 0BVBU1   1.000000
    SLACK51818 0BVBU2   1.000000
    SLACK51819 0BVBU3   1.000000
    SLACK51820 0BVBU4   1.000000
    SLACK51821 0BVBU5   1.000000
    SLACK51822 0BVCA1   1.000000
    SLACK51823 0BVCA2   1.000000
    SLACK51824 0BVCA3   1.000000
    SLACK51825 0BVCA4   1.000000
    SLACK51826 0BVCA5   1.000000
    SLACK51827 0BWBY1   1.000000
    SLACK51828 0BWBY2   1.000000
    SLACK51829 0BWBY3   1.000000
    SLACK51830 0BWBY4   1.000000
    SLACK51831 0BWBY5   1.000000
    SLACK51832 0BXBZ1   1.000000
    SLACK51833 0BXBZ2   1.000000
    SLACK51834 0BXBZ3   1.000000
    SLACK51835 0BXBZ4   1.000000
    SLACK51836 0BXBZ5   1.000000
    SLACK51837 0BYSC1   1.000000
    SLACK51838 0BYSC2   1.000000
    SLACK51839 0BYSC3   1.000000
    SLACK51840 0BYSC4   1.000000
    SLACK51841 0BYSC5   1.000000
    SLACK51842 0BZBY1   1.000000
    SLACK51843 0BZBY2   1.000000
    SLACK51844 0BZBY3   1.000000
    SLACK51845 0BZBY4   1.000000
    SLACK51846 0BZBY5   1.000000
    SLACK51847 0CADA1   1.000000
    SLACK51848 0CADA2   1.000000
    SLACK51849 0CADA3   1.000000
    SLACK51850 0CADA4   1.000000
    SLACK51851 0CADA5   1.000000
    SLACK51852 0CBCA1   1.000000
    SLACK51853 0CBCA2   1.000000
    SLACK51854 0CBCA3   1.000000
    SLACK51855 0CBCA4   1.000000
    SLACK51856 0CBCA5   1.000000
    SLACK51857 0CBCC1   1.000000
    SLACK51858 0CBCC2   1.000000
    SLACK51859 0CBCC3   1.000000
    SLACK51860 0CBCC4   1.000000
    SLACK51861 0CBCC5   1.000000
    SLACK51862 0CBDW1   1.000000
    SLACK51863 0CBDW2   1.000000
    SLACK51864 0CBDW3   1.000000
    SLACK51865 0CBDW4   1.000000
    SLACK51866 0CBDW5   1.000000
    SLACK51867 0CCCB1   1.000000
    SLACK51868 0CCCB2   1.000000
    SLACK51869 0CCCB3   1.000000
    SLACK51870 0CCCB4   1.000000
    SLACK51871 0CCCB5   1.000000
    SLACK51872 0CCCD1   1.000000
    SLACK51873 0CCCD2   1.000000
    SLACK51874 0CCCD3   1.000000
    SLACK51875 0CCCD4   1.000000
    SLACK51876 0CCCD5   1.000000
    SLACK51877 0CSCF1   1.000000
    SLACK51878 0CSCF2   1.000000
    SLACK51879 0CSCF3   1.000000
    SLACK51880 0CSCF4   1.000000
    SLACK51881 0CSCF5   1.000000
    SLACK51882 0CVCZ1   1.000000
    SLACK51883 0CVCZ2   1.000000
    SLACK51884 0CVCZ3   1.000000
    SLACK51885 0CVCZ4   1.000000
    SLACK51886 0CVCZ5   1.000000
    SLACK51887 0CVDQ1   1.000000
    SLACK51888 0CVDQ2   1.000000
    SLACK51889 0CVDQ3   1.000000
    SLACK51890 0CVDQ4   1.000000
    SLACK51891 0CVDQ5   1.000000
    SLACK51892 0CZCV1   1.000000
    SLACK51893 0CZCV2   1.000000
    SLACK51894 0CZCV3   1.000000
    SLACK51895 0CZCV4   1.000000
    SLACK51896 0CZCV5   1.000000
    SLACK51897 0CZFX1   1.000000
    SLACK51898 0CZFX2   1.000000
    SLACK51899 0CZFX3   1.000000
    SLACK51900 0CZFX4   1.000000
    SLACK51901 0CZFX5   1.000000
    SLACK51902 0DABZ1   1.000000
    SLACK51903 0DABZ2   1.000000
    SLACK51904 0DABZ3   1.000000
    SLACK51905 0DABZ4   1.000000
    SLACK51906 0DABZ5   1.000000
    SLACK51907 0DBDA1   1.000000
    SLACK51908 0DBDA2   1.000000
    SLACK51909 0DBDA3   1.000000
    SLACK51910 0DBDA4   1.000000
    SLACK51911 0DBDA5   1.000000
    SLACK51912 0DBDH1   1.000000
    SLACK51913 0DBDH2   1.000000
    SLACK51914 0DBDH3   1.000000
    SLACK51915 0DBDH4   1.000000
    SLACK51916 0DBDH5   1.000000
    SLACK51917 0DDDB1   1.000000
    SLACK51918 0DDDB2   1.000000
    SLACK51919 0DDDB3   1.000000
    SLACK51920 0DDDB4   1.000000
    SLACK51921 0DDDB5   1.000000
    SLACK51922 0DDDL1   1.000000
    SLACK51923 0DDDL2   1.000000
    SLACK51924 0DDDL3   1.000000
    SLACK51925 0DDDL4   1.000000
    SLACK51926 0DDDL5   1.000000
    SLACK51927 0DEDD1   1.000000
    SLACK51928 0DEDD2   1.000000
    SLACK51929 0DEDD3   1.000000
    SLACK51930 0DEDD4   1.000000
    SLACK51931 0DEDD5   1.000000
    SLACK51932 0DEDL1   1.000000
    SLACK51933 0DEDL2   1.000000
    SLACK51934 0DEDL3   1.000000
    SLACK51935 0DEDL4   1.000000
    SLACK51936 0DEDL5   1.000000
    SLACK51937 0DGDA1   1.000000
    SLACK51938 0DGDA2   1.000000
    SLACK51939 0DGDA3   1.000000
    SLACK51940 0DGDA4   1.000000
    SLACK51941 0DGDA5   1.000000
    SLACK51942 0DHDG1   1.000000
    SLACK51943 0DHDG2   1.000000
    SLACK51944 0DHDG3   1.000000
    SLACK51945 0DHDG4   1.000000
    SLACK51946 0DHDG5   1.000000
    SLACK51947 0DJDH1   1.000000
    SLACK51948 0DJDH2   1.000000
    SLACK51949 0DJDH3   1.000000
    SLACK51950 0DJDH4   1.000000
    SLACK51951 0DJDH5   1.000000
    SLACK51952 0DLDD1   1.000000
    SLACK51953 0DLDD2   1.000000
    SLACK51954 0DLDD3   1.000000
    SLACK51955 0DLDD4   1.000000
    SLACK51956 0DLDD5   1.000000
    SLACK51957 0DLDE1   1.000000
    SLACK51958 0DLDE2   1.000000
    SLACK51959 0DLDE3   1.000000
    SLACK51960 0DLDE4   1.000000
    SLACK51961 0DLDE5   1.000000
    SLACK51962 0DLDM1   1.000000
    SLACK51963 0DLDM2   1.000000
    SLACK51964 0DLDM3   1.000000
    SLACK51965 0DLDM4   1.000000
    SLACK51966 0DLDM5   1.000000
    SLACK51967 0DMDJ1   1.000000
    SLACK51968 0DMDJ2   1.000000
    SLACK51969 0DMDJ3   1.000000
    SLACK51970 0DMDJ4   1.000000
    SLACK51971 0DMDJ5   1.000000
    SLACK51972 0DNDM1   1.000000
    SLACK51973 0DNDM2   1.000000
    SLACK51974 0DNDM3   1.000000
    SLACK51975 0DNDM4   1.000000
    SLACK51976 0DNDM5   1.000000
    SLACK51977 0DPDN1   1.000000
    SLACK51978 0DPDN2   1.000000
    SLACK51979 0DPDN3   1.000000
    SLACK51980 0DPDN4   1.000000
    SLACK51981 0DPDN5   1.000000
    SLACK51982 0DQDP1   1.000000
    SLACK51983 0DQDP2   1.000000
    SLACK51984 0DQDP3   1.000000
    SLACK51985 0DQDP4   1.000000
    SLACK51986 0DQDP5   1.000000
    SLACK51987 0DRDA1   1.000000
    SLACK51988 0DRDA2   1.000000
    SLACK51989 0DRDA3   1.000000
    SLACK51990 0DRDA4   1.000000
    SLACK51991 0DRDA5   1.000000
    SLACK51992 0DRDS1   1.000000
    SLACK51993 0DRDS2   1.000000
    SLACK51994 0DRDS3   1.000000
    SLACK51995 0DRDS4   1.000000
    SLACK51996 0DRDS5   1.000000
    SLACK51997 0DRFA1   1.000000
    SLACK51998 0DRFA2   1.000000
    SLACK51999 0DRFA3   1.000000
    SLACK52000 0DRFA4   1.000000
    SLACK52001 0DRFA5   1.000000
    SLACK52002 0DSDR1   1.000000
    SLACK52003 0DSDR2   1.000000
    SLACK52004 0DSDR3   1.000000
    SLACK52005 0DSDR4   1.000000
    SLACK52006 0DSDR5   1.000000
    SLACK52007 0DWCB1   1.000000
    SLACK52008 0DWCB2   1.000000
    SLACK52009 0DWCB3   1.000000
    SLACK52010 0DWCB4   1.000000
    SLACK52011 0DWCB5   1.000000
    SLACK52012 0DWDE1   1.000000
    SLACK52013 0DWDE2   1.000000
    SLACK52014 0DWDE3   1.000000
    SLACK52015 0DWDE4   1.000000
    SLACK52016 0DWDE5   1.000000
    SLACK52017 0DWDN1   1.000000
    SLACK52018 0DWDN2   1.000000
    SLACK52019 0DWDN3   1.000000
    SLACK52020 0DWDN4   1.000000
    SLACK52021 0DWDN5   1.000000
    SLACK52022 0FADR1   1.000000
    SLACK52023 0FADR2   1.000000
    SLACK52024 0FADR3   1.000000
    SLACK52025 0FADR4   1.000000
    SLACK52026 0FADR5   1.000000
    SLACK52027 0FAFE1   1.000000
    SLACK52028 0FAFE2   1.000000
    SLACK52029 0FAFE3   1.000000
    SLACK52030 0FAFE4   1.000000
    SLACK52031 0FAFE5   1.000000
    SLACK52032 0FBFA1   1.000000
    SLACK52033 0FBFA2   1.000000
    SLACK52034 0FBFA3   1.000000
    SLACK52035 0FBFA4   1.000000
    SLACK52036 0FBFA5   1.000000
    SLACK52037 0FESC1   1.000000
    SLACK52038 0FESC2   1.000000
    SLACK52039 0FESC3   1.000000
    SLACK52040 0FESC4   1.000000
    SLACK52041 0FESC5   1.000000
    SLACK52042 0FXCZ1   1.000000
    SLACK52043 0FXCZ2   1.000000
    SLACK52044 0FXCZ3   1.000000
    SLACK52045 0FXCZ4   1.000000
    SLACK52046 0FXCZ5   1.000000
    SLACK52047 0SCSO1   1.000000
    SLACK52048 0SCSO2   1.000000
    SLACK52049 0SCSO3   1.000000
    SLACK52050 0SCSO4   1.000000
    SLACK52051 0SCSO5   1.000000
    SLACK52052 0SCYN1   1.000000
    SLACK52053 0SCYN2   1.000000
    SLACK52054 0SCYN3   1.000000
    SLACK52055 0SCYN4   1.000000
    SLACK52056 0SCYN5   1.000000
    SLACK52057 RBBBL1   -1.000000
    SLACK52058 1BBBL1   1.000000
    SLACK52059 1BBBL2   1.000000
    SLACK52060 1BBBL3   1.000000
    SLACK52061 1BBBL4   1.000000
    SLACK52062 1BBBL5   1.000000
    SLACK52063 RBBBL2   -1.000000
    SLACK52064 2BBBL1   1.000000
    SLACK52065 2BBBL2   1.000000
    SLACK52066 2BBBL3   1.000000
    SLACK52067 2BBBL4   1.000000
    SLACK52068 2BBBL5   1.000000
    SLACK52069 RBBBL3   -1.000000
    SLACK52070 3BBBL1   1.000000
    SLACK52071 3BBBL2   1.000000
    SLACK52072 3BBBL3   1.000000
    SLACK52073 3BBBL4   1.000000
    SLACK52074 3BBBL5   1.000000
    SLACK52075 RBBBL4   -1.000000
    SLACK52076 4BBBL1   1.000000
    SLACK52077 4BBBL2   1.000000
    SLACK52078 4BBBL3   1.000000
    SLACK52079 4BBBL4   1.000000
    SLACK52080 4BBBL5   1.000000
    SLACK52081 RBBBL5   -1.000000
    SLACK52082 5BBBL1   1.000000
    SLACK52083 5BBBL2   1.000000
    SLACK52084 5BBBL3   1.000000
    SLACK52085 5BBBL4   1.000000
    SLACK52086 5BBBL5   1.000000
    SLACK52087 PBLBM    1.000000
    SLACK52088 RBLBM1   -1.000000
    SLACK52089 1BLBM1   1.000000
    SLACK52090 1BLBM2   1.000000
    SLACK52091 1BLBM3   1.000000
    SLACK52092 1BLBM4   1.000000
    SLACK52093 1BLBM5   1.000000
    SLACK52094 RBLBM2   -1.000000
    SLACK52095 2BLBM1   1.000000
    SLACK52096 2BLBM2   1.000000
    SLACK52097 2BLBM3   1.000000
    SLACK52098 2BLBM4   1.000000
    SLACK52099 2BLBM5   1.000000
    SLACK52100 RBLBM3   -1.000000
    SLACK52101 3BLBM1   1.000000
    SLACK52102 3BLBM2   1.000000
    SLACK52103 3BLBM3   1.000000
    SLACK52104 3BLBM4   1.000000
    SLACK52105 3BLBM5   1.000000
    SLACK52106 RBLBM4   -1.000000
    SLACK52107 4BLBM1   1.000000
    SLACK52108 4BLBM2   1.000000
    SLACK52109 4BLBM3   1.000000
    SLACK52110 4BLBM4   1.000000
    SLACK52111 4BLBM5   1.000000
    SLACK52112 RBLBM5   -1.000000
    SLACK52113 5BLBM1   1.000000
    SLACK52114 5BLBM2   1.000000
    SLACK52115 5BLBM3   1.000000
    SLACK52116 5BLBM4   1.000000
    SLACK52117 5BLBM5   1.000000
    SLACK52118 RBNBO1   -1.000000
    SLACK52119 1BNBO1   1.000000
    SLACK52120 1BNBO2   1.000000
    SLACK52121 1BNBO3   1.000000
    SLACK52122 1BNBO4   1.000000
    SLACK52123 1BNBO5   1.000000
    SLACK52124 RBNBO2   -1.000000
    SLACK52125 2BNBO1   1.000000
    SLACK52126 2BNBO2   1.000000
    SLACK52127 2BNBO3   1.000000
    SLACK52128 2BNBO4   1.000000
    SLACK52129 2BNBO5   1.000000
    SLACK52130 RBNBO3   -1.000000
    SLACK52131 3BNBO1   1.000000
    SLACK52132 3BNBO2   1.000000
    SLACK52133 3BNBO3   1.000000
    SLACK52134 3BNBO4   1.000000
    SLACK52135 3BNBO5   1.000000
    SLACK52136 RBNBO4   -1.000000
    SLACK52137 4BNBO1   1.000000
    SLACK52138 4BNBO2   1.000000
    SLACK52139 4BNBO3   1.000000
    SLACK52140 4BNBO4   1.000000
    SLACK52141 4BNBO5   1.000000
    SLACK52142 PBOBP    1.000000
    SLACK52143 RBOBP1   -1.000000
    SLACK52144 1BOBP1   1.000000
    SLACK52145 1BOBP2   1.000000
    SLACK52146 1BOBP3   1.000000
    SLACK52147 1BOBP4   1.000000
    SLACK52148 1BOBP5   1.000000
    SLACK52149 RBOBP2   -1.000000
    SLACK52150 2BOBP1   1.000000
    SLACK52151 2BOBP2   1.000000
    SLACK52152 2BOBP3   1.000000
    SLACK52153 2BOBP4   1.000000
    SLACK52154 2BOBP5   1.000000
    SLACK52155 RBOBP3   -1.000000
    SLACK52156 3BOBP1   1.000000
    SLACK52157 3BOBP2   1.000000
    SLACK52158 3BOBP3   1.000000
    SLACK52159 3BOBP4   1.000000
    SLACK52160 3BOBP5   1.000000
    SLACK52161 RBOBP4   -1.000000
    SLACK52162 4BOBP1   1.000000
    SLACK52163 4BOBP2   1.000000
    SLACK52164 4BOBP3   1.000000
    SLACK52165 4BOBP4   1.000000
    SLACK52166 4BOBP5   1.000000
    SLACK52167 RBPBR1   -1.000000
    SLACK52168 1BPBR1   1.000000
    SLACK52169 1BPBR2   1.000000
    SLACK52170 1BPBR3   1.000000
    SLACK52171 1BPBR4   1.000000
    SLACK52172 1BPBR5   1.000000
    SLACK52173 RBPBR2   -1.000000
    SLACK52174 2BPBR1   1.000000
    SLACK52175 2BPBR2   1.000000
    SLACK52176 2BPBR3   1.000000
    SLACK52177 2BPBR4   1.000000
    SLACK52178 2BPBR5   1.000000
    SLACK52179 RBPBR3   -1.000000
    SLACK52180 3BPBR1   1.000000
    SLACK52181 3BPBR2   1.000000
    SLACK52182 3BPBR3   1.000000
    SLACK52183 3BPBR4   1.000000
    SLACK52184 3BPBR5   1.000000
    SLACK52185 RBPBR4   -1.000000
    SLACK52186 4BPBR1   1.000000
    SLACK52187 4BPBR2   1.000000
    SLACK52188 4BPBR3   1.000000
    SLACK52189 4BPBR4   1.000000
    SLACK52190 4BPBR5   1.000000
    SLACK52191 PBQCE    1.000000
    SLACK52192 RBQCE1   -1.000000
    SLACK52193 1BQCE1   1.000000
    SLACK52194 1BQCE2   1.000000
    SLACK52195 1BQCE3   1.000000
    SLACK52196 1BQCE4   1.000000
    SLACK52197 1BQCE5   1.000000
    SLACK52198 RBQCE2   -1.000000
    SLACK52199 2BQCE1   1.000000
    SLACK52200 2BQCE2   1.000000
    SLACK52201 2BQCE3   1.000000
    SLACK52202 2BQCE4   1.000000
    SLACK52203 2BQCE5   1.000000
    SLACK52204 RBQCE3   -1.000000
    SLACK52205 3BQCE1   1.000000
    SLACK52206 3BQCE2   1.000000
    SLACK52207 3BQCE3   1.000000
    SLACK52208 3BQCE4   1.000000
    SLACK52209 3BQCE5   1.000000
    SLACK52210 RBQCE4   -1.000000
    SLACK52211 4BQCE1   1.000000
    SLACK52212 4BQCE2   1.000000
    SLACK52213 4BQCE3   1.000000
    SLACK52214 4BQCE4   1.000000
    SLACK52215 4BQCE5   1.000000
    SLACK52216 RBRBV1   -1.000000
    SLACK52217 1BRBV1   1.000000
    SLACK52218 1BRBV2   1.000000
    SLACK52219 1BRBV3   1.000000
    SLACK52220 1BRBV4   1.000000
    SLACK52221 1BRBV5   1.000000
    SLACK52222 RBRBV2   -1.000000
    SLACK52223 2BRBV1   1.000000
    SLACK52224 2BRBV2   1.000000
    SLACK52225 2BRBV3   1.000000
    SLACK52226 2BRBV4   1.000000
    SLACK52227 2BRBV5   1.000000
    SLACK52228 RBRBV3   -1.000000
    SLACK52229 3BRBV1   1.000000
    SLACK52230 3BRBV2   1.000000
    SLACK52231 3BRBV3   1.000000
    SLACK52232 3BRBV4   1.000000
    SLACK52233 3BRBV5   1.000000
    SLACK52234 RBRBV4   -1.000000
    SLACK52235 4BRBV1   1.000000
    SLACK52236 4BRBV2   1.000000
    SLACK52237 4BRBV3   1.000000
    SLACK52238 4BRBV4   1.000000
    SLACK52239 4BRBV5   1.000000
    SLACK52240 PBRCD    1.000000
    SLACK52241 RBRCD1   -1.000000
    SLACK52242 1BRCD1   1.000000
    SLACK52243 1BRCD2   1.000000
    SLACK52244 1BRCD3   1.000000
    SLACK52245 1BRCD4   1.000000
    SLACK52246 1BRCD5   1.000000
    SLACK52247 RBRCD2   -1.000000
    SLACK52248 2BRCD1   1.000000
    SLACK52249 2BRCD2   1.000000
    SLACK52250 2BRCD3   1.000000
    SLACK52251 2BRCD4   1.000000
    SLACK52252 2BRCD5   1.000000
    SLACK52253 RBRCD3   -1.000000
    SLACK52254 3BRCD1   1.000000
    SLACK52255 3BRCD2   1.000000
    SLACK52256 3BRCD3   1.000000
    SLACK52257 3BRCD4   1.000000
    SLACK52258 3BRCD5   1.000000
    SLACK52259 RBRCD4   -1.000000
    SLACK52260 4BRCD1   1.000000
    SLACK52261 4BRCD2   1.000000
    SLACK52262 4BRCD3   1.000000
    SLACK52263 4BRCD4   1.000000
    SLACK52264 4BRCD5   1.000000
    SLACK52265 RCDCE1   -1.000000
    SLACK52266 1CDCE1   1.000000
    SLACK52267 1CDCE2   1.000000
    SLACK52268 1CDCE3   1.000000
    SLACK52269 1CDCE4   1.000000
    SLACK52270 1CDCE5   1.000000
    SLACK52271 RCDCE2   -1.000000
    SLACK52272 2CDCE1   1.000000
    SLACK52273 2CDCE2   1.000000
    SLACK52274 2CDCE3   1.000000
    SLACK52275 2CDCE4   1.000000
    SLACK52276 2CDCE5   1.000000
    SLACK52277 RCDCE3   -1.000000
    SLACK52278 3CDCE1   1.000000
    SLACK52279 3CDCE2   1.000000
    SLACK52280 3CDCE3   1.000000
    SLACK52281 3CDCE4   1.000000
    SLACK52282 3CDCE5   1.000000
    SLACK52283 RCDCE4   -1.000000
    SLACK52284 4CDCE1   1.000000
    SLACK52285 4CDCE2   1.000000
    SLACK52286 4CDCE3   1.000000
    SLACK52287 4CDCE4   1.000000
    SLACK52288 4CDCE5   1.000000
    SLACK52289 PCECF    1.000000
    SLACK52290 RCECF1   -1.000000
    SLACK52291 1CECF1   1.000000
    SLACK52292 1CECF2   1.000000
    SLACK52293 1CECF3   1.000000
    SLACK52294 1CECF4   1.000000
    SLACK52295 1CECF5   1.000000
    SLACK52296 RCECF2   -1.000000
    SLACK52297 2CECF1   1.000000
    SLACK52298 2CECF2   1.000000
    SLACK52299 2CECF3   1.000000
    SLACK52300 2CECF4   1.000000
    SLACK52301 2CECF5   1.000000
    SLACK52302 RCECF3   -1.000000
    SLACK52303 3CECF1   1.000000
    SLACK52304 3CECF2   1.000000
    SLACK52305 3CECF3   1.000000
    SLACK52306 3CECF4   1.000000
    SLACK52307 3CECF5   1.000000
    SLACK52308 RCECF4   -1.000000
    SLACK52309 4CECF1   1.000000
    SLACK52310 4CECF2   1.000000
    SLACK52311 4CECF3   1.000000
    SLACK52312 4CECF4   1.000000
    SLACK52313 4CECF5   1.000000
    SLACK52314 RCSDU1   -1.000000
    SLACK52315 1CSDU1   1.000000
    SLACK52316 1CSDU2   1.000000
    SLACK52317 1CSDU3   1.000000
    SLACK52318 1CSDU4   1.000000
    SLACK52319 1CSDU5   1.000000
    SLACK52320 RCSDU2   -1.000000
    SLACK52321 2CSDU1   1.000000
    SLACK52322 2CSDU2   1.000000
    SLACK52323 2CSDU3   1.000000
    SLACK52324 2CSDU4   1.000000
    SLACK52325 2CSDU5   1.000000
    SLACK52326 RCSDU3   -1.000000
    SLACK52327 3CSDU1   1.000000
    SLACK52328 3CSDU2   1.000000
    SLACK52329 3CSDU3   1.000000
    SLACK52330 3CSDU4   1.000000
    SLACK52331 3CSDU5   1.000000
    SLACK52332 RCSDU4   -1.000000
    SLACK52333 4CSDU1   1.000000
    SLACK52334 4CSDU2   1.000000
    SLACK52335 4CSDU3   1.000000
    SLACK52336 4CSDU4   1.000000
    SLACK52337 4CSDU5   1.000000
    SLACK52338 PDHDI    1.000000
    SLACK52339 RDHDI1   -1.000000
    SLACK52340 1DHDI1   1.000000
    SLACK52341 1DHDI2   1.000000
    SLACK52342 1DHDI3   1.000000
    SLACK52343 1DHDI4   1.000000
    SLACK52344 1DHDI5   1.000000
    SLACK52345 RDHDI2   -1.000000
    SLACK52346 2DHDI1   1.000000
    SLACK52347 2DHDI2   1.000000
    SLACK52348 2DHDI3   1.000000
    SLACK52349 2DHDI4   1.000000
    SLACK52350 2DHDI5   1.000000
    SLACK52351 RDHDI3   -1.000000
    SLACK52352 3DHDI1   1.000000
    SLACK52353 3DHDI2   1.000000
    SLACK52354 3DHDI3   1.000000
    SLACK52355 3DHDI4   1.000000
    SLACK52356 3DHDI5   1.000000
    SLACK52357 RDHDI4   -1.000000
    SLACK52358 4DHDI1   1.000000
    SLACK52359 4DHDI2   1.000000
    SLACK52360 4DHDI3   1.000000
    SLACK52361 4DHDI4   1.000000
    SLACK52362 4DHDI5   1.000000
    SLACK52363 RDGDS1   -1.000000
    SLACK52364 1DGDS1   1.000000
    SLACK52365 1DGDS2   1.000000
    SLACK52366 1DGDS3   1.000000
    SLACK52367 1DGDS4   1.000000
    SLACK52368 1DGDS5   1.000000
    SLACK52369 RDGDS2   -1.000000
    SLACK52370 2DGDS1   1.000000
    SLACK52371 2DGDS2   1.000000
    SLACK52372 2DGDS3   1.000000
    SLACK52373 2DGDS4   1.000000
    SLACK52374 2DGDS5   1.000000
    SLACK52375 RDGDS3   -1.000000
    SLACK52376 3DGDS1   1.000000
    SLACK52377 3DGDS2   1.000000
    SLACK52378 3DGDS3   1.000000
    SLACK52379 3DGDS4   1.000000
    SLACK52380 3DGDS5   1.000000
    SLACK52381 RDGDS4   -1.000000
    SLACK52382 4DGDS1   1.000000
    SLACK52383 4DGDS2   1.000000
    SLACK52384 4DGDS3   1.000000
    SLACK52385 4DGDS4   1.000000
    SLACK52386 4DGDS5   1.000000
    SLACK52387 PCVDU    1.000000
    SLACK52388 RCVDU1   -1.000000
    SLACK52389 1CVDU1   1.000000
    SLACK52390 1CVDU2   1.000000
    SLACK52391 1CVDU3   1.000000
    SLACK52392 1CVDU4   1.000000
    SLACK52393 1CVDU5   1.000000
    SLACK52394 RCVDU2   -1.000000
    SLACK52395 2CVDU1   1.000000
    SLACK52396 2CVDU2   1.000000
    SLACK52397 2CVDU3   1.000000
    SLACK52398 2CVDU4   1.000000
    SLACK52399 2CVDU5   1.000000
    SLACK52400 RCVDU3   -1.000000
    SLACK52401 3CVDU1   1.000000
    SLACK52402 3CVDU2   1.000000
    SLACK52403 3CVDU3   1.000000
    SLACK52404 3CVDU4   1.000000
    SLACK52405 3CVDU5   1.000000
    SLACK52406 RCVDU4   -1.000000
    SLACK52407 4CVDU1   1.000000
    SLACK52408 4CVDU2   1.000000
    SLACK52409 4CVDU3   1.000000
    SLACK52410 4CVDU4   1.000000
    SLACK52411 4CVDU5   1.000000
    SLACK52412 RDSFC1   -1.000000
    SLACK52413 1DSFC1   1.000000
    SLACK52414 1DSFC2   1.000000
    SLACK52415 1DSFC3   1.000000
    SLACK52416 1DSFC4   1.000000
    SLACK52417 1DSFC5   1.000000
    SLACK52418 RDSFC2   -1.000000
    SLACK52419 2DSFC1   1.000000
    SLACK52420 2DSFC2   1.000000
    SLACK52421 2DSFC3   1.000000
    SLACK52422 2DSFC4   1.000000
    SLACK52423 2DSFC5   1.000000
    SLACK52424 RDSFC3   -1.000000
    SLACK52425 3DSFC1   1.000000
    SLACK52426 3DSFC2   1.000000
    SLACK52427 3DSFC3   1.000000
    SLACK52428 3DSFC4   1.000000
    SLACK52429 3DSFC5   1.000000
    SLACK52430 RDSFC4   -1.000000
    SLACK52431 4DSFC1   1.000000
    SLACK52432 4DSFC2   1.000000
    SLACK52433 4DSFC3   1.000000
    SLACK52434 4DSFC4   1.000000
    SLACK52435 4DSFC5   1.000000
    SLACK52436 PFBFC    1.000000
    SLACK52437 RFBFC1   -1.000000
    SLACK52438 1FBFC1   1.000000
    SLACK52439 1FBFC2   1.000000
    SLACK52440 1FBFC3   1.000000
    SLACK52441 1FBFC4   1.000000
    SLACK52442 1FBFC5   1.000000
    SLACK52443 RFBFC2   -1.000000
    SLACK52444 2FBFC1   1.000000
    SLACK52445 2FBFC2   1.000000
    SLACK52446 2FBFC3   1.000000
    SLACK52447 2FBFC4   1.000000
    SLACK52448 2FBFC5   1.000000
    SLACK52449 RFBFC3   -1.000000
    SLACK52450 3FBFC1   1.000000
    SLACK52451 3FBFC2   1.000000
    SLACK52452 3FBFC3   1.000000
    SLACK52453 3FBFC4   1.000000
    SLACK52454 3FBFC5   1.000000
    SLACK52455 RFBFC4   -1.000000
    SLACK52456 4FBFC1   1.000000
    SLACK52457 4FBFC2   1.000000
    SLACK52458 4FBFC3   1.000000
    SLACK52459 4FBFC4   1.000000
    SLACK52460 4FBFC5   1.000000
    SLACK52461 UPBROW33898 1.000000
    SLACK52462 UPBROW33899 1.000000
    SLACK52463 UPBROW33900 1.000000
    SLACK52464 UPBROW33901 1.000000
    SLACK52465 UPBROW33902 1.000000
    SLACK52466 UPBROW33903 1.000000
    SLACK52467 UPBROW33904 1.000000
    SLACK52468 UPBROW33905 1.000000
    SLACK52469 UPBROW33906 1.000000
    SLACK52470 UPBROW33907 1.000000
    SLACK52471 UPBROW33908 1.000000
    SLACK52472 UPBROW33909 1.000000
    SLACK52473 UPBROW33910 1.000000
    SLACK52474 UPBROW33911 1.000000
    SLACK52475 UPBROW33912 1.000000
    SLACK52476 UPBROW33913 1.000000
    SLACK52477 UPBROW33914 1.000000
    SLACK52478 UPBROW33915 1.000000
    SLACK52479 UPBROW33916 1.000000
    SLACK52480 UPBROW33917 1.000000
    SLACK52481 UPBROW33918 1.000000
    SLACK52482 UPBROW33919 1.000000
    SLACK52483 UPBROW33920 1.000000
    SLACK52484 UPBROW33921 1.000000
    SLACK52485 UPBROW33922 1.000000
    SLACK52486 UPBROW33923 1.000000
    SLACK52487 UPBROW33924 1.000000
    SLACK52488 UPBROW33925 1.000000
    SLACK52489 UPBROW33926 1.000000
    SLACK52490 UPBROW33927 1.000000
    SLACK52491 UPBROW33928 1.000000
    SLACK52492 UPBROW33929 1.000000
    SLACK52493 UPBROW33930 1.000000
    SLACK52494 UPBROW33931 1.000000
    SLACK52495 UPBROW33932 1.000000
    SLACK52496 UPBROW33933 1.000000
    SLACK52497 UPBROW33934 1.000000
    SLACK52498 UPBROW33935 1.000000
    SLACK52499 UPBROW33936 1.000000
    SLACK52500 UPBROW33937 1.000000
    SLACK52501 UPBROW33938 1.000000
    SLACK52502 UPBROW33939 1.000000
    SLACK52503 UPBROW33940 1.000000
    SLACK52504 UPBROW33941 1.000000
    SLACK52505 UPBROW33942 1.000000
    SLACK52506 UPBROW33943 1.000000
    SLACK52507 UPBROW33944 1.000000
    SLACK52508 UPBROW33945 1.000000
    SLACK52509 UPBROW33946 1.000000
    SLACK52510 UPBROW33947 1.000000
    SLACK52511 UPBROW33948 1.000000
    SLACK52512 UPBROW33949 1.000000
    SLACK52513 UPBROW33950 1.000000
    SLACK52514 UPBROW33951 1.000000
    SLACK52515 UPBROW33952 1.000000
    SLACK52516 UPBROW33953 1.000000
    SLACK52517 UPBROW33954 1.000000
    SLACK52518 UPBROW33955 1.000000
    SLACK52519 UPBROW33956 1.000000
    SLACK52520 UPBROW33957 1.000000
    SLACK52521 UPBROW33958 1.000000
    SLACK52522 UPBROW33959 1.000000
    SLACK52523 UPBROW33960 1.000000
    SLACK52524 UPBROW33961 1.000000
    SLACK52525 UPBROW33962 1.000000
    SLACK52526 UPBROW33963 1.000000
    SLACK52527 UPBROW33964 1.000000
    SLACK52528 UPBROW33965 1.000000
    SLACK52529 UPBROW33966 1.000000
    SLACK52530 UPBROW33967 1.000000
    SLACK52531 UPBROW33968 1.000000
    SLACK52532 UPBROW33969 1.000000
    SLACK52533 UPBROW33970 1.000000
    SLACK52534 UPBROW33971 1.000000
    SLACK52535 UPBROW33972 1.000000
    SLACK52536 UPBROW33973 1.000000
    SLACK52537 UPBROW33974 1.000000
    SLACK52538 UPBROW33975 1.000000
    SLACK52539 UPBROW33976 1.000000
    SLACK52540 UPBROW33977 1.000000
    SLACK52541 UPBROW33978 1.000000
    SLACK52542 UPBROW33979 1.000000
    SLACK52543 UPBROW33980 1.000000
    SLACK52544 UPBROW33981 1.000000
    SLACK52545 UPBROW33982 1.000000
    SLACK52546 UPBROW33983 1.000000
    SLACK52547 UPBROW33984 1.000000
    SLACK52548 UPBROW33985 1.000000
    SLACK52549 UPBROW33986 1.000000
    SLACK52550 UPBROW33987 1.000000
    SLACK52551 UPBROW33988 1.000000
    SLACK52552 UPBROW33989 1.000000
    SLACK52553 UPBROW33990 1.000000
    SLACK52554 UPBROW33991 1.000000
    SLACK52555 UPBROW33992 1.000000
    SLACK52556 UPBROW33993 1.000000
    SLACK52557 UPBROW33994 1.000000
    SLACK52558 UPBROW33995 1.000000
    SLACK52559 UPBROW33996 1.000000
    SLACK52560 UPBROW33997 1.000000
    SLACK52561 UPBROW33998 1.000000
    SLACK52562 UPBROW33999 1.000000
    SLACK52563 UPBROW34000 1.000000
    SLACK52564 UPBROW34001 1.000000
    SLACK52565 UPBROW34002 1.000000
    SLACK52566 UPBROW34003 1.000000
    SLACK52567 UPBROW34004 1.000000
    SLACK52568 UPBROW34005 1.000000
    SLACK52569 UPBROW34006 1.000000
    SLACK52570 UPBROW34007 1.000000
    SLACK52571 UPBROW34008 1.000000
    SLACK52572 UPBROW34009 1.000000
    SLACK52573 UPBROW34010 1.000000
    SLACK52574 UPBROW34011 1.000000
    SLACK52575 UPBROW34012 1.000000
    SLACK52576 UPBROW34013 1.000000
    SLACK52577 UPBROW34014 1.000000
    SLACK52578 UPBROW34015 1.000000
    SLACK52579 UPBROW34016 1.000000
    SLACK52580 UPBROW34017 1.000000
    SLACK52581 UPBROW34018 1.000000
    SLACK52582 UPBROW34019 1.000000
    SLACK52583 UPBROW34020 1.000000
    SLACK52584 UPBROW34021 1.000000
    SLACK52585 UPBROW34022 1.000000
    SLACK52586 UPBROW34023 1.000000
    SLACK52587 UPBROW34024 1.000000
    SLACK52588 UPBROW34025 1.000000
    SLACK52589 UPBROW34026 1.000000
    SLACK52590 UPBROW34027 1.000000
    SLACK52591 UPBROW34028 1.000000
    SLACK52592 UPBROW34029 1.000000
    SLACK52593 UPBROW34030 1.000000
    SLACK52594 UPBROW34031 1.000000
    SLACK52595 UPBROW34032 1.000000
    SLACK52596 UPBROW34033 1.000000
    SLACK52597 UPBROW34034 1.000000
    SLACK52598 UPBROW34035 1.000000
    SLACK52599 UPBROW34036 1.000000
    SLACK52600 UPBROW34037 1.000000
    SLACK52601 UPBROW34038 1.000000
    SLACK52602 UPBROW34039 1.000000
    SLACK52603 UPBROW34040 1.000000
    SLACK52604 UPBROW34041 1.000000
    SLACK52605 UPBROW34042 1.000000
    SLACK52606 UPBROW34043 1.000000
    SLACK52607 UPBROW34044 1.000000
    SLACK52608 UPBROW34045 1.000000
    SLACK52609 UPBROW34046 1.000000
    SLACK52610 UPBROW34047 1.000000
    SLACK52611 UPBROW34048 1.000000
    SLACK52612 UPBROW34049 1.000000
    SLACK52613 UPBROW34050 1.000000
    SLACK52614 UPBROW34051 1.000000
    SLACK52615 UPBROW34052 1.000000
    SLACK52616 UPBROW34053 1.000000
    SLACK52617 UPBROW34054 1.000000
    SLACK52618 UPBROW34055 1.000000
    SLACK52619 UPBROW34056 1.000000
    SLACK52620 UPBROW34057 1.000000
    SLACK52621 UPBROW34058 1.000000
    SLACK52622 UPBROW34059 1.000000
    SLACK52623 UPBROW34060 1.000000
    SLACK52624 UPBROW34061 1.000000
    SLACK52625 UPBROW34062 1.000000
    SLACK52626 UPBROW34063 1.000000
    SLACK52627 UPBROW34064 1.000000
    SLACK52628 UPBROW34065 1.000000
    SLACK52629 UPBROW34066 1.000000
    SLACK52630 UPBROW34067 1.000000
    SLACK52631 UPBROW34068 1.000000
    SLACK52632 UPBROW34069 1.000000
    SLACK52633 UPBROW34070 1.000000
    SLACK52634 UPBROW34071 1.000000
    SLACK52635 UPBROW34072 1.000000
    SLACK52636 UPBROW34073 1.000000
    SLACK52637 UPBROW34074 1.000000
    SLACK52638 UPBROW34075 1.000000
    SLACK52639 UPBROW34076 1.000000
    SLACK52640 UPBROW34077 1.000000
    SLACK52641 UPBROW34078 1.000000
    SLACK52642 UPBROW34079 1.000000
    SLACK52643 UPBROW34080 1.000000
    SLACK52644 UPBROW34081 1.000000
    SLACK52645 UPBROW34082 1.000000
    SLACK52646 UPBROW34083 1.000000
    SLACK52647 UPBROW34084 1.000000
    SLACK52648 UPBROW34085 1.000000
    SLACK52649 UPBROW34086 1.000000
    SLACK52650 UPBROW34087 1.000000
    SLACK52651 UPBROW34088 1.000000
    SLACK52652 UPBROW34089 1.000000
    SLACK52653 UPBROW34090 1.000000
    SLACK52654 UPBROW34091 1.000000
    SLACK52655 UPBROW34092 1.000000
    SLACK52656 UPBROW34093 1.000000
    SLACK52657 UPBROW34094 1.000000
    SLACK52658 UPBROW34095 1.000000
    SLACK52659 UPBROW34096 1.000000
    SLACK52660 UPBROW34097 1.000000
    SLACK52661 UPBROW34098 1.000000
    SLACK52662 UPBROW34099 1.000000
    SLACK52663 UPBROW34100 1.000000
    SLACK52664 UPBROW34101 1.000000
    SLACK52665 UPBROW34102 1.000000
    SLACK52666 UPBROW34103 1.000000
    SLACK52667 UPBROW34104 1.000000
    SLACK52668 UPBROW34105 1.000000
    SLACK52669 UPBROW34106 1.000000
    SLACK52670 UPBROW34107 1.000000
    SLACK52671 UPBROW34108 1.000000
    SLACK52672 UPBROW34109 1.000000
    SLACK52673 UPBROW34110 1.000000
    SLACK52674 UPBROW34111 1.000000
    SLACK52675 UPBROW34112 1.000000
    SLACK52676 UPBROW34113 1.000000
    SLACK52677 UPBROW34114 1.000000
    SLACK52678 UPBROW34115 1.000000
    SLACK52679 UPBROW34116 1.000000
    SLACK52680 UPBROW34117 1.000000
    SLACK52681 UPBROW34118 1.000000
    SLACK52682 UPBROW34119 1.000000
    SLACK52683 UPBROW34120 1.000000
    SLACK52684 UPBROW34121 1.000000
    SLACK52685 UPBROW34122 1.000000
    SLACK52686 UPBROW34123 1.000000
    SLACK52687 UPBROW34124 1.000000
    SLACK52688 UPBROW34125 1.000000
    SLACK52689 UPBROW34126 1.000000
    SLACK52690 UPBROW34127 1.000000
    SLACK52691 UPBROW34128 1.000000
    SLACK52692 UPBROW34129 1.000000
    SLACK52693 UPBROW34130 1.000000
    SLACK52694 UPBROW34131 1.000000
    SLACK52695 UPBROW34132 1.000000
    SLACK52696 UPBROW34133 1.000000
    SLACK52697 UPBROW34134 1.000000
    SLACK52698 UPBROW34135 1.000000
    SLACK52699 UPBROW34136 1.000000
    SLACK52700 UPBROW34137 1.000000
    SLACK52701 UPBROW34138 1.000000
    SLACK52702 UPBROW34139 1.000000
    SLACK52703 UPBROW34140 1.000000
    SLACK52704 UPBROW34141 1.000000
    SLACK52705 UPBROW34142 1.000000
    SLACK52706 UPBROW34143 1.000000
    SLACK52707 UPBROW34144 1.000000
    SLACK52708 UPBROW34145 1.000000
    SLACK52709 UPBROW34146 1.000000
    SLACK52710 UPBROW34147 1.000000
    SLACK52711 UPBROW34148 1.000000
    SLACK52712 UPBROW34149 1.000000
    SLACK52713 UPBROW34150 1.000000
    SLACK52714 UPBROW34151 1.000000
    SLACK52715 UPBROW34152 1.000000
    SLACK52716 UPBROW34153 1.000000
    SLACK52717 UPBROW34154 1.000000
    SLACK52718 UPBROW34155 1.000000
    SLACK52719 UPBROW34156 1.000000
    SLACK52720 UPBROW34157 1.000000
    SLACK52721 UPBROW34158 1.000000
    SLACK52722 UPBROW34159 1.000000
    SLACK52723 UPBROW34160 1.000000
    SLACK52724 UPBROW34161 1.000000
    SLACK52725 UPBROW34162 1.000000
    SLACK52726 UPBROW34163 1.000000
    SLACK52727 UPBROW34164 1.000000
    SLACK52728 UPBROW34165 1.000000
    SLACK52729 UPBROW34166 1.000000
    SLACK52730 UPBROW34167 1.000000
    SLACK52731 UPBROW34168 1.000000
    SLACK52732 UPBROW34169 1.000000
    SLACK52733 UPBROW34170 1.000000
    SLACK52734 UPBROW34171 1.000000
    SLACK52735 UPBROW34172 1.000000
    SLACK52736 UPBROW34173 1.000000
    SLACK52737 UPBROW34174 1.000000
    SLACK52738 UPBROW34175 1.000000
    SLACK52739 UPBROW34176 1.000000
    SLACK52740 UPBROW34177 1.000000
    SLACK52741 UPBROW34178 1.000000
    SLACK52742 UPBROW34179 1.000000
    SLACK52743 UPBROW34180 1.000000
    SLACK52744 UPBROW34181 1.000000
    SLACK52745 UPBROW34182 1.000000
    SLACK52746 UPBROW34183 1.000000
    SLACK52747 UPBROW34184 1.000000
    SLACK52748 UPBROW34185 1.000000
    SLACK52749 UPBROW34186 1.000000
    SLACK52750 UPBROW34187 1.000000
    SLACK52751 UPBROW34188 1.000000
    SLACK52752 UPBROW34189 1.000000
    SLACK52753 UPBROW34190 1.000000
    SLACK52754 UPBROW34191 1.000000
    SLACK52755 UPBROW34192 1.000000
    SLACK52756 UPBROW34193 1.000000
    SLACK52757 UPBROW34194 1.000000
    SLACK52758 UPBROW34195 1.000000
    SLACK52759 UPBROW34196 1.000000
    SLACK52760 UPBROW34197 1.000000
    SLACK52761 UPBROW34198 1.000000
    SLACK52762 UPBROW34199 1.000000
    SLACK52763 UPBROW34200 1.000000
    SLACK52764 UPBROW34201 1.000000
    SLACK52765 UPBROW34202 1.000000
    SLACK52766 UPBROW34203 1.000000
    SLACK52767 UPBROW34204 1.000000
    SLACK52768 UPBROW34205 1.000000
    SLACK52769 UPBROW34206 1.000000
    SLACK52770 UPBROW34207 1.000000
    SLACK52771 UPBROW34208 1.000000
    SLACK52772 UPBROW34209 1.000000
    SLACK52773 UPBROW34210 1.000000
    SLACK52774 UPBROW34211 1.000000
    SLACK52775 UPBROW34212 1.000000
    SLACK52776 UPBROW34213 1.000000
    SLACK52777 UPBROW34214 1.000000
    SLACK52778 UPBROW34215 1.000000
    SLACK52779 UPBROW34216 1.000000
    SLACK52780 UPBROW34217 1.000000
    SLACK52781 UPBROW34218 1.000000
    SLACK52782 UPBROW34219 1.000000
    SLACK52783 UPBROW34220 1.000000
    SLACK52784 UPBROW34221 1.000000
    SLACK52785 UPBROW34222 1.000000
    SLACK52786 UPBROW34223 1.000000
    SLACK52787 UPBROW34224 1.000000
    SLACK52788 UPBROW34225 1.000000
    SLACK52789 UPBROW34226 1.000000
    SLACK52790 UPBROW34227 1.000000
    SLACK52791 UPBROW34228 1.000000
    SLACK52792 UPBROW34229 1.000000
    SLACK52793 UPBROW34230 1.000000
    SLACK52794 UPBROW34231 1.000000
    SLACK52795 UPBROW34232 1.000000
    SLACK52796 UPBROW34233 1.000000
    SLACK52797 UPBROW34234 1.000000
    SLACK52798 UPBROW34235 1.000000
    SLACK52799 UPBROW34236 1.000000
    SLACK52800 UPBROW34237 1.000000
    SLACK52801 UPBROW34238 1.000000
    SLACK52802 UPBROW34239 1.000000
    SLACK52803 UPBROW34240 1.000000
    SLACK52804 UPBROW34241 1.000000
    SLACK52805 UPBROW34242 1.000000
    SLACK52806 UPBROW34243 1.000000
    SLACK52807 UPBROW34244 1.000000
    SLACK52808 UPBROW34245 1.000000
    SLACK52809 UPBROW34246 1.000000
    SLACK52810 UPBROW34247 1.000000
    SLACK52811 UPBROW34248 1.000000
    SLACK52812 UPBROW34249 1.000000
    SLACK52813 UPBROW34250 1.000000
    SLACK52814 UPBROW34251 1.000000
    SLACK52815 UPBROW34252 1.000000
    SLACK52816 UPBROW34253 1.000000
    SLACK52817 UPBROW34254 1.000000
    SLACK52818 UPBROW34255 1.000000
    SLACK52819 UPBROW34256 1.000000
    SLACK52820 UPBROW34257 1.000000
    SLACK52821 UPBROW34258 1.000000
    SLACK52822 UPBROW34259 1.000000
    SLACK52823 UPBROW34260 1.000000
    SLACK52824 UPBROW34261 1.000000
    SLACK52825 UPBROW34262 1.000000
    SLACK52826 UPBROW34263 1.000000
    SLACK52827 UPBROW34264 1.000000
    SLACK52828 UPBROW34265 1.000000
    SLACK52829 UPBROW34266 1.000000
    SLACK52830 UPBROW34267 1.000000
    SLACK52831 UPBROW34268 1.000000
    SLACK52832 UPBROW34269 1.000000
    SLACK52833 UPBROW34270 1.000000
    SLACK52834 UPBROW34271 1.000000
    SLACK52835 UPBROW34272 1.000000
    SLACK52836 UPBROW34273 1.000000
    SLACK52837 UPBROW34274 1.000000
    SLACK52838 UPBROW34275 1.000000
    SLACK52839 UPBROW34276 1.000000
    SLACK52840 UPBROW34277 1.000000
    SLACK52841 UPBROW34278 1.000000
    SLACK52842 UPBROW34279 1.000000
    SLACK52843 UPBROW34280 1.000000
    SLACK52844 UPBROW34281 1.000000
    SLACK52845 UPBROW34282 1.000000
    SLACK52846 UPBROW34283 1.000000
    SLACK52847 UPBROW34284 1.000000
    SLACK52848 UPBROW34285 1.000000
    SLACK52849 UPBROW34286 1.000000
    SLACK52850 UPBROW34287 1.000000
    SLACK52851 UPBROW34288 1.000000
    SLACK52852 UPBROW34289 1.000000
    SLACK52853 UPBROW34290 1.000000
    SLACK52854 UPBROW34291 1.000000
    SLACK52855 UPBROW34292 1.000000
    SLACK52856 UPBROW34293 1.000000
    SLACK52857 UPBROW34294 1.000000
    SLACK52858 UPBROW34295 1.000000
    SLACK52859 UPBROW34296 1.000000
    SLACK52860 UPBROW34297 1.000000
    SLACK52861 UPBROW34298 1.000000
    SLACK52862 UPBROW34299 1.000000
    SLACK52863 UPBROW34300 1.000000
    SLACK52864 UPBROW34301 1.000000
    SLACK52865 UPBROW34302 1.000000
    SLACK52866 UPBROW34303 1.000000
    SLACK52867 UPBROW34304 1.000000
    SLACK52868 UPBROW34305 1.000000
    SLACK52869 UPBROW34306 1.000000
    SLACK52870 UPBROW34307 1.000000
    SLACK52871 UPBROW34308 1.000000
    SLACK52872 UPBROW34309 1.000000
    SLACK52873 UPBROW34310 1.000000
    SLACK52874 UPBROW34311 1.000000
    SLACK52875 UPBROW34312 1.000000
    SLACK52876 UPBROW34313 1.000000
    SLACK52877 UPBROW34314 1.000000
    SLACK52878 UPBROW34315 1.000000
    SLACK52879 UPBROW34316 1.000000
    SLACK52880 UPBROW34317 1.000000
    SLACK52881 UPBROW34318 1.000000
    SLACK52882 UPBROW34319 1.000000
    SLACK52883 UPBROW34320 1.000000
    SLACK52884 UPBROW34321 1.000000
    SLACK52885 UPBROW34322 1.000000
    SLACK52886 UPBROW34323 1.000000
    SLACK52887 UPBROW34324 1.000000
    SLACK52888 UPBROW34325 1.000000
    SLACK52889 UPBROW34326 1.000000
    SLACK52890 UPBROW34327 1.000000
    SLACK52891 UPBROW34328 1.000000
    SLACK52892 UPBROW34329 1.000000
    SLACK52893 UPBROW34330 1.000000
    SLACK52894 UPBROW34331 1.000000
    SLACK52895 UPBROW34332 1.000000
    SLACK52896 UPBROW34333 1.000000
    SLACK52897 UPBROW34334 1.000000
    SLACK52898 UPBROW34335 1.000000
    SLACK52899 UPBROW34336 1.000000
    SLACK52900 UPBROW34337 1.000000
    SLACK52901 UPBROW34338 1.000000
    SLACK52902 UPBROW34339 1.000000
    SLACK52903 UPBROW34340 1.000000
    SLACK52904 UPBROW34341 1.000000
    SLACK52905 UPBROW34342 1.000000
    SLACK52906 UPBROW34343 1.000000
    SLACK52907 UPBROW34344 1.000000
    SLACK52908 UPBROW34345 1.000000
    SLACK52909 UPBROW34346 1.000000
    SLACK52910 UPBROW34347 1.000000
    SLACK52911 UPBROW34348 1.000000
    SLACK52912 UPBROW34349 1.000000
    SLACK52913 UPBROW34350 1.000000
    SLACK52914 UPBROW34351 1.000000
    SLACK52915 UPBROW34352 1.000000
    SLACK52916 UPBROW34353 1.000000
    SLACK52917 UPBROW34354 1.000000
    SLACK52918 UPBROW34355 1.000000
    SLACK52919 UPBROW34356 1.000000
    SLACK52920 UPBROW34357 1.000000
    SLACK52921 UPBROW34358 1.000000
    SLACK52922 UPBROW34359 1.000000
    SLACK52923 UPBROW34360 1.000000
    SLACK52924 UPBROW34361 1.000000
    SLACK52925 UPBROW34362 1.000000
    SLACK52926 UPBROW34363 1.000000
    SLACK52927 UPBROW34364 1.000000
    SLACK52928 UPBROW34365 1.000000
    SLACK52929 UPBROW34366 1.000000
    SLACK52930 UPBROW34367 1.000000
    SLACK52931 UPBROW34368 1.000000
    SLACK52932 UPBROW34369 1.000000
    SLACK52933 UPBROW34370 1.000000
    SLACK52934 UPBROW34371 1.000000
    SLACK52935 UPBROW34372 1.000000
    SLACK52936 UPBROW34373 1.000000
    SLACK52937 UPBROW34374 1.000000
    SLACK52938 UPBROW34375 1.000000
    SLACK52939 UPBROW34376 1.000000
    SLACK52940 UPBROW34377 1.000000
    SLACK52941 UPBROW34378 1.000000
    SLACK52942 UPBROW34379 1.000000
    SLACK52943 UPBROW34380 1.000000
    SLACK52944 UPBROW34381 1.000000
    SLACK52945 UPBROW34382 1.000000
    SLACK52946 UPBROW34383 1.000000
    SLACK52947 UPBROW34384 1.000000
    SLACK52948 UPBROW34385 1.000000
    SLACK52949 UPBROW34386 1.000000
    SLACK52950 UPBROW34387 1.000000
    SLACK52951 UPBROW34388 1.000000
    SLACK52952 UPBROW34389 1.000000
    SLACK52953 UPBROW34390 1.000000
    SLACK52954 UPBROW34391 1.000000
    SLACK52955 UPBROW34392 1.000000
    SLACK52956 UPBROW34393 1.000000
    SLACK52957 UPBROW34394 1.000000
    SLACK52958 UPBROW34395 1.000000
    SLACK52959 UPBROW34396 1.000000
    SLACK52960 UPBROW34397 1.000000
    SLACK52961 UPBROW34398 1.000000
    SLACK52962 UPBROW34399 1.000000
    SLACK52963 UPBROW34400 1.000000
    SLACK52964 UPBROW34401 1.000000
    SLACK52965 UPBROW34402 1.000000
    SLACK52966 UPBROW34403 1.000000
    SLACK52967 UPBROW34404 1.000000
    SLACK52968 UPBROW34405 1.000000
    SLACK52969 UPBROW34406 1.000000
    SLACK52970 UPBROW34407 1.000000
    SLACK52971 UPBROW34408 1.000000
    SLACK52972 UPBROW34409 1.000000
    SLACK52973 UPBROW34410 1.000000
    SLACK52974 UPBROW34411 1.000000
    SLACK52975 UPBROW34412 1.000000
    SLACK52976 UPBROW34413 1.000000
    SLACK52977 UPBROW34414 1.000000
    SLACK52978 UPBROW34415 1.000000
    SLACK52979 UPBROW34416 1.000000
    SLACK52980 UPBROW34417 1.000000
    SLACK52981 UPBROW34418 1.000000
    SLACK52982 UPBROW34419 1.000000
    SLACK52983 UPBROW34420 1.000000
    SLACK52984 UPBROW34421 1.000000
    SLACK52985 UPBROW34422 1.000000
    SLACK52986 UPBROW34423 1.000000
    SLACK52987 UPBROW34424 1.000000
    SLACK52988 UPBROW34425 1.000000
    SLACK52989 UPBROW34426 1.000000
    SLACK52990 UPBROW34427 1.000000
    SLACK52991 UPBROW34428 1.000000
    SLACK52992 UPBROW34429 1.000000
    SLACK52993 UPBROW34430 1.000000
    SLACK52994 UPBROW34431 1.000000
    SLACK52995 UPBROW34432 1.000000
    SLACK52996 UPBROW34433 1.000000
    SLACK52997 UPBROW34434 1.000000
    SLACK52998 UPBROW34435 1.000000
    SLACK52999 UPBROW34436 1.000000
    SLACK53000 UPBROW34437 1.000000
    SLACK53001 UPBROW34438 1.000000
    SLACK53002 UPBROW34439 1.000000
    SLACK53003 UPBROW34440 1.000000
    SLACK53004 UPBROW34441 1.000000
    SLACK53005 UPBROW34442 1.000000
    SLACK53006 UPBROW34443 1.000000
    SLACK53007 UPBROW34444 1.000000
    SLACK53008 UPBROW34445 1.000000
    SLACK53009 UPBROW34446 1.000000
    SLACK53010 UPBROW34447 1.000000
    SLACK53011 UPBROW34448 1.000000
    SLACK53012 UPBROW34449 1.000000
    SLACK53013 UPBROW34450 1.000000
    SLACK53014 UPBROW34451 1.000000
    SLACK53015 UPBROW34452 1.000000
    SLACK53016 UPBROW34453 1.000000
    SLACK53017 UPBROW34454 1.000000
    SLACK53018 UPBROW34455 1.000000
    SLACK53019 UPBROW34456 1.000000
    SLACK53020 UPBROW34457 1.000000
    SLACK53021 UPBROW34458 1.000000
    SLACK53022 UPBROW34459 1.000000
    SLACK53023 UPBROW34460 1.000000
    SLACK53024 UPBROW34461 1.000000
    SLACK53025 UPBROW34462 1.000000
    SLACK53026 UPBROW34463 1.000000
    SLACK53027 UPBROW34464 1.000000
    SLACK53028 UPBROW34465 1.000000
    SLACK53029 UPBROW34466 1.000000
    SLACK53030 UPBROW34467 1.000000
    SLACK53031 UPBROW34468 1.000000
    SLACK53032 UPBROW34469 1.000000
    SLACK53033 UPBROW34470 1.000000
    SLACK53034 UPBROW34471 1.000000
    SLACK53035 UPBROW34472 1.000000
    SLACK53036 UPBROW34473 1.000000
    SLACK53037 UPBROW34474 1.000000
    SLACK53038 UPBROW34475 1.000000
    SLACK53039 UPBROW34476 1.000000
    SLACK53040 UPBROW34477 1.000000
    SLACK53041 UPBROW34478 1.000000
    SLACK53042 UPBROW34479 1.000000
    SLACK53043 UPBROW34480 1.000000
    SLACK53044 UPBROW34481 1.000000
    SLACK53045 UPBROW34482 1.000000
    SLACK53046 UPBROW34483 1.000000
    SLACK53047 UPBROW34484 1.000000
    SLACK53048 UPBROW34485 1.000000
    SLACK53049 UPBROW34486 1.000000
    SLACK53050 UPBROW34487 1.000000
    SLACK53051 UPBROW34488 1.000000
    SLACK53052 UPBROW34489 1.000000
    SLACK53053 UPBROW34490 1.000000
    SLACK53054 UPBROW34491 1.000000
    SLACK53055 UPBROW34492 1.000000
    SLACK53056 UPBROW34493 1.000000
    SLACK53057 UPBROW34494 1.000000
    SLACK53058 UPBROW34495 1.000000
    SLACK53059 UPBROW34496 1.000000
    SLACK53060 UPBROW34497 1.000000
    SLACK53061 UPBROW34498 1.000000
    SLACK53062 UPBROW34499 1.000000
    SLACK53063 UPBROW34500 1.000000
    SLACK53064 UPBROW34501 1.000000
    SLACK53065 UPBROW34502 1.000000
    SLACK53066 UPBROW34503 1.000000
    SLACK53067 UPBROW34504 1.000000
    SLACK53068 UPBROW34505 1.000000
    SLACK53069 UPBROW34506 1.000000
    SLACK53070 UPBROW34507 1.000000
    SLACK53071 UPBROW34508 1.000000
    SLACK53072 UPBROW34509 1.000000
    SLACK53073 UPBROW34510 1.000000
    SLACK53074 UPBROW34511 1.000000
    SLACK53075 UPBROW34512 1.000000
    SLACK53076 UPBROW34513 1.000000
    SLACK53077 UPBROW34514 1.000000
    SLACK53078 UPBROW34515 1.000000
    SLACK53079 UPBROW34516 1.000000
    SLACK53080 UPBROW34517 1.000000
    SLACK53081 UPBROW34518 1.000000
    SLACK53082 UPBROW34519 1.000000
    SLACK53083 UPBROW34520 1.000000
    SLACK53084 UPBROW34521 1.000000
    SLACK53085 UPBROW34522 1.000000
    SLACK53086 UPBROW34523 1.000000
    SLACK53087 UPBROW34524 1.000000
    SLACK53088 UPBROW34525 1.000000
    SLACK53089 UPBROW34526 1.000000
    SLACK53090 UPBROW34527 1.000000
    SLACK53091 UPBROW34528 1.000000
    SLACK53092 UPBROW34529 1.000000
    SLACK53093 UPBROW34530 1.000000
    SLACK53094 UPBROW34531 1.000000
    SLACK53095 UPBROW34532 1.000000
    SLACK53096 UPBROW34533 1.000000
    SLACK53097 UPBROW34534 1.000000
    SLACK53098 UPBROW34535 1.000000
    SLACK53099 UPBROW34536 1.000000
    SLACK53100 UPBROW34537 1.000000
    SLACK53101 UPBROW34538 1.000000
    SLACK53102 UPBROW34539 1.000000
    SLACK53103 UPBROW34540 1.000000
    SLACK53104 UPBROW34541 1.000000
    SLACK53105 UPBROW34542 1.000000
    SLACK53106 UPBROW34543 1.000000
    SLACK53107 UPBROW34544 1.000000
    SLACK53108 UPBROW34545 1.000000
    SLACK53109 UPBROW34546 1.000000
    SLACK53110 UPBROW34547 1.000000
    SLACK53111 UPBROW34548 1.000000
    SLACK53112 UPBROW34549 1.000000
    SLACK53113 UPBROW34550 1.000000
    SLACK53114 UPBROW34551 1.000000
    SLACK53115 UPBROW34552 1.000000
    SLACK53116 UPBROW34553 1.000000
    SLACK53117 UPBROW34554 1.000000
    SLACK53118 UPBROW34555 1.000000
    SLACK53119 UPBROW34556 1.000000
    SLACK53120 UPBROW34557 1.000000
    SLACK53121 UPBROW34558 1.000000
    SLACK53122 UPBROW34559 1.000000
    SLACK53123 UPBROW34560 1.000000
    SLACK53124 UPBROW34561 1.000000
    SLACK53125 UPBROW34562 1.000000
    SLACK53126 UPBROW34563 1.000000
    SLACK53127 UPBROW34564 1.000000
    SLACK53128 UPBROW34565 1.000000
    SLACK53129 UPBROW34566 1.000000
    SLACK53130 UPBROW34567 1.000000
    SLACK53131 UPBROW34568 1.000000
    SLACK53132 UPBROW34569 1.000000
    SLACK53133 UPBROW34570 1.000000
    SLACK53134 UPBROW34571 1.000000
    SLACK53135 UPBROW34572 1.000000
    SLACK53136 UPBROW34573 1.000000
    SLACK53137 UPBROW34574 1.000000
    SLACK53138 UPBROW34575 1.000000
    SLACK53139 UPBROW34576 1.000000
    SLACK53140 UPBROW34577 1.000000
    SLACK53141 UPBROW34578 1.000000
    SLACK53142 UPBROW34579 1.000000
    SLACK53143 UPBROW34580 1.000000
    SLACK53144 UPBROW34581 1.000000
    SLACK53145 UPBROW34582 1.000000
    SLACK53146 UPBROW34583 1.000000
    SLACK53147 UPBROW34584 1.000000
    SLACK53148 UPBROW34585 1.000000
    SLACK53149 UPBROW34586 1.000000
    SLACK53150 UPBROW34587 1.000000
    SLACK53151 UPBROW34588 1.000000
    SLACK53152 UPBROW34589 1.000000
    SLACK53153 UPBROW34590 1.000000
    SLACK53154 UPBROW34591 1.000000
    SLACK53155 UPBROW34592 1.000000
    SLACK53156 UPBROW34593 1.000000
    SLACK53157 UPBROW34594 1.000000
    SLACK53158 UPBROW34595 1.000000
    SLACK53159 UPBROW34596 1.000000
    SLACK53160 UPBROW34597 1.000000
    SLACK53161 UPBROW34598 1.000000
    SLACK53162 UPBROW34599 1.000000
    SLACK53163 UPBROW34600 1.000000
    SLACK53164 UPBROW34601 1.000000
    SLACK53165 UPBROW34602 1.000000
    SLACK53166 UPBROW34603 1.000000
    SLACK53167 UPBROW34604 1.000000
    SLACK53168 UPBROW34605 1.000000
    SLACK53169 UPBROW34606 1.000000
    SLACK53170 UPBROW34607 1.000000
    SLACK53171 UPBROW34608 1.000000
    SLACK53172 UPBROW34609 1.000000
    SLACK53173 UPBROW34610 1.000000
    SLACK53174 UPBROW34611 1.000000
    SLACK53175 UPBROW34612 1.000000
    SLACK53176 UPBROW34613 1.000000
    SLACK53177 UPBROW34614 1.000000
    SLACK53178 UPBROW34615 1.000000
    SLACK53179 UPBROW34616 1.000000
    SLACK53180 UPBROW34617 1.000000
    SLACK53181 UPBROW34618 1.000000
    SLACK53182 UPBROW34619 1.000000
    SLACK53183 UPBROW34620 1.000000
    SLACK53184 UPBROW34621 1.000000
    SLACK53185 UPBROW34622 1.000000
    SLACK53186 UPBROW34623 1.000000
    SLACK53187 UPBROW34624 1.000000
    SLACK53188 UPBROW34625 1.000000
    SLACK53189 UPBROW34626 1.000000
    SLACK53190 UPBROW34627 1.000000
    SLACK53191 UPBROW34628 1.000000
    SLACK53192 UPBROW34629 1.000000
    SLACK53193 UPBROW34630 1.000000
    SLACK53194 UPBROW34631 1.000000
    SLACK53195 UPBROW34632 1.000000
    SLACK53196 UPBROW34633 1.000000
    SLACK53197 UPBROW34634 1.000000
    SLACK53198 UPBROW34635 1.000000
    SLACK53199 UPBROW34636 1.000000
    SLACK53200 UPBROW34637 1.000000
    SLACK53201 UPBROW34638 1.000000
    SLACK53202 UPBROW34639 1.000000
    SLACK53203 UPBROW34640 1.000000
    SLACK53204 UPBROW34641 1.000000
    SLACK53205 UPBROW34642 1.000000
    SLACK53206 UPBROW34643 1.000000
    SLACK53207 UPBROW34644 1.000000
    SLACK53208 UPBROW34645 1.000000
    SLACK53209 UPBROW34646 1.000000
    SLACK53210 UPBROW34647 1.000000
    SLACK53211 UPBROW34648 1.000000
    SLACK53212 UPBROW34649 1.000000
    SLACK53213 UPBROW34650 1.000000
    SLACK53214 UPBROW34651 1.000000
    SLACK53215 UPBROW34652 1.000000
    SLACK53216 UPBROW34653 1.000000
    SLACK53217 UPBROW34654 1.000000
    SLACK53218 UPBROW34655 1.000000
    SLACK53219 UPBROW34656 1.000000
    SLACK53220 UPBROW34657 1.000000
    SLACK53221 UPBROW34658 1.000000
    SLACK53222 UPBROW34659 1.000000
    SLACK53223 UPBROW34660 1.000000
    SLACK53224 UPBROW34661 1.000000
    SLACK53225 UPBROW34662 1.000000
    SLACK53226 UPBROW34663 1.000000
    SLACK53227 UPBROW34664 1.000000
    SLACK53228 UPBROW34665 1.000000
    SLACK53229 UPBROW34666 1.000000
    SLACK53230 UPBROW34667 1.000000
    SLACK53231 UPBROW34668 1.000000
    SLACK53232 UPBROW34669 1.000000
    SLACK53233 UPBROW34670 1.000000
    SLACK53234 UPBROW34671 1.000000
    SLACK53235 UPBROW34672 1.000000
    SLACK53236 UPBROW34673 1.000000
    SLACK53237 UPBROW34674 1.000000
    SLACK53238 UPBROW34675 1.000000
    SLACK53239 UPBROW34676 1.000000
    SLACK53240 UPBROW34677 1.000000
    SLACK53241 UPBROW34678 1.000000
    SLACK53242 UPBROW34679 1.000000
    SLACK53243 UPBROW34680 1.000000
    SLACK53244 UPBROW34681 1.000000
    SLACK53245 UPBROW34682 1.000000
    SLACK53246 UPBROW34683 1.000000
    SLACK53247 UPBROW34684 1.000000
    SLACK53248 UPBROW34685 1.000000
    SLACK53249 UPBROW34686 1.000000
    SLACK53250 UPBROW34687 1.000000
    SLACK53251 UPBROW34688 1.000000
    SLACK53252 UPBROW34689 1.000000
    SLACK53253 UPBROW34690 1.000000
    SLACK53254 UPBROW34691 1.000000
    SLACK53255 UPBROW34692 1.000000
    SLACK53256 UPBROW34693 1.000000
    SLACK53257 UPBROW34694 1.000000
    SLACK53258 UPBROW34695 1.000000
    SLACK53259 UPBROW34696 1.000000
    SLACK53260 UPBROW34697 1.000000
    SLACK53261 UPBROW34698 1.000000
    SLACK53262 UPBROW34699 1.000000
    SLACK53263 UPBROW34700 1.000000
    SLACK53264 UPBROW34701 1.000000
    SLACK53265 UPBROW34702 1.000000
    SLACK53266 UPBROW34703 1.000000
    SLACK53267 UPBROW34704 1.000000
    SLACK53268 UPBROW34705 1.000000
    SLACK53269 UPBROW34706 1.000000
    SLACK53270 UPBROW34707 1.000000
    SLACK53271 UPBROW34708 1.000000
    SLACK53272 UPBROW34709 1.000000
    SLACK53273 UPBROW34710 1.000000
    SLACK53274 UPBROW34711 1.000000
    SLACK53275 UPBROW34712 1.000000
    SLACK53276 UPBROW34713 1.000000
    SLACK53277 UPBROW34714 1.000000
    SLACK53278 UPBROW34715 1.000000
    SLACK53279 UPBROW34716 1.000000
    SLACK53280 UPBROW34717 1.000000
    SLACK53281 UPBROW34718 1.000000
    SLACK53282 UPBROW34719 1.000000
    SLACK53283 UPBROW34720 1.000000
    SLACK53284 UPBROW34721 1.000000
    SLACK53285 UPBROW34722 1.000000
    SLACK53286 UPBROW34723 1.000000
    SLACK53287 UPBROW34724 1.000000
    SLACK53288 UPBROW34725 1.000000
    SLACK53289 UPBROW34726 1.000000
    SLACK53290 UPBROW34727 1.000000
    SLACK53291 UPBROW34728 1.000000
    SLACK53292 UPBROW34729 1.000000
    SLACK53293 UPBROW34730 1.000000
    SLACK53294 UPBROW34731 1.000000
    SLACK53295 UPBROW34732 1.000000
    SLACK53296 UPBROW34733 1.000000
    SLACK53297 UPBROW34734 1.000000
    SLACK53298 UPBROW34735 1.000000
    SLACK53299 UPBROW34736 1.000000
    SLACK53300 UPBROW34737 1.000000
    SLACK53301 UPBROW34738 1.000000
    SLACK53302 UPBROW34739 1.000000
    SLACK53303 UPBROW34740 1.000000
    SLACK53304 UPBROW34741 1.000000
    SLACK53305 UPBROW34742 1.000000
    SLACK53306 UPBROW34743 1.000000
    SLACK53307 UPBROW34744 1.000000
    SLACK53308 UPBROW34745 1.000000
    SLACK53309 UPBROW34746 1.000000
    SLACK53310 UPBROW34747 1.000000
    SLACK53311 UPBROW34748 1.000000
    SLACK53312 UPBROW34749 1.000000
    SLACK53313 UPBROW34750 1.000000
    SLACK53314 UPBROW34751 1.000000
    SLACK53315 UPBROW34752 1.000000
    SLACK53316 UPBROW34753 1.000000
    SLACK53317 UPBROW34754 1.000000
    SLACK53318 UPBROW34755 1.000000
    SLACK53319 UPBROW34756 1.000000
    SLACK53320 UPBROW34757 1.000000
    SLACK53321 UPBROW34758 1.000000
    SLACK53322 UPBROW34759 1.000000
    SLACK53323 UPBROW34760 1.000000
    SLACK53324 UPBROW34761 1.000000
    SLACK53325 UPBROW34762 1.000000
    SLACK53326 UPBROW34763 1.000000
    SLACK53327 UPBROW34764 1.000000
    SLACK53328 UPBROW34765 1.000000
    SLACK53329 UPBROW34766 1.000000
    SLACK53330 UPBROW34767 1.000000
    SLACK53331 UPBROW34768 1.000000
    SLACK53332 UPBROW34769 1.000000
    SLACK53333 UPBROW34770 1.000000
    SLACK53334 UPBROW34771 1.000000
    SLACK53335 UPBROW34772 1.000000
    SLACK53336 UPBROW34773 1.000000
    SLACK53337 UPBROW34774 1.000000
    SLACK53338 UPBROW34775 1.000000
    SLACK53339 UPBROW34776 1.000000
    SLACK53340 UPBROW34777 1.000000
    SLACK53341 UPBROW34778 1.000000
    SLACK53342 UPBROW34779 1.000000
    SLACK53343 UPBROW34780 1.000000
    SLACK53344 UPBROW34781 1.000000
    SLACK53345 UPBROW34782 1.000000
    SLACK53346 UPBROW34783 1.000000
    SLACK53347 UPBROW34784 1.000000
    SLACK53348 UPBROW34785 1.000000
    SLACK53349 UPBROW34786 1.000000
    SLACK53350 UPBROW34787 1.000000
    SLACK53351 UPBROW34788 1.000000
    SLACK53352 UPBROW34789 1.000000
    SLACK53353 UPBROW34790 1.000000
    SLACK53354 UPBROW34791 1.000000
    SLACK53355 UPBROW34792 1.000000
    SLACK53356 UPBROW34793 1.000000
    SLACK53357 UPBROW34794 1.000000
    SLACK53358 UPBROW34795 1.000000
    SLACK53359 UPBROW34796 1.000000
    SLACK53360 UPBROW34797 1.000000
    SLACK53361 UPBROW34798 1.000000
    SLACK53362 UPBROW34799 1.000000
    SLACK53363 UPBROW34800 1.000000
    SLACK53364 UPBROW34801 1.000000
    SLACK53365 UPBROW34802 1.000000
    SLACK53366 UPBROW34803 1.000000
    SLACK53367 UPBROW34804 1.000000
    SLACK53368 UPBROW34805 1.000000
    SLACK53369 UPBROW34806 1.000000
    SLACK53370 UPBROW34807 1.000000
    SLACK53371 UPBROW34808 1.000000
    SLACK53372 UPBROW34809 1.000000
    SLACK53373 UPBROW34810 1.000000
    SLACK53374 UPBROW34811 1.000000
    SLACK53375 UPBROW34812 1.000000
    SLACK53376 UPBROW34813 1.000000
    SLACK53377 UPBROW34814 1.000000
    SLACK53378 UPBROW34815 1.000000
    SLACK53379 UPBROW34816 1.000000
    SLACK53380 UPBROW34817 1.000000
    SLACK53381 UPBROW34818 1.000000
    SLACK53382 UPBROW34819 1.000000
    SLACK53383 UPBROW34820 1.000000
    SLACK53384 UPBROW34821 1.000000
    SLACK53385 UPBROW34822 1.000000
    SLACK53386 UPBROW34823 1.000000
    SLACK53387 UPBROW34824 1.000000
    SLACK53388 UPBROW34825 1.000000
    SLACK53389 UPBROW34826 1.000000
    SLACK53390 UPBROW34827 1.000000
    SLACK53391 UPBROW34828 1.000000
    SLACK53392 UPBROW34829 1.000000
    SLACK53393 UPBROW34830 1.000000
    SLACK53394 UPBROW34831 1.000000
    SLACK53395 UPBROW34832 1.000000
    SLACK53396 UPBROW34833 1.000000
    SLACK53397 UPBROW34834 1.000000
    SLACK53398 UPBROW34835 1.000000
    SLACK53399 UPBROW34836 1.000000
    SLACK53400 UPBROW34837 1.000000
    SLACK53401 UPBROW34838 1.000000
    SLACK53402 UPBROW34839 1.000000
    SLACK53403 UPBROW34840 1.000000
    SLACK53404 UPBROW34841 1.000000
    SLACK53405 UPBROW34842 1.000000
    SLACK53406 UPBROW34843 1.000000
    SLACK53407 UPBROW34844 1.000000
    SLACK53408 UPBROW34845 1.000000
    SLACK53409 UPBROW34846 1.000000
    SLACK53410 UPBROW34847 1.000000
    SLACK53411 UPBROW34848 1.000000
    SLACK53412 UPBROW34849 1.000000
    SLACK53413 UPBROW34850 1.000000
    SLACK53414 UPBROW34851 1.000000
    SLACK53415 UPBROW34852 1.000000
    SLACK53416 UPBROW34853 1.000000
    SLACK53417 UPBROW34854 1.000000
    SLACK53418 UPBROW34855 1.000000
    SLACK53419 UPBROW34856 1.000000
    SLACK53420 UPBROW34857 1.000000
    SLACK53421 UPBROW34858 1.000000
    SLACK53422 UPBROW34859 1.000000
    SLACK53423 UPBROW34860 1.000000
    SLACK53424 UPBROW34861 1.000000
    SLACK53425 UPBROW34862 1.000000
    SLACK53426 UPBROW34863 1.000000
    SLACK53427 UPBROW34864 1.000000
    SLACK53428 UPBROW34865 1.000000
    SLACK53429 UPBROW34866 1.000000
    SLACK53430 UPBROW34867 1.000000
    SLACK53431 UPBROW34868 1.000000
    SLACK53432 UPBROW34869 1.000000
    SLACK53433 UPBROW34870 1.000000
    SLACK53434 UPBROW34871 1.000000
    SLACK53435 UPBROW34872 1.000000
    SLACK53436 UPBROW34873 1.000000
    SLACK53437 UPBROW34874 1.000000
    SLACK53438 UPBROW34875 1.000000
    SLACK53439 UPBROW34876 1.000000
    SLACK53440 UPBROW34877 1.000000
    SLACK53441 UPBROW34878 1.000000
    SLACK53442 UPBROW34879 1.000000
    SLACK53443 UPBROW34880 1.000000
    SLACK53444 UPBROW34881 1.000000
    SLACK53445 UPBROW34882 1.000000
    SLACK53446 UPBROW34883 1.000000
    SLACK53447 UPBROW34884 1.000000
    SLACK53448 UPBROW34885 1.000000
    SLACK53449 UPBROW34886 1.000000
    SLACK53450 UPBROW34887 1.000000
    SLACK53451 UPBROW34888 1.000000
    SLACK53452 UPBROW34889 1.000000
    SLACK53453 UPBROW34890 1.000000
    SLACK53454 UPBROW34891 1.000000
    SLACK53455 UPBROW34892 1.000000
    SLACK53456 UPBROW34893 1.000000
    SLACK53457 UPBROW34894 1.000000
    SLACK53458 UPBROW34895 1.000000
    SLACK53459 UPBROW34896 1.000000
    SLACK53460 UPBROW34897 1.000000
    SLACK53461 UPBROW34898 1.000000
    SLACK53462 UPBROW34899 1.000000
    SLACK53463 UPBROW34900 1.000000
    SLACK53464 UPBROW34901 1.000000
    SLACK53465 UPBROW34902 1.000000
    SLACK53466 UPBROW34903 1.000000
    SLACK53467 UPBROW34904 1.000000
    SLACK53468 UPBROW34905 1.000000
    SLACK53469 UPBROW34906 1.000000
    SLACK53470 UPBROW34907 1.000000
    SLACK53471 UPBROW34908 1.000000
    SLACK53472 UPBROW34909 1.000000
    SLACK53473 UPBROW34910 1.000000
    SLACK53474 UPBROW34911 1.000000
    SLACK53475 UPBROW34912 1.000000
    SLACK53476 UPBROW34913 1.000000
    SLACK53477 UPBROW34914 1.000000
    SLACK53478 UPBROW34915 1.000000
    SLACK53479 UPBROW34916 1.000000
    SLACK53480 UPBROW34917 1.000000
    SLACK53481 UPBROW34918 1.000000
    SLACK53482 UPBROW34919 1.000000
    SLACK53483 UPBROW34920 1.000000
    SLACK53484 UPBROW34921 1.000000
    SLACK53485 UPBROW34922 1.000000
    SLACK53486 UPBROW34923 1.000000
    SLACK53487 UPBROW34924 1.000000
    SLACK53488 UPBROW34925 1.000000
    SLACK53489 UPBROW34926 1.000000
    SLACK53490 UPBROW34927 1.000000
    SLACK53491 UPBROW34928 1.000000
    SLACK53492 UPBROW34929 1.000000
    SLACK53493 UPBROW34930 1.000000
    SLACK53494 UPBROW34931 1.000000
    SLACK53495 UPBROW34932 1.000000
    SLACK53496 UPBROW34933 1.000000
    SLACK53497 UPBROW34934 1.000000
    SLACK53498 UPBROW34935 1.000000
    SLACK53499 UPBROW34936 1.000000
    SLACK53500 UPBROW34937 1.000000
    SLACK53501 UPBROW34938 1.000000
    SLACK53502 UPBROW34939 1.000000
    SLACK53503 UPBROW34940 1.000000
    SLACK53504 UPBROW34941 1.000000
    SLACK53505 UPBROW34942 1.000000
    SLACK53506 UPBROW34943 1.000000
    SLACK53507 UPBROW34944 1.000000
    SLACK53508 UPBROW34945 1.000000
    SLACK53509 UPBROW34946 1.000000
    SLACK53510 UPBROW34947 1.000000
    SLACK53511 UPBROW34948 1.000000
    SLACK53512 UPBROW34949 1.000000
    SLACK53513 UPBROW34950 1.000000
    SLACK53514 UPBROW34951 1.000000
    SLACK53515 UPBROW34952 1.000000
    SLACK53516 UPBROW34953 1.000000
    SLACK53517 UPBROW34954 1.000000
    SLACK53518 UPBROW34955 1.000000
    SLACK53519 UPBROW34956 1.000000
    SLACK53520 UPBROW34957 1.000000
    SLACK53521 UPBROW34958 1.000000
    SLACK53522 UPBROW34959 1.000000
    SLACK53523 UPBROW34960 1.000000
    SLACK53524 UPBROW34961 1.000000
    SLACK53525 UPBROW34962 1.000000
    SLACK53526 UPBROW34963 1.000000
    SLACK53527 UPBROW34964 1.000000
    SLACK53528 UPBROW34965 1.000000
    SLACK53529 UPBROW34966 1.000000
    SLACK53530 UPBROW34967 1.000000
    SLACK53531 UPBROW34968 1.000000
    SLACK53532 UPBROW34969 1.000000
    SLACK53533 UPBROW34970 1.000000
    SLACK53534 UPBROW34971 1.000000
    SLACK53535 UPBROW34972 1.000000
    SLACK53536 UPBROW34973 1.000000
    SLACK53537 UPBROW34974 1.000000
    SLACK53538 UPBROW34975 1.000000
    SLACK53539 UPBROW34976 1.000000
    SLACK53540 UPBROW34977 1.000000
    SLACK53541 UPBROW34978 1.000000
    SLACK53542 UPBROW34979 1.000000
    SLACK53543 UPBROW34980 1.000000
    SLACK53544 UPBROW34981 1.000000
    SLACK53545 UPBROW34982 1.000000
    SLACK53546 UPBROW34983 1.000000
    SLACK53547 UPBROW34984 1.000000
    SLACK53548 UPBROW34985 1.000000
    SLACK53549 UPBROW34986 1.000000
    SLACK53550 UPBROW34987 1.000000
    SLACK53551 UPBROW34988 1.000000
    SLACK53552 UPBROW34989 1.000000
    SLACK53553 UPBROW34990 1.000000
    SLACK53554 UPBROW34991 1.000000
    SLACK53555 UPBROW34992 1.000000
    SLACK53556 UPBROW34993 1.000000
    SLACK53557 UPBROW34994 1.000000
    SLACK53558 UPBROW34995 1.000000
    SLACK53559 UPBROW34996 1.000000
    SLACK53560 UPBROW34997 1.000000
    SLACK53561 UPBROW34998 1.000000
    SLACK53562 UPBROW34999 1.000000
    SLACK53563 UPBROW35000 1.000000
    SLACK53564 UPBROW35001 1.000000
    SLACK53565 UPBROW35002 1.000000
    SLACK53566 UPBROW35003 1.000000
    SLACK53567 UPBROW35004 1.000000
    SLACK53568 UPBROW35005 1.000000
    SLACK53569 UPBROW35006 1.000000
    SLACK53570 UPBROW35007 1.000000
    SLACK53571 UPBROW35008 1.000000
    SLACK53572 UPBROW35009 1.000000
    SLACK53573 UPBROW35010 1.000000
    SLACK53574 UPBROW35011 1.000000
    SLACK53575 UPBROW35012 1.000000
    SLACK53576 UPBROW35013 1.000000
    SLACK53577 UPBROW35014 1.000000
    SLACK53578 UPBROW35015 1.000000
    SLACK53579 UPBROW35016 1.000000
    SLACK53580 UPBROW35017 1.000000
    SLACK53581 UPBROW35018 1.000000
    SLACK53582 UPBROW35019 1.000000
    SLACK53583 UPBROW35020 1.000000
    SLACK53584 UPBROW35021 1.000000
    SLACK53585 UPBROW35022 1.000000
    SLACK53586 UPBROW35023 1.000000
    SLACK53587 UPBROW35024 1.000000
    SLACK53588 UPBROW35025 1.000000
    SLACK53589 UPBROW35026 1.000000
    SLACK53590 UPBROW35027 1.000000
    SLACK53591 UPBROW35028 1.000000
    SLACK53592 UPBROW35029 1.000000
    SLACK53593 UPBROW35030 1.000000
    SLACK53594 UPBROW35031 1.000000
    SLACK53595 UPBROW35032 1.000000
    SLACK53596 UPBROW35033 1.000000
    SLACK53597 UPBROW35034 1.000000
    SLACK53598 UPBROW35035 1.000000
    SLACK53599 UPBROW35036 1.000000
    SLACK53600 UPBROW35037 1.000000
    SLACK53601 UPBROW35038 1.000000
    SLACK53602 UPBROW35039 1.000000
    SLACK53603 UPBROW35040 1.000000
    SLACK53604 UPBROW35041 1.000000
    SLACK53605 UPBROW35042 1.000000
    SLACK53606 UPBROW35043 1.000000
    SLACK53607 UPBROW35044 1.000000
    SLACK53608 UPBROW35045 1.000000
    SLACK53609 UPBROW35046 1.000000
    SLACK53610 UPBROW35047 1.000000
    SLACK53611 UPBROW35048 1.000000
    SLACK53612 UPBROW35049 1.000000
    SLACK53613 UPBROW35050 1.000000
    SLACK53614 UPBROW35051 1.000000
    SLACK53615 UPBROW35052 1.000000
    SLACK53616 UPBROW35053 1.000000
    SLACK53617 UPBROW35054 1.000000
    SLACK53618 UPBROW35055 1.000000
    SLACK53619 UPBROW35056 1.000000
    SLACK53620 UPBROW35057 1.000000
    SLACK53621 UPBROW35058 1.000000
    SLACK53622 UPBROW35059 1.000000
    SLACK53623 UPBROW35060 1.000000
    SLACK53624 UPBROW35061 1.000000
    SLACK53625 UPBROW35062 1.000000
    SLACK53626 UPBROW35063 1.000000
    SLACK53627 UPBROW35064 1.000000
    SLACK53628 UPBROW35065 1.000000
    SLACK53629 UPBROW35066 1.000000
    SLACK53630 UPBROW35067 1.000000
    SLACK53631 UPBROW35068 1.000000
    SLACK53632 UPBROW35069 1.000000
    SLACK53633 UPBROW35070 1.000000
    SLACK53634 UPBROW35071 1.000000
    SLACK53635 UPBROW35072 1.000000
    SLACK53636 UPBROW35073 1.000000
    SLACK53637 UPBROW35074 1.000000
    SLACK53638 UPBROW35075 1.000000
    SLACK53639 UPBROW35076 1.000000
    SLACK53640 UPBROW35077 1.000000
    SLACK53641 UPBROW35078 1.000000
    SLACK53642 UPBROW35079 1.000000
    SLACK53643 UPBROW35080 1.000000
    SLACK53644 UPBROW35081 1.000000
    SLACK53645 UPBROW35082 1.000000
    SLACK53646 UPBROW35083 1.000000
    SLACK53647 UPBROW35084 1.000000
    SLACK53648 UPBROW35085 1.000000
    SLACK53649 UPBROW35086 1.000000
    SLACK53650 UPBROW35087 1.000000
    SLACK53651 UPBROW35088 1.000000
    SLACK53652 UPBROW35089 1.000000
    SLACK53653 UPBROW35090 1.000000
    SLACK53654 UPBROW35091 1.000000
    SLACK53655 UPBROW35092 1.000000
    SLACK53656 UPBROW35093 1.000000
    SLACK53657 UPBROW35094 1.000000
    SLACK53658 UPBROW35095 1.000000
    SLACK53659 UPBROW35096 1.000000
    SLACK53660 UPBROW35097 1.000000
    SLACK53661 UPBROW35098 1.000000
    SLACK53662 UPBROW35099 1.000000
    SLACK53663 UPBROW35100 1.000000
    SLACK53664 UPBROW35101 1.000000
    SLACK53665 UPBROW35102 1.000000
    SLACK53666 UPBROW35103 1.000000
    SLACK53667 UPBROW35104 1.000000
    SLACK53668 UPBROW35105 1.000000
    SLACK53669 UPBROW35106 1.000000
    SLACK53670 UPBROW35107 1.000000
    SLACK53671 UPBROW35108 1.000000
    SLACK53672 UPBROW35109 1.000000
    SLACK53673 UPBROW35110 1.000000
    SLACK53674 UPBROW35111 1.000000
    SLACK53675 UPBROW35112 1.000000
    SLACK53676 UPBROW35113 1.000000
    SLACK53677 UPBROW35114 1.000000
    SLACK53678 UPBROW35115 1.000000
    SLACK53679 UPBROW35116 1.000000
    SLACK53680 UPBROW35117 1.000000
    SLACK53681 UPBROW35118 1.000000
    SLACK53682 UPBROW35119 1.000000
    SLACK53683 UPBROW35120 1.000000
    SLACK53684 UPBROW35121 1.000000
    SLACK53685 UPBROW35122 1.000000
    SLACK53686 UPBROW35123 1.000000
    SLACK53687 UPBROW35124 1.000000
    SLACK53688 UPBROW35125 1.000000
    SLACK53689 UPBROW35126 1.000000
    SLACK53690 UPBROW35127 1.000000
    SLACK53691 UPBROW35128 1.000000
    SLACK53692 UPBROW35129 1.000000
    SLACK53693 UPBROW35130 1.000000
    SLACK53694 UPBROW35131 1.000000
    SLACK53695 UPBROW35132 1.000000
    SLACK53696 UPBROW35133 1.000000
    SLACK53697 UPBROW35134 1.000000
    SLACK53698 UPBROW35135 1.000000
    SLACK53699 UPBROW35136 1.000000
    SLACK53700 UPBROW35137 1.000000
    SLACK53701 UPBROW35138 1.000000
    SLACK53702 UPBROW35139 1.000000
    SLACK53703 UPBROW35140 1.000000
    SLACK53704 UPBROW35141 1.000000
    SLACK53705 UPBROW35142 1.000000
    SLACK53706 UPBROW35143 1.000000
    SLACK53707 UPBROW35144 1.000000
    SLACK53708 UPBROW35145 1.000000
    SLACK53709 UPBROW35146 1.000000
    SLACK53710 UPBROW35147 1.000000
    SLACK53711 UPBROW35148 1.000000
    SLACK53712 UPBROW35149 1.000000
    SLACK53713 UPBROW35150 1.000000
    SLACK53714 UPBROW35151 1.000000
    SLACK53715 UPBROW35152 1.000000
    SLACK53716 UPBROW35153 1.000000
    SLACK53717 UPBROW35154 1.000000
    SLACK53718 UPBROW35155 1.000000
    SLACK53719 UPBROW35156 1.000000
    SLACK53720 UPBROW35157 1.000000
    SLACK53721 UPBROW35158 1.000000
    SLACK53722 UPBROW35159 1.000000
    SLACK53723 UPBROW35160 1.000000
    SLACK53724 UPBROW35161 1.000000
    SLACK53725 UPBROW35162 1.000000
    SLACK53726 UPBROW35163 1.000000
    SLACK53727 UPBROW35164 1.000000
    SLACK53728 UPBROW35165 1.000000
    SLACK53729 UPBROW35166 1.000000
    SLACK53730 UPBROW35167 1.000000
    SLACK53731 UPBROW35168 1.000000
    SLACK53732 UPBROW35169 1.000000
    SLACK53733 UPBROW35170 1.000000
    SLACK53734 UPBROW35171 1.000000
    SLACK53735 UPBROW35172 1.000000
    SLACK53736 UPBROW35173 1.000000
    SLACK53737 UPBROW35174 1.000000
    SLACK53738 UPBROW35175 1.000000
    SLACK53739 UPBROW35176 1.000000
    SLACK53740 UPBROW35177 1.000000
    SLACK53741 UPBROW35178 1.000000
    SLACK53742 UPBROW35179 1.000000
    SLACK53743 UPBROW35180 1.000000
    SLACK53744 UPBROW35181 1.000000
    SLACK53745 UPBROW35182 1.000000
    SLACK53746 UPBROW35183 1.000000
    SLACK53747 UPBROW35184 1.000000
    SLACK53748 UPBROW35185 1.000000
    SLACK53749 UPBROW35186 1.000000
    SLACK53750 UPBROW35187 1.000000
    SLACK53751 UPBROW35188 1.000000
    SLACK53752 UPBROW35189 1.000000
    SLACK53753 UPBROW35190 1.000000
    SLACK53754 UPBROW35191 1.000000
    SLACK53755 UPBROW35192 1.000000
    SLACK53756 UPBROW35193 1.000000
    SLACK53757 UPBROW35194 1.000000
    SLACK53758 UPBROW35195 1.000000
    SLACK53759 UPBROW35196 1.000000
    SLACK53760 UPBROW35197 1.000000
    SLACK53761 UPBROW35198 1.000000
    SLACK53762 UPBROW35199 1.000000
    SLACK53763 UPBROW35200 1.000000
    SLACK53764 UPBROW35201 1.000000
    SLACK53765 UPBROW35202 1.000000
    SLACK53766 UPBROW35203 1.000000
    SLACK53767 UPBROW35204 1.000000
    SLACK53768 UPBROW35205 1.000000
    SLACK53769 UPBROW35206 1.000000
    SLACK53770 UPBROW35207 1.000000
    SLACK53771 UPBROW35208 1.000000
    SLACK53772 UPBROW35209 1.000000
    SLACK53773 UPBROW35210 1.000000
    SLACK53774 UPBROW35211 1.000000
    SLACK53775 UPBROW35212 1.000000
    SLACK53776 UPBROW35213 1.000000
    SLACK53777 UPBROW35214 1.000000
    SLACK53778 UPBROW35215 1.000000
    SLACK53779 UPBROW35216 1.000000
    SLACK53780 UPBROW35217 1.000000
    SLACK53781 UPBROW35218 1.000000
    SLACK53782 UPBROW35219 1.000000
    SLACK53783 UPBROW35220 1.000000
    SLACK53784 UPBROW35221 1.000000
    SLACK53785 UPBROW35222 1.000000
    SLACK53786 UPBROW35223 1.000000
    SLACK53787 UPBROW35224 1.000000
    SLACK53788 UPBROW35225 1.000000
    SLACK53789 UPBROW35226 1.000000
    SLACK53790 UPBROW35227 1.000000
    SLACK53791 UPBROW35228 1.000000
    SLACK53792 UPBROW35229 1.000000
    SLACK53793 UPBROW35230 1.000000
    SLACK53794 UPBROW35231 1.000000
    SLACK53795 UPBROW35232 1.000000
    SLACK53796 UPBROW35233 1.000000
    SLACK53797 UPBROW35234 1.000000
    SLACK53798 UPBROW35235 1.000000
    SLACK53799 UPBROW35236 1.000000
    SLACK53800 UPBROW35237 1.000000
    SLACK53801 UPBROW35238 1.000000
    SLACK53802 UPBROW35239 1.000000
    SLACK53803 UPBROW35240 1.000000
    SLACK53804 UPBROW35241 1.000000
    SLACK53805 UPBROW35242 1.000000
    SLACK53806 UPBROW35243 1.000000
    SLACK53807 UPBROW35244 1.000000
    SLACK53808 UPBROW35245 1.000000
    SLACK53809 UPBROW35246 1.000000
    SLACK53810 UPBROW35247 1.000000
    SLACK53811 UPBROW35248 1.000000
    SLACK53812 UPBROW35249 1.000000
    SLACK53813 UPBROW35250 1.000000
    SLACK53814 UPBROW35251 1.000000
    SLACK53815 UPBROW35252 1.000000
    SLACK53816 UPBROW35253 1.000000
    SLACK53817 UPBROW35254 1.000000
    SLACK53818 UPBROW35255 1.000000
    SLACK53819 UPBROW35256 1.000000
    SLACK53820 UPBROW35257 1.000000
    SLACK53821 UPBROW35258 1.000000
    SLACK53822 UPBROW35259 1.000000
    SLACK53823 UPBROW35260 1.000000
    SLACK53824 UPBROW35261 1.000000
    SLACK53825 UPBROW35262 1.000000
    SLACK53826 UPBROW35263 1.000000
    SLACK53827 UPBROW35264 1.000000
    SLACK53828 UPBROW35265 1.000000
    SLACK53829 UPBROW35266 1.000000
    SLACK53830 UPBROW35267 1.000000
    SLACK53831 UPBROW35268 1.000000
    SLACK53832 UPBROW35269 1.000000
    SLACK53833 UPBROW35270 1.000000
    SLACK53834 UPBROW35271 1.000000
    SLACK53835 UPBROW35272 1.000000
    SLACK53836 UPBROW35273 1.000000
    SLACK53837 UPBROW35274 1.000000
    SLACK53838 UPBROW35275 1.000000
    SLACK53839 UPBROW35276 1.000000
    SLACK53840 UPBROW35277 1.000000
    SLACK53841 UPBROW35278 1.000000
    SLACK53842 UPBROW35279 1.000000
    SLACK53843 UPBROW35280 1.000000
    SLACK53844 UPBROW35281 1.000000
    SLACK53845 UPBROW35282 1.000000
    SLACK53846 UPBROW35283 1.000000
    SLACK53847 UPBROW35284 1.000000
    SLACK53848 UPBROW35285 1.000000
    SLACK53849 UPBROW35286 1.000000
    SLACK53850 UPBROW35287 1.000000
    SLACK53851 UPBROW35288 1.000000
    SLACK53852 UPBROW35289 1.000000
    SLACK53853 UPBROW35290 1.000000
    SLACK53854 UPBROW35291 1.000000
    SLACK53855 UPBROW35292 1.000000
    SLACK53856 UPBROW35293 1.000000
    SLACK53857 UPBROW35294 1.000000
    SLACK53858 UPBROW35295 1.000000
    SLACK53859 UPBROW35296 1.000000
    SLACK53860 UPBROW35297 1.000000
    SLACK53861 UPBROW35298 1.000000
    SLACK53862 UPBROW35299 1.000000
    SLACK53863 UPBROW35300 1.000000
    SLACK53864 UPBROW35301 1.000000
    SLACK53865 UPBROW35302 1.000000
    SLACK53866 UPBROW35303 1.000000
    SLACK53867 UPBROW35304 1.000000
    SLACK53868 UPBROW35305 1.000000
    SLACK53869 UPBROW35306 1.000000
    SLACK53870 UPBROW35307 1.000000
    SLACK53871 UPBROW35308 1.000000
    SLACK53872 UPBROW35309 1.000000
    SLACK53873 UPBROW35310 1.000000
    SLACK53874 UPBROW35311 1.000000
    SLACK53875 UPBROW35312 1.000000
    SLACK53876 UPBROW35313 1.000000
    SLACK53877 UPBROW35314 1.000000
    SLACK53878 UPBROW35315 1.000000
    SLACK53879 UPBROW35316 1.000000
    SLACK53880 UPBROW35317 1.000000
    SLACK53881 UPBROW35318 1.000000
    SLACK53882 UPBROW35319 1.000000
    SLACK53883 UPBROW35320 1.000000
    SLACK53884 UPBROW35321 1.000000
    SLACK53885 UPBROW35322 1.000000
    SLACK53886 UPBROW35323 1.000000
    SLACK53887 UPBROW35324 1.000000
    SLACK53888 UPBROW35325 1.000000
    SLACK53889 UPBROW35326 1.000000
    SLACK53890 UPBROW35327 1.000000
    SLACK53891 UPBROW35328 1.000000
    SLACK53892 UPBROW35329 1.000000
    SLACK53893 UPBROW35330 1.000000
    SLACK53894 UPBROW35331 1.000000
    SLACK53895 UPBROW35332 1.000000
    SLACK53896 UPBROW35333 1.000000
    SLACK53897 UPBROW35334 1.000000
    SLACK53898 UPBROW35335 1.000000
    SLACK53899 UPBROW35336 1.000000
    SLACK53900 UPBROW35337 1.000000
    SLACK53901 UPBROW35338 1.000000
    SLACK53902 UPBROW35339 1.000000
    SLACK53903 UPBROW35340 1.000000
    SLACK53904 UPBROW35341 1.000000
    SLACK53905 UPBROW35342 1.000000
    SLACK53906 UPBROW35343 1.000000
    SLACK53907 UPBROW35344 1.000000
    SLACK53908 UPBROW35345 1.000000
    SLACK53909 UPBROW35346 1.000000
    SLACK53910 UPBROW35347 1.000000
    SLACK53911 UPBROW35348 1.000000
    SLACK53912 UPBROW35349 1.000000
    SLACK53913 UPBROW35350 1.000000
    SLACK53914 UPBROW35351 1.000000
    SLACK53915 UPBROW35352 1.000000
    SLACK53916 UPBROW35353 1.000000
    SLACK53917 UPBROW35354 1.000000
    SLACK53918 UPBROW35355 1.000000
    SLACK53919 UPBROW35356 1.000000
    SLACK53920 UPBROW35357 1.000000
    SLACK53921 UPBROW35358 1.000000
    SLACK53922 UPBROW35359 1.000000
    SLACK53923 UPBROW35360 1.000000
    SLACK53924 UPBROW35361 1.000000
    SLACK53925 UPBROW35362 1.000000
    SLACK53926 UPBROW35363 1.000000
    SLACK53927 UPBROW35364 1.000000
    SLACK53928 UPBROW35365 1.000000
    SLACK53929 UPBROW35366 1.000000
    SLACK53930 UPBROW35367 1.000000
    SLACK53931 UPBROW35368 1.000000
    SLACK53932 UPBROW35369 1.000000
    SLACK53933 UPBROW35370 1.000000
    SLACK53934 UPBROW35371 1.000000
    SLACK53935 UPBROW35372 1.000000
    SLACK53936 UPBROW35373 1.000000
    SLACK53937 UPBROW35374 1.000000
    SLACK53938 UPBROW35375 1.000000
    SLACK53939 UPBROW35376 1.000000
    SLACK53940 UPBROW35377 1.000000
    SLACK53941 UPBROW35378 1.000000
    SLACK53942 UPBROW35379 1.000000
    SLACK53943 UPBROW35380 1.000000
    SLACK53944 UPBROW35381 1.000000
    SLACK53945 UPBROW35382 1.000000
    SLACK53946 UPBROW35383 1.000000
    SLACK53947 UPBROW35384 1.000000
    SLACK53948 UPBROW35385 1.000000
    SLACK53949 UPBROW35386 1.000000
    SLACK53950 UPBROW35387 1.000000
    SLACK53951 UPBROW35388 1.000000
    SLACK53952 UPBROW35389 1.000000
    SLACK53953 UPBROW35390 1.000000
    SLACK53954 UPBROW35391 1.000000
    SLACK53955 UPBROW35392 1.000000
    SLACK53956 UPBROW35393 1.000000
    SLACK53957 UPBROW35394 1.000000
    SLACK53958 UPBROW35395 1.000000
    SLACK53959 UPBROW35396 1.000000
    SLACK53960 UPBROW35397 1.000000
    SLACK53961 UPBROW35398 1.000000
    SLACK53962 UPBROW35399 1.000000
    SLACK53963 UPBROW35400 1.000000
    SLACK53964 UPBROW35401 1.000000
    SLACK53965 UPBROW35402 1.000000
    SLACK53966 UPBROW35403 1.000000
    SLACK53967 UPBROW35404 1.000000
    SLACK53968 UPBROW35405 1.000000
    SLACK53969 UPBROW35406 1.000000
    SLACK53970 UPBROW35407 1.000000
    SLACK53971 UPBROW35408 1.000000
    SLACK53972 UPBROW35409 1.000000
    SLACK53973 UPBROW35410 1.000000
    SLACK53974 UPBROW35411 1.000000
    SLACK53975 UPBROW35412 1.000000
    SLACK53976 UPBROW35413 1.000000
    SLACK53977 UPBROW35414 1.000000
    SLACK53978 UPBROW35415 1.000000
    SLACK53979 UPBROW35416 1.000000
    SLACK53980 UPBROW35417 1.000000
    SLACK53981 UPBROW35418 1.000000
    SLACK53982 UPBROW35419 1.000000
    SLACK53983 UPBROW35420 1.000000
    SLACK53984 UPBROW35421 1.000000
    SLACK53985 UPBROW35422 1.000000
    SLACK53986 UPBROW35423 1.000000
    SLACK53987 UPBROW35424 1.000000
    SLACK53988 UPBROW35425 1.000000
    SLACK53989 UPBROW35426 1.000000
    SLACK53990 UPBROW35427 1.000000
    SLACK53991 UPBROW35428 1.000000
    SLACK53992 UPBROW35429 1.000000
    SLACK53993 UPBROW35430 1.000000
    SLACK53994 UPBROW35431 1.000000
    SLACK53995 UPBROW35432 1.000000
    SLACK53996 UPBROW35433 1.000000
    SLACK53997 UPBROW35434 1.000000
    SLACK53998 UPBROW35435 1.000000
    SLACK53999 UPBROW35436 1.000000
    SLACK54000 UPBROW35437 1.000000
    SLACK54001 UPBROW35438 1.000000
    SLACK54002 UPBROW35439 1.000000
    SLACK54003 UPBROW35440 1.000000
    SLACK54004 UPBROW35441 1.000000
    SLACK54005 UPBROW35442 1.000000
    SLACK54006 UPBROW35443 1.000000
    SLACK54007 UPBROW35444 1.000000
    SLACK54008 UPBROW35445 1.000000
    SLACK54009 UPBROW35446 1.000000
    SLACK54010 UPBROW35447 1.000000
    SLACK54011 UPBROW35448 1.000000
    SLACK54012 UPBROW35449 1.000000
    SLACK54013 UPBROW35450 1.000000
    SLACK54014 UPBROW35451 1.000000
    SLACK54015 UPBROW35452 1.000000
    SLACK54016 UPBROW35453 1.000000
    SLACK54017 UPBROW35454 1.000000
    SLACK54018 UPBROW35455 1.000000
    SLACK54019 UPBROW35456 1.000000
    SLACK54020 UPBROW35457 1.000000
    SLACK54021 UPBROW35458 1.000000
    SLACK54022 UPBROW35459 1.000000
    SLACK54023 UPBROW35460 1.000000
    SLACK54024 UPBROW35461 1.000000
    SLACK54025 UPBROW35462 1.000000
    SLACK54026 UPBROW35463 1.000000
    SLACK54027 UPBROW35464 1.000000
    SLACK54028 UPBROW35465 1.000000
    SLACK54029 UPBROW35466 1.000000
    SLACK54030 UPBROW35467 1.000000
    SLACK54031 UPBROW35468 1.000000
    SLACK54032 UPBROW35469 1.000000
    SLACK54033 UPBROW35470 1.000000
    SLACK54034 UPBROW35471 1.000000
    SLACK54035 UPBROW35472 1.000000
    SLACK54036 UPBROW35473 1.000000
    SLACK54037 UPBROW35474 1.000000
    SLACK54038 UPBROW35475 1.000000
    SLACK54039 UPBROW35476 1.000000
    SLACK54040 UPBROW35477 1.000000
    SLACK54041 UPBROW35478 1.000000
    SLACK54042 UPBROW35479 1.000000
    SLACK54043 UPBROW35480 1.000000
    SLACK54044 UPBROW35481 1.000000
    SLACK54045 UPBROW35482 1.000000
    SLACK54046 UPBROW35483 1.000000
    SLACK54047 UPBROW35484 1.000000
    SLACK54048 UPBROW35485 1.000000
    SLACK54049 UPBROW35486 1.000000
    SLACK54050 UPBROW35487 1.000000
    SLACK54051 UPBROW35488 1.000000
    SLACK54052 UPBROW35489 1.000000
    SLACK54053 UPBROW35490 1.000000
    SLACK54054 UPBROW35491 1.000000
    SLACK54055 UPBROW35492 1.000000
    SLACK54056 UPBROW35493 1.000000
    SLACK54057 UPBROW35494 1.000000
    SLACK54058 UPBROW35495 1.000000
    SLACK54059 UPBROW35496 1.000000
    SLACK54060 UPBROW35497 1.000000
    SLACK54061 UPBROW35498 1.000000
    SLACK54062 UPBROW35499 1.000000
    SLACK54063 UPBROW35500 1.000000
    SLACK54064 UPBROW35501 1.000000
    SLACK54065 UPBROW35502 1.000000
    SLACK54066 UPBROW35503 1.000000
    SLACK54067 UPBROW35504 1.000000
    SLACK54068 UPBROW35505 1.000000
    SLACK54069 UPBROW35506 1.000000
    SLACK54070 UPBROW35507 1.000000
    SLACK54071 UPBROW35508 1.000000
    SLACK54072 UPBROW35509 1.000000
    SLACK54073 UPBROW35510 1.000000
    SLACK54074 UPBROW35511 1.000000
    SLACK54075 UPBROW35512 1.000000
    SLACK54076 UPBROW35513 1.000000
    SLACK54077 UPBROW35514 1.000000
    SLACK54078 UPBROW35515 1.000000
    SLACK54079 UPBROW35516 1.000000
    SLACK54080 UPBROW35517 1.000000
    SLACK54081 UPBROW35518 1.000000
    SLACK54082 UPBROW35519 1.000000
    SLACK54083 UPBROW35520 1.000000
    SLACK54084 UPBROW35521 1.000000
    SLACK54085 UPBROW35522 1.000000
    SLACK54086 UPBROW35523 1.000000
    SLACK54087 UPBROW35524 1.000000
    SLACK54088 UPBROW35525 1.000000
    SLACK54089 UPBROW35526 1.000000
    SLACK54090 UPBROW35527 1.000000
    SLACK54091 UPBROW35528 1.000000
    SLACK54092 UPBROW35529 1.000000
    SLACK54093 UPBROW35530 1.000000
    SLACK54094 UPBROW35531 1.000000
    SLACK54095 UPBROW35532 1.000000
    SLACK54096 UPBROW35533 1.000000
    SLACK54097 UPBROW35534 1.000000
    SLACK54098 UPBROW35535 1.000000
    SLACK54099 UPBROW35536 1.000000
    SLACK54100 UPBROW35537 1.000000
    SLACK54101 UPBROW35538 1.000000
    SLACK54102 UPBROW35539 1.000000
    SLACK54103 UPBROW35540 1.000000
    SLACK54104 UPBROW35541 1.000000
    SLACK54105 UPBROW35542 1.000000
    SLACK54106 UPBROW35543 1.000000
    SLACK54107 UPBROW35544 1.000000
    SLACK54108 UPBROW35545 1.000000
    SLACK54109 UPBROW35546 1.000000
    SLACK54110 UPBROW35547 1.000000
    SLACK54111 UPBROW35548 1.000000
    SLACK54112 UPBROW35549 1.000000
    SLACK54113 UPBROW35550 1.000000
    SLACK54114 UPBROW35551 1.000000
    SLACK54115 UPBROW35552 1.000000
    SLACK54116 UPBROW35553 1.000000
    SLACK54117 UPBROW35554 1.000000
    SLACK54118 UPBROW35555 1.000000
    SLACK54119 UPBROW35556 1.000000
    SLACK54120 UPBROW35557 1.000000
    SLACK54121 UPBROW35558 1.000000
    SLACK54122 UPBROW35559 1.000000
    SLACK54123 UPBROW35560 1.000000
    SLACK54124 UPBROW35561 1.000000
    SLACK54125 UPBROW35562 1.000000
    SLACK54126 UPBROW35563 1.000000
    SLACK54127 UPBROW35564 1.000000
    SLACK54128 UPBROW35565 1.000000
    SLACK54129 UPBROW35566 1.000000
    SLACK54130 UPBROW35567 1.000000
    SLACK54131 UPBROW35568 1.000000
    SLACK54132 UPBROW35569 1.000000
    SLACK54133 UPBROW35570 1.000000
    SLACK54134 UPBROW35571 1.000000
    SLACK54135 UPBROW35572 1.000000
    SLACK54136 UPBROW35573 1.000000
    SLACK54137 UPBROW35574 1.000000
    SLACK54138 UPBROW35575 1.000000
    SLACK54139 UPBROW35576 1.000000
    SLACK54140 UPBROW35577 1.000000
    SLACK54141 UPBROW35578 1.000000
    SLACK54142 UPBROW35579 1.000000
    SLACK54143 UPBROW35580 1.000000
    SLACK54144 UPBROW35581 1.000000
    SLACK54145 UPBROW35582 1.000000
    SLACK54146 UPBROW35583 1.000000
    SLACK54147 UPBROW35584 1.000000
    SLACK54148 UPBROW35585 1.000000
    SLACK54149 UPBROW35586 1.000000
    SLACK54150 UPBROW35587 1.000000
    SLACK54151 UPBROW35588 1.000000
    SLACK54152 UPBROW35589 1.000000
    SLACK54153 UPBROW35590 1.000000
    SLACK54154 UPBROW35591 1.000000
    SLACK54155 UPBROW35592 1.000000
    SLACK54156 UPBROW35593 1.000000
    SLACK54157 UPBROW35594 1.000000
    SLACK54158 UPBROW35595 1.000000
    SLACK54159 UPBROW35596 1.000000
    SLACK54160 UPBROW35597 1.000000
    SLACK54161 UPBROW35598 1.000000
    SLACK54162 UPBROW35599 1.000000
    SLACK54163 UPBROW35600 1.000000
    SLACK54164 UPBROW35601 1.000000
    SLACK54165 UPBROW35602 1.000000
    SLACK54166 UPBROW35603 1.000000
    SLACK54167 UPBROW35604 1.000000
    SLACK54168 UPBROW35605 1.000000
    SLACK54169 UPBROW35606 1.000000
    SLACK54170 UPBROW35607 1.000000
    SLACK54171 UPBROW35608 1.000000
    SLACK54172 UPBROW35609 1.000000
    SLACK54173 UPBROW35610 1.000000
    SLACK54174 UPBROW35611 1.000000
    SLACK54175 UPBROW35612 1.000000
    SLACK54176 UPBROW35613 1.000000
    SLACK54177 UPBROW35614 1.000000
    SLACK54178 UPBROW35615 1.000000
    SLACK54179 UPBROW35616 1.000000
    SLACK54180 UPBROW35617 1.000000
    SLACK54181 UPBROW35618 1.000000
    SLACK54182 UPBROW35619 1.000000
    SLACK54183 UPBROW35620 1.000000
    SLACK54184 UPBROW35621 1.000000
    SLACK54185 UPBROW35622 1.000000
    SLACK54186 UPBROW35623 1.000000
    SLACK54187 UPBROW35624 1.000000
    SLACK54188 UPBROW35625 1.000000
    SLACK54189 UPBROW35626 1.000000
    SLACK54190 UPBROW35627 1.000000
    SLACK54191 UPBROW35628 1.000000
    SLACK54192 UPBROW35629 1.000000
    SLACK54193 UPBROW35630 1.000000
    SLACK54194 UPBROW35631 1.000000
    SLACK54195 UPBROW35632 1.000000
    SLACK54196 UPBROW35633 1.000000
    SLACK54197 UPBROW35634 1.000000
    SLACK54198 UPBROW35635 1.000000
    SLACK54199 UPBROW35636 1.000000
    SLACK54200 UPBROW35637 1.000000
    SLACK54201 UPBROW35638 1.000000
    SLACK54202 UPBROW35639 1.000000
    SLACK54203 UPBROW35640 1.000000
    SLACK54204 UPBROW35641 1.000000
    SLACK54205 UPBROW35642 1.000000
    SLACK54206 UPBROW35643 1.000000
    SLACK54207 UPBROW35644 1.000000
    SLACK54208 UPBROW35645 1.000000
    SLACK54209 UPBROW35646 1.000000
    SLACK54210 UPBROW35647 1.000000
    SLACK54211 UPBROW35648 1.000000
    SLACK54212 UPBROW35649 1.000000
    SLACK54213 UPBROW35650 1.000000
    SLACK54214 UPBROW35651 1.000000
    SLACK54215 UPBROW35652 1.000000
    SLACK54216 UPBROW35653 1.000000
    SLACK54217 UPBROW35654 1.000000
    SLACK54218 UPBROW35655 1.000000
    SLACK54219 UPBROW35656 1.000000
    SLACK54220 UPBROW35657 1.000000
    SLACK54221 UPBROW35658 1.000000
    SLACK54222 UPBROW35659 1.000000
    SLACK54223 UPBROW35660 1.000000
    SLACK54224 UPBROW35661 1.000000
    SLACK54225 UPBROW35662 1.000000
    SLACK54226 UPBROW35663 1.000000
    SLACK54227 UPBROW35664 1.000000
    SLACK54228 UPBROW35665 1.000000
    SLACK54229 UPBROW35666 1.000000
    SLACK54230 UPBROW35667 1.000000
    SLACK54231 UPBROW35668 1.000000
    SLACK54232 UPBROW35669 1.000000
    SLACK54233 UPBROW35670 1.000000
    SLACK54234 UPBROW35671 1.000000
    SLACK54235 UPBROW35672 1.000000
    SLACK54236 UPBROW35673 1.000000
    SLACK54237 UPBROW35674 1.000000
    SLACK54238 UPBROW35675 1.000000
    SLACK54239 UPBROW35676 1.000000
    SLACK54240 UPBROW35677 1.000000
    SLACK54241 UPBROW35678 1.000000
    SLACK54242 UPBROW35679 1.000000
    SLACK54243 UPBROW35680 1.000000
    SLACK54244 UPBROW35681 1.000000
    SLACK54245 UPBROW35682 1.000000
    SLACK54246 UPBROW35683 1.000000
    SLACK54247 UPBROW35684 1.000000
    SLACK54248 UPBROW35685 1.000000
    SLACK54249 UPBROW35686 1.000000
    SLACK54250 UPBROW35687 1.000000
    SLACK54251 UPBROW35688 1.000000
    SLACK54252 UPBROW35689 1.000000
    SLACK54253 UPBROW35690 1.000000
    SLACK54254 UPBROW35691 1.000000
    SLACK54255 UPBROW35692 1.000000
    SLACK54256 UPBROW35693 1.000000
    SLACK54257 UPBROW35694 1.000000
    SLACK54258 UPBROW35695 1.000000
    SLACK54259 UPBROW35696 1.000000
    SLACK54260 UPBROW35697 1.000000
    SLACK54261 UPBROW35698 1.000000
    SLACK54262 UPBROW35699 1.000000
    SLACK54263 UPBROW35700 1.000000
    SLACK54264 UPBROW35701 1.000000
    SLACK54265 UPBROW35702 1.000000
    SLACK54266 UPBROW35703 1.000000
    SLACK54267 UPBROW35704 1.000000
    SLACK54268 UPBROW35705 1.000000
    SLACK54269 UPBROW35706 1.000000
    SLACK54270 UPBROW35707 1.000000
    SLACK54271 UPBROW35708 1.000000
    SLACK54272 UPBROW35709 1.000000
    SLACK54273 UPBROW35710 1.000000
    SLACK54274 UPBROW35711 1.000000
    SLACK54275 UPBROW35712 1.000000
    SLACK54276 UPBROW35713 1.000000
    SLACK54277 UPBROW35714 1.000000
    SLACK54278 UPBROW35715 1.000000
    SLACK54279 UPBROW35716 1.000000
    SLACK54280 UPBROW35717 1.000000
    SLACK54281 UPBROW35718 1.000000
    SLACK54282 UPBROW35719 1.000000
    SLACK54283 UPBROW35720 1.000000
    SLACK54284 UPBROW35721 1.000000
    SLACK54285 UPBROW35722 1.000000
    SLACK54286 UPBROW35723 1.000000
    SLACK54287 UPBROW35724 1.000000
    SLACK54288 UPBROW35725 1.000000
    SLACK54289 UPBROW35726 1.000000
    SLACK54290 UPBROW35727 1.000000
    SLACK54291 UPBROW35728 1.000000
    SLACK54292 UPBROW35729 1.000000
    SLACK54293 UPBROW35730 1.000000
    SLACK54294 UPBROW35731 1.000000
    SLACK54295 UPBROW35732 1.000000
    SLACK54296 UPBROW35733 1.000000
    SLACK54297 UPBROW35734 1.000000
    SLACK54298 UPBROW35735 1.000000
    SLACK54299 UPBROW35736 1.000000
    SLACK54300 UPBROW35737 1.000000
    SLACK54301 UPBROW35738 1.000000
    SLACK54302 UPBROW35739 1.000000
    SLACK54303 UPBROW35740 1.000000
    SLACK54304 UPBROW35741 1.000000
    SLACK54305 UPBROW35742 1.000000
    SLACK54306 UPBROW35743 1.000000
    SLACK54307 UPBROW35744 1.000000
    SLACK54308 UPBROW35745 1.000000
    SLACK54309 UPBROW35746 1.000000
    SLACK54310 UPBROW35747 1.000000
    SLACK54311 UPBROW35748 1.000000
    SLACK54312 UPBROW35749 1.000000
    SLACK54313 UPBROW35750 1.000000
    SLACK54314 UPBROW35751 1.000000
    SLACK54315 UPBROW35752 1.000000
    SLACK54316 UPBROW35753 1.000000
    SLACK54317 UPBROW35754 1.000000
    SLACK54318 UPBROW35755 1.000000
    SLACK54319 UPBROW35756 1.000000
    SLACK54320 UPBROW35757 1.000000
    SLACK54321 UPBROW35758 1.000000
    SLACK54322 UPBROW35759 1.000000
    SLACK54323 UPBROW35760 1.000000
    SLACK54324 UPBROW35761 1.000000
    SLACK54325 UPBROW35762 1.000000
    SLACK54326 UPBROW35763 1.000000
    SLACK54327 UPBROW35764 1.000000
    SLACK54328 UPBROW35765 1.000000
    SLACK54329 UPBROW35766 1.000000
    SLACK54330 UPBROW35767 1.000000
    SLACK54331 UPBROW35768 1.000000
    SLACK54332 UPBROW35769 1.000000
    SLACK54333 UPBROW35770 1.000000
    SLACK54334 UPBROW35771 1.000000
    SLACK54335 UPBROW35772 1.000000
    SLACK54336 UPBROW35773 1.000000
    SLACK54337 UPBROW35774 1.000000
    SLACK54338 UPBROW35775 1.000000
    SLACK54339 UPBROW35776 1.000000
    SLACK54340 UPBROW35777 1.000000
    SLACK54341 UPBROW35778 1.000000
    SLACK54342 UPBROW35779 1.000000
    SLACK54343 UPBROW35780 1.000000
    SLACK54344 UPBROW35781 1.000000
    SLACK54345 UPBROW35782 1.000000
    SLACK54346 UPBROW35783 1.000000
    SLACK54347 UPBROW35784 1.000000
    SLACK54348 UPBROW35785 1.000000
    SLACK54349 UPBROW35786 1.000000
    SLACK54350 UPBROW35787 1.000000
    SLACK54351 UPBROW35788 1.000000
    SLACK54352 UPBROW35789 1.000000
    SLACK54353 UPBROW35790 1.000000
    SLACK54354 UPBROW35791 1.000000
    SLACK54355 UPBROW35792 1.000000
    SLACK54356 UPBROW35793 1.000000
    SLACK54357 UPBROW35794 1.000000
    SLACK54358 UPBROW35795 1.000000
    SLACK54359 UPBROW35796 1.000000
    SLACK54360 UPBROW35797 1.000000
    SLACK54361 UPBROW35798 1.000000
    SLACK54362 UPBROW35799 1.000000
    SLACK54363 UPBROW35800 1.000000
    SLACK54364 UPBROW35801 1.000000
    SLACK54365 UPBROW35802 1.000000
    SLACK54366 UPBROW35803 1.000000
    SLACK54367 UPBROW35804 1.000000
    SLACK54368 UPBROW35805 1.000000
    SLACK54369 UPBROW35806 1.000000
    SLACK54370 UPBROW35807 1.000000
    SLACK54371 UPBROW35808 1.000000
    SLACK54372 UPBROW35809 1.000000
    SLACK54373 UPBROW35810 1.000000
    SLACK54374 UPBROW35811 1.000000
    SLACK54375 UPBROW35812 1.000000
    SLACK54376 UPBROW35813 1.000000
    SLACK54377 UPBROW35814 1.000000
    SLACK54378 UPBROW35815 1.000000
    SLACK54379 UPBROW35816 1.000000
    SLACK54380 UPBROW35817 1.000000
    SLACK54381 UPBROW35818 1.000000
    SLACK54382 UPBROW35819 1.000000
    SLACK54383 UPBROW35820 1.000000
    SLACK54384 UPBROW35821 1.000000
    SLACK54385 UPBROW35822 1.000000
    SLACK54386 UPBROW35823 1.000000
    SLACK54387 UPBROW35824 1.000000
    SLACK54388 UPBROW35825 1.000000
    SLACK54389 UPBROW35826 1.000000
    SLACK54390 UPBROW35827 1.000000
    SLACK54391 UPBROW35828 1.000000
    SLACK54392 UPBROW35829 1.000000
    SLACK54393 UPBROW35830 1.000000
    SLACK54394 UPBROW35831 1.000000
    SLACK54395 UPBROW35832 1.000000
    SLACK54396 UPBROW35833 1.000000
    SLACK54397 UPBROW35834 1.000000
    SLACK54398 UPBROW35835 1.000000
    SLACK54399 UPBROW35836 1.000000
    SLACK54400 UPBROW35837 1.000000
    SLACK54401 UPBROW35838 1.000000
    SLACK54402 UPBROW35839 1.000000
    SLACK54403 UPBROW35840 1.000000
    SLACK54404 UPBROW35841 1.000000
    SLACK54405 UPBROW35842 1.000000
    SLACK54406 UPBROW35843 1.000000
    SLACK54407 UPBROW35844 1.000000
    SLACK54408 UPBROW35845 1.000000
    SLACK54409 UPBROW35846 1.000000
    SLACK54410 UPBROW35847 1.000000
    SLACK54411 UPBROW35848 1.000000
    SLACK54412 UPBROW35849 1.000000
    SLACK54413 UPBROW35850 1.000000
    SLACK54414 UPBROW35851 1.000000
    SLACK54415 UPBROW35852 1.000000
    SLACK54416 UPBROW35853 1.000000
    SLACK54417 UPBROW35854 1.000000
    SLACK54418 UPBROW35855 1.000000
    SLACK54419 UPBROW35856 1.000000
    SLACK54420 UPBROW35857 1.000000
    SLACK54421 UPBROW35858 1.000000
    SLACK54422 UPBROW35859 1.000000
    SLACK54423 UPBROW35860 1.000000
    SLACK54424 UPBROW35861 1.000000
    SLACK54425 UPBROW35862 1.000000
    SLACK54426 UPBROW35863 1.000000
    SLACK54427 UPBROW35864 1.000000
    SLACK54428 UPBROW35865 1.000000
    SLACK54429 UPBROW35866 1.000000
    SLACK54430 UPBROW35867 1.000000
    SLACK54431 UPBROW35868 1.000000
    SLACK54432 UPBROW35869 1.000000
    SLACK54433 UPBROW35870 1.000000
    SLACK54434 UPBROW35871 1.000000
    SLACK54435 UPBROW35872 1.000000
    SLACK54436 UPBROW35873 1.000000
    SLACK54437 UPBROW35874 1.000000
    SLACK54438 UPBROW35875 1.000000
    SLACK54439 UPBROW35876 1.000000
    SLACK54440 UPBROW35877 1.000000
    SLACK54441 UPBROW35878 1.000000
    SLACK54442 UPBROW35879 1.000000
    SLACK54443 UPBROW35880 1.000000
    SLACK54444 UPBROW35881 1.000000
    SLACK54445 UPBROW35882 1.000000
    SLACK54446 UPBROW35883 1.000000
    SLACK54447 UPBROW35884 1.000000
    SLACK54448 UPBROW35885 1.000000
    SLACK54449 UPBROW35886 1.000000
    SLACK54450 UPBROW35887 1.000000
    SLACK54451 UPBROW35888 1.000000
    SLACK54452 UPBROW35889 1.000000
    SLACK54453 UPBROW35890 1.000000
    SLACK54454 UPBROW35891 1.000000
    SLACK54455 UPBROW35892 1.000000
    SLACK54456 UPBROW35893 1.000000
    SLACK54457 UPBROW35894 1.000000
    SLACK54458 UPBROW35895 1.000000
    SLACK54459 UPBROW35896 1.000000
    SLACK54460 UPBROW35897 1.000000
    SLACK54461 UPBROW35898 1.000000
    SLACK54462 UPBROW35899 1.000000
    SLACK54463 UPBROW35900 1.000000
    SLACK54464 UPBROW35901 1.000000
    SLACK54465 UPBROW35902 1.000000
    SLACK54466 UPBROW35903 1.000000
    SLACK54467 UPBROW35904 1.000000
    SLACK54468 UPBROW35905 1.000000
    SLACK54469 UPBROW35906 1.000000
    SLACK54470 UPBROW35907 1.000000
    SLACK54471 UPBROW35908 1.000000
    SLACK54472 UPBROW35909 1.000000
    SLACK54473 UPBROW35910 1.000000
    SLACK54474 UPBROW35911 1.000000
    SLACK54475 UPBROW35912 1.000000
    SLACK54476 UPBROW35913 1.000000
    SLACK54477 UPBROW35914 1.000000
    SLACK54478 UPBROW35915 1.000000
    SLACK54479 UPBROW35916 1.000000
    SLACK54480 UPBROW35917 1.000000
    SLACK54481 UPBROW35918 1.000000
    SLACK54482 UPBROW35919 1.000000
    SLACK54483 UPBROW35920 1.000000
    SLACK54484 UPBROW35921 1.000000
    SLACK54485 UPBROW35922 1.000000
    SLACK54486 UPBROW35923 1.000000
    SLACK54487 UPBROW35924 1.000000
    SLACK54488 UPBROW35925 1.000000
    SLACK54489 UPBROW35926 1.000000
    SLACK54490 UPBROW35927 1.000000
    SLACK54491 UPBROW35928 1.000000
    SLACK54492 UPBROW35929 1.000000
    SLACK54493 UPBROW35930 1.000000
    SLACK54494 UPBROW35931 1.000000
    SLACK54495 UPBROW35932 1.000000
    SLACK54496 UPBROW35933 1.000000
RHS
    NONAME   BB1R     166.470000
    NONAME   BB2R     166.470000
    NONAME   BB3R     166.470000
    NONAME   BB4R     166.470000
    NONAME   BB5R     166.470000
    NONAME   BB1T     21.000000
    NONAME   BB2T     21.000000
    NONAME   BB3T     21.000000
    NONAME   BB4T     21.000000
    NONAME   BB5T     21.000000
    NONAME   BM1R     370.230000
    NONAME   BM2R     370.230000
    NONAME   BM3R     370.230000
    NONAME   BM4R     370.230000
    NONAME   BM5R     370.230000
    NONAME   BM1T     12.630000
    NONAME   BM2T     12.630000
    NONAME   BM3T     12.630000
    NONAME   BM4T     12.630000
    NONAME   BM5T     12.630000
    NONAME   BR1R     1.230000
    NONAME   BR2R     1.230000
    NONAME   BR3R     1.230000
    NONAME   BR4R     1.230000
    NONAME   BR5R     1.230000
    NONAME   BR1T     1.400000
    NONAME   BR2T     1.400000
    NONAME   BR3T     1.400000
    NONAME   BR4T     1.400000
    NONAME   BR5T     1.400000
    NONAME   BV1R     1.230000
    NONAME   BV2R     1.230000
    NONAME   BV3R     1.230000
    NONAME   BV4R     1.230000
    NONAME   BV5R     1.230000
    NONAME   BV1T     1.400000
    NONAME   BV2T     1.400000
    NONAME   BV3T     1.400000
    NONAME   BV4T     1.400000
    NONAME   BV5T     1.400000
    NONAME   CA1R     59.000000
    NONAME   CA2R     59.000000
    NONAME   CA3R     59.000000
    NONAME   CA4R     59.000000
    NONAME   CA5R     59.000000
    NONAME   CE1R     49.110000
    NONAME   CE2R     49.110000
    NONAME   CE3R     49.110000
    NONAME   CE4R     49.110000
    NONAME   CE5R     49.110000
    NONAME   CE1T     5.600000
    NONAME   CE2T     5.600000
    NONAME   CE3T     5.600000
    NONAME   CE4T     5.600000
    NONAME   CE5T     5.600000
    NONAME   CF1R     9.120000
    NONAME   CF2R     9.120000
    NONAME   CF3R     9.120000
    NONAME   CF4R     9.120000
    NONAME   CF5R     9.120000
    NONAME   CF1T     11.200000
    NONAME   CF2T     11.200000
    NONAME   CF3T     11.200000
    NONAME   CF4T     11.200000
    NONAME   CF5T     11.200000
    NONAME   CV1R     100.000000
    NONAME   CV2R     200.000000
    NONAME   CV3R     300.000000
    NONAME   CV4R     400.000000
    NONAME   CV5R     500.000000
    NONAME   CV1T     8.020000
    NONAME   CV2T     8.020000
    NONAME   CV3T     8.020000
    NONAME   CV4T     8.020000
    NONAME   CV5T     8.020000
    NONAME   DG1R     60.200000
    NONAME   DG2R     60.200000
    NONAME   DG3R     60.200000
    NONAME   DG4R     60.200000
    NONAME   DG5R     60.200000
    NONAME   DH1R     27.020000
    NONAME   DH2R     27.020000
    NONAME   DH3R     27.020000
    NONAME   DH4R     27.020000
    NONAME   DH5R     27.020000
    NONAME   DN1R     167.780000
    NONAME   DN2R     167.780000
    NONAME   DN3R     167.780000
    NONAME   DN4R     167.780000
    NONAME   DN5R     167.780000
    NONAME   DN1T     6.160000
    NONAME   DN2T     6.160000
    NONAME   DN3T     6.160000
    NONAME   DN4T     6.160000
    NONAME   DN5T     6.160000
    NONAME   DR1R     78.710000
    NONAME   DR2R     78.710000
    NONAME   DR3R     78.710000
    NONAME   DR4R     78.710000
    NONAME   DR5R     78.710000
    NONAME   DW1R     237.730000
    NONAME   DW2R     237.730000
    NONAME   DW3R     237.730000
    NONAME   DW4R     237.730000
    NONAME   DW5R     237.730000
    NONAME   DW1T     5.880000
    NONAME   DW2T     5.880000
    NONAME   DW3T     5.880000
    NONAME   DW4T     5.880000
    NONAME   DW5T     5.880000
    NONAME   FB1R     500.000000
    NONAME   FB2R     1000.000000
    NONAME   FB3R     2000.000000
    NONAME   FB4R     2000.000000
    NONAME   FB5R     2000.000000
    NONAME   FB1T     90.890000
    NONAME   FB2T     90.890000
    NONAME   FB3T     90.890000
    NONAME   FB4T     90.890000
    NONAME   FB5T     90.890000
    NONAME   FX1R     10.000000
    NONAME   FX2R     20.000000
    NONAME   FX3R     30.000000
    NONAME   FX4R     100.000000
    NONAME   FX5R     100.000000
    NONAME   FX1T     14.730000
    NONAME   FX2T     14.730000
    NONAME   FX3T     14.730000
    NONAME   FX4T     14.730000
    NONAME   FX5T     14.730000
    NONAME   SI1T     -178.910000
    NONAME   SI2T     -178.910000
    NONAME   SI3T     -178.910000
    NONAME   SI4T     -178.910000
    NONAME   SI5T     -178.910000
    NONAME   SI1R     -1837.830000
    NONAME   SI2R     -2447.830000
    NONAME   SI3R     -3557.830000
    NONAME   SI4R     -3727.830000
    NONAME   SI5R     -3827.830000
    NONAME   0BBBC1   10000.000000
    NONAME   0BBBC2   10000.000000
    NONAME   0BBBC3   10000.000000
    NONAME   0BBBC4   10000.000000
    NONAME   0BBBC5   10000.000000
    NONAME   0BCBN1   10000.000000
    NONAME   0BCBN2   10000.000000
    NONAME   0BCBN3   10000.000000
    NONAME   0BCBN4   10000.000000
    NONAME   0BCBN5   10000.000000
    NONAME   0BMBQ1   3000.000000
    NONAME   0BMBQ2   3000.000000
    NONAME   0BMBQ3   3000.000000
    NONAME   0BMBQ4   3000.000000
    NONAME   0BMBQ5   3000.000000
    NONAME   0BNBT1   10000.000000
    NONAME   0BNBT2   10000.000000
    NONAME   0BNBT3   10000.000000
    NONAME   0BNBT4   10000.000000
    NONAME   0BNBT5   10000.000000
    NONAME   0BPBS1   3000.000000
    NONAME   0BPBS2   3000.000000
    NONAME   0BPBS3   3000.000000
    NONAME   0BPBS4   3000.000000
    NONAME   0BPBS5   3000.000000
    NONAME   0BQBP1   3000.000000
    NONAME   0BQBP2   3000.000000
    NONAME   0BQBP3   3000.000000
    NONAME   0BQBP4   3000.000000
    NONAME   0BQBP5   3000.000000
    NONAME   0BSBT1   3000.000000
    NONAME   0BSBT2   3000.000000
    NONAME   0BSBT3   3000.000000
    NONAME   0BSBT4   3000.000000
    NONAME   0BSBT5   3000.000000
    NONAME   0BTBW1   10000.000000
    NONAME   0BTBW2   10000.000000
    NONAME   0BTBW3   10000.000000
    NONAME   0BTBW4   10000.000000
    NONAME   0BTBW5   10000.000000
    NONAME   0BUBT1   10000.000000
    NONAME   0BUBT2   10000.000000
    NONAME   0BUBT3   10000.000000
    NONAME   0BUBT4   10000.000000
    NONAME   0BUBT5   10000.000000
    NONAME   0BUBV1   10000.000000
    NONAME   0BUBV2   10000.000000
    NONAME   0BUBV3   10000.000000
    NONAME   0BUBV4   10000.000000
    NONAME   0BUBV5   10000.000000
    NONAME   0BUBX1   125.000000
    NONAME   0BUBX2   125.000000
    NONAME   0BUBX3   125.000000
    NONAME   0BUBX4   125.000000
    NONAME   0BUBX5   125.000000
    NONAME   0BVBU1   10000.000000
    NONAME   0BVBU2   10000.000000
    NONAME   0BVBU3   10000.000000
    NONAME   0BVBU4   10000.000000
    NONAME   0BVBU5   10000.000000
    NONAME   0BVCA1   10000.000000
    NONAME   0BVCA2   10000.000000
    NONAME   0BVCA3   10000.000000
    NONAME   0BVCA4   10000.000000
    NONAME   0BVCA5   10000.000000
    NONAME   0BWBY1   10000.000000
    NONAME   0BWBY2   10000.000000
    NONAME   0BWBY3   10000.000000
    NONAME   0BWBY4   10000.000000
    NONAME   0BWBY5   10000.000000
    NONAME   0BXBZ1   3000.000000
    NONAME   0BXBZ2   3000.000000
    NONAME   0BXBZ3   3000.000000
    NONAME   0BXBZ4   3000.000000
    NONAME   0BXBZ5   3000.000000
    NONAME   0BYSC1   10000.000000
    NONAME   0BYSC2   10000.000000
    NONAME   0BYSC3   10000.000000
    NONAME   0BYSC4   10000.000000
    NONAME   0BYSC5   10000.000000
    NONAME   0BZBY1   10000.000000
    NONAME   0BZBY2   10000.000000
    NONAME   0BZBY3   10000.000000
    NONAME   0BZBY4   10000.000000
    NONAME   0BZBY5   10000.000000
    NONAME   0CADA1   10000.000000
    NONAME   0CADA2   10000.000000
    NONAME   0CADA3   10000.000000
    NONAME   0CADA4   10000.000000
    NONAME   0CADA5   10000.000000
    NONAME   0CBCA1   125.000000
    NONAME   0CBCA2   125.000000
    NONAME   0CBCA3   125.000000
    NONAME   0CBCA4   125.000000
    NONAME   0CBCA5   125.000000
    NONAME   0CBCC1   125.000000
    NONAME   0CBCC2   125.000000
    NONAME   0CBCC3   125.000000
    NONAME   0CBCC4   125.000000
    NONAME   0CBCC5   125.000000
    NONAME   0CBDW1   125.000000
    NONAME   0CBDW2   125.000000
    NONAME   0CBDW3   125.000000
    NONAME   0CBDW4   125.000000
    NONAME   0CBDW5   125.000000
    NONAME   0CCCB1   125.000000
    NONAME   0CCCB2   125.000000
    NONAME   0CCCB3   125.000000
    NONAME   0CCCB4   125.000000
    NONAME   0CCCB5   125.000000
    NONAME   0CCCD1   125.000000
    NONAME   0CCCD2   125.000000
    NONAME   0CCCD3   125.000000
    NONAME   0CCCD4   125.000000
    NONAME   0CCCD5   125.000000
    NONAME   0CSCF1   3000.000000
    NONAME   0CSCF2   3000.000000
    NONAME   0CSCF3   3000.000000
    NONAME   0CSCF4   3000.000000
    NONAME   0CSCF5   3000.000000
    NONAME   0CVCZ1   3000.000000
    NONAME   0CVCZ2   3000.000000
    NONAME   0CVCZ3   3000.000000
    NONAME   0CVCZ4   3000.000000
    NONAME   0CVCZ5   3000.000000
    NONAME   0CVDQ1   3000.000000
    NONAME   0CVDQ2   3000.000000
    NONAME   0CVDQ3   3000.000000
    NONAME   0CVDQ4   3000.000000
    NONAME   0CVDQ5   3000.000000
    NONAME   0CZCV1   3000.000000
    NONAME   0CZCV2   3000.000000
    NONAME   0CZCV3   3000.000000
    NONAME   0CZCV4   3000.000000
    NONAME   0CZCV5   3000.000000
    NONAME   0CZFX1   125.000000
    NONAME   0CZFX2   125.000000
    NONAME   0CZFX3   125.000000
    NONAME   0CZFX4   125.000000
    NONAME   0CZFX5   125.000000
    NONAME   0DABZ1   3000.000000
    NONAME   0DABZ2   3000.000000
    NONAME   0DABZ3   3000.000000
    NONAME   0DABZ4   3000.000000
    NONAME   0DABZ5   3000.000000
    NONAME   0DBDA1   3000.000000
    NONAME   0DBDA2   3000.000000
    NONAME   0DBDA3   3000.000000
    NONAME   0DBDA4   3000.000000
    NONAME   0DBDA5   3000.000000
    NONAME   0DBDH1   125.000000
    NONAME   0DBDH2   125.000000
    NONAME   0DBDH3   125.000000
    NONAME   0DBDH4   125.000000
    NONAME   0DBDH5   125.000000
    NONAME   0DDDB1   125.000000
    NONAME   0DDDB2   125.000000
    NONAME   0DDDB3   125.000000
    NONAME   0DDDB4   125.000000
    NONAME   0DDDB5   125.000000
    NONAME   0DDDL1   125.000000
    NONAME   0DDDL2   125.000000
    NONAME   0DDDL3   125.000000
    NONAME   0DDDL4   125.000000
    NONAME   0DDDL5   125.000000
    NONAME   0DEDD1   125.000000
    NONAME   0DEDD2   125.000000
    NONAME   0DEDD3   125.000000
    NONAME   0DEDD4   125.000000
    NONAME   0DEDD5   125.000000
    NONAME   0DEDL1   125.000000
    NONAME   0DEDL2   125.000000
    NONAME   0DEDL3   125.000000
    NONAME   0DEDL4   125.000000
    NONAME   0DEDL5   125.000000
    NONAME   0DGDA1   3000.000000
    NONAME   0DGDA2   3000.000000
    NONAME   0DGDA3   3000.000000
    NONAME   0DGDA4   3000.000000
    NONAME   0DGDA5   3000.000000
    NONAME   0DHDG1   3000.000000
    NONAME   0DHDG2   3000.000000
    NONAME   0DHDG3   3000.000000
    NONAME   0DHDG4   3000.000000
    NONAME   0DHDG5   3000.000000
    NONAME   0DJDH1   3000.000000
    NONAME   0DJDH2   3000.000000
    NONAME   0DJDH3   3000.000000
    NONAME   0DJDH4   3000.000000
    NONAME   0DJDH5   3000.000000
    NONAME   0DLDD1   125.000000
    NONAME   0DLDD2   125.000000
    NONAME   0DLDD3   125.000000
    NONAME   0DLDD4   125.000000
    NONAME   0DLDD5   125.000000
    NONAME   0DLDE1   125.000000
    NONAME   0DLDE2   125.000000
    NONAME   0DLDE3   125.000000
    NONAME   0DLDE4   125.000000
    NONAME   0DLDE5   125.000000
    NONAME   0DLDM1   125.000000
    NONAME   0DLDM2   125.000000
    NONAME   0DLDM3   125.000000
    NONAME   0DLDM4   125.000000
    NONAME   0DLDM5   125.000000
    NONAME   0DMDJ1   3000.000000
    NONAME   0DMDJ2   3000.000000
    NONAME   0DMDJ3   3000.000000
    NONAME   0DMDJ4   3000.000000
    NONAME   0DMDJ5   3000.000000
    NONAME   0DNDM1   3000.000000
    NONAME   0DNDM2   3000.000000
    NONAME   0DNDM3   3000.000000
    NONAME   0DNDM4   3000.000000
    NONAME   0DNDM5   3000.000000
    NONAME   0DPDN1   3000.000000
    NONAME   0DPDN2   3000.000000
    NONAME   0DPDN3   3000.000000
    NONAME   0DPDN4   3000.000000
    NONAME   0DPDN5   3000.000000
    NONAME   0DQDP1   3000.000000
    NONAME   0DQDP2   3000.000000
    NONAME   0DQDP3   3000.000000
    NONAME   0DQDP4   3000.000000
    NONAME   0DQDP5   3000.000000
    NONAME   0DRDA1   3000.000000
    NONAME   0DRDA2   3000.000000
    NONAME   0DRDA3   3000.000000
    NONAME   0DRDA4   3000.000000
    NONAME   0DRDA5   3000.000000
    NONAME   0DRDS1   125.000000
    NONAME   0DRDS2   125.000000
    NONAME   0DRDS3   125.000000
    NONAME   0DRDS4   125.000000
    NONAME   0DRDS5   125.000000
    NONAME   0DRFA1   3000.000000
    NONAME   0DRFA2   3000.000000
    NONAME   0DRFA3   3000.000000
    NONAME   0DRFA4   3000.000000
    NONAME   0DRFA5   3000.000000
    NONAME   0DSDR1   125.000000
    NONAME   0DSDR2   125.000000
    NONAME   0DSDR3   125.000000
    NONAME   0DSDR4   125.000000
    NONAME   0DSDR5   125.000000
    NONAME   0DWCB1   125.000000
    NONAME   0DWCB2   125.000000
    NONAME   0DWCB3   125.000000
    NONAME   0DWCB4   125.000000
    NONAME   0DWCB5   125.000000
    NONAME   0DWDE1   125.000000
    NONAME   0DWDE2   125.000000
    NONAME   0DWDE3   125.000000
    NONAME   0DWDE4   125.000000
    NONAME   0DWDE5   125.000000
    NONAME   0DWDN1   125.000000
    NONAME   0DWDN2   125.000000
    NONAME   0DWDN3   125.000000
    NONAME   0DWDN4   125.000000
    NONAME   0DWDN5   125.000000
    NONAME   0FADR1   3000.000000
    NONAME   0FADR2   3000.000000
    NONAME   0FADR3   3000.000000
    NONAME   0FADR4   3000.000000
    NONAME   0FADR5   3000.000000
    NONAME   0FAFE1   10000.000000
    NONAME   0FAFE2   10000.000000
    NONAME   0FAFE3   10000.000000
    NONAME   0FAFE4   10000.000000
    NONAME   0FAFE5   10000.000000
    NONAME   0FBFA1   3000.000000
    NONAME   0FBFA2   3000.000000
    NONAME   0FBFA3   3000.000000
    NONAME   0FBFA4   3000.000000
    NONAME   0FBFA5   3000.000000
    NONAME   0FESC1   10000.000000
    NONAME   0FESC2   10000.000000
    NONAME   0FESC3   10000.000000
    NONAME   0FESC4   10000.000000
    NONAME   0FESC5   10000.000000
    NONAME   0FXCZ1   125.000000
    NONAME   0FXCZ2   125.000000
    NONAME   0FXCZ3   125.000000
    NONAME   0FXCZ4   125.000000
    NONAME   0FXCZ5   125.000000
    NONAME   0SCSO1   10000.000000
    NONAME   0SCSO2   10000.000000
    NONAME   0SCSO3   10000.000000
    NONAME   0SCSO4   10000.000000
    NONAME   0SCSO5   10000.000000
    NONAME   0SCYN1   10000.000000
    NONAME   0SCYN2   10000.000000
    NONAME   0SCYN3   10000.000000
    NONAME   0SCYN4   10000.000000
    NONAME   0SCYN5   10000.000000
    NONAME   PBBBL    1.000000
    NONAME   1BBBL1   125.000000
    NONAME   1BBBL2   3000.000000
    NONAME   1BBBL3   3000.000000
    NONAME   1BBBL4   3000.000000
    NONAME   1BBBL5   3000.000000
    NONAME   2BBBL1   125.000000
    NONAME   2BBBL2   125.000000
    NONAME   2BBBL3   3000.000000
    NONAME   2BBBL4   3000.000000
    NONAME   2BBBL5   3000.000000
    NONAME   3BBBL1   50.000000
    NONAME   3BBBL2   125.000000
    NONAME   3BBBL3   125.000000
    NONAME   3BBBL4   125.000000
    NONAME   3BBBL5   125.000000
    NONAME   4BBBL1   50.000000
    NONAME   4BBBL2   50.000000
    NONAME   4BBBL3   125.000000
    NONAME   4BBBL4   125.000000
    NONAME   4BBBL5   125.000000
    NONAME   5BBBL1   50.000000
    NONAME   5BBBL2   50.000000
    NONAME   5BBBL3   50.000000
    NONAME   5BBBL4   50.000000
    NONAME   5BBBL5   50.000000
    NONAME   PBLBM    1.000000
    NONAME   1BLBM1   125.000000
    NONAME   1BLBM2   3000.000000
    NONAME   1BLBM3   3000.000000
    NONAME   1BLBM4   3000.000000
    NONAME   1BLBM5   3000.000000
    NONAME   2BLBM1   125.000000
    NONAME   2BLBM2   125.000000
    NONAME   2BLBM3   3000.000000
    NONAME   2BLBM4   3000.000000
    NONAME   2BLBM5   3000.000000
    NONAME   3BLBM1   50.000000
    NONAME   3BLBM2   125.000000
    NONAME   3BLBM3   125.000000
    NONAME   3BLBM4   125.000000
    NONAME   3BLBM5   125.000000
    NONAME   4BLBM1   50.000000
    NONAME   4BLBM2   50.000000
    NONAME   4BLBM3   125.000000
    NONAME   4BLBM4   125.000000
    NONAME   4BLBM5   125.000000
    NONAME   5BLBM1   50.000000
    NONAME   5BLBM2   50.000000
    NONAME   5BLBM3   50.000000
    NONAME   5BLBM4   50.000000
    NONAME   5BLBM5   50.000000
    NONAME   PBNBO    1.000000
    NONAME   1BNBO1   125.000000
    NONAME   1BNBO2   125.000000
    NONAME   1BNBO3   125.000000
    NONAME   1BNBO4   125.000000
    NONAME   1BNBO5   125.000000
    NONAME   2BNBO1   50.000000
    NONAME   2BNBO2   125.000000
    NONAME   2BNBO3   125.000000
    NONAME   2BNBO4   125.000000
    NONAME   2BNBO5   125.000000
    NONAME   3BNBO1   50.000000
    NONAME   3BNBO2   50.000000
    NONAME   3BNBO3   125.000000
    NONAME   3BNBO4   125.000000
    NONAME   3BNBO5   125.000000
    NONAME   4BNBO1   50.000000
    NONAME   4BNBO2   50.000000
    NONAME   4BNBO3   50.000000
    NONAME   4BNBO4   50.000000
    NONAME   4BNBO5   50.000000
    NONAME   PBOBP    1.000000
    NONAME   1BOBP1   125.000000
    NONAME   1BOBP2   125.000000
    NONAME   1BOBP3   125.000000
    NONAME   1BOBP4   125.000000
    NONAME   1BOBP5   125.000000
    NONAME   2BOBP1   50.000000
    NONAME   2BOBP2   125.000000
    NONAME   2BOBP3   125.000000
    NONAME   2BOBP4   125.000000
    NONAME   2BOBP5   125.000000
    NONAME   3BOBP1   50.000000
    NONAME   3BOBP2   50.000000
    NONAME   3BOBP3   125.000000
    NONAME   3BOBP4   125.000000
    NONAME   3BOBP5   125.000000
    NONAME   4BOBP1   50.000000
    NONAME   4BOBP2   50.000000
    NONAME   4BOBP3   50.000000
    NONAME   4BOBP4   50.000000
    NONAME   4BOBP5   50.000000
    NONAME   PBPBR    1.000000
    NONAME   1BPBR1   125.000000
    NONAME   1BPBR2   125.000000
    NONAME   1BPBR3   125.000000
    NONAME   1BPBR4   125.000000
    NONAME   1BPBR5   125.000000
    NONAME   2BPBR1   50.000000
    NONAME   2BPBR2   125.000000
    NONAME   2BPBR3   125.000000
    NONAME   2BPBR4   125.000000
    NONAME   2BPBR5   125.000000
    NONAME   3BPBR1   50.000000
    NONAME   3BPBR2   50.000000
    NONAME   3BPBR3   125.000000
    NONAME   3BPBR4   125.000000
    NONAME   3BPBR5   125.000000
    NONAME   4BPBR1   50.000000
    NONAME   4BPBR2   50.000000
    NONAME   4BPBR3   50.000000
    NONAME   4BPBR4   50.000000
    NONAME   4BPBR5   50.000000
    NONAME   PBQCE    1.000000
    NONAME   1BQCE1   3000.000000
    NONAME   1BQCE2   3000.000000
    NONAME   1BQCE3   3000.000000
    NONAME   1BQCE4   3000.000000
    NONAME   1BQCE5   3000.000000
    NONAME   2BQCE1   125.000000
    NONAME   2BQCE2   3000.000000
    NONAME   2BQCE3   3000.000000
    NONAME   2BQCE4   3000.000000
    NONAME   2BQCE5   3000.000000
    NONAME   3BQCE1   125.000000
    NONAME   3BQCE2   125.000000
    NONAME   3BQCE3   3000.000000
    NONAME   3BQCE4   3000.000000
    NONAME   3BQCE5   3000.000000
    NONAME   4BQCE1   125.000000
    NONAME   4BQCE2   125.000000
    NONAME   4BQCE3   125.000000
    NONAME   4BQCE4   125.000000
    NONAME   4BQCE5   125.000000
    NONAME   PBRBV    1.000000
    NONAME   1BRBV1   3000.000000
    NONAME   1BRBV2   3000.000000
    NONAME   1BRBV3   3000.000000
    NONAME   1BRBV4   3000.000000
    NONAME   1BRBV5   3000.000000
    NONAME   2BRBV1   125.000000
    NONAME   2BRBV2   3000.000000
    NONAME   2BRBV3   3000.000000
    NONAME   2BRBV4   3000.000000
    NONAME   2BRBV5   3000.000000
    NONAME   3BRBV1   125.000000
    NONAME   3BRBV2   125.000000
    NONAME   3BRBV3   3000.000000
    NONAME   3BRBV4   3000.000000
    NONAME   3BRBV5   3000.000000
    NONAME   4BRBV1   125.000000
    NONAME   4BRBV2   125.000000
    NONAME   4BRBV3   125.000000
    NONAME   4BRBV4   125.000000
    NONAME   4BRBV5   125.000000
    NONAME   PBRCD    1.000000
    NONAME   1BRCD1   3000.000000
    NONAME   1BRCD2   3000.000000
    NONAME   1BRCD3   3000.000000
    NONAME   1BRCD4   3000.000000
    NONAME   1BRCD5   3000.000000
    NONAME   2BRCD1   125.000000
    NONAME   2BRCD2   3000.000000
    NONAME   2BRCD3   3000.000000
    NONAME   2BRCD4   3000.000000
    NONAME   2BRCD5   3000.000000
    NONAME   3BRCD1   125.000000
    NONAME   3BRCD2   125.000000
    NONAME   3BRCD3   3000.000000
    NONAME   3BRCD4   3000.000000
    NONAME   3BRCD5   3000.000000
    NONAME   4BRCD1   125.000000
    NONAME   4BRCD2   125.000000
    NONAME   4BRCD3   125.000000
    NONAME   4BRCD4   125.000000
    NONAME   4BRCD5   125.000000
    NONAME   PCDCE    1.000000
    NONAME   1CDCE1   3000.000000
    NONAME   1CDCE2   3000.000000
    NONAME   1CDCE3   3000.000000
    NONAME   1CDCE4   3000.000000
    NONAME   1CDCE5   3000.000000
    NONAME   2CDCE1   125.000000
    NONAME   2CDCE2   3000.000000
    NONAME   2CDCE3   3000.000000
    NONAME   2CDCE4   3000.000000
    NONAME   2CDCE5   3000.000000
    NONAME   3CDCE1   125.000000
    NONAME   3CDCE2   125.000000
    NONAME   3CDCE3   3000.000000
    NONAME   3CDCE4   3000.000000
    NONAME   3CDCE5   3000.000000
    NONAME   4CDCE1   125.000000
    NONAME   4CDCE2   125.000000
    NONAME   4CDCE3   125.000000
    NONAME   4CDCE4   125.000000
    NONAME   4CDCE5   125.000000
    NONAME   PCECF    1.000000
    NONAME   1CECF1   3000.000000
    NONAME   1CECF2   3000.000000
    NONAME   1CECF3   3000.000000
    NONAME   1CECF4   3000.000000
    NONAME   1CECF5   3000.000000
    NONAME   2CECF1   125.000000
    NONAME   2CECF2   3000.000000
    NONAME   2CECF3   3000.000000
    NONAME   2CECF4   3000.000000
    NONAME   2CECF5   3000.000000
    NONAME   3CECF1   125.000000
    NONAME   3CECF2   125.000000
    NONAME   3CECF3   3000.000000
    NONAME   3CECF4   3000.000000
    NONAME   3CECF5   3000.000000
    NONAME   4CECF1   125.000000
    NONAME   4CECF2   125.000000
    NONAME   4CECF3   125.000000
    NONAME   4CECF4   125.000000
    NONAME   4CECF5   125.000000
    NONAME   PCSDU    1.000000
    NONAME   1CSDU1   3000.000000
    NONAME   1CSDU2   3000.000000
    NONAME   1CSDU3   3000.000000
    NONAME   1CSDU4   3000.000000
    NONAME   1CSDU5   3000.000000
    NONAME   2CSDU1   125.000000
    NONAME   2CSDU2   3000.000000
    NONAME   2CSDU3   3000.000000
    NONAME   2CSDU4   3000.000000
    NONAME   2CSDU5   3000.000000
    NONAME   3CSDU1   125.000000
    NONAME   3CSDU2   125.000000
    NONAME   3CSDU3   3000.000000
    NONAME   3CSDU4   3000.000000
    NONAME   3CSDU5   3000.000000
    NONAME   4CSDU1   125.000000
    NONAME   4CSDU2   125.000000
    NONAME   4CSDU3   125.000000
    NONAME   4CSDU4   125.000000
    NONAME   4CSDU5   125.000000
    NONAME   PDHDI    1.000000
    NONAME   1DHDI1   125.000000
    NONAME   1DHDI2   125.000000
    NONAME   1DHDI3   125.000000
    NONAME   1DHDI4   125.000000
    NONAME   1DHDI5   125.000000
    NONAME   2DHDI1   50.000000
    NONAME   2DHDI2   125.000000
    NONAME   2DHDI3   125.000000
    NONAME   2DHDI4   125.000000
    NONAME   2DHDI5   125.000000
    NONAME   3DHDI1   50.000000
    NONAME   3DHDI2   50.000000
    NONAME   3DHDI3   125.000000
    NONAME   3DHDI4   125.000000
    NONAME   3DHDI5   125.000000
    NONAME   4DHDI1   50.000000
    NONAME   4DHDI2   50.000000
    NONAME   4DHDI3   50.000000
    NONAME   4DHDI4   50.000000
    NONAME   4DHDI5   50.000000
    NONAME   PDGDS    1.000000
    NONAME   1DGDS1   3000.000000
    NONAME   1DGDS2   3000.000000
    NONAME   1DGDS3   3000.000000
    NONAME   1DGDS4   3000.000000
    NONAME   1DGDS5   3000.000000
    NONAME   2DGDS1   125.000000
    NONAME   2DGDS2   3000.000000
    NONAME   2DGDS3   3000.000000
    NONAME   2DGDS4   3000.000000
    NONAME   2DGDS5   3000.000000
    NONAME   3DGDS1   125.000000
    NONAME   3DGDS2   125.000000
    NONAME   3DGDS3   3000.000000
    NONAME   3DGDS4   3000.000000
    NONAME   3DGDS5   3000.000000
    NONAME   4DGDS1   125.000000
    NONAME   4DGDS2   125.000000
    NONAME   4DGDS3   125.000000
    NONAME   4DGDS4   125.000000
    NONAME   4DGDS5   125.000000
    NONAME   PCVDU    1.000000
    NONAME   1CVDU1   3000.000000
    NONAME   1CVDU2   3000.000000
    NONAME   1CVDU3   3000.000000
    NONAME   1CVDU4   3000.000000
    NONAME   1CVDU5   3000.000000
    NONAME   2CVDU1   125.000000
    NONAME   2CVDU2   3000.000000
    NONAME   2CVDU3   3000.000000
    NONAME   2CVDU4   3000.000000
    NONAME   2CVDU5   3000.000000
    NONAME   3CVDU1   125.000000
    NONAME   3CVDU2   125.000000
    NONAME   3CVDU3   3000.000000
    NONAME   3CVDU4   3000.000000
    NONAME   3CVDU5   3000.000000
    NONAME   4CVDU1   125.000000
    NONAME   4CVDU2   125.000000
    NONAME   4CVDU3   125.000000
    NONAME   4CVDU4   125.000000
    NONAME   4CVDU5   125.000000
    NONAME   PDSFC    1.000000
    NONAME   1DSFC1   125.000000
    NONAME   1DSFC2   125.000000
    NONAME   1DSFC3   125.000000
    NONAME   1DSFC4   125.000000
    NONAME   1DSFC5   125.000000
    NONAME   2DSFC1   50.000000
    NONAME   2DSFC2   125.000000
    NONAME   2DSFC3   125.000000
    NONAME   2DSFC4   125.000000
    NONAME   2DSFC5   125.000000
    NONAME   3DSFC1   50.000000
    NONAME   3DSFC2   50.000000
    NONAME   3DSFC3   125.000000
    NONAME   3DSFC4   125.000000
    NONAME   3DSFC5   125.000000
    NONAME   4DSFC1   50.000000
    NONAME   4DSFC2   50.000000
    NONAME   4DSFC3   50.000000
    NONAME   4DSFC4   50.000000
    NONAME   4DSFC5   50.000000
    NONAME   PFBFC    1.000000
    NONAME   1FBFC1   125.000000
    NONAME   1FBFC2   125.000000
    NONAME   1FBFC3   125.000000
    NONAME   1FBFC4   125.000000
    NONAME   1FBFC5   125.000000
    NONAME   2FBFC1   50.000000
    NONAME   2FBFC2   125.000000
    NONAME   2FBFC3   125.000000
    NONAME   2FBFC4   125.000000
    NONAME   2FBFC5   125.000000
    NONAME   3FBFC1   50.000000
    NONAME   3FBFC2   50.000000
    NONAME   3FBFC3   125.000000
    NONAME   3FBFC4   125.000000
    NONAME   3FBFC5   125.000000
    NONAME   4FBFC1   50.000000
    NONAME   4FBFC2   50.000000
    NONAME   4FBFC3   50.000000
    NONAME   4FBFC4   50.000000
    NONAME   4FBFC5   50.000000
    BOUNDRHS UPBROW33898 100000.000000
    BOUNDRHS UPBROW33899 100000.000000
    BOUNDRHS UPBROW33900 100000.000000
    BOUNDRHS UPBROW33901 100000.000000
    BOUNDRHS UPBROW33902 100000.000000
    BOUNDRHS UPBROW33903 100000.000000
    BOUNDRHS UPBROW33904 100000.000000
    BOUNDRHS UPBROW33905 100000.000000
    BOUNDRHS UPBROW33906 100000.000000
    BOUNDRHS UPBROW33907 100000.000000
    BOUNDRHS UPBROW33908 100000.000000
    BOUNDRHS UPBROW33909 100000.000000
    BOUNDRHS UPBROW33910 100000.000000
    BOUNDRHS UPBROW33911 100000.000000
    BOUNDRHS UPBROW33912 100000.000000
    BOUNDRHS UPBROW33913 100000.000000
    BOUNDRHS UPBROW33914 100000.000000
    BOUNDRHS UPBROW33915 100000.000000
    BOUNDRHS UPBROW33916 100000.000000
    BOUNDRHS UPBROW33917 100000.000000
    BOUNDRHS UPBROW33918 100000.000000
    BOUNDRHS UPBROW33919 100000.000000
    BOUNDRHS UPBROW33920 100000.000000
    BOUNDRHS UPBROW33921 100000.000000
    BOUNDRHS UPBROW33922 100000.000000
    BOUNDRHS UPBROW33923 100000.000000
    BOUNDRHS UPBROW33924 100000.000000
    BOUNDRHS UPBROW33925 100000.000000
    BOUNDRHS UPBROW33926 100000.000000
    BOUNDRHS UPBROW33927 100000.000000
    BOUNDRHS UPBROW33928 100000.000000
    BOUNDRHS UPBROW33929 100000.000000
    BOUNDRHS UPBROW33930 100000.000000
    BOUNDRHS UPBROW33931 100000.000000
    BOUNDRHS UPBROW33932 100000.000000
    BOUNDRHS UPBROW33933 100000.000000
    BOUNDRHS UPBROW33934 100000.000000
    BOUNDRHS UPBROW33935 100000.000000
    BOUNDRHS UPBROW33936 100000.000000
    BOUNDRHS UPBROW33937 100000.000000
    BOUNDRHS UPBROW33938 0.000000
    BOUNDRHS UPBROW33939 0.000000
    BOUNDRHS UPBROW33940 0.000000
    BOUNDRHS UPBROW33941 0.000000
    BOUNDRHS UPBROW33942 0.000000
    BOUNDRHS UPBROW33943 100000.000000
    BOUNDRHS UPBROW33944 100000.000000
    BOUNDRHS UPBROW33945 100000.000000
    BOUNDRHS UPBROW33946 100000.000000
    BOUNDRHS UPBROW33947 100000.000000
    BOUNDRHS UPBROW33948 0.000000
    BOUNDRHS UPBROW33949 0.000000
    BOUNDRHS UPBROW33950 0.000000
    BOUNDRHS UPBROW33951 0.000000
    BOUNDRHS UPBROW33952 0.000000
    BOUNDRHS UPBROW33953 100000.000000
    BOUNDRHS UPBROW33954 100000.000000
    BOUNDRHS UPBROW33955 100000.000000
    BOUNDRHS UPBROW33956 100000.000000
    BOUNDRHS UPBROW33957 100000.000000
    BOUNDRHS UPBROW33958 10000.000000
    BOUNDRHS UPBROW33959 10000.000000
    BOUNDRHS UPBROW33960 10000.000000
    BOUNDRHS UPBROW33961 10000.000000
    BOUNDRHS UPBROW33962 10000.000000
    BOUNDRHS UPBROW33963 10000.000000
    BOUNDRHS UPBROW33964 10000.000000
    BOUNDRHS UPBROW33965 10000.000000
    BOUNDRHS UPBROW33966 10000.000000
    BOUNDRHS UPBROW33967 10000.000000
    BOUNDRHS UPBROW33968 10000.000000
    BOUNDRHS UPBROW33969 10000.000000
    BOUNDRHS UPBROW33970 10000.000000
    BOUNDRHS UPBROW33971 10000.000000
    BOUNDRHS UPBROW33972 10000.000000
    BOUNDRHS UPBROW33973 10000.000000
    BOUNDRHS UPBROW33974 10000.000000
    BOUNDRHS UPBROW33975 10000.000000
    BOUNDRHS UPBROW33976 10000.000000
    BOUNDRHS UPBROW33977 10000.000000
    BOUNDRHS UPBROW33978 3000.000000
    BOUNDRHS UPBROW33979 3000.000000
    BOUNDRHS UPBROW33980 3000.000000
    BOUNDRHS UPBROW33981 3000.000000
    BOUNDRHS UPBROW33982 3000.000000
    BOUNDRHS UPBROW33983 3000.000000
    BOUNDRHS UPBROW33984 3000.000000
    BOUNDRHS UPBROW33985 3000.000000
    BOUNDRHS UPBROW33986 3000.000000
    BOUNDRHS UPBROW33987 3000.000000
    BOUNDRHS UPBROW33988 10000.000000
    BOUNDRHS UPBROW33989 10000.000000
    BOUNDRHS UPBROW33990 10000.000000
    BOUNDRHS UPBROW33991 10000.000000
    BOUNDRHS UPBROW33992 10000.000000
    BOUNDRHS UPBROW33993 10000.000000
    BOUNDRHS UPBROW33994 10000.000000
    BOUNDRHS UPBROW33995 10000.000000
    BOUNDRHS UPBROW33996 10000.000000
    BOUNDRHS UPBROW33997 10000.000000
    BOUNDRHS UPBROW33998 3000.000000
    BOUNDRHS UPBROW33999 3000.000000
    BOUNDRHS UPBROW34000 3000.000000
    BOUNDRHS UPBROW34001 3000.000000
    BOUNDRHS UPBROW34002 3000.000000
    BOUNDRHS UPBROW34003 3000.000000
    BOUNDRHS UPBROW34004 3000.000000
    BOUNDRHS UPBROW34005 3000.000000
    BOUNDRHS UPBROW34006 3000.000000
    BOUNDRHS UPBROW34007 3000.000000
    BOUNDRHS UPBROW34008 3000.000000
    BOUNDRHS UPBROW34009 3000.000000
    BOUNDRHS UPBROW34010 3000.000000
    BOUNDRHS UPBROW34011 3000.000000
    BOUNDRHS UPBROW34012 3000.000000
    BOUNDRHS UPBROW34013 3000.000000
    BOUNDRHS UPBROW34014 3000.000000
    BOUNDRHS UPBROW34015 3000.000000
    BOUNDRHS UPBROW34016 3000.000000
    BOUNDRHS UPBROW34017 3000.000000
    BOUNDRHS UPBROW34018 3000.000000
    BOUNDRHS UPBROW34019 3000.000000
    BOUNDRHS UPBROW34020 3000.000000
    BOUNDRHS UPBROW34021 3000.000000
    BOUNDRHS UPBROW34022 3000.000000
    BOUNDRHS UPBROW34023 3000.000000
    BOUNDRHS UPBROW34024 3000.000000
    BOUNDRHS UPBROW34025 3000.000000
    BOUNDRHS UPBROW34026 3000.000000
    BOUNDRHS UPBROW34027 3000.000000
    BOUNDRHS UPBROW34028 10000.000000
    BOUNDRHS UPBROW34029 10000.000000
    BOUNDRHS UPBROW34030 10000.000000
    BOUNDRHS UPBROW34031 10000.000000
    BOUNDRHS UPBROW34032 10000.000000
    BOUNDRHS UPBROW34033 10000.000000
    BOUNDRHS UPBROW34034 10000.000000
    BOUNDRHS UPBROW34035 10000.000000
    BOUNDRHS UPBROW34036 10000.000000
    BOUNDRHS UPBROW34037 10000.000000
    BOUNDRHS UPBROW34038 10000.000000
    BOUNDRHS UPBROW34039 10000.000000
    BOUNDRHS UPBROW34040 10000.000000
    BOUNDRHS UPBROW34041 10000.000000
    BOUNDRHS UPBROW34042 10000.000000
    BOUNDRHS UPBROW34043 10000.000000
    BOUNDRHS UPBROW34044 10000.000000
    BOUNDRHS UPBROW34045 10000.000000
    BOUNDRHS UPBROW34046 10000.000000
    BOUNDRHS UPBROW34047 10000.000000
    BOUNDRHS UPBROW34048 10000.000000
    BOUNDRHS UPBROW34049 10000.000000
    BOUNDRHS UPBROW34050 10000.000000
    BOUNDRHS UPBROW34051 10000.000000
    BOUNDRHS UPBROW34052 10000.000000
    BOUNDRHS UPBROW34053 10000.000000
    BOUNDRHS UPBROW34054 10000.000000
    BOUNDRHS UPBROW34055 10000.000000
    BOUNDRHS UPBROW34056 10000.000000
    BOUNDRHS UPBROW34057 10000.000000
    BOUNDRHS UPBROW34058 125.000000
    BOUNDRHS UPBROW34059 125.000000
    BOUNDRHS UPBROW34060 125.000000
    BOUNDRHS UPBROW34061 125.000000
    BOUNDRHS UPBROW34062 125.000000
    BOUNDRHS UPBROW34063 0.000000
    BOUNDRHS UPBROW34064 0.000000
    BOUNDRHS UPBROW34065 0.000000
    BOUNDRHS UPBROW34066 0.000000
    BOUNDRHS UPBROW34067 0.000000
    BOUNDRHS UPBROW34068 10000.000000
    BOUNDRHS UPBROW34069 10000.000000
    BOUNDRHS UPBROW34070 10000.000000
    BOUNDRHS UPBROW34071 10000.000000
    BOUNDRHS UPBROW34072 10000.000000
    BOUNDRHS UPBROW34073 10000.000000
    BOUNDRHS UPBROW34074 10000.000000
    BOUNDRHS UPBROW34075 10000.000000
    BOUNDRHS UPBROW34076 10000.000000
    BOUNDRHS UPBROW34077 10000.000000
    BOUNDRHS UPBROW34078 10000.000000
    BOUNDRHS UPBROW34079 10000.000000
    BOUNDRHS UPBROW34080 10000.000000
    BOUNDRHS UPBROW34081 10000.000000
    BOUNDRHS UPBROW34082 10000.000000
    BOUNDRHS UPBROW34083 10000.000000
    BOUNDRHS UPBROW34084 10000.000000
    BOUNDRHS UPBROW34085 10000.000000
    BOUNDRHS UPBROW34086 10000.000000
    BOUNDRHS UPBROW34087 10000.000000
    BOUNDRHS UPBROW34088 10000.000000
    BOUNDRHS UPBROW34089 10000.000000
    BOUNDRHS UPBROW34090 10000.000000
    BOUNDRHS UPBROW34091 10000.000000
    BOUNDRHS UPBROW34092 10000.000000
    BOUNDRHS UPBROW34093 10000.000000
    BOUNDRHS UPBROW34094 10000.000000
    BOUNDRHS UPBROW34095 10000.000000
    BOUNDRHS UPBROW34096 10000.000000
    BOUNDRHS UPBROW34097 10000.000000
    BOUNDRHS UPBROW34098 3000.000000
    BOUNDRHS UPBROW34099 3000.000000
    BOUNDRHS UPBROW34100 3000.000000
    BOUNDRHS UPBROW34101 3000.000000
    BOUNDRHS UPBROW34102 3000.000000
    BOUNDRHS UPBROW34103 0.000000
    BOUNDRHS UPBROW34104 0.000000
    BOUNDRHS UPBROW34105 0.000000
    BOUNDRHS UPBROW34106 0.000000
    BOUNDRHS UPBROW34107 0.000000
    BOUNDRHS UPBROW34108 10000.000000
    BOUNDRHS UPBROW34109 10000.000000
    BOUNDRHS UPBROW34110 10000.000000
    BOUNDRHS UPBROW34111 10000.000000
    BOUNDRHS UPBROW34112 10000.000000
    BOUNDRHS UPBROW34113 10000.000000
    BOUNDRHS UPBROW34114 10000.000000
    BOUNDRHS UPBROW34115 10000.000000
    BOUNDRHS UPBROW34116 10000.000000
    BOUNDRHS UPBROW34117 10000.000000
    BOUNDRHS UPBROW34118 10000.000000
    BOUNDRHS UPBROW34119 10000.000000
    BOUNDRHS UPBROW34120 10000.000000
    BOUNDRHS UPBROW34121 10000.000000
    BOUNDRHS UPBROW34122 10000.000000
    BOUNDRHS UPBROW34123 10000.000000
    BOUNDRHS UPBROW34124 10000.000000
    BOUNDRHS UPBROW34125 10000.000000
    BOUNDRHS UPBROW34126 10000.000000
    BOUNDRHS UPBROW34127 10000.000000
    BOUNDRHS UPBROW34128 10000.000000
    BOUNDRHS UPBROW34129 10000.000000
    BOUNDRHS UPBROW34130 10000.000000
    BOUNDRHS UPBROW34131 10000.000000
    BOUNDRHS UPBROW34132 10000.000000
    BOUNDRHS UPBROW34133 10000.000000
    BOUNDRHS UPBROW34134 10000.000000
    BOUNDRHS UPBROW34135 10000.000000
    BOUNDRHS UPBROW34136 10000.000000
    BOUNDRHS UPBROW34137 10000.000000
    BOUNDRHS UPBROW34138 125.000000
    BOUNDRHS UPBROW34139 125.000000
    BOUNDRHS UPBROW34140 125.000000
    BOUNDRHS UPBROW34141 125.000000
    BOUNDRHS UPBROW34142 125.000000
    BOUNDRHS UPBROW34143 125.000000
    BOUNDRHS UPBROW34144 125.000000
    BOUNDRHS UPBROW34145 125.000000
    BOUNDRHS UPBROW34146 125.000000
    BOUNDRHS UPBROW34147 125.000000
    BOUNDRHS UPBROW34148 125.000000
    BOUNDRHS UPBROW34149 125.000000
    BOUNDRHS UPBROW34150 125.000000
    BOUNDRHS UPBROW34151 125.000000
    BOUNDRHS UPBROW34152 125.000000
    BOUNDRHS UPBROW34153 125.000000
    BOUNDRHS UPBROW34154 125.000000
    BOUNDRHS UPBROW34155 125.000000
    BOUNDRHS UPBROW34156 125.000000
    BOUNDRHS UPBROW34157 125.000000
    BOUNDRHS UPBROW34158 125.000000
    BOUNDRHS UPBROW34159 125.000000
    BOUNDRHS UPBROW34160 125.000000
    BOUNDRHS UPBROW34161 125.000000
    BOUNDRHS UPBROW34162 125.000000
    BOUNDRHS UPBROW34163 125.000000
    BOUNDRHS UPBROW34164 125.000000
    BOUNDRHS UPBROW34165 125.000000
    BOUNDRHS UPBROW34166 125.000000
    BOUNDRHS UPBROW34167 125.000000
    BOUNDRHS UPBROW34168 125.000000
    BOUNDRHS UPBROW34169 125.000000
    BOUNDRHS UPBROW34170 125.000000
    BOUNDRHS UPBROW34171 125.000000
    BOUNDRHS UPBROW34172 125.000000
    BOUNDRHS UPBROW34173 125.000000
    BOUNDRHS UPBROW34174 125.000000
    BOUNDRHS UPBROW34175 125.000000
    BOUNDRHS UPBROW34176 125.000000
    BOUNDRHS UPBROW34177 125.000000
    BOUNDRHS UPBROW34178 125.000000
    BOUNDRHS UPBROW34179 125.000000
    BOUNDRHS UPBROW34180 125.000000
    BOUNDRHS UPBROW34181 125.000000
    BOUNDRHS UPBROW34182 125.000000
    BOUNDRHS UPBROW34183 125.000000
    BOUNDRHS UPBROW34184 125.000000
    BOUNDRHS UPBROW34185 125.000000
    BOUNDRHS UPBROW34186 125.000000
    BOUNDRHS UPBROW34187 125.000000
    BOUNDRHS UPBROW34188 3000.000000
    BOUNDRHS UPBROW34189 3000.000000
    BOUNDRHS UPBROW34190 3000.000000
    BOUNDRHS UPBROW34191 3000.000000
    BOUNDRHS UPBROW34192 3000.000000
    BOUNDRHS UPBROW34193 3000.000000
    BOUNDRHS UPBROW34194 3000.000000
    BOUNDRHS UPBROW34195 3000.000000
    BOUNDRHS UPBROW34196 3000.000000
    BOUNDRHS UPBROW34197 3000.000000
    BOUNDRHS UPBROW34198 3000.000000
    BOUNDRHS UPBROW34199 3000.000000
    BOUNDRHS UPBROW34200 3000.000000
    BOUNDRHS UPBROW34201 3000.000000
    BOUNDRHS UPBROW34202 3000.000000
    BOUNDRHS UPBROW34203 3000.000000
    BOUNDRHS UPBROW34204 3000.000000
    BOUNDRHS UPBROW34205 3000.000000
    BOUNDRHS UPBROW34206 3000.000000
    BOUNDRHS UPBROW34207 3000.000000
    BOUNDRHS UPBROW34208 3000.000000
    BOUNDRHS UPBROW34209 3000.000000
    BOUNDRHS UPBROW34210 3000.000000
    BOUNDRHS UPBROW34211 3000.000000
    BOUNDRHS UPBROW34212 3000.000000
    BOUNDRHS UPBROW34213 3000.000000
    BOUNDRHS UPBROW34214 3000.000000
    BOUNDRHS UPBROW34215 3000.000000
    BOUNDRHS UPBROW34216 3000.000000
    BOUNDRHS UPBROW34217 3000.000000
    BOUNDRHS UPBROW34218 3000.000000
    BOUNDRHS UPBROW34219 3000.000000
    BOUNDRHS UPBROW34220 3000.000000
    BOUNDRHS UPBROW34221 3000.000000
    BOUNDRHS UPBROW34222 3000.000000
    BOUNDRHS UPBROW34223 3000.000000
    BOUNDRHS UPBROW34224 3000.000000
    BOUNDRHS UPBROW34225 3000.000000
    BOUNDRHS UPBROW34226 3000.000000
    BOUNDRHS UPBROW34227 3000.000000
    BOUNDRHS UPBROW34228 125.000000
    BOUNDRHS UPBROW34229 125.000000
    BOUNDRHS UPBROW34230 125.000000
    BOUNDRHS UPBROW34231 125.000000
    BOUNDRHS UPBROW34232 125.000000
    BOUNDRHS UPBROW34233 125.000000
    BOUNDRHS UPBROW34234 125.000000
    BOUNDRHS UPBROW34235 125.000000
    BOUNDRHS UPBROW34236 125.000000
    BOUNDRHS UPBROW34237 125.000000
    BOUNDRHS UPBROW34238 3000.000000
    BOUNDRHS UPBROW34239 3000.000000
    BOUNDRHS UPBROW34240 3000.000000
    BOUNDRHS UPBROW34241 3000.000000
    BOUNDRHS UPBROW34242 3000.000000
    BOUNDRHS UPBROW34243 3000.000000
    BOUNDRHS UPBROW34244 3000.000000
    BOUNDRHS UPBROW34245 3000.000000
    BOUNDRHS UPBROW34246 3000.000000
    BOUNDRHS UPBROW34247 3000.000000
    BOUNDRHS UPBROW34248 3000.000000
    BOUNDRHS UPBROW34249 3000.000000
    BOUNDRHS UPBROW34250 3000.000000
    BOUNDRHS UPBROW34251 3000.000000
    BOUNDRHS UPBROW34252 3000.000000
    BOUNDRHS UPBROW34253 3000.000000
    BOUNDRHS UPBROW34254 3000.000000
    BOUNDRHS UPBROW34255 3000.000000
    BOUNDRHS UPBROW34256 3000.000000
    BOUNDRHS UPBROW34257 3000.000000
    BOUNDRHS UPBROW34258 125.000000
    BOUNDRHS UPBROW34259 125.000000
    BOUNDRHS UPBROW34260 125.000000
    BOUNDRHS UPBROW34261 125.000000
    BOUNDRHS UPBROW34262 125.000000
    BOUNDRHS UPBROW34263 125.000000
    BOUNDRHS UPBROW34264 125.000000
    BOUNDRHS UPBROW34265 125.000000
    BOUNDRHS UPBROW34266 125.000000
    BOUNDRHS UPBROW34267 125.000000
    BOUNDRHS UPBROW34268 125.000000
    BOUNDRHS UPBROW34269 125.000000
    BOUNDRHS UPBROW34270 125.000000
    BOUNDRHS UPBROW34271 125.000000
    BOUNDRHS UPBROW34272 125.000000
    BOUNDRHS UPBROW34273 125.000000
    BOUNDRHS UPBROW34274 125.000000
    BOUNDRHS UPBROW34275 125.000000
    BOUNDRHS UPBROW34276 125.000000
    BOUNDRHS UPBROW34277 125.000000
    BOUNDRHS UPBROW34278 125.000000
    BOUNDRHS UPBROW34279 125.000000
    BOUNDRHS UPBROW34280 125.000000
    BOUNDRHS UPBROW34281 125.000000
    BOUNDRHS UPBROW34282 125.000000
    BOUNDRHS UPBROW34283 125.000000
    BOUNDRHS UPBROW34284 125.000000
    BOUNDRHS UPBROW34285 125.000000
    BOUNDRHS UPBROW34286 125.000000
    BOUNDRHS UPBROW34287 125.000000
    BOUNDRHS UPBROW34288 125.000000
    BOUNDRHS UPBROW34289 125.000000
    BOUNDRHS UPBROW34290 125.000000
    BOUNDRHS UPBROW34291 125.000000
    BOUNDRHS UPBROW34292 125.000000
    BOUNDRHS UPBROW34293 125.000000
    BOUNDRHS UPBROW34294 125.000000
    BOUNDRHS UPBROW34295 125.000000
    BOUNDRHS UPBROW34296 125.000000
    BOUNDRHS UPBROW34297 125.000000
    BOUNDRHS UPBROW34298 125.000000
    BOUNDRHS UPBROW34299 125.000000
    BOUNDRHS UPBROW34300 125.000000
    BOUNDRHS UPBROW34301 125.000000
    BOUNDRHS UPBROW34302 125.000000
    BOUNDRHS UPBROW34303 125.000000
    BOUNDRHS UPBROW34304 125.000000
    BOUNDRHS UPBROW34305 125.000000
    BOUNDRHS UPBROW34306 125.000000
    BOUNDRHS UPBROW34307 125.000000
    BOUNDRHS UPBROW34308 3000.000000
    BOUNDRHS UPBROW34309 3000.000000
    BOUNDRHS UPBROW34310 3000.000000
    BOUNDRHS UPBROW34311 3000.000000
    BOUNDRHS UPBROW34312 3000.000000
    BOUNDRHS UPBROW34313 3000.000000
    BOUNDRHS UPBROW34314 3000.000000
    BOUNDRHS UPBROW34315 3000.000000
    BOUNDRHS UPBROW34316 3000.000000
    BOUNDRHS UPBROW34317 3000.000000
    BOUNDRHS UPBROW34318 3000.000000
    BOUNDRHS UPBROW34319 3000.000000
    BOUNDRHS UPBROW34320 3000.000000
    BOUNDRHS UPBROW34321 3000.000000
    BOUNDRHS UPBROW34322 3000.000000
    BOUNDRHS UPBROW34323 3000.000000
    BOUNDRHS UPBROW34324 3000.000000
    BOUNDRHS UPBROW34325 3000.000000
    BOUNDRHS UPBROW34326 3000.000000
    BOUNDRHS UPBROW34327 3000.000000
    BOUNDRHS UPBROW34328 3000.000000
    BOUNDRHS UPBROW34329 3000.000000
    BOUNDRHS UPBROW34330 3000.000000
    BOUNDRHS UPBROW34331 3000.000000
    BOUNDRHS UPBROW34332 3000.000000
    BOUNDRHS UPBROW34333 3000.000000
    BOUNDRHS UPBROW34334 3000.000000
    BOUNDRHS UPBROW34335 3000.000000
    BOUNDRHS UPBROW34336 3000.000000
    BOUNDRHS UPBROW34337 3000.000000
    BOUNDRHS UPBROW34338 125.000000
    BOUNDRHS UPBROW34339 125.000000
    BOUNDRHS UPBROW34340 125.000000
    BOUNDRHS UPBROW34341 125.000000
    BOUNDRHS UPBROW34342 125.000000
    BOUNDRHS UPBROW34343 125.000000
    BOUNDRHS UPBROW34344 125.000000
    BOUNDRHS UPBROW34345 125.000000
    BOUNDRHS UPBROW34346 125.000000
    BOUNDRHS UPBROW34347 125.000000
    BOUNDRHS UPBROW34348 125.000000
    BOUNDRHS UPBROW34349 125.000000
    BOUNDRHS UPBROW34350 125.000000
    BOUNDRHS UPBROW34351 125.000000
    BOUNDRHS UPBROW34352 125.000000
    BOUNDRHS UPBROW34353 125.000000
    BOUNDRHS UPBROW34354 125.000000
    BOUNDRHS UPBROW34355 125.000000
    BOUNDRHS UPBROW34356 125.000000
    BOUNDRHS UPBROW34357 125.000000
    BOUNDRHS UPBROW34358 125.000000
    BOUNDRHS UPBROW34359 125.000000
    BOUNDRHS UPBROW34360 125.000000
    BOUNDRHS UPBROW34361 125.000000
    BOUNDRHS UPBROW34362 125.000000
    BOUNDRHS UPBROW34363 125.000000
    BOUNDRHS UPBROW34364 125.000000
    BOUNDRHS UPBROW34365 125.000000
    BOUNDRHS UPBROW34366 125.000000
    BOUNDRHS UPBROW34367 125.000000
    BOUNDRHS UPBROW34368 3000.000000
    BOUNDRHS UPBROW34369 3000.000000
    BOUNDRHS UPBROW34370 3000.000000
    BOUNDRHS UPBROW34371 3000.000000
    BOUNDRHS UPBROW34372 3000.000000
    BOUNDRHS UPBROW34373 3000.000000
    BOUNDRHS UPBROW34374 3000.000000
    BOUNDRHS UPBROW34375 3000.000000
    BOUNDRHS UPBROW34376 3000.000000
    BOUNDRHS UPBROW34377 3000.000000
    BOUNDRHS UPBROW34378 3000.000000
    BOUNDRHS UPBROW34379 3000.000000
    BOUNDRHS UPBROW34380 3000.000000
    BOUNDRHS UPBROW34381 3000.000000
    BOUNDRHS UPBROW34382 3000.000000
    BOUNDRHS UPBROW34383 3000.000000
    BOUNDRHS UPBROW34384 3000.000000
    BOUNDRHS UPBROW34385 3000.000000
    BOUNDRHS UPBROW34386 3000.000000
    BOUNDRHS UPBROW34387 3000.000000
    BOUNDRHS UPBROW34388 3000.000000
    BOUNDRHS UPBROW34389 3000.000000
    BOUNDRHS UPBROW34390 3000.000000
    BOUNDRHS UPBROW34391 3000.000000
    BOUNDRHS UPBROW34392 3000.000000
    BOUNDRHS UPBROW34393 3000.000000
    BOUNDRHS UPBROW34394 3000.000000
    BOUNDRHS UPBROW34395 3000.000000
    BOUNDRHS UPBROW34396 3000.000000
    BOUNDRHS UPBROW34397 3000.000000
    BOUNDRHS UPBROW34398 3000.000000
    BOUNDRHS UPBROW34399 3000.000000
    BOUNDRHS UPBROW34400 3000.000000
    BOUNDRHS UPBROW34401 3000.000000
    BOUNDRHS UPBROW34402 3000.000000
    BOUNDRHS UPBROW34403 3000.000000
    BOUNDRHS UPBROW34404 3000.000000
    BOUNDRHS UPBROW34405 3000.000000
    BOUNDRHS UPBROW34406 3000.000000
    BOUNDRHS UPBROW34407 3000.000000
    BOUNDRHS UPBROW34408 3000.000000
    BOUNDRHS UPBROW34409 3000.000000
    BOUNDRHS UPBROW34410 3000.000000
    BOUNDRHS UPBROW34411 3000.000000
    BOUNDRHS UPBROW34412 3000.000000
    BOUNDRHS UPBROW34413 3000.000000
    BOUNDRHS UPBROW34414 3000.000000
    BOUNDRHS UPBROW34415 3000.000000
    BOUNDRHS UPBROW34416 3000.000000
    BOUNDRHS UPBROW34417 3000.000000
    BOUNDRHS UPBROW34418 125.000000
    BOUNDRHS UPBROW34419 125.000000
    BOUNDRHS UPBROW34420 125.000000
    BOUNDRHS UPBROW34421 125.000000
    BOUNDRHS UPBROW34422 125.000000
    BOUNDRHS UPBROW34423 125.000000
    BOUNDRHS UPBROW34424 125.000000
    BOUNDRHS UPBROW34425 125.000000
    BOUNDRHS UPBROW34426 125.000000
    BOUNDRHS UPBROW34427 125.000000
    BOUNDRHS UPBROW34428 3000.000000
    BOUNDRHS UPBROW34429 3000.000000
    BOUNDRHS UPBROW34430 3000.000000
    BOUNDRHS UPBROW34431 3000.000000
    BOUNDRHS UPBROW34432 3000.000000
    BOUNDRHS UPBROW34433 3000.000000
    BOUNDRHS UPBROW34434 3000.000000
    BOUNDRHS UPBROW34435 3000.000000
    BOUNDRHS UPBROW34436 3000.000000
    BOUNDRHS UPBROW34437 3000.000000
    BOUNDRHS UPBROW34438 125.000000
    BOUNDRHS UPBROW34439 125.000000
    BOUNDRHS UPBROW34440 125.000000
    BOUNDRHS UPBROW34441 125.000000
    BOUNDRHS UPBROW34442 125.000000
    BOUNDRHS UPBROW34443 125.000000
    BOUNDRHS UPBROW34444 125.000000
    BOUNDRHS UPBROW34445 125.000000
    BOUNDRHS UPBROW34446 125.000000
    BOUNDRHS UPBROW34447 125.000000
    BOUNDRHS UPBROW34448 125.000000
    BOUNDRHS UPBROW34449 125.000000
    BOUNDRHS UPBROW34450 125.000000
    BOUNDRHS UPBROW34451 125.000000
    BOUNDRHS UPBROW34452 125.000000
    BOUNDRHS UPBROW34453 125.000000
    BOUNDRHS UPBROW34454 125.000000
    BOUNDRHS UPBROW34455 125.000000
    BOUNDRHS UPBROW34456 125.000000
    BOUNDRHS UPBROW34457 125.000000
    BOUNDRHS UPBROW34458 125.000000
    BOUNDRHS UPBROW34459 125.000000
    BOUNDRHS UPBROW34460 125.000000
    BOUNDRHS UPBROW34461 125.000000
    BOUNDRHS UPBROW34462 125.000000
    BOUNDRHS UPBROW34463 125.000000
    BOUNDRHS UPBROW34464 125.000000
    BOUNDRHS UPBROW34465 125.000000
    BOUNDRHS UPBROW34466 125.000000
    BOUNDRHS UPBROW34467 125.000000
    BOUNDRHS UPBROW34468 125.000000
    BOUNDRHS UPBROW34469 125.000000
    BOUNDRHS UPBROW34470 125.000000
    BOUNDRHS UPBROW34471 125.000000
    BOUNDRHS UPBROW34472 125.000000
    BOUNDRHS UPBROW34473 125.000000
    BOUNDRHS UPBROW34474 125.000000
    BOUNDRHS UPBROW34475 125.000000
    BOUNDRHS UPBROW34476 125.000000
    BOUNDRHS UPBROW34477 125.000000
    BOUNDRHS UPBROW34478 3000.000000
    BOUNDRHS UPBROW34479 3000.000000
    BOUNDRHS UPBROW34480 3000.000000
    BOUNDRHS UPBROW34481 3000.000000
    BOUNDRHS UPBROW34482 3000.000000
    BOUNDRHS UPBROW34483 3000.000000
    BOUNDRHS UPBROW34484 3000.000000
    BOUNDRHS UPBROW34485 3000.000000
    BOUNDRHS UPBROW34486 3000.000000
    BOUNDRHS UPBROW34487 3000.000000
    BOUNDRHS UPBROW34488 10000.000000
    BOUNDRHS UPBROW34489 10000.000000
    BOUNDRHS UPBROW34490 10000.000000
    BOUNDRHS UPBROW34491 10000.000000
    BOUNDRHS UPBROW34492 10000.000000
    BOUNDRHS UPBROW34493 10000.000000
    BOUNDRHS UPBROW34494 10000.000000
    BOUNDRHS UPBROW34495 10000.000000
    BOUNDRHS UPBROW34496 10000.000000
    BOUNDRHS UPBROW34497 10000.000000
    BOUNDRHS UPBROW34498 3000.000000
    BOUNDRHS UPBROW34499 3000.000000
    BOUNDRHS UPBROW34500 3000.000000
    BOUNDRHS UPBROW34501 3000.000000
    BOUNDRHS UPBROW34502 3000.000000
    BOUNDRHS UPBROW34503 3000.000000
    BOUNDRHS UPBROW34504 3000.000000
    BOUNDRHS UPBROW34505 3000.000000
    BOUNDRHS UPBROW34506 3000.000000
    BOUNDRHS UPBROW34507 3000.000000
    BOUNDRHS UPBROW34508 10000.000000
    BOUNDRHS UPBROW34509 10000.000000
    BOUNDRHS UPBROW34510 10000.000000
    BOUNDRHS UPBROW34511 10000.000000
    BOUNDRHS UPBROW34512 10000.000000
    BOUNDRHS UPBROW34513 10000.000000
    BOUNDRHS UPBROW34514 10000.000000
    BOUNDRHS UPBROW34515 10000.000000
    BOUNDRHS UPBROW34516 10000.000000
    BOUNDRHS UPBROW34517 10000.000000
    BOUNDRHS UPBROW34518 125.000000
    BOUNDRHS UPBROW34519 125.000000
    BOUNDRHS UPBROW34520 125.000000
    BOUNDRHS UPBROW34521 125.000000
    BOUNDRHS UPBROW34522 125.000000
    BOUNDRHS UPBROW34523 125.000000
    BOUNDRHS UPBROW34524 125.000000
    BOUNDRHS UPBROW34525 125.000000
    BOUNDRHS UPBROW34526 125.000000
    BOUNDRHS UPBROW34527 125.000000
    BOUNDRHS UPBROW34528 10000.000000
    BOUNDRHS UPBROW34529 10000.000000
    BOUNDRHS UPBROW34530 10000.000000
    BOUNDRHS UPBROW34531 10000.000000
    BOUNDRHS UPBROW34532 10000.000000
    BOUNDRHS UPBROW34533 10000.000000
    BOUNDRHS UPBROW34534 10000.000000
    BOUNDRHS UPBROW34535 10000.000000
    BOUNDRHS UPBROW34536 10000.000000
    BOUNDRHS UPBROW34537 10000.000000
    BOUNDRHS UPBROW34538 10000.000000
    BOUNDRHS UPBROW34539 10000.000000
    BOUNDRHS UPBROW34540 10000.000000
    BOUNDRHS UPBROW34541 10000.000000
    BOUNDRHS UPBROW34542 10000.000000
    BOUNDRHS UPBROW34543 10000.000000
    BOUNDRHS UPBROW34544 10000.000000
    BOUNDRHS UPBROW34545 10000.000000
    BOUNDRHS UPBROW34546 10000.000000
    BOUNDRHS UPBROW34547 10000.000000
    BOUNDRHS UPBROW34548 1.000000
    BOUNDRHS UPBROW34549 125.000000
    BOUNDRHS UPBROW34550 125.000000
    BOUNDRHS UPBROW34551 125.000000
    BOUNDRHS UPBROW34552 125.000000
    BOUNDRHS UPBROW34553 3000.000000
    BOUNDRHS UPBROW34554 3000.000000
    BOUNDRHS UPBROW34555 3000.000000
    BOUNDRHS UPBROW34556 3000.000000
    BOUNDRHS UPBROW34557 3000.000000
    BOUNDRHS UPBROW34558 3000.000000
    BOUNDRHS UPBROW34559 3000.000000
    BOUNDRHS UPBROW34560 3000.000000
    BOUNDRHS UPBROW34561 3000.000000
    BOUNDRHS UPBROW34562 3000.000000
    BOUNDRHS UPBROW34563 3000.000000
    BOUNDRHS UPBROW34564 3000.000000
    BOUNDRHS UPBROW34565 3000.000000
    BOUNDRHS UPBROW34566 3000.000000
    BOUNDRHS UPBROW34567 3000.000000
    BOUNDRHS UPBROW34568 3000.000000
    BOUNDRHS UPBROW34569 1.000000
    BOUNDRHS UPBROW34570 125.000000
    BOUNDRHS UPBROW34571 125.000000
    BOUNDRHS UPBROW34572 125.000000
    BOUNDRHS UPBROW34573 125.000000
    BOUNDRHS UPBROW34574 125.000000
    BOUNDRHS UPBROW34575 125.000000
    BOUNDRHS UPBROW34576 125.000000
    BOUNDRHS UPBROW34577 125.000000
    BOUNDRHS UPBROW34578 3000.000000
    BOUNDRHS UPBROW34579 3000.000000
    BOUNDRHS UPBROW34580 3000.000000
    BOUNDRHS UPBROW34581 3000.000000
    BOUNDRHS UPBROW34582 3000.000000
    BOUNDRHS UPBROW34583 3000.000000
    BOUNDRHS UPBROW34584 3000.000000
    BOUNDRHS UPBROW34585 3000.000000
    BOUNDRHS UPBROW34586 3000.000000
    BOUNDRHS UPBROW34587 3000.000000
    BOUNDRHS UPBROW34588 3000.000000
    BOUNDRHS UPBROW34589 3000.000000
    BOUNDRHS UPBROW34590 1.000000
    BOUNDRHS UPBROW34591 50.000000
    BOUNDRHS UPBROW34592 50.000000
    BOUNDRHS UPBROW34593 50.000000
    BOUNDRHS UPBROW34594 50.000000
    BOUNDRHS UPBROW34595 125.000000
    BOUNDRHS UPBROW34596 125.000000
    BOUNDRHS UPBROW34597 125.000000
    BOUNDRHS UPBROW34598 125.000000
    BOUNDRHS UPBROW34599 125.000000
    BOUNDRHS UPBROW34600 125.000000
    BOUNDRHS UPBROW34601 125.000000
    BOUNDRHS UPBROW34602 125.000000
    BOUNDRHS UPBROW34603 125.000000
    BOUNDRHS UPBROW34604 125.000000
    BOUNDRHS UPBROW34605 125.000000
    BOUNDRHS UPBROW34606 125.000000
    BOUNDRHS UPBROW34607 125.000000
    BOUNDRHS UPBROW34608 125.000000
    BOUNDRHS UPBROW34609 125.000000
    BOUNDRHS UPBROW34610 125.000000
    BOUNDRHS UPBROW34611 1.000000
    BOUNDRHS UPBROW34612 50.000000
    BOUNDRHS UPBROW34613 50.000000
    BOUNDRHS UPBROW34614 50.000000
    BOUNDRHS UPBROW34615 50.000000
    BOUNDRHS UPBROW34616 50.000000
    BOUNDRHS UPBROW34617 50.000000
    BOUNDRHS UPBROW34618 50.000000
    BOUNDRHS UPBROW34619 50.000000
    BOUNDRHS UPBROW34620 125.000000
    BOUNDRHS UPBROW34621 125.000000
    BOUNDRHS UPBROW34622 125.000000
    BOUNDRHS UPBROW34623 125.000000
    BOUNDRHS UPBROW34624 125.000000
    BOUNDRHS UPBROW34625 125.000000
    BOUNDRHS UPBROW34626 125.000000
    BOUNDRHS UPBROW34627 125.000000
    BOUNDRHS UPBROW34628 125.000000
    BOUNDRHS UPBROW34629 125.000000
    BOUNDRHS UPBROW34630 125.000000
    BOUNDRHS UPBROW34631 125.000000
    BOUNDRHS UPBROW34632 1.000000
    BOUNDRHS UPBROW34633 50.000000
    BOUNDRHS UPBROW34634 50.000000
    BOUNDRHS UPBROW34635 50.000000
    BOUNDRHS UPBROW34636 50.000000
    BOUNDRHS UPBROW34637 50.000000
    BOUNDRHS UPBROW34638 50.000000
    BOUNDRHS UPBROW34639 50.000000
    BOUNDRHS UPBROW34640 50.000000
    BOUNDRHS UPBROW34641 50.000000
    BOUNDRHS UPBROW34642 50.000000
    BOUNDRHS UPBROW34643 50.000000
    BOUNDRHS UPBROW34644 50.000000
    BOUNDRHS UPBROW34645 50.000000
    BOUNDRHS UPBROW34646 50.000000
    BOUNDRHS UPBROW34647 50.000000
    BOUNDRHS UPBROW34648 50.000000
    BOUNDRHS UPBROW34649 50.000000
    BOUNDRHS UPBROW34650 50.000000
    BOUNDRHS UPBROW34651 50.000000
    BOUNDRHS UPBROW34652 50.000000
    BOUNDRHS UPBROW34653 1.000000
    BOUNDRHS UPBROW34654 125.000000
    BOUNDRHS UPBROW34655 125.000000
    BOUNDRHS UPBROW34656 125.000000
    BOUNDRHS UPBROW34657 125.000000
    BOUNDRHS UPBROW34658 3000.000000
    BOUNDRHS UPBROW34659 3000.000000
    BOUNDRHS UPBROW34660 3000.000000
    BOUNDRHS UPBROW34661 3000.000000
    BOUNDRHS UPBROW34662 3000.000000
    BOUNDRHS UPBROW34663 3000.000000
    BOUNDRHS UPBROW34664 3000.000000
    BOUNDRHS UPBROW34665 3000.000000
    BOUNDRHS UPBROW34666 3000.000000
    BOUNDRHS UPBROW34667 3000.000000
    BOUNDRHS UPBROW34668 3000.000000
    BOUNDRHS UPBROW34669 3000.000000
    BOUNDRHS UPBROW34670 3000.000000
    BOUNDRHS UPBROW34671 3000.000000
    BOUNDRHS UPBROW34672 3000.000000
    BOUNDRHS UPBROW34673 3000.000000
    BOUNDRHS UPBROW34674 1.000000
    BOUNDRHS UPBROW34675 125.000000
    BOUNDRHS UPBROW34676 125.000000
    BOUNDRHS UPBROW34677 125.000000
    BOUNDRHS UPBROW34678 125.000000
    BOUNDRHS UPBROW34679 125.000000
    BOUNDRHS UPBROW34680 125.000000
    BOUNDRHS UPBROW34681 125.000000
    BOUNDRHS UPBROW34682 125.000000
    BOUNDRHS UPBROW34683 3000.000000
    BOUNDRHS UPBROW34684 3000.000000
    BOUNDRHS UPBROW34685 3000.000000
    BOUNDRHS UPBROW34686 3000.000000
    BOUNDRHS UPBROW34687 3000.000000
    BOUNDRHS UPBROW34688 3000.000000
    BOUNDRHS UPBROW34689 3000.000000
    BOUNDRHS UPBROW34690 3000.000000
    BOUNDRHS UPBROW34691 3000.000000
    BOUNDRHS UPBROW34692 3000.000000
    BOUNDRHS UPBROW34693 3000.000000
    BOUNDRHS UPBROW34694 3000.000000
    BOUNDRHS UPBROW34695 1.000000
    BOUNDRHS UPBROW34696 50.000000
    BOUNDRHS UPBROW34697 50.000000
    BOUNDRHS UPBROW34698 50.000000
    BOUNDRHS UPBROW34699 50.000000
    BOUNDRHS UPBROW34700 125.000000
    BOUNDRHS UPBROW34701 125.000000
    BOUNDRHS UPBROW34702 125.000000
    BOUNDRHS UPBROW34703 125.000000
    BOUNDRHS UPBROW34704 125.000000
    BOUNDRHS UPBROW34705 125.000000
    BOUNDRHS UPBROW34706 125.000000
    BOUNDRHS UPBROW34707 125.000000
    BOUNDRHS UPBROW34708 125.000000
    BOUNDRHS UPBROW34709 125.000000
    BOUNDRHS UPBROW34710 125.000000
    BOUNDRHS UPBROW34711 125.000000
    BOUNDRHS UPBROW34712 125.000000
    BOUNDRHS UPBROW34713 125.000000
    BOUNDRHS UPBROW34714 125.000000
    BOUNDRHS UPBROW34715 125.000000
    BOUNDRHS UPBROW34716 1.000000
    BOUNDRHS UPBROW34717 50.000000
    BOUNDRHS UPBROW34718 50.000000
    BOUNDRHS UPBROW34719 50.000000
    BOUNDRHS UPBROW34720 50.000000
    BOUNDRHS UPBROW34721 50.000000
    BOUNDRHS UPBROW34722 50.000000
    BOUNDRHS UPBROW34723 50.000000
    BOUNDRHS UPBROW34724 50.000000
    BOUNDRHS UPBROW34725 125.000000
    BOUNDRHS UPBROW34726 125.000000
    BOUNDRHS UPBROW34727 125.000000
    BOUNDRHS UPBROW34728 125.000000
    BOUNDRHS UPBROW34729 125.000000
    BOUNDRHS UPBROW34730 125.000000
    BOUNDRHS UPBROW34731 125.000000
    BOUNDRHS UPBROW34732 125.000000
    BOUNDRHS UPBROW34733 125.000000
    BOUNDRHS UPBROW34734 125.000000
    BOUNDRHS UPBROW34735 125.000000
    BOUNDRHS UPBROW34736 125.000000
    BOUNDRHS UPBROW34737 1.000000
    BOUNDRHS UPBROW34738 50.000000
    BOUNDRHS UPBROW34739 50.000000
    BOUNDRHS UPBROW34740 50.000000
    BOUNDRHS UPBROW34741 50.000000
    BOUNDRHS UPBROW34742 50.000000
    BOUNDRHS UPBROW34743 50.000000
    BOUNDRHS UPBROW34744 50.000000
    BOUNDRHS UPBROW34745 50.000000
    BOUNDRHS UPBROW34746 50.000000
    BOUNDRHS UPBROW34747 50.000000
    BOUNDRHS UPBROW34748 50.000000
    BOUNDRHS UPBROW34749 50.000000
    BOUNDRHS UPBROW34750 50.000000
    BOUNDRHS UPBROW34751 50.000000
    BOUNDRHS UPBROW34752 50.000000
    BOUNDRHS UPBROW34753 50.000000
    BOUNDRHS UPBROW34754 50.000000
    BOUNDRHS UPBROW34755 50.000000
    BOUNDRHS UPBROW34756 50.000000
    BOUNDRHS UPBROW34757 50.000000
    BOUNDRHS UPBROW34758 1.000000
    BOUNDRHS UPBROW34759 125.000000
    BOUNDRHS UPBROW34760 125.000000
    BOUNDRHS UPBROW34761 125.000000
    BOUNDRHS UPBROW34762 125.000000
    BOUNDRHS UPBROW34763 125.000000
    BOUNDRHS UPBROW34764 125.000000
    BOUNDRHS UPBROW34765 125.000000
    BOUNDRHS UPBROW34766 125.000000
    BOUNDRHS UPBROW34767 125.000000
    BOUNDRHS UPBROW34768 125.000000
    BOUNDRHS UPBROW34769 125.000000
    BOUNDRHS UPBROW34770 125.000000
    BOUNDRHS UPBROW34771 125.000000
    BOUNDRHS UPBROW34772 125.000000
    BOUNDRHS UPBROW34773 125.000000
    BOUNDRHS UPBROW34774 125.000000
    BOUNDRHS UPBROW34775 125.000000
    BOUNDRHS UPBROW34776 125.000000
    BOUNDRHS UPBROW34777 125.000000
    BOUNDRHS UPBROW34778 125.000000
    BOUNDRHS UPBROW34779 1.000000
    BOUNDRHS UPBROW34780 50.000000
    BOUNDRHS UPBROW34781 50.000000
    BOUNDRHS UPBROW34782 50.000000
    BOUNDRHS UPBROW34783 50.000000
    BOUNDRHS UPBROW34784 125.000000
    BOUNDRHS UPBROW34785 125.000000
    BOUNDRHS UPBROW34786 125.000000
    BOUNDRHS UPBROW34787 125.000000
    BOUNDRHS UPBROW34788 125.000000
    BOUNDRHS UPBROW34789 125.000000
    BOUNDRHS UPBROW34790 125.000000
    BOUNDRHS UPBROW34791 125.000000
    BOUNDRHS UPBROW34792 125.000000
    BOUNDRHS UPBROW34793 125.000000
    BOUNDRHS UPBROW34794 125.000000
    BOUNDRHS UPBROW34795 125.000000
    BOUNDRHS UPBROW34796 125.000000
    BOUNDRHS UPBROW34797 125.000000
    BOUNDRHS UPBROW34798 125.000000
    BOUNDRHS UPBROW34799 125.000000
    BOUNDRHS UPBROW34800 1.000000
    BOUNDRHS UPBROW34801 50.000000
    BOUNDRHS UPBROW34802 50.000000
    BOUNDRHS UPBROW34803 50.000000
    BOUNDRHS UPBROW34804 50.000000
    BOUNDRHS UPBROW34805 50.000000
    BOUNDRHS UPBROW34806 50.000000
    BOUNDRHS UPBROW34807 50.000000
    BOUNDRHS UPBROW34808 50.000000
    BOUNDRHS UPBROW34809 125.000000
    BOUNDRHS UPBROW34810 125.000000
    BOUNDRHS UPBROW34811 125.000000
    BOUNDRHS UPBROW34812 125.000000
    BOUNDRHS UPBROW34813 125.000000
    BOUNDRHS UPBROW34814 125.000000
    BOUNDRHS UPBROW34815 125.000000
    BOUNDRHS UPBROW34816 125.000000
    BOUNDRHS UPBROW34817 125.000000
    BOUNDRHS UPBROW34818 125.000000
    BOUNDRHS UPBROW34819 125.000000
    BOUNDRHS UPBROW34820 125.000000
    BOUNDRHS UPBROW34821 1.000000
    BOUNDRHS UPBROW34822 50.000000
    BOUNDRHS UPBROW34823 50.000000
    BOUNDRHS UPBROW34824 50.000000
    BOUNDRHS UPBROW34825 50.000000
    BOUNDRHS UPBROW34826 50.000000
    BOUNDRHS UPBROW34827 50.000000
    BOUNDRHS UPBROW34828 50.000000
    BOUNDRHS UPBROW34829 50.000000
    BOUNDRHS UPBROW34830 50.000000
    BOUNDRHS UPBROW34831 50.000000
    BOUNDRHS UPBROW34832 50.000000
    BOUNDRHS UPBROW34833 50.000000
    BOUNDRHS UPBROW34834 50.000000
    BOUNDRHS UPBROW34835 50.000000
    BOUNDRHS UPBROW34836 50.000000
    BOUNDRHS UPBROW34837 50.000000
    BOUNDRHS UPBROW34838 50.000000
    BOUNDRHS UPBROW34839 50.000000
    BOUNDRHS UPBROW34840 50.000000
    BOUNDRHS UPBROW34841 50.000000
    BOUNDRHS UPBROW34842 1.000000
    BOUNDRHS UPBROW34843 125.000000
    BOUNDRHS UPBROW34844 125.000000
    BOUNDRHS UPBROW34845 125.000000
    BOUNDRHS UPBROW34846 125.000000
    BOUNDRHS UPBROW34847 125.000000
    BOUNDRHS UPBROW34848 125.000000
    BOUNDRHS UPBROW34849 125.000000
    BOUNDRHS UPBROW34850 125.000000
    BOUNDRHS UPBROW34851 125.000000
    BOUNDRHS UPBROW34852 125.000000
    BOUNDRHS UPBROW34853 125.000000
    BOUNDRHS UPBROW34854 125.000000
    BOUNDRHS UPBROW34855 125.000000
    BOUNDRHS UPBROW34856 125.000000
    BOUNDRHS UPBROW34857 125.000000
    BOUNDRHS UPBROW34858 125.000000
    BOUNDRHS UPBROW34859 125.000000
    BOUNDRHS UPBROW34860 125.000000
    BOUNDRHS UPBROW34861 125.000000
    BOUNDRHS UPBROW34862 125.000000
    BOUNDRHS UPBROW34863 1.000000
    BOUNDRHS UPBROW34864 50.000000
    BOUNDRHS UPBROW34865 50.000000
    BOUNDRHS UPBROW34866 50.000000
    BOUNDRHS UPBROW34867 50.000000
    BOUNDRHS UPBROW34868 125.000000
    BOUNDRHS UPBROW34869 125.000000
    BOUNDRHS UPBROW34870 125.000000
    BOUNDRHS UPBROW34871 125.000000
    BOUNDRHS UPBROW34872 125.000000
    BOUNDRHS UPBROW34873 125.000000
    BOUNDRHS UPBROW34874 125.000000
    BOUNDRHS UPBROW34875 125.000000
    BOUNDRHS UPBROW34876 125.000000
    BOUNDRHS UPBROW34877 125.000000
    BOUNDRHS UPBROW34878 125.000000
    BOUNDRHS UPBROW34879 125.000000
    BOUNDRHS UPBROW34880 125.000000
    BOUNDRHS UPBROW34881 125.000000
    BOUNDRHS UPBROW34882 125.000000
    BOUNDRHS UPBROW34883 125.000000
    BOUNDRHS UPBROW34884 1.000000
    BOUNDRHS UPBROW34885 50.000000
    BOUNDRHS UPBROW34886 50.000000
    BOUNDRHS UPBROW34887 50.000000
    BOUNDRHS UPBROW34888 50.000000
    BOUNDRHS UPBROW34889 50.000000
    BOUNDRHS UPBROW34890 50.000000
    BOUNDRHS UPBROW34891 50.000000
    BOUNDRHS UPBROW34892 50.000000
    BOUNDRHS UPBROW34893 125.000000
    BOUNDRHS UPBROW34894 125.000000
    BOUNDRHS UPBROW34895 125.000000
    BOUNDRHS UPBROW34896 125.000000
    BOUNDRHS UPBROW34897 125.000000
    BOUNDRHS UPBROW34898 125.000000
    BOUNDRHS UPBROW34899 125.000000
    BOUNDRHS UPBROW34900 125.000000
    BOUNDRHS UPBROW34901 125.000000
    BOUNDRHS UPBROW34902 125.000000
    BOUNDRHS UPBROW34903 125.000000
    BOUNDRHS UPBROW34904 125.000000
    BOUNDRHS UPBROW34905 1.000000
    BOUNDRHS UPBROW34906 50.000000
    BOUNDRHS UPBROW34907 50.000000
    BOUNDRHS UPBROW34908 50.000000
    BOUNDRHS UPBROW34909 50.000000
    BOUNDRHS UPBROW34910 50.000000
    BOUNDRHS UPBROW34911 50.000000
    BOUNDRHS UPBROW34912 50.000000
    BOUNDRHS UPBROW34913 50.000000
    BOUNDRHS UPBROW34914 50.000000
    BOUNDRHS UPBROW34915 50.000000
    BOUNDRHS UPBROW34916 50.000000
    BOUNDRHS UPBROW34917 50.000000
    BOUNDRHS UPBROW34918 50.000000
    BOUNDRHS UPBROW34919 50.000000
    BOUNDRHS UPBROW34920 50.000000
    BOUNDRHS UPBROW34921 50.000000
    BOUNDRHS UPBROW34922 50.000000
    BOUNDRHS UPBROW34923 50.000000
    BOUNDRHS UPBROW34924 50.000000
    BOUNDRHS UPBROW34925 50.000000
    BOUNDRHS UPBROW34926 1.000000
    BOUNDRHS UPBROW34927 125.000000
    BOUNDRHS UPBROW34928 125.000000
    BOUNDRHS UPBROW34929 125.000000
    BOUNDRHS UPBROW34930 125.000000
    BOUNDRHS UPBROW34931 125.000000
    BOUNDRHS UPBROW34932 125.000000
    BOUNDRHS UPBROW34933 125.000000
    BOUNDRHS UPBROW34934 125.000000
    BOUNDRHS UPBROW34935 125.000000
    BOUNDRHS UPBROW34936 125.000000
    BOUNDRHS UPBROW34937 125.000000
    BOUNDRHS UPBROW34938 125.000000
    BOUNDRHS UPBROW34939 125.000000
    BOUNDRHS UPBROW34940 125.000000
    BOUNDRHS UPBROW34941 125.000000
    BOUNDRHS UPBROW34942 125.000000
    BOUNDRHS UPBROW34943 125.000000
    BOUNDRHS UPBROW34944 125.000000
    BOUNDRHS UPBROW34945 125.000000
    BOUNDRHS UPBROW34946 125.000000
    BOUNDRHS UPBROW34947 1.000000
    BOUNDRHS UPBROW34948 50.000000
    BOUNDRHS UPBROW34949 50.000000
    BOUNDRHS UPBROW34950 50.000000
    BOUNDRHS UPBROW34951 50.000000
    BOUNDRHS UPBROW34952 125.000000
    BOUNDRHS UPBROW34953 125.000000
    BOUNDRHS UPBROW34954 125.000000
    BOUNDRHS UPBROW34955 125.000000
    BOUNDRHS UPBROW34956 125.000000
    BOUNDRHS UPBROW34957 125.000000
    BOUNDRHS UPBROW34958 125.000000
    BOUNDRHS UPBROW34959 125.000000
    BOUNDRHS UPBROW34960 125.000000
    BOUNDRHS UPBROW34961 125.000000
    BOUNDRHS UPBROW34962 125.000000
    BOUNDRHS UPBROW34963 125.000000
    BOUNDRHS UPBROW34964 125.000000
    BOUNDRHS UPBROW34965 125.000000
    BOUNDRHS UPBROW34966 125.000000
    BOUNDRHS UPBROW34967 125.000000
    BOUNDRHS UPBROW34968 1.000000
    BOUNDRHS UPBROW34969 50.000000
    BOUNDRHS UPBROW34970 50.000000
    BOUNDRHS UPBROW34971 50.000000
    BOUNDRHS UPBROW34972 50.000000
    BOUNDRHS UPBROW34973 50.000000
    BOUNDRHS UPBROW34974 50.000000
    BOUNDRHS UPBROW34975 50.000000
    BOUNDRHS UPBROW34976 50.000000
    BOUNDRHS UPBROW34977 125.000000
    BOUNDRHS UPBROW34978 125.000000
    BOUNDRHS UPBROW34979 125.000000
    BOUNDRHS UPBROW34980 125.000000
    BOUNDRHS UPBROW34981 125.000000
    BOUNDRHS UPBROW34982 125.000000
    BOUNDRHS UPBROW34983 125.000000
    BOUNDRHS UPBROW34984 125.000000
    BOUNDRHS UPBROW34985 125.000000
    BOUNDRHS UPBROW34986 125.000000
    BOUNDRHS UPBROW34987 125.000000
    BOUNDRHS UPBROW34988 125.000000
    BOUNDRHS UPBROW34989 1.000000
    BOUNDRHS UPBROW34990 50.000000
    BOUNDRHS UPBROW34991 50.000000
    BOUNDRHS UPBROW34992 50.000000
    BOUNDRHS UPBROW34993 50.000000
    BOUNDRHS UPBROW34994 50.000000
    BOUNDRHS UPBROW34995 50.000000
    BOUNDRHS UPBROW34996 50.000000
    BOUNDRHS UPBROW34997 50.000000
    BOUNDRHS UPBROW34998 50.000000
    BOUNDRHS UPBROW34999 50.000000
    BOUNDRHS UPBROW35000 50.000000
    BOUNDRHS UPBROW35001 50.000000
    BOUNDRHS UPBROW35002 50.000000
    BOUNDRHS UPBROW35003 50.000000
    BOUNDRHS UPBROW35004 50.000000
    BOUNDRHS UPBROW35005 50.000000
    BOUNDRHS UPBROW35006 50.000000
    BOUNDRHS UPBROW35007 50.000000
    BOUNDRHS UPBROW35008 50.000000
    BOUNDRHS UPBROW35009 50.000000
    BOUNDRHS UPBROW35010 1.000000
    BOUNDRHS UPBROW35011 3000.000000
    BOUNDRHS UPBROW35012 3000.000000
    BOUNDRHS UPBROW35013 3000.000000
    BOUNDRHS UPBROW35014 3000.000000
    BOUNDRHS UPBROW35015 3000.000000
    BOUNDRHS UPBROW35016 3000.000000
    BOUNDRHS UPBROW35017 3000.000000
    BOUNDRHS UPBROW35018 3000.000000
    BOUNDRHS UPBROW35019 3000.000000
    BOUNDRHS UPBROW35020 3000.000000
    BOUNDRHS UPBROW35021 3000.000000
    BOUNDRHS UPBROW35022 3000.000000
    BOUNDRHS UPBROW35023 3000.000000
    BOUNDRHS UPBROW35024 3000.000000
    BOUNDRHS UPBROW35025 3000.000000
    BOUNDRHS UPBROW35026 3000.000000
    BOUNDRHS UPBROW35027 3000.000000
    BOUNDRHS UPBROW35028 3000.000000
    BOUNDRHS UPBROW35029 3000.000000
    BOUNDRHS UPBROW35030 3000.000000
    BOUNDRHS UPBROW35031 1.000000
    BOUNDRHS UPBROW35032 125.000000
    BOUNDRHS UPBROW35033 125.000000
    BOUNDRHS UPBROW35034 125.000000
    BOUNDRHS UPBROW35035 125.000000
    BOUNDRHS UPBROW35036 3000.000000
    BOUNDRHS UPBROW35037 3000.000000
    BOUNDRHS UPBROW35038 3000.000000
    BOUNDRHS UPBROW35039 3000.000000
    BOUNDRHS UPBROW35040 3000.000000
    BOUNDRHS UPBROW35041 3000.000000
    BOUNDRHS UPBROW35042 3000.000000
    BOUNDRHS UPBROW35043 3000.000000
    BOUNDRHS UPBROW35044 3000.000000
    BOUNDRHS UPBROW35045 3000.000000
    BOUNDRHS UPBROW35046 3000.000000
    BOUNDRHS UPBROW35047 3000.000000
    BOUNDRHS UPBROW35048 3000.000000
    BOUNDRHS UPBROW35049 3000.000000
    BOUNDRHS UPBROW35050 3000.000000
    BOUNDRHS UPBROW35051 3000.000000
    BOUNDRHS UPBROW35052 1.000000
    BOUNDRHS UPBROW35053 125.000000
    BOUNDRHS UPBROW35054 125.000000
    BOUNDRHS UPBROW35055 125.000000
    BOUNDRHS UPBROW35056 125.000000
    BOUNDRHS UPBROW35057 125.000000
    BOUNDRHS UPBROW35058 125.000000
    BOUNDRHS UPBROW35059 125.000000
    BOUNDRHS UPBROW35060 125.000000
    BOUNDRHS UPBROW35061 3000.000000
    BOUNDRHS UPBROW35062 3000.000000
    BOUNDRHS UPBROW35063 3000.000000
    BOUNDRHS UPBROW35064 3000.000000
    BOUNDRHS UPBROW35065 3000.000000
    BOUNDRHS UPBROW35066 3000.000000
    BOUNDRHS UPBROW35067 3000.000000
    BOUNDRHS UPBROW35068 3000.000000
    BOUNDRHS UPBROW35069 3000.000000
    BOUNDRHS UPBROW35070 3000.000000
    BOUNDRHS UPBROW35071 3000.000000
    BOUNDRHS UPBROW35072 3000.000000
    BOUNDRHS UPBROW35073 1.000000
    BOUNDRHS UPBROW35074 125.000000
    BOUNDRHS UPBROW35075 125.000000
    BOUNDRHS UPBROW35076 125.000000
    BOUNDRHS UPBROW35077 125.000000
    BOUNDRHS UPBROW35078 125.000000
    BOUNDRHS UPBROW35079 125.000000
    BOUNDRHS UPBROW35080 125.000000
    BOUNDRHS UPBROW35081 125.000000
    BOUNDRHS UPBROW35082 125.000000
    BOUNDRHS UPBROW35083 125.000000
    BOUNDRHS UPBROW35084 125.000000
    BOUNDRHS UPBROW35085 125.000000
    BOUNDRHS UPBROW35086 125.000000
    BOUNDRHS UPBROW35087 125.000000
    BOUNDRHS UPBROW35088 125.000000
    BOUNDRHS UPBROW35089 125.000000
    BOUNDRHS UPBROW35090 125.000000
    BOUNDRHS UPBROW35091 125.000000
    BOUNDRHS UPBROW35092 125.000000
    BOUNDRHS UPBROW35093 125.000000
    BOUNDRHS UPBROW35094 1.000000
    BOUNDRHS UPBROW35095 3000.000000
    BOUNDRHS UPBROW35096 3000.000000
    BOUNDRHS UPBROW35097 3000.000000
    BOUNDRHS UPBROW35098 3000.000000
    BOUNDRHS UPBROW35099 3000.000000
    BOUNDRHS UPBROW35100 3000.000000
    BOUNDRHS UPBROW35101 3000.000000
    BOUNDRHS UPBROW35102 3000.000000
    BOUNDRHS UPBROW35103 3000.000000
    BOUNDRHS UPBROW35104 3000.000000
    BOUNDRHS UPBROW35105 3000.000000
    BOUNDRHS UPBROW35106 3000.000000
    BOUNDRHS UPBROW35107 3000.000000
    BOUNDRHS UPBROW35108 3000.000000
    BOUNDRHS UPBROW35109 3000.000000
    BOUNDRHS UPBROW35110 3000.000000
    BOUNDRHS UPBROW35111 3000.000000
    BOUNDRHS UPBROW35112 3000.000000
    BOUNDRHS UPBROW35113 3000.000000
    BOUNDRHS UPBROW35114 3000.000000
    BOUNDRHS UPBROW35115 1.000000
    BOUNDRHS UPBROW35116 125.000000
    BOUNDRHS UPBROW35117 125.000000
    BOUNDRHS UPBROW35118 125.000000
    BOUNDRHS UPBROW35119 125.000000
    BOUNDRHS UPBROW35120 3000.000000
    BOUNDRHS UPBROW35121 3000.000000
    BOUNDRHS UPBROW35122 3000.000000
    BOUNDRHS UPBROW35123 3000.000000
    BOUNDRHS UPBROW35124 3000.000000
    BOUNDRHS UPBROW35125 3000.000000
    BOUNDRHS UPBROW35126 3000.000000
    BOUNDRHS UPBROW35127 3000.000000
    BOUNDRHS UPBROW35128 3000.000000
    BOUNDRHS UPBROW35129 3000.000000
    BOUNDRHS UPBROW35130 3000.000000
    BOUNDRHS UPBROW35131 3000.000000
    BOUNDRHS UPBROW35132 3000.000000
    BOUNDRHS UPBROW35133 3000.000000
    BOUNDRHS UPBROW35134 3000.000000
    BOUNDRHS UPBROW35135 3000.000000
    BOUNDRHS UPBROW35136 1.000000
    BOUNDRHS UPBROW35137 125.000000
    BOUNDRHS UPBROW35138 125.000000
    BOUNDRHS UPBROW35139 125.000000
    BOUNDRHS UPBROW35140 125.000000
    BOUNDRHS UPBROW35141 125.000000
    BOUNDRHS UPBROW35142 125.000000
    BOUNDRHS UPBROW35143 125.000000
    BOUNDRHS UPBROW35144 125.000000
    BOUNDRHS UPBROW35145 3000.000000
    BOUNDRHS UPBROW35146 3000.000000
    BOUNDRHS UPBROW35147 3000.000000
    BOUNDRHS UPBROW35148 3000.000000
    BOUNDRHS UPBROW35149 3000.000000
    BOUNDRHS UPBROW35150 3000.000000
    BOUNDRHS UPBROW35151 3000.000000
    BOUNDRHS UPBROW35152 3000.000000
    BOUNDRHS UPBROW35153 3000.000000
    BOUNDRHS UPBROW35154 3000.000000
    BOUNDRHS UPBROW35155 3000.000000
    BOUNDRHS UPBROW35156 3000.000000
    BOUNDRHS UPBROW35157 1.000000
    BOUNDRHS UPBROW35158 125.000000
    BOUNDRHS UPBROW35159 125.000000
    BOUNDRHS UPBROW35160 125.000000
    BOUNDRHS UPBROW35161 125.000000
    BOUNDRHS UPBROW35162 125.000000
    BOUNDRHS UPBROW35163 125.000000
    BOUNDRHS UPBROW35164 125.000000
    BOUNDRHS UPBROW35165 125.000000
    BOUNDRHS UPBROW35166 125.000000
    BOUNDRHS UPBROW35167 125.000000
    BOUNDRHS UPBROW35168 125.000000
    BOUNDRHS UPBROW35169 125.000000
    BOUNDRHS UPBROW35170 125.000000
    BOUNDRHS UPBROW35171 125.000000
    BOUNDRHS UPBROW35172 125.000000
    BOUNDRHS UPBROW35173 125.000000
    BOUNDRHS UPBROW35174 125.000000
    BOUNDRHS UPBROW35175 125.000000
    BOUNDRHS UPBROW35176 125.000000
    BOUNDRHS UPBROW35177 125.000000
    BOUNDRHS UPBROW35178 1.000000
    BOUNDRHS UPBROW35179 3000.000000
    BOUNDRHS UPBROW35180 3000.000000
    BOUNDRHS UPBROW35181 3000.000000
    BOUNDRHS UPBROW35182 3000.000000
    BOUNDRHS UPBROW35183 3000.000000
    BOUNDRHS UPBROW35184 3000.000000
    BOUNDRHS UPBROW35185 3000.000000
    BOUNDRHS UPBROW35186 3000.000000
    BOUNDRHS UPBROW35187 3000.000000
    BOUNDRHS UPBROW35188 3000.000000
    BOUNDRHS UPBROW35189 3000.000000
    BOUNDRHS UPBROW35190 3000.000000
    BOUNDRHS UPBROW35191 3000.000000
    BOUNDRHS UPBROW35192 3000.000000
    BOUNDRHS UPBROW35193 3000.000000
    BOUNDRHS UPBROW35194 3000.000000
    BOUNDRHS UPBROW35195 3000.000000
    BOUNDRHS UPBROW35196 3000.000000
    BOUNDRHS UPBROW35197 3000.000000
    BOUNDRHS UPBROW35198 3000.000000
    BOUNDRHS UPBROW35199 1.000000
    BOUNDRHS UPBROW35200 125.000000
    BOUNDRHS UPBROW35201 125.000000
    BOUNDRHS UPBROW35202 125.000000
    BOUNDRHS UPBROW35203 125.000000
    BOUNDRHS UPBROW35204 3000.000000
    BOUNDRHS UPBROW35205 3000.000000
    BOUNDRHS UPBROW35206 3000.000000
    BOUNDRHS UPBROW35207 3000.000000
    BOUNDRHS UPBROW35208 3000.000000
    BOUNDRHS UPBROW35209 3000.000000
    BOUNDRHS UPBROW35210 3000.000000
    BOUNDRHS UPBROW35211 3000.000000
    BOUNDRHS UPBROW35212 3000.000000
    BOUNDRHS UPBROW35213 3000.000000
    BOUNDRHS UPBROW35214 3000.000000
    BOUNDRHS UPBROW35215 3000.000000
    BOUNDRHS UPBROW35216 3000.000000
    BOUNDRHS UPBROW35217 3000.000000
    BOUNDRHS UPBROW35218 3000.000000
    BOUNDRHS UPBROW35219 3000.000000
    BOUNDRHS UPBROW35220 1.000000
    BOUNDRHS UPBROW35221 125.000000
    BOUNDRHS UPBROW35222 125.000000
    BOUNDRHS UPBROW35223 125.000000
    BOUNDRHS UPBROW35224 125.000000
    BOUNDRHS UPBROW35225 125.000000
    BOUNDRHS UPBROW35226 125.000000
    BOUNDRHS UPBROW35227 125.000000
    BOUNDRHS UPBROW35228 125.000000
    BOUNDRHS UPBROW35229 3000.000000
    BOUNDRHS UPBROW35230 3000.000000
    BOUNDRHS UPBROW35231 3000.000000
    BOUNDRHS UPBROW35232 3000.000000
    BOUNDRHS UPBROW35233 3000.000000
    BOUNDRHS UPBROW35234 3000.000000
    BOUNDRHS UPBROW35235 3000.000000
    BOUNDRHS UPBROW35236 3000.000000
    BOUNDRHS UPBROW35237 3000.000000
    BOUNDRHS UPBROW35238 3000.000000
    BOUNDRHS UPBROW35239 3000.000000
    BOUNDRHS UPBROW35240 3000.000000
    BOUNDRHS UPBROW35241 1.000000
    BOUNDRHS UPBROW35242 125.000000
    BOUNDRHS UPBROW35243 125.000000
    BOUNDRHS UPBROW35244 125.000000
    BOUNDRHS UPBROW35245 125.000000
    BOUNDRHS UPBROW35246 125.000000
    BOUNDRHS UPBROW35247 125.000000
    BOUNDRHS UPBROW35248 125.000000
    BOUNDRHS UPBROW35249 125.000000
    BOUNDRHS UPBROW35250 125.000000
    BOUNDRHS UPBROW35251 125.000000
    BOUNDRHS UPBROW35252 125.000000
    BOUNDRHS UPBROW35253 125.000000
    BOUNDRHS UPBROW35254 125.000000
    BOUNDRHS UPBROW35255 125.000000
    BOUNDRHS UPBROW35256 125.000000
    BOUNDRHS UPBROW35257 125.000000
    BOUNDRHS UPBROW35258 125.000000
    BOUNDRHS UPBROW35259 125.000000
    BOUNDRHS UPBROW35260 125.000000
    BOUNDRHS UPBROW35261 125.000000
    BOUNDRHS UPBROW35262 1.000000
    BOUNDRHS UPBROW35263 3000.000000
    BOUNDRHS UPBROW35264 3000.000000
    BOUNDRHS UPBROW35265 3000.000000
    BOUNDRHS UPBROW35266 3000.000000
    BOUNDRHS UPBROW35267 3000.000000
    BOUNDRHS UPBROW35268 3000.000000
    BOUNDRHS UPBROW35269 3000.000000
    BOUNDRHS UPBROW35270 3000.000000
    BOUNDRHS UPBROW35271 3000.000000
    BOUNDRHS UPBROW35272 3000.000000
    BOUNDRHS UPBROW35273 3000.000000
    BOUNDRHS UPBROW35274 3000.000000
    BOUNDRHS UPBROW35275 3000.000000
    BOUNDRHS UPBROW35276 3000.000000
    BOUNDRHS UPBROW35277 3000.000000
    BOUNDRHS UPBROW35278 3000.000000
    BOUNDRHS UPBROW35279 3000.000000
    BOUNDRHS UPBROW35280 3000.000000
    BOUNDRHS UPBROW35281 3000.000000
    BOUNDRHS UPBROW35282 3000.000000
    BOUNDRHS UPBROW35283 1.000000
    BOUNDRHS UPBROW35284 125.000000
    BOUNDRHS UPBROW35285 125.000000
    BOUNDRHS UPBROW35286 125.000000
    BOUNDRHS UPBROW35287 125.000000
    BOUNDRHS UPBROW35288 3000.000000
    BOUNDRHS UPBROW35289 3000.000000
    BOUNDRHS UPBROW35290 3000.000000
    BOUNDRHS UPBROW35291 3000.000000
    BOUNDRHS UPBROW35292 3000.000000
    BOUNDRHS UPBROW35293 3000.000000
    BOUNDRHS UPBROW35294 3000.000000
    BOUNDRHS UPBROW35295 3000.000000
    BOUNDRHS UPBROW35296 3000.000000
    BOUNDRHS UPBROW35297 3000.000000
    BOUNDRHS UPBROW35298 3000.000000
    BOUNDRHS UPBROW35299 3000.000000
    BOUNDRHS UPBROW35300 3000.000000
    BOUNDRHS UPBROW35301 3000.000000
    BOUNDRHS UPBROW35302 3000.000000
    BOUNDRHS UPBROW35303 3000.000000
    BOUNDRHS UPBROW35304 1.000000
    BOUNDRHS UPBROW35305 125.000000
    BOUNDRHS UPBROW35306 125.000000
    BOUNDRHS UPBROW35307 125.000000
    BOUNDRHS UPBROW35308 125.000000
    BOUNDRHS UPBROW35309 125.000000
    BOUNDRHS UPBROW35310 125.000000
    BOUNDRHS UPBROW35311 125.000000
    BOUNDRHS UPBROW35312 125.000000
    BOUNDRHS UPBROW35313 3000.000000
    BOUNDRHS UPBROW35314 3000.000000
    BOUNDRHS UPBROW35315 3000.000000
    BOUNDRHS UPBROW35316 3000.000000
    BOUNDRHS UPBROW35317 3000.000000
    BOUNDRHS UPBROW35318 3000.000000
    BOUNDRHS UPBROW35319 3000.000000
    BOUNDRHS UPBROW35320 3000.000000
    BOUNDRHS UPBROW35321 3000.000000
    BOUNDRHS UPBROW35322 3000.000000
    BOUNDRHS UPBROW35323 3000.000000
    BOUNDRHS UPBROW35324 3000.000000
    BOUNDRHS UPBROW35325 1.000000
    BOUNDRHS UPBROW35326 125.000000
    BOUNDRHS UPBROW35327 125.000000
    BOUNDRHS UPBROW35328 125.000000
    BOUNDRHS UPBROW35329 125.000000
    BOUNDRHS UPBROW35330 125.000000
    BOUNDRHS UPBROW35331 125.000000
    BOUNDRHS UPBROW35332 125.000000
    BOUNDRHS UPBROW35333 125.000000
    BOUNDRHS UPBROW35334 125.000000
    BOUNDRHS UPBROW35335 125.000000
    BOUNDRHS UPBROW35336 125.000000
    BOUNDRHS UPBROW35337 125.000000
    BOUNDRHS UPBROW35338 125.000000
    BOUNDRHS UPBROW35339 125.000000
    BOUNDRHS UPBROW35340 125.000000
    BOUNDRHS UPBROW35341 125.000000
    BOUNDRHS UPBROW35342 125.000000
    BOUNDRHS UPBROW35343 125.000000
    BOUNDRHS UPBROW35344 125.000000
    BOUNDRHS UPBROW35345 125.000000
    BOUNDRHS UPBROW35346 1.000000
    BOUNDRHS UPBROW35347 3000.000000
    BOUNDRHS UPBROW35348 3000.000000
    BOUNDRHS UPBROW35349 3000.000000
    BOUNDRHS UPBROW35350 3000.000000
    BOUNDRHS UPBROW35351 3000.000000
    BOUNDRHS UPBROW35352 3000.000000
    BOUNDRHS UPBROW35353 3000.000000
    BOUNDRHS UPBROW35354 3000.000000
    BOUNDRHS UPBROW35355 3000.000000
    BOUNDRHS UPBROW35356 3000.000000
    BOUNDRHS UPBROW35357 3000.000000
    BOUNDRHS UPBROW35358 3000.000000
    BOUNDRHS UPBROW35359 3000.000000
    BOUNDRHS UPBROW35360 3000.000000
    BOUNDRHS UPBROW35361 3000.000000
    BOUNDRHS UPBROW35362 3000.000000
    BOUNDRHS UPBROW35363 3000.000000
    BOUNDRHS UPBROW35364 3000.000000
    BOUNDRHS UPBROW35365 3000.000000
    BOUNDRHS UPBROW35366 3000.000000
    BOUNDRHS UPBROW35367 1.000000
    BOUNDRHS UPBROW35368 125.000000
    BOUNDRHS UPBROW35369 125.000000
    BOUNDRHS UPBROW35370 125.000000
    BOUNDRHS UPBROW35371 125.000000
    BOUNDRHS UPBROW35372 3000.000000
    BOUNDRHS UPBROW35373 3000.000000
    BOUNDRHS UPBROW35374 3000.000000
    BOUNDRHS UPBROW35375 3000.000000
    BOUNDRHS UPBROW35376 3000.000000
    BOUNDRHS UPBROW35377 3000.000000
    BOUNDRHS UPBROW35378 3000.000000
    BOUNDRHS UPBROW35379 3000.000000
    BOUNDRHS UPBROW35380 3000.000000
    BOUNDRHS UPBROW35381 3000.000000
    BOUNDRHS UPBROW35382 3000.000000
    BOUNDRHS UPBROW35383 3000.000000
    BOUNDRHS UPBROW35384 3000.000000
    BOUNDRHS UPBROW35385 3000.000000
    BOUNDRHS UPBROW35386 3000.000000
    BOUNDRHS UPBROW35387 3000.000000
    BOUNDRHS UPBROW35388 1.000000
    BOUNDRHS UPBROW35389 125.000000
    BOUNDRHS UPBROW35390 125.000000
    BOUNDRHS UPBROW35391 125.000000
    BOUNDRHS UPBROW35392 125.000000
    BOUNDRHS UPBROW35393 125.000000
    BOUNDRHS UPBROW35394 125.000000
    BOUNDRHS UPBROW35395 125.000000
    BOUNDRHS UPBROW35396 125.000000
    BOUNDRHS UPBROW35397 3000.000000
    BOUNDRHS UPBROW35398 3000.000000
    BOUNDRHS UPBROW35399 3000.000000
    BOUNDRHS UPBROW35400 3000.000000
    BOUNDRHS UPBROW35401 3000.000000
    BOUNDRHS UPBROW35402 3000.000000
    BOUNDRHS UPBROW35403 3000.000000
    BOUNDRHS UPBROW35404 3000.000000
    BOUNDRHS UPBROW35405 3000.000000
    BOUNDRHS UPBROW35406 3000.000000
    BOUNDRHS UPBROW35407 3000.000000
    BOUNDRHS UPBROW35408 3000.000000
    BOUNDRHS UPBROW35409 1.000000
    BOUNDRHS UPBROW35410 125.000000
    BOUNDRHS UPBROW35411 125.000000
    BOUNDRHS UPBROW35412 125.000000
    BOUNDRHS UPBROW35413 125.000000
    BOUNDRHS UPBROW35414 125.000000
    BOUNDRHS UPBROW35415 125.000000
    BOUNDRHS UPBROW35416 125.000000
    BOUNDRHS UPBROW35417 125.000000
    BOUNDRHS UPBROW35418 125.000000
    BOUNDRHS UPBROW35419 125.000000
    BOUNDRHS UPBROW35420 125.000000
    BOUNDRHS UPBROW35421 125.000000
    BOUNDRHS UPBROW35422 125.000000
    BOUNDRHS UPBROW35423 125.000000
    BOUNDRHS UPBROW35424 125.000000
    BOUNDRHS UPBROW35425 125.000000
    BOUNDRHS UPBROW35426 125.000000
    BOUNDRHS UPBROW35427 125.000000
    BOUNDRHS UPBROW35428 125.000000
    BOUNDRHS UPBROW35429 125.000000
    BOUNDRHS UPBROW35430 1.000000
    BOUNDRHS UPBROW35431 3000.000000
    BOUNDRHS UPBROW35432 3000.000000
    BOUNDRHS UPBROW35433 3000.000000
    BOUNDRHS UPBROW35434 3000.000000
    BOUNDRHS UPBROW35435 3000.000000
    BOUNDRHS UPBROW35436 3000.000000
    BOUNDRHS UPBROW35437 3000.000000
    BOUNDRHS UPBROW35438 3000.000000
    BOUNDRHS UPBROW35439 3000.000000
    BOUNDRHS UPBROW35440 3000.000000
    BOUNDRHS UPBROW35441 3000.000000
    BOUNDRHS UPBROW35442 3000.000000
    BOUNDRHS UPBROW35443 3000.000000
    BOUNDRHS UPBROW35444 3000.000000
    BOUNDRHS UPBROW35445 3000.000000
    BOUNDRHS UPBROW35446 3000.000000
    BOUNDRHS UPBROW35447 3000.000000
    BOUNDRHS UPBROW35448 3000.000000
    BOUNDRHS UPBROW35449 3000.000000
    BOUNDRHS UPBROW35450 3000.000000
    BOUNDRHS UPBROW35451 1.000000
    BOUNDRHS UPBROW35452 125.000000
    BOUNDRHS UPBROW35453 125.000000
    BOUNDRHS UPBROW35454 125.000000
    BOUNDRHS UPBROW35455 125.000000
    BOUNDRHS UPBROW35456 3000.000000
    BOUNDRHS UPBROW35457 3000.000000
    BOUNDRHS UPBROW35458 3000.000000
    BOUNDRHS UPBROW35459 3000.000000
    BOUNDRHS UPBROW35460 3000.000000
    BOUNDRHS UPBROW35461 3000.000000
    BOUNDRHS UPBROW35462 3000.000000
    BOUNDRHS UPBROW35463 3000.000000
    BOUNDRHS UPBROW35464 3000.000000
    BOUNDRHS UPBROW35465 3000.000000
    BOUNDRHS UPBROW35466 3000.000000
    BOUNDRHS UPBROW35467 3000.000000
    BOUNDRHS UPBROW35468 3000.000000
    BOUNDRHS UPBROW35469 3000.000000
    BOUNDRHS UPBROW35470 3000.000000
    BOUNDRHS UPBROW35471 3000.000000
    BOUNDRHS UPBROW35472 1.000000
    BOUNDRHS UPBROW35473 125.000000
    BOUNDRHS UPBROW35474 125.000000
    BOUNDRHS UPBROW35475 125.000000
    BOUNDRHS UPBROW35476 125.000000
    BOUNDRHS UPBROW35477 125.000000
    BOUNDRHS UPBROW35478 125.000000
    BOUNDRHS UPBROW35479 125.000000
    BOUNDRHS UPBROW35480 125.000000
    BOUNDRHS UPBROW35481 3000.000000
    BOUNDRHS UPBROW35482 3000.000000
    BOUNDRHS UPBROW35483 3000.000000
    BOUNDRHS UPBROW35484 3000.000000
    BOUNDRHS UPBROW35485 3000.000000
    BOUNDRHS UPBROW35486 3000.000000
    BOUNDRHS UPBROW35487 3000.000000
    BOUNDRHS UPBROW35488 3000.000000
    BOUNDRHS UPBROW35489 3000.000000
    BOUNDRHS UPBROW35490 3000.000000
    BOUNDRHS UPBROW35491 3000.000000
    BOUNDRHS UPBROW35492 3000.000000
    BOUNDRHS UPBROW35493 1.000000
    BOUNDRHS UPBROW35494 125.000000
    BOUNDRHS UPBROW35495 125.000000
    BOUNDRHS UPBROW35496 125.000000
    BOUNDRHS UPBROW35497 125.000000
    BOUNDRHS UPBROW35498 125.000000
    BOUNDRHS UPBROW35499 125.000000
    BOUNDRHS UPBROW35500 125.000000
    BOUNDRHS UPBROW35501 125.000000
    BOUNDRHS UPBROW35502 125.000000
    BOUNDRHS UPBROW35503 125.000000
    BOUNDRHS UPBROW35504 125.000000
    BOUNDRHS UPBROW35505 125.000000
    BOUNDRHS UPBROW35506 125.000000
    BOUNDRHS UPBROW35507 125.000000
    BOUNDRHS UPBROW35508 125.000000
    BOUNDRHS UPBROW35509 125.000000
    BOUNDRHS UPBROW35510 125.000000
    BOUNDRHS UPBROW35511 125.000000
    BOUNDRHS UPBROW35512 125.000000
    BOUNDRHS UPBROW35513 125.000000
    BOUNDRHS UPBROW35514 1.000000
    BOUNDRHS UPBROW35515 125.000000
    BOUNDRHS UPBROW35516 125.000000
    BOUNDRHS UPBROW35517 125.000000
    BOUNDRHS UPBROW35518 125.000000
    BOUNDRHS UPBROW35519 125.000000
    BOUNDRHS UPBROW35520 125.000000
    BOUNDRHS UPBROW35521 125.000000
    BOUNDRHS UPBROW35522 125.000000
    BOUNDRHS UPBROW35523 125.000000
    BOUNDRHS UPBROW35524 125.000000
    BOUNDRHS UPBROW35525 125.000000
    BOUNDRHS UPBROW35526 125.000000
    BOUNDRHS UPBROW35527 125.000000
    BOUNDRHS UPBROW35528 125.000000
    BOUNDRHS UPBROW35529 125.000000
    BOUNDRHS UPBROW35530 125.000000
    BOUNDRHS UPBROW35531 125.000000
    BOUNDRHS UPBROW35532 125.000000
    BOUNDRHS UPBROW35533 125.000000
    BOUNDRHS UPBROW35534 125.000000
    BOUNDRHS UPBROW35535 1.000000
    BOUNDRHS UPBROW35536 50.000000
    BOUNDRHS UPBROW35537 50.000000
    BOUNDRHS UPBROW35538 50.000000
    BOUNDRHS UPBROW35539 50.000000
    BOUNDRHS UPBROW35540 125.000000
    BOUNDRHS UPBROW35541 125.000000
    BOUNDRHS UPBROW35542 125.000000
    BOUNDRHS UPBROW35543 125.000000
    BOUNDRHS UPBROW35544 125.000000
    BOUNDRHS UPBROW35545 125.000000
    BOUNDRHS UPBROW35546 125.000000
    BOUNDRHS UPBROW35547 125.000000
    BOUNDRHS UPBROW35548 125.000000
    BOUNDRHS UPBROW35549 125.000000
    BOUNDRHS UPBROW35550 125.000000
    BOUNDRHS UPBROW35551 125.000000
    BOUNDRHS UPBROW35552 125.000000
    BOUNDRHS UPBROW35553 125.000000
    BOUNDRHS UPBROW35554 125.000000
    BOUNDRHS UPBROW35555 125.000000
    BOUNDRHS UPBROW35556 1.000000
    BOUNDRHS UPBROW35557 50.000000
    BOUNDRHS UPBROW35558 50.000000
    BOUNDRHS UPBROW35559 50.000000
    BOUNDRHS UPBROW35560 50.000000
    BOUNDRHS UPBROW35561 50.000000
    BOUNDRHS UPBROW35562 50.000000
    BOUNDRHS UPBROW35563 50.000000
    BOUNDRHS UPBROW35564 50.000000
    BOUNDRHS UPBROW35565 125.000000
    BOUNDRHS UPBROW35566 125.000000
    BOUNDRHS UPBROW35567 125.000000
    BOUNDRHS UPBROW35568 125.000000
    BOUNDRHS UPBROW35569 125.000000
    BOUNDRHS UPBROW35570 125.000000
    BOUNDRHS UPBROW35571 125.000000
    BOUNDRHS UPBROW35572 125.000000
    BOUNDRHS UPBROW35573 125.000000
    BOUNDRHS UPBROW35574 125.000000
    BOUNDRHS UPBROW35575 125.000000
    BOUNDRHS UPBROW35576 125.000000
    BOUNDRHS UPBROW35577 1.000000
    BOUNDRHS UPBROW35578 50.000000
    BOUNDRHS UPBROW35579 50.000000
    BOUNDRHS UPBROW35580 50.000000
    BOUNDRHS UPBROW35581 50.000000
    BOUNDRHS UPBROW35582 50.000000
    BOUNDRHS UPBROW35583 50.000000
    BOUNDRHS UPBROW35584 50.000000
    BOUNDRHS UPBROW35585 50.000000
    BOUNDRHS UPBROW35586 50.000000
    BOUNDRHS UPBROW35587 50.000000
    BOUNDRHS UPBROW35588 50.000000
    BOUNDRHS UPBROW35589 50.000000
    BOUNDRHS UPBROW35590 50.000000
    BOUNDRHS UPBROW35591 50.000000
    BOUNDRHS UPBROW35592 50.000000
    BOUNDRHS UPBROW35593 50.000000
    BOUNDRHS UPBROW35594 50.000000
    BOUNDRHS UPBROW35595 50.000000
    BOUNDRHS UPBROW35596 50.000000
    BOUNDRHS UPBROW35597 50.000000
    BOUNDRHS UPBROW35598 1.000000
    BOUNDRHS UPBROW35599 3000.000000
    BOUNDRHS UPBROW35600 3000.000000
    BOUNDRHS UPBROW35601 3000.000000
    BOUNDRHS UPBROW35602 3000.000000
    BOUNDRHS UPBROW35603 3000.000000
    BOUNDRHS UPBROW35604 3000.000000
    BOUNDRHS UPBROW35605 3000.000000
    BOUNDRHS UPBROW35606 3000.000000
    BOUNDRHS UPBROW35607 3000.000000
    BOUNDRHS UPBROW35608 3000.000000
    BOUNDRHS UPBROW35609 3000.000000
    BOUNDRHS UPBROW35610 3000.000000
    BOUNDRHS UPBROW35611 3000.000000
    BOUNDRHS UPBROW35612 3000.000000
    BOUNDRHS UPBROW35613 3000.000000
    BOUNDRHS UPBROW35614 3000.000000
    BOUNDRHS UPBROW35615 3000.000000
    BOUNDRHS UPBROW35616 3000.000000
    BOUNDRHS UPBROW35617 3000.000000
    BOUNDRHS UPBROW35618 3000.000000
    BOUNDRHS UPBROW35619 1.000000
    BOUNDRHS UPBROW35620 125.000000
    BOUNDRHS UPBROW35621 125.000000
    BOUNDRHS UPBROW35622 125.000000
    BOUNDRHS UPBROW35623 125.000000
    BOUNDRHS UPBROW35624 3000.000000
    BOUNDRHS UPBROW35625 3000.000000
    BOUNDRHS UPBROW35626 3000.000000
    BOUNDRHS UPBROW35627 3000.000000
    BOUNDRHS UPBROW35628 3000.000000
    BOUNDRHS UPBROW35629 3000.000000
    BOUNDRHS UPBROW35630 3000.000000
    BOUNDRHS UPBROW35631 3000.000000
    BOUNDRHS UPBROW35632 3000.000000
    BOUNDRHS UPBROW35633 3000.000000
    BOUNDRHS UPBROW35634 3000.000000
    BOUNDRHS UPBROW35635 3000.000000
    BOUNDRHS UPBROW35636 3000.000000
    BOUNDRHS UPBROW35637 3000.000000
    BOUNDRHS UPBROW35638 3000.000000
    BOUNDRHS UPBROW35639 3000.000000
    BOUNDRHS UPBROW35640 1.000000
    BOUNDRHS UPBROW35641 125.000000
    BOUNDRHS UPBROW35642 125.000000
    BOUNDRHS UPBROW35643 125.000000
    BOUNDRHS UPBROW35644 125.000000
    BOUNDRHS UPBROW35645 125.000000
    BOUNDRHS UPBROW35646 125.000000
    BOUNDRHS UPBROW35647 125.000000
    BOUNDRHS UPBROW35648 125.000000
    BOUNDRHS UPBROW35649 3000.000000
    BOUNDRHS UPBROW35650 3000.000000
    BOUNDRHS UPBROW35651 3000.000000
    BOUNDRHS UPBROW35652 3000.000000
    BOUNDRHS UPBROW35653 3000.000000
    BOUNDRHS UPBROW35654 3000.000000
    BOUNDRHS UPBROW35655 3000.000000
    BOUNDRHS UPBROW35656 3000.000000
    BOUNDRHS UPBROW35657 3000.000000
    BOUNDRHS UPBROW35658 3000.000000
    BOUNDRHS UPBROW35659 3000.000000
    BOUNDRHS UPBROW35660 3000.000000
    BOUNDRHS UPBROW35661 1.000000
    BOUNDRHS UPBROW35662 125.000000
    BOUNDRHS UPBROW35663 125.000000
    BOUNDRHS UPBROW35664 125.000000
    BOUNDRHS UPBROW35665 125.000000
    BOUNDRHS UPBROW35666 125.000000
    BOUNDRHS UPBROW35667 125.000000
    BOUNDRHS UPBROW35668 125.000000
    BOUNDRHS UPBROW35669 125.000000
    BOUNDRHS UPBROW35670 125.000000
    BOUNDRHS UPBROW35671 125.000000
    BOUNDRHS UPBROW35672 125.000000
    BOUNDRHS UPBROW35673 125.000000
    BOUNDRHS UPBROW35674 125.000000
    BOUNDRHS UPBROW35675 125.000000
    BOUNDRHS UPBROW35676 125.000000
    BOUNDRHS UPBROW35677 125.000000
    BOUNDRHS UPBROW35678 125.000000
    BOUNDRHS UPBROW35679 125.000000
    BOUNDRHS UPBROW35680 125.000000
    BOUNDRHS UPBROW35681 125.000000
    BOUNDRHS UPBROW35682 1.000000
    BOUNDRHS UPBROW35683 3000.000000
    BOUNDRHS UPBROW35684 3000.000000
    BOUNDRHS UPBROW35685 3000.000000
    BOUNDRHS UPBROW35686 3000.000000
    BOUNDRHS UPBROW35687 3000.000000
    BOUNDRHS UPBROW35688 3000.000000
    BOUNDRHS UPBROW35689 3000.000000
    BOUNDRHS UPBROW35690 3000.000000
    BOUNDRHS UPBROW35691 3000.000000
    BOUNDRHS UPBROW35692 3000.000000
    BOUNDRHS UPBROW35693 3000.000000
    BOUNDRHS UPBROW35694 3000.000000
    BOUNDRHS UPBROW35695 3000.000000
    BOUNDRHS UPBROW35696 3000.000000
    BOUNDRHS UPBROW35697 3000.000000
    BOUNDRHS UPBROW35698 3000.000000
    BOUNDRHS UPBROW35699 3000.000000
    BOUNDRHS UPBROW35700 3000.000000
    BOUNDRHS UPBROW35701 3000.000000
    BOUNDRHS UPBROW35702 3000.000000
    BOUNDRHS UPBROW35703 1.000000
    BOUNDRHS UPBROW35704 125.000000
    BOUNDRHS UPBROW35705 125.000000
    BOUNDRHS UPBROW35706 125.000000
    BOUNDRHS UPBROW35707 125.000000
    BOUNDRHS UPBROW35708 3000.000000
    BOUNDRHS UPBROW35709 3000.000000
    BOUNDRHS UPBROW35710 3000.000000
    BOUNDRHS UPBROW35711 3000.000000
    BOUNDRHS UPBROW35712 3000.000000
    BOUNDRHS UPBROW35713 3000.000000
    BOUNDRHS UPBROW35714 3000.000000
    BOUNDRHS UPBROW35715 3000.000000
    BOUNDRHS UPBROW35716 3000.000000
    BOUNDRHS UPBROW35717 3000.000000
    BOUNDRHS UPBROW35718 3000.000000
    BOUNDRHS UPBROW35719 3000.000000
    BOUNDRHS UPBROW35720 3000.000000
    BOUNDRHS UPBROW35721 3000.000000
    BOUNDRHS UPBROW35722 3000.000000
    BOUNDRHS UPBROW35723 3000.000000
    BOUNDRHS UPBROW35724 1.000000
    BOUNDRHS UPBROW35725 125.000000
    BOUNDRHS UPBROW35726 125.000000
    BOUNDRHS UPBROW35727 125.000000
    BOUNDRHS UPBROW35728 125.000000
    BOUNDRHS UPBROW35729 125.000000
    BOUNDRHS UPBROW35730 125.000000
    BOUNDRHS UPBROW35731 125.000000
    BOUNDRHS UPBROW35732 125.000000
    BOUNDRHS UPBROW35733 3000.000000
    BOUNDRHS UPBROW35734 3000.000000
    BOUNDRHS UPBROW35735 3000.000000
    BOUNDRHS UPBROW35736 3000.000000
    BOUNDRHS UPBROW35737 3000.000000
    BOUNDRHS UPBROW35738 3000.000000
    BOUNDRHS UPBROW35739 3000.000000
    BOUNDRHS UPBROW35740 3000.000000
    BOUNDRHS UPBROW35741 3000.000000
    BOUNDRHS UPBROW35742 3000.000000
    BOUNDRHS UPBROW35743 3000.000000
    BOUNDRHS UPBROW35744 3000.000000
    BOUNDRHS UPBROW35745 1.000000
    BOUNDRHS UPBROW35746 125.000000
    BOUNDRHS UPBROW35747 125.000000
    BOUNDRHS UPBROW35748 125.000000
    BOUNDRHS UPBROW35749 125.000000
    BOUNDRHS UPBROW35750 125.000000
    BOUNDRHS UPBROW35751 125.000000
    BOUNDRHS UPBROW35752 125.000000
    BOUNDRHS UPBROW35753 125.000000
    BOUNDRHS UPBROW35754 125.000000
    BOUNDRHS UPBROW35755 125.000000
    BOUNDRHS UPBROW35756 125.000000
    BOUNDRHS UPBROW35757 125.000000
    BOUNDRHS UPBROW35758 125.000000
    BOUNDRHS UPBROW35759 125.000000
    BOUNDRHS UPBROW35760 125.000000
    BOUNDRHS UPBROW35761 125.000000
    BOUNDRHS UPBROW35762 125.000000
    BOUNDRHS UPBROW35763 125.000000
    BOUNDRHS UPBROW35764 125.000000
    BOUNDRHS UPBROW35765 125.000000
    BOUNDRHS UPBROW35766 1.000000
    BOUNDRHS UPBROW35767 125.000000
    BOUNDRHS UPBROW35768 125.000000
    BOUNDRHS UPBROW35769 125.000000
    BOUNDRHS UPBROW35770 125.000000
    BOUNDRHS UPBROW35771 125.000000
    BOUNDRHS UPBROW35772 125.000000
    BOUNDRHS UPBROW35773 125.000000
    BOUNDRHS UPBROW35774 125.000000
    BOUNDRHS UPBROW35775 125.000000
    BOUNDRHS UPBROW35776 125.000000
    BOUNDRHS UPBROW35777 125.000000
    BOUNDRHS UPBROW35778 125.000000
    BOUNDRHS UPBROW35779 125.000000
    BOUNDRHS UPBROW35780 125.000000
    BOUNDRHS UPBROW35781 125.000000
    BOUNDRHS UPBROW35782 125.000000
    BOUNDRHS UPBROW35783 125.000000
    BOUNDRHS UPBROW35784 125.000000
    BOUNDRHS UPBROW35785 125.000000
    BOUNDRHS UPBROW35786 125.000000
    BOUNDRHS UPBROW35787 1.000000
    BOUNDRHS UPBROW35788 50.000000
    BOUNDRHS UPBROW35789 50.000000
    BOUNDRHS UPBROW35790 50.000000
    BOUNDRHS UPBROW35791 50.000000
    BOUNDRHS UPBROW35792 125.000000
    BOUNDRHS UPBROW35793 125.000000
    BOUNDRHS UPBROW35794 125.000000
    BOUNDRHS UPBROW35795 125.000000
    BOUNDRHS UPBROW35796 125.000000
    BOUNDRHS UPBROW35797 125.000000
    BOUNDRHS UPBROW35798 125.000000
    BOUNDRHS UPBROW35799 125.000000
    BOUNDRHS UPBROW35800 125.000000
    BOUNDRHS UPBROW35801 125.000000
    BOUNDRHS UPBROW35802 125.000000
    BOUNDRHS UPBROW35803 125.000000
    BOUNDRHS UPBROW35804 125.000000
    BOUNDRHS UPBROW35805 125.000000
    BOUNDRHS UPBROW35806 125.000000
    BOUNDRHS UPBROW35807 125.000000
    BOUNDRHS UPBROW35808 1.000000
    BOUNDRHS UPBROW35809 50.000000
    BOUNDRHS UPBROW35810 50.000000
    BOUNDRHS UPBROW35811 50.000000
    BOUNDRHS UPBROW35812 50.000000
    BOUNDRHS UPBROW35813 50.000000
    BOUNDRHS UPBROW35814 50.000000
    BOUNDRHS UPBROW35815 50.000000
    BOUNDRHS UPBROW35816 50.000000
    BOUNDRHS UPBROW35817 125.000000
    BOUNDRHS UPBROW35818 125.000000
    BOUNDRHS UPBROW35819 125.000000
    BOUNDRHS UPBROW35820 125.000000
    BOUNDRHS UPBROW35821 125.000000
    BOUNDRHS UPBROW35822 125.000000
    BOUNDRHS UPBROW35823 125.000000
    BOUNDRHS UPBROW35824 125.000000
    BOUNDRHS UPBROW35825 125.000000
    BOUNDRHS UPBROW35826 125.000000
    BOUNDRHS UPBROW35827 125.000000
    BOUNDRHS UPBROW35828 125.000000
    BOUNDRHS UPBROW35829 1.000000
    BOUNDRHS UPBROW35830 50.000000
    BOUNDRHS UPBROW35831 50.000000
    BOUNDRHS UPBROW35832 50.000000
    BOUNDRHS UPBROW35833 50.000000
    BOUNDRHS UPBROW35834 50.000000
    BOUNDRHS UPBROW35835 50.000000
    BOUNDRHS UPBROW35836 50.000000
    BOUNDRHS UPBROW35837 50.000000
    BOUNDRHS UPBROW35838 50.000000
    BOUNDRHS UPBROW35839 50.000000
    BOUNDRHS UPBROW35840 50.000000
    BOUNDRHS UPBROW35841 50.000000
    BOUNDRHS UPBROW35842 50.000000
    BOUNDRHS UPBROW35843 50.000000
    BOUNDRHS UPBROW35844 50.000000
    BOUNDRHS UPBROW35845 50.000000
    BOUNDRHS UPBROW35846 50.000000
    BOUNDRHS UPBROW35847 50.000000
    BOUNDRHS UPBROW35848 50.000000
    BOUNDRHS UPBROW35849 50.000000
    BOUNDRHS UPBROW35850 1.000000
    BOUNDRHS UPBROW35851 125.000000
    BOUNDRHS UPBROW35852 125.000000
    BOUNDRHS UPBROW35853 125.000000
    BOUNDRHS UPBROW35854 125.000000
    BOUNDRHS UPBROW35855 125.000000
    BOUNDRHS UPBROW35856 125.000000
    BOUNDRHS UPBROW35857 125.000000
    BOUNDRHS UPBROW35858 125.000000
    BOUNDRHS UPBROW35859 125.000000
    BOUNDRHS UPBROW35860 125.000000
    BOUNDRHS UPBROW35861 125.000000
    BOUNDRHS UPBROW35862 125.000000
    BOUNDRHS UPBROW35863 125.000000
    BOUNDRHS UPBROW35864 125.000000
    BOUNDRHS UPBROW35865 125.000000
    BOUNDRHS UPBROW35866 125.000000
    BOUNDRHS UPBROW35867 125.000000
    BOUNDRHS UPBROW35868 125.000000
    BOUNDRHS UPBROW35869 125.000000
    BOUNDRHS UPBROW35870 125.000000
    BOUNDRHS UPBROW35871 1.000000
    BOUNDRHS UPBROW35872 50.000000
    BOUNDRHS UPBROW35873 50.000000
    BOUNDRHS UPBROW35874 50.000000
    BOUNDRHS UPBROW35875 50.000000
    BOUNDRHS UPBROW35876 125.000000
    BOUNDRHS UPBROW35877 125.000000
    BOUNDRHS UPBROW35878 125.000000
    BOUNDRHS UPBROW35879 125.000000
    BOUNDRHS UPBROW35880 125.000000
    BOUNDRHS UPBROW35881 125.000000
    BOUNDRHS UPBROW35882 125.000000
    BOUNDRHS UPBROW35883 125.000000
    BOUNDRHS UPBROW35884 125.000000
    BOUNDRHS UPBROW35885 125.000000
    BOUNDRHS UPBROW35886 125.000000
    BOUNDRHS UPBROW35887 125.000000
    BOUNDRHS UPBROW35888 125.000000
    BOUNDRHS UPBROW35889 125.000000
    BOUNDRHS UPBROW35890 125.000000
    BOUNDRHS UPBROW35891 125.000000
    BOUNDRHS UPBROW35892 1.000000
    BOUNDRHS UPBROW35893 50.000000
    BOUNDRHS UPBROW35894 50.000000
    BOUNDRHS UPBROW35895 50.000000
    BOUNDRHS UPBROW35896 50.000000
    BOUNDRHS UPBROW35897 50.000000
    BOUNDRHS UPBROW35898 50.000000
    BOUNDRHS UPBROW35899 50.000000
    BOUNDRHS UPBROW35900 50.000000
    BOUNDRHS UPBROW35901 125.000000
    BOUNDRHS UPBROW35902 125.000000
    BOUNDRHS UPBROW35903 125.000000
    BOUNDRHS UPBROW35904 125.000000
    BOUNDRHS UPBROW35905 125.000000
    BOUNDRHS UPBROW35906 125.000000
    BOUNDRHS UPBROW35907 125.000000
    BOUNDRHS UPBROW35908 125.000000
    BOUNDRHS UPBROW35909 125.000000
    BOUNDRHS UPBROW35910 125.000000
    BOUNDRHS UPBROW35911 125.000000
    BOUNDRHS UPBROW35912 125.000000
    BOUNDRHS UPBROW35913 1.000000
    BOUNDRHS UPBROW35914 50.000000
    BOUNDRHS UPBROW35915 50.000000
    BOUNDRHS UPBROW35916 50.000000
    BOUNDRHS UPBROW35917 50.000000
    BOUNDRHS UPBROW35918 50.000000
    BOUNDRHS UPBROW35919 50.000000
    BOUNDRHS UPBROW35920 50.000000
    BOUNDRHS UPBROW35921 50.000000
    BOUNDRHS UPBROW35922 50.000000
    BOUNDRHS UPBROW35923 50.000000
    BOUNDRHS UPBROW35924 50.000000
    BOUNDRHS UPBROW35925 50.000000
    BOUNDRHS UPBROW35926 50.000000
    BOUNDRHS UPBROW35927 50.000000
    BOUNDRHS UPBROW35928 50.000000
    BOUNDRHS UPBROW35929 50.000000
    BOUNDRHS UPBROW35930 50.000000
    BOUNDRHS UPBROW35931 50.000000
    BOUNDRHS UPBROW35932 50.000000
    BOUNDRHS UPBROW35933 50.000000
BOUNDS
ENDATA
