NAME          STANDATA
ROWS
 E  A..1..S1
 E  A..2..S1
 E  A..3..S1
 E  A..4..S1
 E  A..5..S1
 E  A..6..S1
 E  A..1..S2
 E  A..2..S2
 E  A..3..S2
 E  A..4..S2
 E  A..5..S2
 E  A..6..S2
 E  BP11..S1
 E  BP21..S1
 E  BP12..S1
 E  BP22..S1
 E  BP13..S1
 E  BP23..S1
 E  BP14..S1
 E  BP24..S1
 E  BP15..S1
 E  BP25..S1
 E  BP16..S1
 E  BP26..S1
 E  BP11..S2
 E  BP21..S2
 E  BP12..S2
 E  BP22..S2
 E  BP13..S2
 E  BP23..S2
 E  BP14..S2
 E  BP24..S2
 E  BP15..S2
 E  BP25..S2
 E  BP16..S2
 E  BP26..S2
 E  BP11..T1
 E  BP21..T1
 E  BP12..T1
 E  BP22..T1
 E  BP13..T1
 E  BP23..T1
 E  BP14..T1
 E  BP24..T1
 E  BP15..T1
 E  BP25..T1
 E  BP16..T1
 E  BP26..T1
 E  BP11..T2
 E  BP21..T2
 E  BP12..T2
 E  BP22..T2
 E  BP13..T2
 E  BP23..T2
 E  BP14..T2
 E  BP24..T2
 E  BP15..T2
 E  BP25..T2
 E  BP16..T2
 E  BP26..T2
 E  BP11..T3
 E  BP21..T3
 E  BP12..T3
 E  BP22..T3
 E  BP13..T3
 E  BP23..T3
 E  BP14..T3
 E  BP24..T3
 E  BP15..T3
 E  BP25..T3
 E  BP16..T3
 E  BP26..T3
 E  BP11..T4
 E  BP21..T4
 E  BP12..T4
 E  BP22..T4
 E  BP13..T4
 E  BP23..T4
 E  BP14..T4
 E  BP24..T4
 E  BP15..T4
 E  BP25..T4
 E  BP16..T4
 E  BP26..T4
 E  C..1..T1
 E  C..2..T1
 E  C..3..T1
 E  C..4..T1
 E  C..5..T1
 E  C..6..T1
 E  C..1..T2
 E  C..2..T2
 E  C..3..T2
 E  C..4..T2
 E  C..5..T2
 E  C..6..T2
 E  C..1..T3
 E  C..2..T3
 E  C..3..T3
 E  C..4..T3
 E  C..5..T3
 E  C..6..T3
 E  C..1..T4
 E  C..2..T4
 E  C..3..T4
 E  C..4..T4
 E  C..5..T4
 E  C..6..T4
 E  FCC.....
 E  FIC.....
 E  FOT.....
 E  FTR.....
 N  FAT...J.
 E  FIN...1.
 E  FIN...2.
 E  FIN...3.
 E  I..1..T1
 E  I..2..T1
 E  I..3..T1
 E  I..4..T1
 E  I..5..T1
 E  I..6..T1
 E  I..1..T2
 E  I..2..T2
 E  I..3..T2
 E  I..4..T2
 E  I..5..T2
 E  I..6..T2
 E  I..1..T3
 E  I..2..T3
 E  I..3..T3
 E  I..4..T3
 E  I..5..T3
 E  I..6..T3
 E  I..1..T4
 E  I..2..T4
 E  I..3..T4
 E  I..4..T4
 E  I..5..T4
 E  I..6..T4
 E  KM.1..T1
 E  KN.1..T1
 E  KM.3..T1
 E  KN.3..T1
 E  KM.5..T1
 E  KN.5..T1
 E  KM.1..T2
 E  KN.1..T2
 E  KM.3..T2
 E  KN.3..T2
 E  KM.5..T2
 E  KN.5..T2
 E  KM.1..T3
 E  KN.1..T3
 E  KM.3..T3
 E  KN.3..T3
 E  KM.5..T3
 E  KN.5..T3
 E  KM.1..T4
 E  KN.1..T4
 E  KM.3..T4
 E  KN.3..T4
 E  KM.5..T4
 E  KN.5..T4
 E  LY....T1
 E  LC.1..T1
 E  LM.1..T1
 E  LN.1..T1
 E  LC.3..T1
 E  LM.3..T1
 E  LN.3..T1
 E  LC.5..T1
 E  LM.5..T1
 E  LN.5..T1
 E  LY....T2
 E  LC.1..T2
 E  LM.1..T2
 E  LN.1..T2
 E  LC.3..T2
 E  LM.3..T2
 E  LN.3..T2
 E  LC.5..T2
 E  LM.5..T2
 E  LN.5..T2
 E  LY....T3
 E  LC.1..T3
 E  LM.1..T3
 E  LN.1..T3
 E  LC.3..T3
 E  LM.3..T3
 E  LN.3..T3
 E  LC.5..T3
 E  LM.5..T3
 E  LN.5..T3
 E  LY....T4
 E  LC.1..T4
 E  LM.1..T4
 E  LN.1..T4
 E  LC.3..T4
 E  LM.3..T4
 E  LN.3..T4
 E  LC.5..T4
 E  LM.5..T4
 E  LN.5..T4
 E  TYEAR1T1
 E  TYEAR2T1
 E  TYEAR3T1
 E  TB.1S1T1
 E  TB.1S2T1
 E  TM.1S1T1
 E  TM.1S2T1
 E  TN.1S1T1
 E  TN.1S2T1
 E  TB.2S1T1
 E  TB.2S2T1
 E  TM.2S1T1
 E  TM.2S2T1
 E  TN.2S1T1
 E  TN.2S2T1
 E  TB.3S1T1
 E  TB.3S2T1
 E  TM.3S1T1
 E  TM.3S2T1
 E  TN.3S1T1
 E  TN.3S2T1
 E  TB.4S1T1
 E  TB.4S2T1
 E  TM.4S1T1
 E  TM.4S2T1
 E  TN.4S1T1
 E  TN.4S2T1
 E  TB.5S1T1
 E  TB.5S2T1
 E  TM.5S1T1
 E  TM.5S2T1
 E  TN.5S1T1
 E  TN.5S2T1
 E  TB.6S1T1
 E  TB.6S2T1
 E  TM.6S1T1
 E  TM.6S2T1
 E  TN.6S1T1
 E  TN.6S2T1
 E  TYEAR1T2
 E  TYEAR2T2
 E  TYEAR3T2
 E  TB.1S1T2
 E  TB.1S2T2
 E  TM.1S1T2
 E  TM.1S2T2
 E  TN.1S1T2
 E  TN.1S2T2
 E  TB.2S1T2
 E  TB.2S2T2
 E  TM.2S1T2
 E  TM.2S2T2
 E  TN.2S1T2
 E  TN.2S2T2
 E  TB.3S1T2
 E  TB.3S2T2
 E  TM.3S1T2
 E  TM.3S2T2
 E  TN.3S1T2
 E  TN.3S2T2
 E  TB.4S1T2
 E  TB.4S2T2
 E  TM.4S1T2
 E  TM.4S2T2
 E  TN.4S1T2
 E  TN.4S2T2
 E  TB.5S1T2
 E  TB.5S2T2
 E  TM.5S1T2
 E  TM.5S2T2
 E  TN.5S1T2
 E  TN.5S2T2
 E  TB.6S1T2
 E  TB.6S2T2
 E  TM.6S1T2
 E  TM.6S2T2
 E  TN.6S1T2
 E  TN.6S2T2
 E  TYEAR1T3
 E  TYEAR2T3
 E  TYEAR3T3
 E  TB.1S1T3
 E  TB.1S2T3
 E  TM.1S1T3
 E  TM.1S2T3
 E  TN.1S1T3
 E  TN.1S2T3
 E  TB.2S1T3
 E  TB.2S2T3
 E  TM.2S1T3
 E  TM.2S2T3
 E  TN.2S1T3
 E  TN.2S2T3
 E  TB.3S1T3
 E  TB.3S2T3
 E  TM.3S1T3
 E  TM.3S2T3
 E  TN.3S1T3
 E  TN.3S2T3
 E  TB.4S1T3
 E  TB.4S2T3
 E  TM.4S1T3
 E  TM.4S2T3
 E  TN.4S1T3
 E  TN.4S2T3
 E  TB.5S1T3
 E  TB.5S2T3
 E  TM.5S1T3
 E  TM.5S2T3
 E  TN.5S1T3
 E  TN.5S2T3
 E  TB.6S1T3
 E  TB.6S2T3
 E  TM.6S1T3
 E  TM.6S2T3
 E  TN.6S1T3
 E  TN.6S2T3
 E  TYEAR1T4
 E  TYEAR2T4
 E  TYEAR3T4
 E  TB.1S1T4
 E  TB.1S2T4
 E  TM.1S1T4
 E  TM.1S2T4
 E  TN.1S1T4
 E  TN.1S2T4
 E  TB.2S1T4
 E  TB.2S2T4
 E  TM.2S1T4
 E  TM.2S2T4
 E  TN.2S1T4
 E  TN.2S2T4
 E  TB.3S1T4
 E  TB.3S2T4
 E  TM.3S1T4
 E  TM.3S2T4
 E  TN.3S1T4
 E  TN.3S2T4
 E  TB.4S1T4
 E  TB.4S2T4
 E  TM.4S1T4
 E  TM.4S2T4
 E  TN.4S1T4
 E  TN.4S2T4
 E  TB.5S1T4
 E  TB.5S2T4
 E  TM.5S1T4
 E  TM.5S2T4
 E  TN.5S1T4
 E  TN.5S2T4
 E  TB.6S1T4
 E  TB.6S2T4
 E  TM.6S1T4
 E  TM.6S2T4
 E  TN.6S1T4
 E  TN.6S2T4
 E  UPBROW4216
 E  UPBROW4217
 E  UPBROW4218
 E  UPBROW4219
 E  UPBROW4220
 E  UPBROW4221
 E  UPBROW4222
 E  UPBROW4223
 E  UPBROW4224
 E  UPBROW4225
 E  UPBROW4226
 E  UPBROW4227
 E  UPBROW4228
 E  UPBROW4229
 E  UPBROW4230
 E  UPBROW4231
 E  UPBROW4232
 E  UPBROW4233
 E  UPBROW4234
 E  UPBROW4235
 E  UPBROW4236
 E  UPBROW4237
 E  UPBROW4238
 E  UPBROW4239
 E  UPBROW4240
 E  UPBROW4241
 E  UPBROW4242
 E  UPBROW4243
 E  UPBROW4244
 E  UPBROW4245
 E  UPBROW4246
 E  UPBROW4247
 E  UPBROW4248
 E  UPBROW4249
 E  UPBROW4250
 E  UPBROW4251
 E  UPBROW4252
 E  UPBROW4253
 E  UPBROW4254
 E  UPBROW4255
 E  UPBROW4256
 E  UPBROW4257
 E  UPBROW4258
 E  UPBROW4259
 E  UPBROW4260
 E  UPBROW4261
 E  UPBROW4262
 E  UPBROW4263
 E  UPBROW4264
 E  UPBROW4265
 E  UPBROW4266
 E  UPBROW4267
 E  UPBROW4268
 E  UPBROW4269
 E  UPBROW4270
 E  UPBROW4271
 E  UPBROW4272
 E  UPBROW4273
 E  UPBROW4274
 E  UPBROW4275
 E  UPBROW4276
 E  UPBROW4277
 E  UPBROW4278
 E  UPBROW4279
 E  UPBROW4280
 E  UPBROW4281
 E  UPBROW4282
 E  UPBROW4283
 E  UPBROW4284
 E  UPBROW4285
 E  UPBROW4286
 E  UPBROW4287
 E  UPBROW4288
 E  UPBROW4289
 E  UPBROW4290
 E  UPBROW4291
 E  UPBROW4292
 E  UPBROW4293
 E  UPBROW4294
 E  UPBROW4295
 E  UPBROW4296
 E  UPBROW4297
 E  UPBROW4298
 E  UPBROW4299
 E  UPBROW4300
 E  UPBROW4301
 E  UPBROW4302
 E  UPBROW4303
 E  UPBROW4304
 E  UPBROW4305
 E  UPBROW4306
 E  UPBROW4307
 E  UPBROW4308
 E  UPBROW4309
 E  UPBROW4310
 E  UPBROW4311
 E  UPBROW4312
 E  UPBROW4313
 E  UPBROW4314
 E  UPBROW4315
 E  UPBROW4316
 E  UPBROW4317
 E  UPBROW4318
 E  UPBROW4319
COLUMNS
    A..1X1S1 A..1..S1 -1.000000   UPBROW4216 1.000000
    A..1X2S1 A..1..S1 -1.000000   UPBROW4217 1.000000
    A..1X3S1 A..1..S1 -1.000000   UPBROW4218 1.000000
    AP11..S1 BP11..S1 1.000000   A..1..S1 1.000000
    AP21..S1 BP21..S1 1.000000   A..1..S1 1.000000
    A..2X1S1 A..2..S1 -1.000000   UPBROW4219 1.000000
    A..2X2S1 A..2..S1 -1.000000   FOT..... 2.500000
    A..2X2S1 UPBROW4220 1.000000
    A..2X3S1 A..2..S1 -1.000000   FOT..... 3.000000
    A..2X3S1 UPBROW4221 1.000000
    AP12..S1 BP12..S1 1.000000   A..2..S1 1.000000
    AP22..S1 BP22..S1 1.000000   A..2..S1 1.000000
    A..3X1S1 A..3..S1 -1.000000   UPBROW4222 1.000000
    A..3X2S1 A..3..S1 -1.000000   UPBROW4223 1.000000
    A..3X3S1 A..3..S1 -1.000000   UPBROW4224 1.000000
    AP13..S1 BP13..S1 1.000000   A..3..S1 1.000000
    AP23..S1 BP23..S1 1.000000   A..3..S1 1.000000
    A..4X1S1 A..4..S1 -1.000000   UPBROW4225 1.000000
    A..4X2S1 A..4..S1 -1.000000   FOT..... 2.500000
    A..4X2S1 UPBROW4226 1.000000
    A..4X3S1 A..4..S1 -1.000000   FOT..... 3.000000
    A..4X3S1 UPBROW4227 1.000000
    AP14..S1 BP14..S1 1.000000   A..4..S1 1.000000
    AP24..S1 BP24..S1 1.000000   A..4..S1 1.000000
    A..5X1S1 A..5..S1 -1.000000   UPBROW4228 1.000000
    A..5X2S1 A..5..S1 -1.000000   UPBROW4229 1.000000
    A..5X3S1 A..5..S1 -1.000000   UPBROW4230 1.000000
    AP15..S1 BP15..S1 1.000000   A..5..S1 1.000000
    AP25..S1 BP25..S1 1.000000   A..5..S1 1.000000
    A..6X1S1 A..6..S1 -1.000000   UPBROW4231 1.000000
    A..6X2S1 A..6..S1 -1.000000   FOT..... 2.500000
    A..6X2S1 UPBROW4232 1.000000
    A..6X3S1 A..6..S1 -1.000000   FOT..... 3.000000
    A..6X3S1 UPBROW4233 1.000000
    AP16..S1 BP16..S1 1.000000   A..6..S1 1.000000
    AP26..S1 BP26..S1 1.000000   A..6..S1 1.000000
    A..1X1S2 A..1..S2 -1.000000   UPBROW4234 1.000000
    A..1X2S2 A..1..S2 -1.000000   UPBROW4235 1.000000
    A..1X3S2 A..1..S2 -1.000000   UPBROW4236 1.000000
    AP11..S2 BP11..S2 1.000000   A..1..S2 1.000000
    AP21..S2 BP21..S2 1.000000   A..1..S2 1.000000
    A..2X1S2 A..2..S2 -1.000000   UPBROW4237 1.000000
    A..2X2S2 A..2..S2 -1.000000   FOT..... 2.500000
    A..2X2S2 UPBROW4238 1.000000
    A..2X3S2 A..2..S2 -1.000000   FOT..... 3.000000
    A..2X3S2 UPBROW4239 1.000000
    AP12..S2 BP12..S2 1.000000   A..2..S2 1.000000
    AP22..S2 BP22..S2 1.000000   A..2..S2 1.000000
    A..3X1S2 A..3..S2 -1.000000   UPBROW4240 1.000000
    A..3X2S2 A..3..S2 -1.000000   UPBROW4241 1.000000
    A..3X3S2 A..3..S2 -1.000000   UPBROW4242 1.000000
    AP13..S2 BP13..S2 1.000000   A..3..S2 1.000000
    AP23..S2 BP23..S2 1.000000   A..3..S2 1.000000
    A..4X1S2 A..4..S2 -1.000000   UPBROW4243 1.000000
    A..4X2S2 A..4..S2 -1.000000   FOT..... 2.500000
    A..4X2S2 UPBROW4244 1.000000
    A..4X3S2 A..4..S2 -1.000000   FOT..... 3.000000
    A..4X3S2 UPBROW4245 1.000000
    AP14..S2 BP14..S2 1.000000   A..4..S2 1.000000
    AP24..S2 BP24..S2 1.000000   A..4..S2 1.000000
    A..5X1S2 A..5..S2 -1.000000   UPBROW4246 1.000000
    A..5X2S2 A..5..S2 -1.000000   UPBROW4247 1.000000
    A..5X3S2 A..5..S2 -1.000000   UPBROW4248 1.000000
    AP15..S2 BP15..S2 1.000000   A..5..S2 1.000000
    AP25..S2 BP25..S2 1.000000   A..5..S2 1.000000
    A..6X1S2 A..6..S2 -1.000000   UPBROW4249 1.000000
    A..6X2S2 A..6..S2 -1.000000   FOT..... 2.500000
    A..6X2S2 UPBROW4250 1.000000
    A..6X3S2 A..6..S2 -1.000000   FOT..... 3.000000
    A..6X3S2 UPBROW4251 1.000000
    AP16..S2 BP16..S2 1.000000   A..6..S2 1.000000
    AP26..S2 BP26..S2 1.000000   A..6..S2 1.000000
    C..1..T1 C..1..T1 -1.000000   I..1..T1 -1.000000
    C..1..T1 C..2..T1 1.000000   UPBROW4252 1.000000
    CIN1..T1 C..1..T1 1.000000   KM.1..T1 1.000000
    CIN1..T1 KN.1..T1 -1.000000   FCC..... 7.207250
    CIN1..T1 FIN...1. 31.750000
    CVA1..T1 C..1..T1 1.000000   LM.1..T1 1.000000
    CVA1..T1 LN.1..T1 -1.000000   FCC..... 6.265200
    CVA1..T1 FIN...1. 27.600000
    C..2..T1 C..2..T1 -1.000000   I..2..T1 -1.000000
    C..2..T1 C..3..T1 1.000000   UPBROW4253 1.000000
    C..3..T1 C..3..T1 -1.000000   I..3..T1 -1.000000
    C..3..T1 C..4..T1 1.000000   UPBROW4254 1.000000
    CIN3..T1 C..3..T1 1.000000   KM.3..T1 1.000000
    CIN3..T1 KN.3..T1 -1.000000   FCC..... 5.080000
    CIN3..T1 FIN...2. 31.750000
    CVA3..T1 C..3..T1 1.000000   LM.3..T1 1.000000
    CVA3..T1 LN.3..T1 -1.000000   FCC..... 4.416000
    CVA3..T1 FIN...2. 27.600000
    C..4..T1 C..4..T1 -1.000000   I..4..T1 -1.000000
    C..4..T1 C..5..T1 1.000000   UPBROW4255 1.000000
    C..5..T1 C..5..T1 -1.000000   I..5..T1 -1.000000
    C..5..T1 C..6..T1 1.000000   UPBROW4256 1.000000
    CIN5..T1 C..5..T1 1.000000   KM.5..T1 1.000000
    CIN5..T1 KN.5..T1 -1.000000   FCC..... 2.698750
    CIN5..T1 FIN...3. 31.750000
    CVA5..T1 C..5..T1 1.000000   LM.5..T1 1.000000
    CVA5..T1 LN.5..T1 -1.000000   FCC..... 2.346000
    CVA5..T1 FIN...3. 27.600000
    C..6..T1 C..6..T1 -1.000000   I..6..T1 -1.000000
    C..6..T1 UPBROW4257 1.000000
    C..1..T2 C..1..T2 -1.000000   I..1..T2 -1.000000
    C..1..T2 C..2..T2 1.000000
    CIN1..T2 C..1..T2 1.000000   KM.1..T2 1.000000
    CIN1..T2 KN.1..T2 -1.000000   FCC..... 7.207250
    CIN1..T2 FIN...1. 31.750000
    CVA1..T2 C..1..T2 1.000000   LM.1..T2 1.000000
    CVA1..T2 LN.1..T2 -1.000000   FCC..... 6.265200
    CVA1..T2 FIN...1. 27.600000
    C..2..T2 C..2..T2 -1.000000   I..2..T2 -1.000000
    C..2..T2 C..3..T2 1.000000
    C..3..T2 C..3..T2 -1.000000   I..3..T2 -1.000000
    C..3..T2 C..4..T2 1.000000
    CIN3..T2 C..3..T2 1.000000   KM.3..T2 1.000000
    CIN3..T2 KN.3..T2 -1.000000   FCC..... 5.080000
    CIN3..T2 FIN...2. 31.750000
    CVA3..T2 C..3..T2 1.000000   LM.3..T2 1.000000
    CVA3..T2 LN.3..T2 -1.000000   FCC..... 4.416000
    CVA3..T2 FIN...2. 27.600000
    C..4..T2 C..4..T2 -1.000000   I..4..T2 -1.000000
    C..4..T2 C..5..T2 1.000000
    C..5..T2 C..5..T2 -1.000000   I..5..T2 -1.000000
    C..5..T2 C..6..T2 1.000000
    CIN5..T2 C..5..T2 1.000000   KM.5..T2 1.000000
    CIN5..T2 KN.5..T2 -1.000000   FCC..... 2.698750
    CIN5..T2 FIN...3. 31.750000
    CVA5..T2 C..5..T2 1.000000   LM.5..T2 1.000000
    CVA5..T2 LN.5..T2 -1.000000   FCC..... 2.346000
    CVA5..T2 FIN...3. 27.600000
    C..6..T2 C..6..T2 -1.000000   I..6..T2 -1.000000
    C..1..T3 C..1..T3 -1.000000   I..1..T3 -1.000000
    C..1..T3 C..2..T3 1.000000   UPBROW4258 1.000000
    CIN1..T3 C..1..T3 1.000000   KM.1..T3 1.000000
    CIN1..T3 KN.1..T3 -1.000000   FCC..... 7.207250
    CIN1..T3 FIN...1. 31.750000
    CVA1..T3 C..1..T3 1.000000   LM.1..T3 1.000000
    CVA1..T3 LN.1..T3 -1.000000   FCC..... 6.265200
    CVA1..T3 FIN...1. 27.600000
    C..2..T3 C..2..T3 -1.000000   I..2..T3 -1.000000
    C..2..T3 C..3..T3 1.000000   UPBROW4259 1.000000
    C..3..T3 C..3..T3 -1.000000   I..3..T3 -1.000000
    C..3..T3 C..4..T3 1.000000   UPBROW4260 1.000000
    CIN3..T3 C..3..T3 1.000000   KM.3..T3 1.000000
    CIN3..T3 KN.3..T3 -1.000000   FCC..... 5.080000
    CIN3..T3 FIN...2. 31.750000
    CVA3..T3 C..3..T3 1.000000   LM.3..T3 1.000000
    CVA3..T3 LN.3..T3 -1.000000   FCC..... 4.416000
    CVA3..T3 FIN...2. 27.600000
    C..4..T3 C..4..T3 -1.000000   I..4..T3 -1.000000
    C..4..T3 C..5..T3 1.000000   UPBROW4261 1.000000
    C..5..T3 C..5..T3 -1.000000   I..5..T3 -1.000000
    C..5..T3 C..6..T3 1.000000   UPBROW4262 1.000000
    CIN5..T3 C..5..T3 1.000000   KM.5..T3 1.000000
    CIN5..T3 KN.5..T3 -1.000000   FCC..... 2.698750
    CIN5..T3 FIN...3. 31.750000
    CVA5..T3 C..5..T3 1.000000   LM.5..T3 1.000000
    CVA5..T3 LN.5..T3 -1.000000   FCC..... 2.346000
    CVA5..T3 FIN...3. 27.600000
    C..6..T3 C..6..T3 -1.000000   I..6..T3 -1.000000
    C..6..T3 UPBROW4263 1.000000
    C..1..T4 C..1..T4 -1.000000   I..1..T4 -1.000000
    C..1..T4 C..2..T4 1.000000
    CIN1..T4 C..1..T4 1.000000   KM.1..T4 1.000000
    CIN1..T4 KN.1..T4 -1.000000   FCC..... 7.207250
    CIN1..T4 FIN...1. 31.750000
    CVA1..T4 C..1..T4 1.000000   LM.1..T4 1.000000
    CVA1..T4 LN.1..T4 -1.000000   FCC..... 6.265200
    CVA1..T4 FIN...1. 27.600000
    C..2..T4 C..2..T4 -1.000000   I..2..T4 -1.000000
    C..2..T4 C..3..T4 1.000000
    C..3..T4 C..3..T4 -1.000000   I..3..T4 -1.000000
    C..3..T4 C..4..T4 1.000000
    CIN3..T4 C..3..T4 1.000000   KM.3..T4 1.000000
    CIN3..T4 KN.3..T4 -1.000000   FCC..... 5.080000
    CIN3..T4 FIN...2. 31.750000
    CVA3..T4 C..3..T4 1.000000   LM.3..T4 1.000000
    CVA3..T4 LN.3..T4 -1.000000   FCC..... 4.416000
    CVA3..T4 FIN...2. 27.600000
    C..4..T4 C..4..T4 -1.000000   I..4..T4 -1.000000
    C..4..T4 C..5..T4 1.000000
    C..5..T4 C..5..T4 -1.000000   I..5..T4 -1.000000
    C..5..T4 C..6..T4 1.000000
    CIN5..T4 C..5..T4 1.000000   KM.5..T4 1.000000
    CIN5..T4 KN.5..T4 -1.000000   FCC..... 2.698750
    CIN5..T4 FIN...3. 31.750000
    CVA5..T4 C..5..T4 1.000000   LM.5..T4 1.000000
    CVA5..T4 LN.5..T4 -1.000000   FCC..... 2.346000
    CVA5..T4 FIN...3. 27.600000
    C..6..T4 C..6..T4 -1.000000   I..6..T4 -1.000000
    FCC..... FCC..... -1.000000   FAT...J. 1.000000
    FIC..... FIC..... -1.000000   FAT...J. 1.000000
    FOT..... FOT..... -1.000000   FAT...J. 1.000000
    FTR..... FTR..... -1.000000   FAT...J. 1.000000
    IP11..T1 BP11..T1 -1.000000   I..1..T1 1.000000
    IP11..T1 FIC..... 3.000000   BP12..T1 1.000000
    IP21..T1 BP21..T1 -1.000000   I..1..T1 1.000000
    IP21..T1 FIC..... 3.000000   BP22..T1 1.000000
    IP12..T1 BP12..T1 -1.000000   I..2..T1 1.000000
    IP12..T1 FIC..... 3.000000   BP13..T1 1.000000
    IP22..T1 BP22..T1 -1.000000   I..2..T1 1.000000
    IP22..T1 FIC..... 3.000000   BP23..T1 1.000000
    IP13..T1 BP13..T1 -1.000000   I..3..T1 1.000000
    IP13..T1 FIC..... 3.000000   BP14..T1 1.000000
    IP23..T1 BP23..T1 -1.000000   I..3..T1 1.000000
    IP23..T1 FIC..... 3.000000   BP24..T1 1.000000
    IP14..T1 BP14..T1 -1.000000   I..4..T1 1.000000
    IP14..T1 FIC..... 3.000000   BP15..T1 1.000000
    IP24..T1 BP24..T1 -1.000000   I..4..T1 1.000000
    IP24..T1 FIC..... 3.000000   BP25..T1 1.000000
    IP15..T1 BP15..T1 -1.000000   I..5..T1 1.000000
    IP15..T1 FIC..... 3.000000   BP16..T1 1.000000
    IP25..T1 BP25..T1 -1.000000   I..5..T1 1.000000
    IP25..T1 FIC..... 3.000000   BP26..T1 1.000000
    IP16..T1 BP16..T1 -1.000000   I..6..T1 1.000000
    IP16..T1 FIC..... 3.000000
    IP26..T1 BP26..T1 -1.000000   I..6..T1 1.000000
    IP26..T1 FIC..... 3.000000
    IP11..T2 BP11..T2 -1.000000   I..1..T2 1.000000
    IP11..T2 FIC..... 3.000000   BP12..T2 1.000000
    IP21..T2 BP21..T2 -1.000000   I..1..T2 1.000000
    IP21..T2 FIC..... 3.000000   BP22..T2 1.000000
    IP12..T2 BP12..T2 -1.000000   I..2..T2 1.000000
    IP12..T2 FIC..... 3.000000   BP13..T2 1.000000
    IP22..T2 BP22..T2 -1.000000   I..2..T2 1.000000
    IP22..T2 FIC..... 3.000000   BP23..T2 1.000000
    IP13..T2 BP13..T2 -1.000000   I..3..T2 1.000000
    IP13..T2 FIC..... 3.000000   BP14..T2 1.000000
    IP23..T2 BP23..T2 -1.000000   I..3..T2 1.000000
    IP23..T2 FIC..... 3.000000   BP24..T2 1.000000
    IP14..T2 BP14..T2 -1.000000   I..4..T2 1.000000
    IP14..T2 FIC..... 3.000000   BP15..T2 1.000000
    IP24..T2 BP24..T2 -1.000000   I..4..T2 1.000000
    IP24..T2 FIC..... 3.000000   BP25..T2 1.000000
    IP15..T2 BP15..T2 -1.000000   I..5..T2 1.000000
    IP15..T2 FIC..... 3.000000   BP16..T2 1.000000
    IP25..T2 BP25..T2 -1.000000   I..5..T2 1.000000
    IP25..T2 FIC..... 3.000000   BP26..T2 1.000000
    IP16..T2 BP16..T2 -1.000000   I..6..T2 1.000000
    IP16..T2 FIC..... 3.000000
    IP26..T2 BP26..T2 -1.000000   I..6..T2 1.000000
    IP26..T2 FIC..... 3.000000
    IP11..T3 BP11..T3 -1.000000   I..1..T3 1.000000
    IP11..T3 FIC..... 3.000000   BP12..T3 1.000000
    IP21..T3 BP21..T3 -1.000000   I..1..T3 1.000000
    IP21..T3 FIC..... 3.000000   BP22..T3 1.000000
    IP12..T3 BP12..T3 -1.000000   I..2..T3 1.000000
    IP12..T3 FIC..... 3.000000   BP13..T3 1.000000
    IP22..T3 BP22..T3 -1.000000   I..2..T3 1.000000
    IP22..T3 FIC..... 3.000000   BP23..T3 1.000000
    IP13..T3 BP13..T3 -1.000000   I..3..T3 1.000000
    IP13..T3 FIC..... 3.000000   BP14..T3 1.000000
    IP23..T3 BP23..T3 -1.000000   I..3..T3 1.000000
    IP23..T3 FIC..... 3.000000   BP24..T3 1.000000
    IP14..T3 BP14..T3 -1.000000   I..4..T3 1.000000
    IP14..T3 FIC..... 3.000000   BP15..T3 1.000000
    IP24..T3 BP24..T3 -1.000000   I..4..T3 1.000000
    IP24..T3 FIC..... 3.000000   BP25..T3 1.000000
    IP15..T3 BP15..T3 -1.000000   I..5..T3 1.000000
    IP15..T3 FIC..... 3.000000   BP16..T3 1.000000
    IP25..T3 BP25..T3 -1.000000   I..5..T3 1.000000
    IP25..T3 FIC..... 3.000000   BP26..T3 1.000000
    IP16..T3 BP16..T3 -1.000000   I..6..T3 1.000000
    IP16..T3 FIC..... 3.000000
    IP26..T3 BP26..T3 -1.000000   I..6..T3 1.000000
    IP26..T3 FIC..... 3.000000
    IP11..T4 BP11..T4 -1.000000   I..1..T4 1.000000
    IP11..T4 FIC..... 3.000000   BP12..T4 1.000000
    IP21..T4 BP21..T4 -1.000000   I..1..T4 1.000000
    IP21..T4 FIC..... 3.000000   BP22..T4 1.000000
    IP12..T4 BP12..T4 -1.000000   I..2..T4 1.000000
    IP12..T4 FIC..... 3.000000   BP13..T4 1.000000
    IP22..T4 BP22..T4 -1.000000   I..2..T4 1.000000
    IP22..T4 FIC..... 3.000000   BP23..T4 1.000000
    IP13..T4 BP13..T4 -1.000000   I..3..T4 1.000000
    IP13..T4 FIC..... 3.000000   BP14..T4 1.000000
    IP23..T4 BP23..T4 -1.000000   I..3..T4 1.000000
    IP23..T4 FIC..... 3.000000   BP24..T4 1.000000
    IP14..T4 BP14..T4 -1.000000   I..4..T4 1.000000
    IP14..T4 FIC..... 3.000000   BP15..T4 1.000000
    IP24..T4 BP24..T4 -1.000000   I..4..T4 1.000000
    IP24..T4 FIC..... 3.000000   BP25..T4 1.000000
    IP15..T4 BP15..T4 -1.000000   I..5..T4 1.000000
    IP15..T4 FIC..... 3.000000   BP16..T4 1.000000
    IP25..T4 BP25..T4 -1.000000   I..5..T4 1.000000
    IP25..T4 FIC..... 3.000000   BP26..T4 1.000000
    IP16..T4 BP16..T4 -1.000000   I..6..T4 1.000000
    IP16..T4 FIC..... 3.000000
    IP26..T4 BP26..T4 -1.000000   I..6..T4 1.000000
    IP26..T4 FIC..... 3.000000
    ZP26T409 BP26..T4 -1.000000   FTR..... 9.250000
    ZP26T409 TYEAR3T4 1.000000
    KBU1S2T1 TN.1S2T1 10.000000   TM.1S2T1 -25.000000
    KBU1S2T1 UPBROW4264 1.000000
    ZP26T309 BP26..T3 -1.000000   FTR..... 6.100000
    ZP26T309 TYEAR3T3 1.000000
    KVA1..T1 LM.1..T1 -10.000000   LN.1..T1 2.000000
    KVA1..T1 FCC..... 24.289000   FIN...1. 107.000000
    KVA1..T1 LC.1..T1 1.000000   UPBROW4265 1.000000
    ZP26T209 BP26..T2 -1.000000   FTR..... 10.750000
    ZP26T209 TYEAR3T2 1.000000
    KBU2S2T1 TN.2S2T1 10.000000   TM.2S2T1 -25.000000
    KBU2S2T1 UPBROW4266 1.000000
    ZP26T109 BP26..T1 -1.000000   FTR..... 9.700000
    ZP26T109 TYEAR3T1 1.000000
    KBU3S2T1 TN.3S2T1 10.000000   TM.3S2T1 -25.000000
    KBU3S2T1 UPBROW4267 1.000000
    KIN3..T1 LY....T1 1.000000   KM.3..T1 -15.000000
    KIN3..T1 KN.3..T1 3.000000   FCC..... 48.000000
    KIN3..T1 FIN...2. 300.000000   TYEAR2T1 -25.000000
    KIN3..T1 TYEAR3T1 -25.000000   LC.5..T1 -1.000000
    KIN3..T1 UPBROW4268 1.000000
    KVA3..T1 LM.3..T1 -10.000000   LN.3..T1 2.000000
    KVA3..T1 FCC..... 17.120000   FIN...2. 107.000000
    KVA3..T1 LC.3..T1 1.000000   UPBROW4269 1.000000
    ZP26S209 BP26..S2 -1.000000   FTR..... 28.000000
    KBU4S2T1 TN.4S2T1 10.000000   TM.4S2T1 -25.000000
    KBU4S2T1 UPBROW4270 1.000000
    ZP26S109 BP26..S1 -1.000000   FTR..... 26.200000
    KBU5S2T1 TN.5S2T1 10.000000   TM.5S2T1 -25.000000
    KBU5S2T1 UPBROW4271 1.000000
    KIN5..T1 LY....T1 1.000000   KM.5..T1 -15.000000
    KIN5..T1 KN.5..T1 3.000000   FCC..... 25.500000
    KIN5..T1 FIN...3. 300.000000   TYEAR3T1 -25.000000
    KIN5..T1 UPBROW4272 1.000000
    ZP16T409 BP16..T4 -1.000000   FTR..... 9.250000
    ZP16T409 TYEAR3T4 1.000000
    ZP16T309 BP16..T3 -1.000000   FTR..... 6.100000
    ZP16T309 TYEAR3T3 1.000000
    KBU6S2T1 TN.6S2T1 10.000000   TM.6S2T1 -25.000000
    KBU6S2T1 UPBROW4273 1.000000
    KBU1S1T2 TN.1S1T2 10.000000   TM.1S1T2 -25.000000
    KBU1S1T2 UPBROW4274 1.000000
    KBU1S2T2 TN.1S2T2 10.000000   TM.1S2T2 -25.000000
    KBU1S2T2 UPBROW4275 1.000000
    KIN1..T2 LY....T2 1.000000   KM.1..T2 -15.000000
    KIN1..T2 KN.1..T2 3.000000   FCC..... 68.100000
    KIN1..T2 FIN...1. 300.000000   TYEAR1T2 -25.000000
    KIN1..T2 TYEAR2T2 -25.000000   LC.3..T2 -1.000000
    KIN1..T2 TYEAR3T2 -25.000000   LC.5..T2 -1.000000
    KIN1..T2 UPBROW4276 1.000000
    KVA1..T2 LM.1..T2 -10.000000   LN.1..T2 2.000000
    KVA1..T2 FCC..... 24.289000   FIN...1. 107.000000
    KVA1..T2 LC.1..T2 1.000000   UPBROW4277 1.000000
    KBU2S1T2 TN.2S1T2 10.000000   TM.2S1T2 -25.000000
    KBU2S1T2 UPBROW4278 1.000000
    KBU2S2T2 TN.2S2T2 10.000000   TM.2S2T2 -25.000000
    KBU2S2T2 UPBROW4279 1.000000
    KBU3S1T2 TN.3S1T2 10.000000   TM.3S1T2 -25.000000
    KBU3S1T2 UPBROW4280 1.000000
    KBU3S2T2 TN.3S2T2 10.000000   TM.3S2T2 -25.000000
    KBU3S2T2 UPBROW4281 1.000000
    KIN3..T2 LY....T2 1.000000   KM.3..T2 -15.000000
    KIN3..T2 KN.3..T2 3.000000   FCC..... 48.000000
    KIN3..T2 FIN...2. 300.000000   TYEAR2T2 -25.000000
    KIN3..T2 TYEAR3T2 -25.000000   LC.5..T2 -1.000000
    KIN3..T2 UPBROW4282 1.000000
    KVA3..T2 LM.3..T2 -10.000000   LN.3..T2 2.000000
    KVA3..T2 FCC..... 17.120000   FIN...2. 107.000000
    KVA3..T2 LC.3..T2 1.000000   UPBROW4283 1.000000
    KBU4S1T2 TN.4S1T2 10.000000   TM.4S1T2 -25.000000
    KBU4S1T2 UPBROW4284 1.000000
    KBU4S2T2 TN.4S2T2 10.000000   TM.4S2T2 -25.000000
    KBU4S2T2 UPBROW4285 1.000000
    KBU5S1T2 TN.5S1T2 10.000000   TM.5S1T2 -25.000000
    KBU5S1T2 UPBROW4286 1.000000
    KBU5S2T2 TN.5S2T2 10.000000   TM.5S2T2 -25.000000
    KBU5S2T2 UPBROW4287 1.000000
    KIN5..T2 LY....T2 1.000000   KM.5..T2 -15.000000
    KIN5..T2 KN.5..T2 3.000000   FCC..... 25.500000
    KIN5..T2 FIN...3. 300.000000   TYEAR3T2 -25.000000
    KIN5..T2 UPBROW4288 1.000000
    KVA5..T2 LM.5..T2 -10.000000   LN.5..T2 2.000000
    KVA5..T2 FCC..... 9.095000   FIN...3. 107.000000
    KVA5..T2 LC.5..T2 1.000000   UPBROW4289 1.000000
    KBU6S1T2 TN.6S1T2 10.000000   TM.6S1T2 -25.000000
    KBU6S1T2 UPBROW4290 1.000000
    KBU6S2T2 TN.6S2T2 10.000000   TM.6S2T2 -25.000000
    KBU6S2T2 UPBROW4291 1.000000
    ZP16T209 BP16..T2 -1.000000   FTR..... 10.750000
    ZP16T209 TYEAR3T2 1.000000
    ZP16T109 BP16..T1 -1.000000   FTR..... 9.700000
    ZP16T109 TYEAR3T1 1.000000
    ZP16S209 BP16..S2 -1.000000   FTR..... 28.000000
    KVA1..T3 LM.1..T3 -10.000000   LN.1..T3 2.000000
    KVA1..T3 FCC..... 24.289000   FIN...1. 107.000000
    KVA1..T3 LC.1..T3 1.000000   UPBROW4292 1.000000
    ZP16S109 BP16..S1 -1.000000   FTR..... 26.200000
    KBU2S2T3 TN.2S2T3 10.000000   TM.2S2T3 -25.000000
    KBU2S2T3 UPBROW4293 1.000000
    KBU3S1T3 TN.3S1T3 10.000000   TM.3S1T3 -25.000000
    KBU3S1T3 UPBROW4294 1.000000
    KBU3S2T3 TN.3S2T3 10.000000   TM.3S2T3 -25.000000
    KBU3S2T3 UPBROW4295 1.000000
    KIN3..T3 LY....T3 1.000000   KM.3..T3 -15.000000
    KIN3..T3 KN.3..T3 3.000000   FCC..... 48.000000
    KIN3..T3 FIN...2. 300.000000   TYEAR2T3 -25.000000
    KIN3..T3 TYEAR3T3 -25.000000   LC.5..T3 -1.000000
    KIN3..T3 UPBROW4296 1.000000
    ZP25T409 BP25..T4 -1.000000   FTR..... 9.250000
    ZP25T409 TYEAR3T4 1.000000
    KBU4S1T3 TN.4S1T3 10.000000   TM.4S1T3 -25.000000
    KBU4S1T3 UPBROW4297 1.000000
    KBU4S2T3 TN.4S2T3 10.000000   TM.4S2T3 -25.000000
    KBU4S2T3 UPBROW4298 1.000000
    ZP25T309 BP25..T3 -1.000000   FTR..... 6.100000
    ZP25T309 TYEAR3T3 1.000000
    KBU5S2T3 TN.5S2T3 10.000000   TM.5S2T3 -25.000000
    KBU5S2T3 UPBROW4299 1.000000
    KIN5..T3 LY....T3 1.000000   KM.5..T3 -15.000000
    KIN5..T3 KN.5..T3 3.000000   FCC..... 25.500000
    KIN5..T3 FIN...3. 300.000000   TYEAR3T3 -25.000000
    KIN5..T3 UPBROW4300 1.000000
    ZP25T209 BP25..T2 -1.000000   FTR..... 10.750000
    ZP25T209 TYEAR3T2 1.000000
    ZP25T109 BP25..T1 -1.000000   FTR..... 9.700000
    ZP25T109 TYEAR3T1 1.000000
    KBU6S2T3 TN.6S2T3 10.000000   TM.6S2T3 -25.000000
    KBU6S2T3 UPBROW4301 1.000000
    KBU1S1T4 TN.1S1T4 10.000000   TM.1S1T4 -25.000000
    KBU1S1T4 UPBROW4302 1.000000
    KBU1S2T4 TN.1S2T4 10.000000   TM.1S2T4 -25.000000
    KBU1S2T4 UPBROW4303 1.000000
    KIN1..T4 LY....T4 1.000000   KM.1..T4 -15.000000
    KIN1..T4 KN.1..T4 3.000000   FCC..... 68.100000
    KIN1..T4 FIN...1. 300.000000   TYEAR1T4 -25.000000
    KIN1..T4 TYEAR2T4 -25.000000   LC.3..T4 -1.000000
    KIN1..T4 TYEAR3T4 -25.000000   LC.5..T4 -1.000000
    KIN1..T4 UPBROW4304 1.000000
    KVA1..T4 LM.1..T4 -10.000000   LN.1..T4 2.000000
    KVA1..T4 FCC..... 24.289000   FIN...1. 107.000000
    KVA1..T4 LC.1..T4 1.000000   UPBROW4305 1.000000
    KBU2S1T4 TN.2S1T4 10.000000   TM.2S1T4 -25.000000
    KBU2S1T4 UPBROW4306 1.000000
    KBU2S2T4 TN.2S2T4 10.000000   TM.2S2T4 -25.000000
    KBU2S2T4 UPBROW4307 1.000000
    KBU3S1T4 TN.3S1T4 10.000000   TM.3S1T4 -25.000000
    KBU3S1T4 UPBROW4308 1.000000
    KBU3S2T4 TN.3S2T4 10.000000   TM.3S2T4 -25.000000
    KBU3S2T4 UPBROW4309 1.000000
    KIN3..T4 LY....T4 1.000000   KM.3..T4 -15.000000
    KIN3..T4 KN.3..T4 3.000000   FCC..... 48.000000
    KIN3..T4 FIN...2. 300.000000   TYEAR2T4 -25.000000
    KIN3..T4 TYEAR3T4 -25.000000   LC.5..T4 -1.000000
    KIN3..T4 UPBROW4310 1.000000
    KVA3..T4 LM.3..T4 -10.000000   LN.3..T4 2.000000
    KVA3..T4 FCC..... 17.120000   FIN...2. 107.000000
    KVA3..T4 LC.3..T4 1.000000   UPBROW4311 1.000000
    KBU4S1T4 TN.4S1T4 10.000000   TM.4S1T4 -25.000000
    KBU4S1T4 UPBROW4312 1.000000
    KBU4S2T4 TN.4S2T4 10.000000   TM.4S2T4 -25.000000
    KBU4S2T4 UPBROW4313 1.000000
    KBU5S1T4 TN.5S1T4 10.000000   TM.5S1T4 -25.000000
    KBU5S1T4 UPBROW4314 1.000000
    KBU5S2T4 TN.5S2T4 10.000000   TM.5S2T4 -25.000000
    KBU5S2T4 UPBROW4315 1.000000
    KIN5..T4 LY....T4 1.000000   KM.5..T4 -15.000000
    KIN5..T4 KN.5..T4 3.000000   FCC..... 25.500000
    KIN5..T4 FIN...3. 300.000000   TYEAR3T4 -25.000000
    KIN5..T4 UPBROW4316 1.000000
    KVA5..T4 LM.5..T4 -10.000000   LN.5..T4 2.000000
    KVA5..T4 FCC..... 9.095000   FIN...3. 107.000000
    KVA5..T4 LC.5..T4 1.000000   UPBROW4317 1.000000
    KBU6S1T4 TN.6S1T4 10.000000   TM.6S1T4 -25.000000
    KBU6S1T4 UPBROW4318 1.000000
    KBU6S2T4 TN.6S2T4 10.000000   TM.6S2T4 -25.000000
    KBU6S2T4 UPBROW4319 1.000000
    PEN...1. FIN...1. -1.000000   FAT...J. 100.000000
    PEN...2. FIN...2. -1.000000   FAT...J. 100.000000
    PEN...3. FIN...3. -1.000000   FAT...J. 100.000000
    RBU1S1T1 TB.1S1T1 -1.000000   TN.1S1T1 -1.000000
    RBU1S1T1 TM.1S1T1 1.000000   FTR..... 10.550000
    RBU1S2T1 TB.1S2T1 -1.000000   TN.1S2T1 -1.000000
    RBU1S2T1 TM.1S2T1 1.000000   FTR..... 17.000000
    RPA1S1T1 TB.1S1T1 -1.000000   FTR..... 13.850000
    RPA1S2T1 TB.1S2T1 -1.000000   FTR..... 17.500000
    RBU2S1T1 TB.2S1T1 -1.000000   TN.2S1T1 -1.000000
    RBU2S1T1 TM.2S1T1 1.000000   FTR..... 10.550000
    RBU2S2T1 TB.2S2T1 -1.000000   TN.2S2T1 -1.000000
    RBU2S2T1 TM.2S2T1 1.000000   FTR..... 17.000000
    RPA2S1T1 TB.2S1T1 -1.000000   FTR..... 13.850000
    RPA2S2T1 TB.2S2T1 -1.000000   FTR..... 17.500000
    RBU3S1T1 TB.3S1T1 -1.000000   TN.3S1T1 -1.000000
    RBU3S1T1 TM.3S1T1 1.000000   FTR..... 10.550000
    RBU3S2T1 TB.3S2T1 -1.000000   TN.3S2T1 -1.000000
    RBU3S2T1 TM.3S2T1 1.000000   FTR..... 17.000000
    RPA3S1T1 TB.3S1T1 -1.000000   FTR..... 13.850000
    RPA3S2T1 TB.3S2T1 -1.000000   FTR..... 17.500000
    RBU4S1T1 TB.4S1T1 -1.000000   TN.4S1T1 -1.000000
    RBU4S1T1 TM.4S1T1 1.000000   FTR..... 10.550000
    RBU4S2T1 TB.4S2T1 -1.000000   TN.4S2T1 -1.000000
    RBU4S2T1 TM.4S2T1 1.000000   FTR..... 17.000000
    RPA4S1T1 TB.4S1T1 -1.000000   FTR..... 13.850000
    RPA4S2T1 TB.4S2T1 -1.000000   FTR..... 17.500000
    RBU5S1T1 TB.5S1T1 -1.000000   TN.5S1T1 -1.000000
    RBU5S1T1 TM.5S1T1 1.000000   FTR..... 10.550000
    RBU5S2T1 TB.5S2T1 -1.000000   TN.5S2T1 -1.000000
    RBU5S2T1 TM.5S2T1 1.000000   FTR..... 17.000000
    RPA5S1T1 TB.5S1T1 -1.000000   FTR..... 13.850000
    RPA5S2T1 TB.5S2T1 -1.000000   FTR..... 17.500000
    RBU6S1T1 TB.6S1T1 -1.000000   TN.6S1T1 -1.000000
    RBU6S1T1 TM.6S1T1 1.000000   FTR..... 10.550000
    RBU6S2T1 TB.6S2T1 -1.000000   TN.6S2T1 -1.000000
    RBU6S2T1 TM.6S2T1 1.000000   FTR..... 17.000000
    RPA6S1T1 TB.6S1T1 -1.000000   FTR..... 13.850000
    RPA6S2T1 TB.6S2T1 -1.000000   FTR..... 17.500000
    RBU1S1T2 TB.1S1T2 -1.000000   TN.1S1T2 -1.000000
    RBU1S1T2 TM.1S1T2 1.000000   FTR..... 13.850000
    RBU1S2T2 TB.1S2T2 -1.000000   TN.1S2T2 -1.000000
    RBU1S2T2 TM.1S2T2 1.000000   FTR..... 16.550000
    RPA1S1T2 TB.1S1T2 -1.000000   FTR..... 16.300000
    RPA1S2T2 TB.1S2T2 -1.000000   FTR..... 17.000000
    RBU2S1T2 TB.2S1T2 -1.000000   TN.2S1T2 -1.000000
    RBU2S1T2 TM.2S1T2 1.000000   FTR..... 13.850000
    RBU2S2T2 TB.2S2T2 -1.000000   TN.2S2T2 -1.000000
    RBU2S2T2 TM.2S2T2 1.000000   FTR..... 16.550000
    RPA2S1T2 TB.2S1T2 -1.000000   FTR..... 16.300000
    RPA2S2T2 TB.2S2T2 -1.000000   FTR..... 17.000000
    RBU3S1T2 TB.3S1T2 -1.000000   TN.3S1T2 -1.000000
    RBU3S1T2 TM.3S1T2 1.000000   FTR..... 13.850000
    RBU3S2T2 TB.3S2T2 -1.000000   TN.3S2T2 -1.000000
    RBU3S2T2 TM.3S2T2 1.000000   FTR..... 16.550000
    RPA3S1T2 TB.3S1T2 -1.000000   FTR..... 16.300000
    RPA3S2T2 TB.3S2T2 -1.000000   FTR..... 17.000000
    RBU4S1T2 TB.4S1T2 -1.000000   TN.4S1T2 -1.000000
    RBU4S1T2 TM.4S1T2 1.000000   FTR..... 13.850000
    RBU4S2T2 TB.4S2T2 -1.000000   TN.4S2T2 -1.000000
    RBU4S2T2 TM.4S2T2 1.000000   FTR..... 16.550000
    RPA4S1T2 TB.4S1T2 -1.000000   FTR..... 16.300000
    RPA4S2T2 TB.4S2T2 -1.000000   FTR..... 17.000000
    RBU5S1T2 TB.5S1T2 -1.000000   TN.5S1T2 -1.000000
    RBU5S1T2 TM.5S1T2 1.000000   FTR..... 13.850000
    RBU5S2T2 TB.5S2T2 -1.000000   TN.5S2T2 -1.000000
    RBU5S2T2 TM.5S2T2 1.000000   FTR..... 16.550000
    RPA5S1T2 TB.5S1T2 -1.000000   FTR..... 16.300000
    RPA5S2T2 TB.5S2T2 -1.000000   FTR..... 17.000000
    RBU6S1T2 TB.6S1T2 -1.000000   TN.6S1T2 -1.000000
    RBU6S1T2 TM.6S1T2 1.000000   FTR..... 13.850000
    RBU6S2T2 TB.6S2T2 -1.000000   TN.6S2T2 -1.000000
    RBU6S2T2 TM.6S2T2 1.000000   FTR..... 16.550000
    RPA6S1T2 TB.6S1T2 -1.000000   FTR..... 16.300000
    RPA6S2T2 TB.6S2T2 -1.000000   FTR..... 17.000000
    RBU1S1T3 TB.1S1T3 -1.000000   TN.1S1T3 -1.000000
    RBU1S1T3 TM.1S1T3 1.000000   FTR..... 13.850000
    RBU1S2T3 TB.1S2T3 -1.000000   TN.1S2T3 -1.000000
    RBU1S2T3 TM.1S2T3 1.000000   FTR..... 14.550000
    RPA1S1T3 TB.1S1T3 -1.000000   FTR..... 16.300000
    RPA1S2T3 TB.1S2T3 -1.000000   FTR..... 15.000000
    RBU2S1T3 TB.2S1T3 -1.000000   TN.2S1T3 -1.000000
    RBU2S1T3 TM.2S1T3 1.000000   FTR..... 13.850000
    RBU2S2T3 TB.2S2T3 -1.000000   TN.2S2T3 -1.000000
    RBU2S2T3 TM.2S2T3 1.000000   FTR..... 14.550000
    RPA2S1T3 TB.2S1T3 -1.000000   FTR..... 16.300000
    RPA2S2T3 TB.2S2T3 -1.000000   FTR..... 15.000000
    RBU3S1T3 TB.3S1T3 -1.000000   TN.3S1T3 -1.000000
    RBU3S1T3 TM.3S1T3 1.000000   FTR..... 13.850000
    RBU3S2T3 TB.3S2T3 -1.000000   TN.3S2T3 -1.000000
    RBU3S2T3 TM.3S2T3 1.000000   FTR..... 14.550000
    RPA3S1T3 TB.3S1T3 -1.000000   FTR..... 16.300000
    RPA3S2T3 TB.3S2T3 -1.000000   FTR..... 15.000000
    RBU4S1T3 TB.4S1T3 -1.000000   TN.4S1T3 -1.000000
    RBU4S1T3 TM.4S1T3 1.000000   FTR..... 13.850000
    RBU4S2T3 TB.4S2T3 -1.000000   TN.4S2T3 -1.000000
    RBU4S2T3 TM.4S2T3 1.000000   FTR..... 14.550000
    RPA4S1T3 TB.4S1T3 -1.000000   FTR..... 16.300000
    RPA4S2T3 TB.4S2T3 -1.000000   FTR..... 15.000000
    RBU5S1T3 TB.5S1T3 -1.000000   TN.5S1T3 -1.000000
    RBU5S1T3 TM.5S1T3 1.000000   FTR..... 13.850000
    RBU5S2T3 TB.5S2T3 -1.000000   TN.5S2T3 -1.000000
    RBU5S2T3 TM.5S2T3 1.000000   FTR..... 14.550000
    RPA5S1T3 TB.5S1T3 -1.000000   FTR..... 16.300000
    RPA5S2T3 TB.5S2T3 -1.000000   FTR..... 15.000000
    RBU6S1T3 TB.6S1T3 -1.000000   TN.6S1T3 -1.000000
    RBU6S1T3 TM.6S1T3 1.000000   FTR..... 13.850000
    RBU6S2T3 TB.6S2T3 -1.000000   TN.6S2T3 -1.000000
    RBU6S2T3 TM.6S2T3 1.000000   FTR..... 14.550000
    RPA6S1T3 TB.6S1T3 -1.000000   FTR..... 16.300000
    RPA6S2T3 TB.6S2T3 -1.000000   FTR..... 15.000000
    RBU1S1T4 TB.1S1T4 -1.000000   TN.1S1T4 -1.000000
    RBU1S1T4 TM.1S1T4 1.000000   FTR..... 13.850000
    RBU1S2T4 TB.1S2T4 -1.000000   TN.1S2T4 -1.000000
    RBU1S2T4 TM.1S2T4 1.000000   FTR..... 13.850000
    RPA1S1T4 TB.1S1T4 -1.000000   FTR..... 16.300000
    RPA1S2T4 TB.1S2T4 -1.000000   FTR..... 14.550000
    RBU2S1T4 TB.2S1T4 -1.000000   TN.2S1T4 -1.000000
    RBU2S1T4 TM.2S1T4 1.000000   FTR..... 13.850000
    RBU2S2T4 TB.2S2T4 -1.000000   TN.2S2T4 -1.000000
    RBU2S2T4 TM.2S2T4 1.000000   FTR..... 13.850000
    RPA2S1T4 TB.2S1T4 -1.000000   FTR..... 16.300000
    RPA2S2T4 TB.2S2T4 -1.000000   FTR..... 14.550000
    RBU3S1T4 TB.3S1T4 -1.000000   TN.3S1T4 -1.000000
    RBU3S1T4 TM.3S1T4 1.000000   FTR..... 13.850000
    RBU3S2T4 TB.3S2T4 -1.000000   TN.3S2T4 -1.000000
    RBU3S2T4 TM.3S2T4 1.000000   FTR..... 13.850000
    RPA3S1T4 TB.3S1T4 -1.000000   FTR..... 16.300000
    RPA3S2T4 TB.3S2T4 -1.000000   FTR..... 14.550000
    RBU4S1T4 TB.4S1T4 -1.000000   TN.4S1T4 -1.000000
    RBU4S1T4 TM.4S1T4 1.000000   FTR..... 13.850000
    RBU4S2T4 TB.4S2T4 -1.000000   TN.4S2T4 -1.000000
    RBU4S2T4 TM.4S2T4 1.000000   FTR..... 13.850000
    RPA4S1T4 TB.4S1T4 -1.000000   FTR..... 16.300000
    RPA4S2T4 TB.4S2T4 -1.000000   FTR..... 14.550000
    RBU5S1T4 TB.5S1T4 -1.000000   TN.5S1T4 -1.000000
    RBU5S1T4 TM.5S1T4 1.000000   FTR..... 13.850000
    RBU5S2T4 TB.5S2T4 -1.000000   TN.5S2T4 -1.000000
    RBU5S2T4 TM.5S2T4 1.000000   FTR..... 13.850000
    RPA5S1T4 TB.5S1T4 -1.000000   FTR..... 16.300000
    RPA5S2T4 TB.5S2T4 -1.000000   FTR..... 14.550000
    RBU6S1T4 TB.6S1T4 -1.000000   TN.6S1T4 -1.000000
    RBU6S1T4 TM.6S1T4 1.000000   FTR..... 13.850000
    RBU6S2T4 TB.6S2T4 -1.000000   TN.6S2T4 -1.000000
    RBU6S2T4 TM.6S2T4 1.000000   FTR..... 13.850000
    RPA6S1T4 TB.6S1T4 -1.000000   FTR..... 16.300000
    RPA6S2T4 TB.6S2T4 -1.000000   FTR..... 14.550000
    ZP11S1T1 BP11..S1 -1.000000   BP11..T1 1.000000
    ZP11S1T1 TB.1S1T1 1.000000
    ZP11S2T1 BP11..S2 -1.000000   BP11..T1 1.000000
    ZP11S2T1 TB.1S2T1 1.000000
    ZP21S1T1 BP21..S1 -1.000000   BP21..T1 1.000000
    ZP21S1T1 TB.1S1T1 1.000000
    ZP21S2T1 BP21..S2 -1.000000   BP21..T1 1.000000
    ZP21S2T1 TB.1S2T1 1.000000
    ZP12S1T1 BP12..S1 -1.000000   BP12..T1 1.000000
    ZP12S1T1 TB.2S1T1 1.000000
    ZP12S2T1 BP12..S2 -1.000000   BP12..T1 1.000000
    ZP12S2T1 TB.2S2T1 1.000000
    ZP22S1T1 BP22..S1 -1.000000   BP22..T1 1.000000
    ZP22S1T1 TB.2S1T1 1.000000
    ZP22S2T1 BP22..S2 -1.000000   BP22..T1 1.000000
    ZP22S2T1 TB.2S2T1 1.000000
    ZP13S1T1 BP13..S1 -1.000000   BP13..T1 1.000000
    ZP13S1T1 TB.3S1T1 1.000000
    ZP13S2T1 BP13..S2 -1.000000   BP13..T1 1.000000
    ZP13S2T1 TB.3S2T1 1.000000
    ZP23S1T1 BP23..S1 -1.000000   BP23..T1 1.000000
    ZP23S1T1 TB.3S1T1 1.000000
    ZP23S2T1 BP23..S2 -1.000000   BP23..T1 1.000000
    ZP23S2T1 TB.3S2T1 1.000000
    ZP14S1T1 BP14..S1 -1.000000   BP14..T1 1.000000
    ZP14S1T1 TB.4S1T1 1.000000
    ZP14S2T1 BP14..S2 -1.000000   BP14..T1 1.000000
    ZP14S2T1 TB.4S2T1 1.000000
    ZP24S1T1 BP24..S1 -1.000000   BP24..T1 1.000000
    ZP24S1T1 TB.4S1T1 1.000000
    ZP24S2T1 BP24..S2 -1.000000   BP24..T1 1.000000
    ZP24S2T1 TB.4S2T1 1.000000
    ZP15S1T1 BP15..S1 -1.000000   BP15..T1 1.000000
    ZP15S1T1 TB.5S1T1 1.000000
    ZP15S2T1 BP15..S2 -1.000000   BP15..T1 1.000000
    ZP15S2T1 TB.5S2T1 1.000000
    ZP25S1T1 BP25..S1 -1.000000   BP25..T1 1.000000
    ZP25S1T1 TB.5S1T1 1.000000
    ZP25S2T1 BP25..S2 -1.000000   BP25..T1 1.000000
    ZP25S2T1 TB.5S2T1 1.000000
    ZP16S1T1 BP16..S1 -1.000000   BP16..T1 1.000000
    ZP16S1T1 TB.6S1T1 1.000000
    ZP16S2T1 BP16..S2 -1.000000   BP16..T1 1.000000
    ZP16S2T1 TB.6S2T1 1.000000
    ZP26S1T1 BP26..S1 -1.000000   BP26..T1 1.000000
    ZP26S1T1 TB.6S1T1 1.000000
    ZP26S2T1 BP26..S2 -1.000000   BP26..T1 1.000000
    ZP26S2T1 TB.6S2T1 1.000000
    ZP11S1T2 BP11..S1 -1.000000   BP11..T2 1.000000
    ZP11S1T2 TB.1S1T2 1.000000
    ZP11S2T2 BP11..S2 -1.000000   BP11..T2 1.000000
    ZP11S2T2 TB.1S2T2 1.000000
    ZP21S1T2 BP21..S1 -1.000000   BP21..T2 1.000000
    ZP21S1T2 TB.1S1T2 1.000000
    ZP21S2T2 BP21..S2 -1.000000   BP21..T2 1.000000
    ZP21S2T2 TB.1S2T2 1.000000
    ZP12S1T2 BP12..S1 -1.000000   BP12..T2 1.000000
    ZP12S1T2 TB.2S1T2 1.000000
    ZP12S2T2 BP12..S2 -1.000000   BP12..T2 1.000000
    ZP12S2T2 TB.2S2T2 1.000000
    ZP22S1T2 BP22..S1 -1.000000   BP22..T2 1.000000
    ZP22S1T2 TB.2S1T2 1.000000
    ZP22S2T2 BP22..S2 -1.000000   BP22..T2 1.000000
    ZP22S2T2 TB.2S2T2 1.000000
    ZP13S1T2 BP13..S1 -1.000000   BP13..T2 1.000000
    ZP13S1T2 TB.3S1T2 1.000000
    ZP13S2T2 BP13..S2 -1.000000   BP13..T2 1.000000
    ZP13S2T2 TB.3S2T2 1.000000
    ZP23S1T2 BP23..S1 -1.000000   BP23..T2 1.000000
    ZP23S1T2 TB.3S1T2 1.000000
    ZP23S2T2 BP23..S2 -1.000000   BP23..T2 1.000000
    ZP23S2T2 TB.3S2T2 1.000000
    ZP14S1T2 BP14..S1 -1.000000   BP14..T2 1.000000
    ZP14S1T2 TB.4S1T2 1.000000
    ZP14S2T2 BP14..S2 -1.000000   BP14..T2 1.000000
    ZP14S2T2 TB.4S2T2 1.000000
    ZP24S1T2 BP24..S1 -1.000000   BP24..T2 1.000000
    ZP24S1T2 TB.4S1T2 1.000000
    ZP24S2T2 BP24..S2 -1.000000   BP24..T2 1.000000
    ZP24S2T2 TB.4S2T2 1.000000
    ZP15S1T2 BP15..S1 -1.000000   BP15..T2 1.000000
    ZP15S1T2 TB.5S1T2 1.000000
    ZP15S2T2 BP15..S2 -1.000000   BP15..T2 1.000000
    ZP15S2T2 TB.5S2T2 1.000000
    ZP25S1T2 BP25..S1 -1.000000   BP25..T2 1.000000
    ZP25S1T2 TB.5S1T2 1.000000
    ZP25S2T2 BP25..S2 -1.000000   BP25..T2 1.000000
    ZP25S2T2 TB.5S2T2 1.000000
    ZP16S1T2 BP16..S1 -1.000000   BP16..T2 1.000000
    ZP16S1T2 TB.6S1T2 1.000000
    ZP16S2T2 BP16..S2 -1.000000   BP16..T2 1.000000
    ZP16S2T2 TB.6S2T2 1.000000
    ZP26S1T2 BP26..S1 -1.000000   BP26..T2 1.000000
    ZP26S1T2 TB.6S1T2 1.000000
    ZP26S2T2 BP26..S2 -1.000000   BP26..T2 1.000000
    ZP26S2T2 TB.6S2T2 1.000000
    ZP11S1T3 BP11..S1 -1.000000   BP11..T3 1.000000
    ZP11S1T3 TB.1S1T3 1.000000
    ZP11S2T3 BP11..S2 -1.000000   BP11..T3 1.000000
    ZP11S2T3 TB.1S2T3 1.000000
    ZP21S1T3 BP21..S1 -1.000000   BP21..T3 1.000000
    ZP21S1T3 TB.1S1T3 1.000000
    ZP21S2T3 BP21..S2 -1.000000   BP21..T3 1.000000
    ZP21S2T3 TB.1S2T3 1.000000
    ZP12S1T3 BP12..S1 -1.000000   BP12..T3 1.000000
    ZP12S1T3 TB.2S1T3 1.000000
    ZP12S2T3 BP12..S2 -1.000000   BP12..T3 1.000000
    ZP12S2T3 TB.2S2T3 1.000000
    ZP22S1T3 BP22..S1 -1.000000   BP22..T3 1.000000
    ZP22S1T3 TB.2S1T3 1.000000
    ZP22S2T3 BP22..S2 -1.000000   BP22..T3 1.000000
    ZP22S2T3 TB.2S2T3 1.000000
    ZP13S1T3 BP13..S1 -1.000000   BP13..T3 1.000000
    ZP13S1T3 TB.3S1T3 1.000000
    ZP13S2T3 BP13..S2 -1.000000   BP13..T3 1.000000
    ZP13S2T3 TB.3S2T3 1.000000
    ZP23S1T3 BP23..S1 -1.000000   BP23..T3 1.000000
    ZP23S1T3 TB.3S1T3 1.000000
    ZP23S2T3 BP23..S2 -1.000000   BP23..T3 1.000000
    ZP23S2T3 TB.3S2T3 1.000000
    ZP14S1T3 BP14..S1 -1.000000   BP14..T3 1.000000
    ZP14S1T3 TB.4S1T3 1.000000
    ZP14S2T3 BP14..S2 -1.000000   BP14..T3 1.000000
    ZP14S2T3 TB.4S2T3 1.000000
    ZP24S1T3 BP24..S1 -1.000000   BP24..T3 1.000000
    ZP24S1T3 TB.4S1T3 1.000000
    ZP24S2T3 BP24..S2 -1.000000   BP24..T3 1.000000
    ZP24S2T3 TB.4S2T3 1.000000
    ZP15S1T3 BP15..S1 -1.000000   BP15..T3 1.000000
    ZP15S1T3 TB.5S1T3 1.000000
    ZP15S2T3 BP15..S2 -1.000000   BP15..T3 1.000000
    ZP15S2T3 TB.5S2T3 1.000000
    ZP25S1T3 BP25..S1 -1.000000   BP25..T3 1.000000
    ZP25S1T3 TB.5S1T3 1.000000
    ZP25S2T3 BP25..S2 -1.000000   BP25..T3 1.000000
    ZP25S2T3 TB.5S2T3 1.000000
    ZP16S1T3 BP16..S1 -1.000000   BP16..T3 1.000000
    ZP16S1T3 TB.6S1T3 1.000000
    ZP16S2T3 BP16..S2 -1.000000   BP16..T3 1.000000
    ZP16S2T3 TB.6S2T3 1.000000
    ZP26S1T3 BP26..S1 -1.000000   BP26..T3 1.000000
    ZP26S1T3 TB.6S1T3 1.000000
    ZP26S2T3 BP26..S2 -1.000000   BP26..T3 1.000000
    ZP26S2T3 TB.6S2T3 1.000000
    ZP11S1T4 BP11..S1 -1.000000   BP11..T4 1.000000
    ZP11S1T4 TB.1S1T4 1.000000
    ZP11S2T4 BP11..S2 -1.000000   BP11..T4 1.000000
    ZP11S2T4 TB.1S2T4 1.000000
    ZP21S1T4 BP21..S1 -1.000000   BP21..T4 1.000000
    ZP21S1T4 TB.1S1T4 1.000000
    ZP21S2T4 BP21..S2 -1.000000   BP21..T4 1.000000
    ZP21S2T4 TB.1S2T4 1.000000
    ZP12S1T4 BP12..S1 -1.000000   BP12..T4 1.000000
    ZP12S1T4 TB.2S1T4 1.000000
    ZP12S2T4 BP12..S2 -1.000000   BP12..T4 1.000000
    ZP12S2T4 TB.2S2T4 1.000000
    ZP22S1T4 BP22..S1 -1.000000   BP22..T4 1.000000
    ZP22S1T4 TB.2S1T4 1.000000
    ZP22S2T4 BP22..S2 -1.000000   BP22..T4 1.000000
    ZP22S2T4 TB.2S2T4 1.000000
    ZP13S1T4 BP13..S1 -1.000000   BP13..T4 1.000000
    ZP13S1T4 TB.3S1T4 1.000000
    ZP13S2T4 BP13..S2 -1.000000   BP13..T4 1.000000
    ZP13S2T4 TB.3S2T4 1.000000
    ZP23S1T4 BP23..S1 -1.000000   BP23..T4 1.000000
    ZP23S1T4 TB.3S1T4 1.000000
    ZP23S2T4 BP23..S2 -1.000000   BP23..T4 1.000000
    ZP23S2T4 TB.3S2T4 1.000000
    ZP14S1T4 BP14..S1 -1.000000   BP14..T4 1.000000
    ZP14S1T4 TB.4S1T4 1.000000
    ZP14S2T4 BP14..S2 -1.000000   BP14..T4 1.000000
    ZP14S2T4 TB.4S2T4 1.000000
    ZP24S1T4 BP24..S1 -1.000000   BP24..T4 1.000000
    ZP24S1T4 TB.4S1T4 1.000000
    ZP24S2T4 BP24..S2 -1.000000   BP24..T4 1.000000
    ZP24S2T4 TB.4S2T4 1.000000
    ZP15S1T4 BP15..S1 -1.000000   BP15..T4 1.000000
    ZP15S1T4 TB.5S1T4 1.000000
    ZP15S2T4 BP15..S2 -1.000000   BP15..T4 1.000000
    ZP15S2T4 TB.5S2T4 1.000000
    ZP25S1T4 BP25..S1 -1.000000   BP25..T4 1.000000
    ZP25S1T4 TB.5S1T4 1.000000
    ZP25S2T4 BP25..S2 -1.000000   BP25..T4 1.000000
    ZP25S2T4 TB.5S2T4 1.000000
    ZP16S1T4 BP16..S1 -1.000000   BP16..T4 1.000000
    ZP16S1T4 TB.6S1T4 1.000000
    ZP16S2T4 BP16..S2 -1.000000   BP16..T4 1.000000
    ZP16S2T4 TB.6S2T4 1.000000
    ZP26S1T4 BP26..S1 -1.000000   BP26..T4 1.000000
    ZP26S1T4 TB.6S1T4 1.000000
    ZP26S2T4 BP26..S2 -1.000000   BP26..T4 1.000000
    ZP26S2T4 TB.6S2T4 1.000000
    ZP11S101 BP11..S1 -1.000000   FTR..... 28.200000
    ZP11S201 BP11..S2 -1.000000   FTR..... 34.300000
    ZP11T101 BP11..T1 -1.000000   FTR..... 8.200000
    ZP11T101 TYEAR1T1 1.000000
    ZP11T201 BP11..T2 -1.000000   FTR..... 13.250000
    ZP11T201 TYEAR1T2 1.000000
    ZP11T301 BP11..T3 -1.000000   FTR..... 15.800000
    ZP11T301 TYEAR1T3 1.000000
    ZP11T401 BP11..T4 -1.000000   FTR..... 17.950000
    ZP11T401 TYEAR1T4 1.000000
    ZP21S101 BP21..S1 -1.000000   FTR..... 28.200000
    ZP21S201 BP21..S2 -1.000000   FTR..... 34.300000
    ZP21T101 BP21..T1 -1.000000   FTR..... 8.200000
    ZP21T101 TYEAR1T1 1.000000
    ZP21T201 BP21..T2 -1.000000   FTR..... 13.250000
    ZP21T201 TYEAR1T2 1.000000
    ZP21T301 BP21..T3 -1.000000   FTR..... 15.800000
    ZP21T301 TYEAR1T3 1.000000
    ZP21T401 BP21..T4 -1.000000   FTR..... 17.950000
    ZP21T401 TYEAR1T4 1.000000
    ZP12S101 BP12..S1 -1.000000   FTR..... 28.200000
    ZP12S201 BP12..S2 -1.000000   FTR..... 34.300000
    ZP12T101 BP12..T1 -1.000000   FTR..... 8.200000
    ZP12T101 TYEAR1T1 1.000000
    ZP12T201 BP12..T2 -1.000000   FTR..... 13.250000
    ZP12T201 TYEAR1T2 1.000000
    ZP12T301 BP12..T3 -1.000000   FTR..... 15.800000
    ZP12T301 TYEAR1T3 1.000000
    ZP12T401 BP12..T4 -1.000000   FTR..... 17.950000
    ZP12T401 TYEAR1T4 1.000000
    ZP22S101 BP22..S1 -1.000000   FTR..... 28.200000
    ZP22S201 BP22..S2 -1.000000   FTR..... 34.300000
    ZP22T101 BP22..T1 -1.000000   FTR..... 8.200000
    ZP22T101 TYEAR1T1 1.000000
    ZP22T201 BP22..T2 -1.000000   FTR..... 13.250000
    ZP22T201 TYEAR1T2 1.000000
    ZP22T301 BP22..T3 -1.000000   FTR..... 15.800000
    ZP22T301 TYEAR1T3 1.000000
    ZP22T401 BP22..T4 -1.000000   FTR..... 17.950000
    ZP22T401 TYEAR1T4 1.000000
    ZP13S101 BP13..S1 -1.000000   FTR..... 28.200000
    ZP13S201 BP13..S2 -1.000000   FTR..... 34.300000
    ZP13T101 BP13..T1 -1.000000   FTR..... 8.200000
    ZP13T101 TYEAR2T1 1.000000
    ZP13T201 BP13..T2 -1.000000   FTR..... 13.250000
    ZP13T201 TYEAR2T2 1.000000
    ZP13T301 BP13..T3 -1.000000   FTR..... 15.800000
    ZP13T301 TYEAR2T3 1.000000
    ZP13T401 BP13..T4 -1.000000   FTR..... 17.950000
    ZP13T401 TYEAR2T4 1.000000
    ZP23S101 BP23..S1 -1.000000   FTR..... 28.200000
    ZP23S201 BP23..S2 -1.000000   FTR..... 34.300000
    ZP23T101 BP23..T1 -1.000000   FTR..... 8.200000
    ZP23T101 TYEAR2T1 1.000000
    ZP23T201 BP23..T2 -1.000000   FTR..... 13.250000
    ZP23T201 TYEAR2T2 1.000000
    ZP23T301 BP23..T3 -1.000000   FTR..... 15.800000
    ZP23T301 TYEAR2T3 1.000000
    ZP23T401 BP23..T4 -1.000000   FTR..... 17.950000
    ZP23T401 TYEAR2T4 1.000000
    ZP14S101 BP14..S1 -1.000000   FTR..... 28.200000
    ZP14S201 BP14..S2 -1.000000   FTR..... 34.300000
    ZP14T101 BP14..T1 -1.000000   FTR..... 8.200000
    ZP14T101 TYEAR2T1 1.000000
    ZP14T201 BP14..T2 -1.000000   FTR..... 13.250000
    ZP14T201 TYEAR2T2 1.000000
    ZP14T301 BP14..T3 -1.000000   FTR..... 15.800000
    ZP14T301 TYEAR2T3 1.000000
    ZP14T401 BP14..T4 -1.000000   FTR..... 17.950000
    ZP14T401 TYEAR2T4 1.000000
    ZP24S101 BP24..S1 -1.000000   FTR..... 28.200000
    ZP24S201 BP24..S2 -1.000000   FTR..... 34.300000
    ZP24T101 BP24..T1 -1.000000   FTR..... 8.200000
    ZP24T101 TYEAR2T1 1.000000
    ZP24T201 BP24..T2 -1.000000   FTR..... 13.250000
    ZP24T201 TYEAR2T2 1.000000
    ZP24T301 BP24..T3 -1.000000   FTR..... 15.800000
    ZP24T301 TYEAR2T3 1.000000
    ZP24T401 BP24..T4 -1.000000   FTR..... 17.950000
    ZP24T401 TYEAR2T4 1.000000
    ZP15S101 BP15..S1 -1.000000   FTR..... 28.200000
    ZP15S201 BP15..S2 -1.000000   FTR..... 34.300000
    ZP15T101 BP15..T1 -1.000000   FTR..... 8.200000
    ZP15T101 TYEAR3T1 1.000000
    ZP15T201 BP15..T2 -1.000000   FTR..... 13.250000
    ZP15T201 TYEAR3T2 1.000000
    ZP15T301 BP15..T3 -1.000000   FTR..... 15.800000
    ZP15T301 TYEAR3T3 1.000000
    ZP15T401 BP15..T4 -1.000000   FTR..... 17.950000
    ZP15T401 TYEAR3T4 1.000000
    ZP25S101 BP25..S1 -1.000000   FTR..... 28.200000
    ZP25S201 BP25..S2 -1.000000   FTR..... 34.300000
    ZP25T101 BP25..T1 -1.000000   FTR..... 8.200000
    ZP25T101 TYEAR3T1 1.000000
    ZP25T201 BP25..T2 -1.000000   FTR..... 13.250000
    ZP25T201 TYEAR3T2 1.000000
    ZP25T301 BP25..T3 -1.000000   FTR..... 15.800000
    ZP25T301 TYEAR3T3 1.000000
    ZP25T401 BP25..T4 -1.000000   FTR..... 17.950000
    ZP25T401 TYEAR3T4 1.000000
    ZP16S101 BP16..S1 -1.000000   FTR..... 28.200000
    ZP16S201 BP16..S2 -1.000000   FTR..... 34.300000
    ZP16T101 BP16..T1 -1.000000   FTR..... 8.200000
    ZP16T101 TYEAR3T1 1.000000
    ZP16T201 BP16..T2 -1.000000   FTR..... 13.250000
    ZP16T201 TYEAR3T2 1.000000
    ZP16T301 BP16..T3 -1.000000   FTR..... 15.800000
    ZP16T301 TYEAR3T3 1.000000
    ZP16T401 BP16..T4 -1.000000   FTR..... 17.950000
    ZP16T401 TYEAR3T4 1.000000
    ZP26S101 BP26..S1 -1.000000   FTR..... 28.200000
    ZP26S201 BP26..S2 -1.000000   FTR..... 34.300000
    ZP26T101 BP26..T1 -1.000000   FTR..... 8.200000
    ZP26T101 TYEAR3T1 1.000000
    ZP26T201 BP26..T2 -1.000000   FTR..... 13.250000
    ZP26T201 TYEAR3T2 1.000000
    ZP26T301 BP26..T3 -1.000000   FTR..... 15.800000
    ZP26T301 TYEAR3T3 1.000000
    ZP26T401 BP26..T4 -1.000000   FTR..... 17.950000
    ZP26T401 TYEAR3T4 1.000000
    ZP11S102 BP11..S1 -1.000000   FTR..... 24.400000
    ZP11S202 BP11..S2 -1.000000   FTR..... 33.400000
    ZP11T102 BP11..T1 -1.000000   FTR..... 11.850000
    ZP11T102 TYEAR1T1 1.000000
    ZP11T202 BP11..T2 -1.000000   FTR..... 14.550000
    ZP11T202 TYEAR1T2 1.000000
    ZP11T302 BP11..T3 -1.000000   FTR..... 13.900000
    ZP11T302 TYEAR1T3 1.000000
    ZP11T402 BP11..T4 -1.000000   FTR..... 17.150000
    ZP11T402 TYEAR1T4 1.000000
    ZP21S102 BP21..S1 -1.000000   FTR..... 24.400000
    ZP21S202 BP21..S2 -1.000000   FTR..... 33.400000
    ZP21T102 BP21..T1 -1.000000   FTR..... 11.850000
    ZP21T102 TYEAR1T1 1.000000
    ZP21T202 BP21..T2 -1.000000   FTR..... 14.550000
    ZP21T202 TYEAR1T2 1.000000
    ZP21T302 BP21..T3 -1.000000   FTR..... 13.900000
    ZP21T302 TYEAR1T3 1.000000
    ZP21T402 BP21..T4 -1.000000   FTR..... 17.150000
    ZP21T402 TYEAR1T4 1.000000
    ZP12S102 BP12..S1 -1.000000   FTR..... 24.400000
    ZP12S202 BP12..S2 -1.000000   FTR..... 33.400000
    ZP12T102 BP12..T1 -1.000000   FTR..... 11.850000
    ZP12T102 TYEAR1T1 1.000000
    ZP12T202 BP12..T2 -1.000000   FTR..... 14.550000
    ZP12T202 TYEAR1T2 1.000000
    ZP12T302 BP12..T3 -1.000000   FTR..... 13.900000
    ZP12T302 TYEAR1T3 1.000000
    ZP12T402 BP12..T4 -1.000000   FTR..... 17.150000
    ZP12T402 TYEAR1T4 1.000000
    ZP22S102 BP22..S1 -1.000000   FTR..... 24.400000
    ZP22S202 BP22..S2 -1.000000   FTR..... 33.400000
    ZP22T102 BP22..T1 -1.000000   FTR..... 11.850000
    ZP22T102 TYEAR1T1 1.000000
    ZP22T202 BP22..T2 -1.000000   FTR..... 14.550000
    ZP22T202 TYEAR1T2 1.000000
    ZP22T302 BP22..T3 -1.000000   FTR..... 13.900000
    ZP22T302 TYEAR1T3 1.000000
    ZP22T402 BP22..T4 -1.000000   FTR..... 17.150000
    ZP22T402 TYEAR1T4 1.000000
    ZP13S102 BP13..S1 -1.000000   FTR..... 24.400000
    ZP13S202 BP13..S2 -1.000000   FTR..... 33.400000
    ZP13T102 BP13..T1 -1.000000   FTR..... 11.850000
    ZP13T102 TYEAR2T1 1.000000
    ZP13T202 BP13..T2 -1.000000   FTR..... 14.550000
    ZP13T202 TYEAR2T2 1.000000
    ZP13T302 BP13..T3 -1.000000   FTR..... 13.900000
    ZP13T302 TYEAR2T3 1.000000
    ZP13T402 BP13..T4 -1.000000   FTR..... 17.150000
    ZP13T402 TYEAR2T4 1.000000
    ZP23S102 BP23..S1 -1.000000   FTR..... 24.400000
    ZP23S202 BP23..S2 -1.000000   FTR..... 33.400000
    ZP23T102 BP23..T1 -1.000000   FTR..... 11.850000
    ZP23T102 TYEAR2T1 1.000000
    ZP23T202 BP23..T2 -1.000000   FTR..... 14.550000
    ZP23T202 TYEAR2T2 1.000000
    ZP23T302 BP23..T3 -1.000000   FTR..... 13.900000
    ZP23T302 TYEAR2T3 1.000000
    ZP23T402 BP23..T4 -1.000000   FTR..... 17.150000
    ZP23T402 TYEAR2T4 1.000000
    ZP14S102 BP14..S1 -1.000000   FTR..... 24.400000
    ZP14S202 BP14..S2 -1.000000   FTR..... 33.400000
    ZP14T102 BP14..T1 -1.000000   FTR..... 11.850000
    ZP14T102 TYEAR2T1 1.000000
    ZP14T202 BP14..T2 -1.000000   FTR..... 14.550000
    ZP14T202 TYEAR2T2 1.000000
    ZP14T302 BP14..T3 -1.000000   FTR..... 13.900000
    ZP14T302 TYEAR2T3 1.000000
    ZP14T402 BP14..T4 -1.000000   FTR..... 17.150000
    ZP14T402 TYEAR2T4 1.000000
    ZP24S102 BP24..S1 -1.000000   FTR..... 24.400000
    ZP24S202 BP24..S2 -1.000000   FTR..... 33.400000
    ZP24T102 BP24..T1 -1.000000   FTR..... 11.850000
    ZP24T102 TYEAR2T1 1.000000
    ZP24T202 BP24..T2 -1.000000   FTR..... 14.550000
    ZP24T202 TYEAR2T2 1.000000
    ZP24T302 BP24..T3 -1.000000   FTR..... 13.900000
    ZP24T302 TYEAR2T3 1.000000
    ZP24T402 BP24..T4 -1.000000   FTR..... 17.150000
    ZP24T402 TYEAR2T4 1.000000
    ZP15S102 BP15..S1 -1.000000   FTR..... 24.400000
    ZP15S202 BP15..S2 -1.000000   FTR..... 33.400000
    ZP15T102 BP15..T1 -1.000000   FTR..... 11.850000
    ZP15T102 TYEAR3T1 1.000000
    ZP15T202 BP15..T2 -1.000000   FTR..... 14.550000
    ZP15T202 TYEAR3T2 1.000000
    ZP15T302 BP15..T3 -1.000000   FTR..... 13.900000
    ZP15T302 TYEAR3T3 1.000000
    ZP15T402 BP15..T4 -1.000000   FTR..... 17.150000
    ZP15T402 TYEAR3T4 1.000000
    ZP25S102 BP25..S1 -1.000000   FTR..... 24.400000
    ZP25S202 BP25..S2 -1.000000   FTR..... 33.400000
    ZP25T102 BP25..T1 -1.000000   FTR..... 11.850000
    ZP25T102 TYEAR3T1 1.000000
    ZP25T202 BP25..T2 -1.000000   FTR..... 14.550000
    ZP25T202 TYEAR3T2 1.000000
    ZP25T302 BP25..T3 -1.000000   FTR..... 13.900000
    ZP25T302 TYEAR3T3 1.000000
    ZP25T402 BP25..T4 -1.000000   FTR..... 17.150000
    ZP25T402 TYEAR3T4 1.000000
    ZP16S102 BP16..S1 -1.000000   FTR..... 24.400000
    ZP16S202 BP16..S2 -1.000000   FTR..... 33.400000
    ZP16T102 BP16..T1 -1.000000   FTR..... 11.850000
    ZP16T102 TYEAR3T1 1.000000
    ZP16T202 BP16..T2 -1.000000   FTR..... 14.550000
    ZP16T202 TYEAR3T2 1.000000
    ZP16T302 BP16..T3 -1.000000   FTR..... 13.900000
    ZP16T302 TYEAR3T3 1.000000
    ZP16T402 BP16..T4 -1.000000   FTR..... 17.150000
    ZP16T402 TYEAR3T4 1.000000
    ZP26S102 BP26..S1 -1.000000   FTR..... 24.400000
    ZP26S202 BP26..S2 -1.000000   FTR..... 33.400000
    ZP26T102 BP26..T1 -1.000000   FTR..... 11.850000
    ZP26T102 TYEAR3T1 1.000000
    ZP26T202 BP26..T2 -1.000000   FTR..... 14.550000
    ZP26T202 TYEAR3T2 1.000000
    ZP26T302 BP26..T3 -1.000000   FTR..... 13.900000
    ZP26T302 TYEAR3T3 1.000000
    ZP26T402 BP26..T4 -1.000000   FTR..... 17.150000
    ZP26T402 TYEAR3T4 1.000000
    ZP11S103 BP11..S1 -1.000000   FTR..... 25.400000
    ZP11S203 BP11..S2 -1.000000   FTR..... 26.250000
    ZP11T103 BP11..T1 -1.000000   FTR..... 7.600000
    ZP11T103 TYEAR1T1 1.000000
    ZP11T203 BP11..T2 -1.000000   FTR..... 8.700000
    ZP11T203 TYEAR1T2 1.000000
    ZP11T303 BP11..T3 -1.000000   FTR..... 8.350000
    ZP11T303 TYEAR1T3 1.000000
    ZP11T403 BP11..T4 -1.000000   FTR..... 10.450000
    ZP11T403 TYEAR1T4 1.000000
    ZP21S103 BP21..S1 -1.000000   FTR..... 25.400000
    ZP21S203 BP21..S2 -1.000000   FTR..... 26.250000
    ZP21T103 BP21..T1 -1.000000   FTR..... 7.600000
    ZP21T103 TYEAR1T1 1.000000
    ZP21T203 BP21..T2 -1.000000   FTR..... 8.700000
    ZP21T203 TYEAR1T2 1.000000
    ZP21T303 BP21..T3 -1.000000   FTR..... 8.350000
    ZP21T303 TYEAR1T3 1.000000
    ZP21T403 BP21..T4 -1.000000   FTR..... 10.450000
    ZP21T403 TYEAR1T4 1.000000
    ZP12S103 BP12..S1 -1.000000   FTR..... 25.400000
    ZP12S203 BP12..S2 -1.000000   FTR..... 26.250000
    ZP12T103 BP12..T1 -1.000000   FTR..... 7.600000
    ZP12T103 TYEAR1T1 1.000000
    ZP12T203 BP12..T2 -1.000000   FTR..... 8.700000
    ZP12T203 TYEAR1T2 1.000000
    ZP12T303 BP12..T3 -1.000000   FTR..... 8.350000
    ZP12T303 TYEAR1T3 1.000000
    ZP12T403 BP12..T4 -1.000000   FTR..... 10.450000
    ZP12T403 TYEAR1T4 1.000000
    ZP22S103 BP22..S1 -1.000000   FTR..... 25.400000
    ZP22S203 BP22..S2 -1.000000   FTR..... 26.250000
    ZP22T103 BP22..T1 -1.000000   FTR..... 7.600000
    ZP22T103 TYEAR1T1 1.000000
    ZP22T203 BP22..T2 -1.000000   FTR..... 8.700000
    ZP22T203 TYEAR1T2 1.000000
    ZP22T303 BP22..T3 -1.000000   FTR..... 8.350000
    ZP22T303 TYEAR1T3 1.000000
    ZP22T403 BP22..T4 -1.000000   FTR..... 10.450000
    ZP22T403 TYEAR1T4 1.000000
    ZP13S103 BP13..S1 -1.000000   FTR..... 25.400000
    ZP13S203 BP13..S2 -1.000000   FTR..... 26.250000
    ZP13T103 BP13..T1 -1.000000   FTR..... 7.600000
    ZP13T103 TYEAR2T1 1.000000
    ZP13T203 BP13..T2 -1.000000   FTR..... 8.700000
    ZP13T203 TYEAR2T2 1.000000
    ZP13T303 BP13..T3 -1.000000   FTR..... 8.350000
    ZP13T303 TYEAR2T3 1.000000
    ZP13T403 BP13..T4 -1.000000   FTR..... 10.450000
    ZP13T403 TYEAR2T4 1.000000
    ZP23S103 BP23..S1 -1.000000   FTR..... 25.400000
    ZP23S203 BP23..S2 -1.000000   FTR..... 26.250000
    ZP23T103 BP23..T1 -1.000000   FTR..... 7.600000
    ZP23T103 TYEAR2T1 1.000000
    ZP23T203 BP23..T2 -1.000000   FTR..... 8.700000
    ZP23T203 TYEAR2T2 1.000000
    ZP23T303 BP23..T3 -1.000000   FTR..... 8.350000
    ZP23T303 TYEAR2T3 1.000000
    ZP23T403 BP23..T4 -1.000000   FTR..... 10.450000
    ZP23T403 TYEAR2T4 1.000000
    ZP14S103 BP14..S1 -1.000000   FTR..... 25.400000
    ZP14S203 BP14..S2 -1.000000   FTR..... 26.250000
    ZP14T103 BP14..T1 -1.000000   FTR..... 7.600000
    ZP14T103 TYEAR2T1 1.000000
    ZP14T203 BP14..T2 -1.000000   FTR..... 8.700000
    ZP14T203 TYEAR2T2 1.000000
    ZP14T303 BP14..T3 -1.000000   FTR..... 8.350000
    ZP14T303 TYEAR2T3 1.000000
    ZP14T403 BP14..T4 -1.000000   FTR..... 10.450000
    ZP14T403 TYEAR2T4 1.000000
    ZP24S103 BP24..S1 -1.000000   FTR..... 25.400000
    ZP24S203 BP24..S2 -1.000000   FTR..... 26.250000
    ZP24T103 BP24..T1 -1.000000   FTR..... 7.600000
    ZP24T103 TYEAR2T1 1.000000
    ZP24T203 BP24..T2 -1.000000   FTR..... 8.700000
    ZP24T203 TYEAR2T2 1.000000
    ZP24T303 BP24..T3 -1.000000   FTR..... 8.350000
    ZP24T303 TYEAR2T3 1.000000
    ZP24T403 BP24..T4 -1.000000   FTR..... 10.450000
    ZP24T403 TYEAR2T4 1.000000
    ZP15S103 BP15..S1 -1.000000   FTR..... 25.400000
    ZP15S203 BP15..S2 -1.000000   FTR..... 26.250000
    ZP15T103 BP15..T1 -1.000000   FTR..... 7.600000
    ZP15T103 TYEAR3T1 1.000000
    ZP15T203 BP15..T2 -1.000000   FTR..... 8.700000
    ZP15T203 TYEAR3T2 1.000000
    ZP15T303 BP15..T3 -1.000000   FTR..... 8.350000
    ZP15T303 TYEAR3T3 1.000000
    ZP15T403 BP15..T4 -1.000000   FTR..... 10.450000
    ZP15T403 TYEAR3T4 1.000000
    ZP25S103 BP25..S1 -1.000000   FTR..... 25.400000
    ZP25S203 BP25..S2 -1.000000   FTR..... 26.250000
    ZP25T103 BP25..T1 -1.000000   FTR..... 7.600000
    ZP25T103 TYEAR3T1 1.000000
    ZP25T203 BP25..T2 -1.000000   FTR..... 8.700000
    ZP25T203 TYEAR3T2 1.000000
    ZP25T303 BP25..T3 -1.000000   FTR..... 8.350000
    ZP25T303 TYEAR3T3 1.000000
    ZP25T403 BP25..T4 -1.000000   FTR..... 10.450000
    ZP25T403 TYEAR3T4 1.000000
    ZP16S103 BP16..S1 -1.000000   FTR..... 25.400000
    ZP16S203 BP16..S2 -1.000000   FTR..... 26.250000
    ZP16T103 BP16..T1 -1.000000   FTR..... 7.600000
    ZP16T103 TYEAR3T1 1.000000
    ZP16T203 BP16..T2 -1.000000   FTR..... 8.700000
    ZP16T203 TYEAR3T2 1.000000
    ZP16T303 BP16..T3 -1.000000   FTR..... 8.350000
    ZP16T303 TYEAR3T3 1.000000
    ZP16T403 BP16..T4 -1.000000   FTR..... 10.450000
    ZP16T403 TYEAR3T4 1.000000
    ZP26S103 BP26..S1 -1.000000   FTR..... 25.400000
    ZP26S203 BP26..S2 -1.000000   FTR..... 26.250000
    ZP26T103 BP26..T1 -1.000000   FTR..... 7.600000
    ZP26T103 TYEAR3T1 1.000000
    ZP26T203 BP26..T2 -1.000000   FTR..... 8.700000
    ZP26T203 TYEAR3T2 1.000000
    ZP26T303 BP26..T3 -1.000000   FTR..... 8.350000
    ZP26T303 TYEAR3T3 1.000000
    ZP26T403 BP26..T4 -1.000000   FTR..... 10.450000
    ZP26T403 TYEAR3T4 1.000000
    ZP11S104 BP11..S1 -1.000000   FTR..... 30.400000
    ZP11S204 BP11..S2 -1.000000   FTR..... 30.350000
    ZP11T104 BP11..T1 -1.000000   FTR..... 7.000000
    ZP11T104 TYEAR1T1 1.000000
    ZP11T204 BP11..T2 -1.000000   FTR..... 11.800000
    ZP11T204 TYEAR1T2 1.000000
    ZP11T304 BP11..T3 -1.000000   FTR..... 10.400000
    ZP11T304 TYEAR1T3 1.000000
    ZP11T404 BP11..T4 -1.000000   FTR..... 14.500000
    ZP11T404 TYEAR1T4 1.000000
    ZP21S104 BP21..S1 -1.000000   FTR..... 30.400000
    ZP21S204 BP21..S2 -1.000000   FTR..... 30.350000
    ZP21T104 BP21..T1 -1.000000   FTR..... 7.000000
    ZP21T104 TYEAR1T1 1.000000
    ZP21T204 BP21..T2 -1.000000   FTR..... 11.800000
    ZP21T204 TYEAR1T2 1.000000
    ZP21T304 BP21..T3 -1.000000   FTR..... 10.400000
    ZP21T304 TYEAR1T3 1.000000
    ZP21T404 BP21..T4 -1.000000   FTR..... 14.500000
    ZP21T404 TYEAR1T4 1.000000
    ZP12S104 BP12..S1 -1.000000   FTR..... 30.400000
    ZP12S204 BP12..S2 -1.000000   FTR..... 30.350000
    ZP12T104 BP12..T1 -1.000000   FTR..... 7.000000
    ZP12T104 TYEAR1T1 1.000000
    ZP12T204 BP12..T2 -1.000000   FTR..... 11.800000
    ZP12T204 TYEAR1T2 1.000000
    ZP12T304 BP12..T3 -1.000000   FTR..... 10.400000
    ZP12T304 TYEAR1T3 1.000000
    ZP12T404 BP12..T4 -1.000000   FTR..... 14.500000
    ZP12T404 TYEAR1T4 1.000000
    ZP22S104 BP22..S1 -1.000000   FTR..... 30.400000
    ZP22S204 BP22..S2 -1.000000   FTR..... 30.350000
    ZP22T104 BP22..T1 -1.000000   FTR..... 7.000000
    ZP22T104 TYEAR1T1 1.000000
    ZP22T204 BP22..T2 -1.000000   FTR..... 11.800000
    ZP22T204 TYEAR1T2 1.000000
    ZP22T304 BP22..T3 -1.000000   FTR..... 10.400000
    ZP22T304 TYEAR1T3 1.000000
    ZP22T404 BP22..T4 -1.000000   FTR..... 14.500000
    ZP22T404 TYEAR1T4 1.000000
    ZP13S104 BP13..S1 -1.000000   FTR..... 30.400000
    ZP13S204 BP13..S2 -1.000000   FTR..... 30.350000
    ZP13T104 BP13..T1 -1.000000   FTR..... 7.000000
    ZP13T104 TYEAR2T1 1.000000
    ZP13T204 BP13..T2 -1.000000   FTR..... 11.800000
    ZP13T204 TYEAR2T2 1.000000
    ZP13T304 BP13..T3 -1.000000   FTR..... 10.400000
    ZP13T304 TYEAR2T3 1.000000
    ZP13T404 BP13..T4 -1.000000   FTR..... 14.500000
    ZP13T404 TYEAR2T4 1.000000
    ZP23S104 BP23..S1 -1.000000   FTR..... 30.400000
    ZP23S204 BP23..S2 -1.000000   FTR..... 30.350000
    ZP23T104 BP23..T1 -1.000000   FTR..... 7.000000
    ZP23T104 TYEAR2T1 1.000000
    ZP23T204 BP23..T2 -1.000000   FTR..... 11.800000
    ZP23T204 TYEAR2T2 1.000000
    ZP23T304 BP23..T3 -1.000000   FTR..... 10.400000
    ZP23T304 TYEAR2T3 1.000000
    ZP23T404 BP23..T4 -1.000000   FTR..... 14.500000
    ZP23T404 TYEAR2T4 1.000000
    ZP14S104 BP14..S1 -1.000000   FTR..... 30.400000
    ZP14S204 BP14..S2 -1.000000   FTR..... 30.350000
    ZP14T104 BP14..T1 -1.000000   FTR..... 7.000000
    ZP14T104 TYEAR2T1 1.000000
    ZP14T204 BP14..T2 -1.000000   FTR..... 11.800000
    ZP14T204 TYEAR2T2 1.000000
    ZP14T304 BP14..T3 -1.000000   FTR..... 10.400000
    ZP14T304 TYEAR2T3 1.000000
    ZP14T404 BP14..T4 -1.000000   FTR..... 14.500000
    ZP14T404 TYEAR2T4 1.000000
    ZP24S104 BP24..S1 -1.000000   FTR..... 30.400000
    ZP24S204 BP24..S2 -1.000000   FTR..... 30.350000
    ZP24T104 BP24..T1 -1.000000   FTR..... 7.000000
    ZP24T104 TYEAR2T1 1.000000
    ZP24T204 BP24..T2 -1.000000   FTR..... 11.800000
    ZP24T204 TYEAR2T2 1.000000
    ZP24T304 BP24..T3 -1.000000   FTR..... 10.400000
    ZP24T304 TYEAR2T3 1.000000
    ZP24T404 BP24..T4 -1.000000   FTR..... 14.500000
    ZP24T404 TYEAR2T4 1.000000
    ZP15S104 BP15..S1 -1.000000   FTR..... 30.400000
    ZP15S204 BP15..S2 -1.000000   FTR..... 30.350000
    ZP15T104 BP15..T1 -1.000000   FTR..... 7.000000
    ZP15T104 TYEAR3T1 1.000000
    ZP15T204 BP15..T2 -1.000000   FTR..... 11.800000
    ZP15T204 TYEAR3T2 1.000000
    ZP15T304 BP15..T3 -1.000000   FTR..... 10.400000
    ZP15T304 TYEAR3T3 1.000000
    ZP15T404 BP15..T4 -1.000000   FTR..... 14.500000
    ZP15T404 TYEAR3T4 1.000000
    ZP25S104 BP25..S1 -1.000000   FTR..... 30.400000
    ZP25S204 BP25..S2 -1.000000   FTR..... 30.350000
    ZP25T104 BP25..T1 -1.000000   FTR..... 7.000000
    ZP25T104 TYEAR3T1 1.000000
    ZP25T204 BP25..T2 -1.000000   FTR..... 11.800000
    ZP25T204 TYEAR3T2 1.000000
    ZP25T304 BP25..T3 -1.000000   FTR..... 10.400000
    ZP25T304 TYEAR3T3 1.000000
    ZP25T404 BP25..T4 -1.000000   FTR..... 14.500000
    ZP25T404 TYEAR3T4 1.000000
    ZP16S104 BP16..S1 -1.000000   FTR..... 30.400000
    ZP16S204 BP16..S2 -1.000000   FTR..... 30.350000
    ZP16T104 BP16..T1 -1.000000   FTR..... 7.000000
    ZP16T104 TYEAR3T1 1.000000
    ZP16T204 BP16..T2 -1.000000   FTR..... 11.800000
    ZP16T204 TYEAR3T2 1.000000
    ZP16T304 BP16..T3 -1.000000   FTR..... 10.400000
    ZP16T304 TYEAR3T3 1.000000
    ZP16T404 BP16..T4 -1.000000   FTR..... 14.500000
    ZP16T404 TYEAR3T4 1.000000
    ZP26S104 BP26..S1 -1.000000   FTR..... 30.400000
    ZP26S204 BP26..S2 -1.000000   FTR..... 30.350000
    ZP26T104 BP26..T1 -1.000000   FTR..... 7.000000
    ZP26T104 TYEAR3T1 1.000000
    ZP26T204 BP26..T2 -1.000000   FTR..... 11.800000
    ZP26T204 TYEAR3T2 1.000000
    ZP26T304 BP26..T3 -1.000000   FTR..... 10.400000
    ZP26T304 TYEAR3T3 1.000000
    ZP26T404 BP26..T4 -1.000000   FTR..... 14.500000
    ZP26T404 TYEAR3T4 1.000000
    ZP11S105 BP11..S1 -1.000000   FTR..... 29.000000
    ZP11S205 BP11..S2 -1.000000   FTR..... 26.700000
    ZP11T105 BP11..T1 -1.000000   FTR..... 11.250000
    ZP11T105 TYEAR1T1 1.000000
    ZP11T205 BP11..T2 -1.000000   FTR..... 7.600000
    ZP11T205 TYEAR1T2 1.000000
    ZP11T305 BP11..T3 -1.000000   FTR..... 6.100000
    ZP11T305 TYEAR1T3 1.000000
    ZP11T405 BP11..T4 -1.000000   FTR..... 6.850000
    ZP11T405 TYEAR1T4 1.000000
    ZP21S105 BP21..S1 -1.000000   FTR..... 29.000000
    ZP21S205 BP21..S2 -1.000000   FTR..... 26.700000
    ZP21T105 BP21..T1 -1.000000   FTR..... 11.250000
    ZP21T105 TYEAR1T1 1.000000
    ZP21T205 BP21..T2 -1.000000   FTR..... 7.600000
    ZP21T205 TYEAR1T2 1.000000
    ZP21T305 BP21..T3 -1.000000   FTR..... 6.100000
    ZP21T305 TYEAR1T3 1.000000
    ZP21T405 BP21..T4 -1.000000   FTR..... 6.850000
    ZP21T405 TYEAR1T4 1.000000
    ZP12S105 BP12..S1 -1.000000   FTR..... 29.000000
    ZP12S205 BP12..S2 -1.000000   FTR..... 26.700000
    ZP12T105 BP12..T1 -1.000000   FTR..... 11.250000
    ZP12T105 TYEAR1T1 1.000000
    ZP12T205 BP12..T2 -1.000000   FTR..... 7.600000
    ZP12T205 TYEAR1T2 1.000000
    ZP12T305 BP12..T3 -1.000000   FTR..... 6.100000
    ZP12T305 TYEAR1T3 1.000000
    ZP12T405 BP12..T4 -1.000000   FTR..... 6.850000
    ZP12T405 TYEAR1T4 1.000000
    ZP22S105 BP22..S1 -1.000000   FTR..... 29.000000
    ZP22S205 BP22..S2 -1.000000   FTR..... 26.700000
    ZP22T105 BP22..T1 -1.000000   FTR..... 11.250000
    ZP22T105 TYEAR1T1 1.000000
    ZP22T205 BP22..T2 -1.000000   FTR..... 7.600000
    ZP22T205 TYEAR1T2 1.000000
    ZP22T305 BP22..T3 -1.000000   FTR..... 6.100000
    ZP22T305 TYEAR1T3 1.000000
    ZP22T405 BP22..T4 -1.000000   FTR..... 6.850000
    ZP22T405 TYEAR1T4 1.000000
    ZP13S105 BP13..S1 -1.000000   FTR..... 29.000000
    ZP13S205 BP13..S2 -1.000000   FTR..... 26.700000
    ZP13T105 BP13..T1 -1.000000   FTR..... 11.250000
    ZP13T105 TYEAR2T1 1.000000
    ZP13T205 BP13..T2 -1.000000   FTR..... 7.600000
    ZP13T205 TYEAR2T2 1.000000
    ZP13T305 BP13..T3 -1.000000   FTR..... 6.100000
    ZP13T305 TYEAR2T3 1.000000
    ZP13T405 BP13..T4 -1.000000   FTR..... 6.850000
    ZP13T405 TYEAR2T4 1.000000
    ZP23S105 BP23..S1 -1.000000   FTR..... 29.000000
    ZP23S205 BP23..S2 -1.000000   FTR..... 26.700000
    ZP23T105 BP23..T1 -1.000000   FTR..... 11.250000
    ZP23T105 TYEAR2T1 1.000000
    ZP23T205 BP23..T2 -1.000000   FTR..... 7.600000
    ZP23T205 TYEAR2T2 1.000000
    ZP23T305 BP23..T3 -1.000000   FTR..... 6.100000
    ZP23T305 TYEAR2T3 1.000000
    ZP23T405 BP23..T4 -1.000000   FTR..... 6.850000
    ZP23T405 TYEAR2T4 1.000000
    ZP14S105 BP14..S1 -1.000000   FTR..... 29.000000
    ZP14S205 BP14..S2 -1.000000   FTR..... 26.700000
    ZP14T105 BP14..T1 -1.000000   FTR..... 11.250000
    ZP14T105 TYEAR2T1 1.000000
    ZP14T205 BP14..T2 -1.000000   FTR..... 7.600000
    ZP14T205 TYEAR2T2 1.000000
    ZP14T305 BP14..T3 -1.000000   FTR..... 6.100000
    ZP14T305 TYEAR2T3 1.000000
    ZP14T405 BP14..T4 -1.000000   FTR..... 6.850000
    ZP14T405 TYEAR2T4 1.000000
    ZP24S105 BP24..S1 -1.000000   FTR..... 29.000000
    ZP24S205 BP24..S2 -1.000000   FTR..... 26.700000
    ZP24T105 BP24..T1 -1.000000   FTR..... 11.250000
    ZP24T105 TYEAR2T1 1.000000
    ZP24T205 BP24..T2 -1.000000   FTR..... 7.600000
    ZP24T205 TYEAR2T2 1.000000
    ZP24T305 BP24..T3 -1.000000   FTR..... 6.100000
    ZP24T305 TYEAR2T3 1.000000
    ZP24T405 BP24..T4 -1.000000   FTR..... 6.850000
    ZP24T405 TYEAR2T4 1.000000
    ZP15S105 BP15..S1 -1.000000   FTR..... 29.000000
    ZP15S205 BP15..S2 -1.000000   FTR..... 26.700000
    ZP15T105 BP15..T1 -1.000000   FTR..... 11.250000
    ZP15T105 TYEAR3T1 1.000000
    ZP15T205 BP15..T2 -1.000000   FTR..... 7.600000
    ZP15T205 TYEAR3T2 1.000000
    ZP15T305 BP15..T3 -1.000000   FTR..... 6.100000
    ZP15T305 TYEAR3T3 1.000000
    ZP15T405 BP15..T4 -1.000000   FTR..... 6.850000
    ZP15T405 TYEAR3T4 1.000000
    ZP25S105 BP25..S1 -1.000000   FTR..... 29.000000
    ZP25S205 BP25..S2 -1.000000   FTR..... 26.700000
    ZP25T105 BP25..T1 -1.000000   FTR..... 11.250000
    ZP25T105 TYEAR3T1 1.000000
    ZP25T205 BP25..T2 -1.000000   FTR..... 7.600000
    ZP25T205 TYEAR3T2 1.000000
    ZP25T305 BP25..T3 -1.000000   FTR..... 6.100000
    ZP25T305 TYEAR3T3 1.000000
    ZP25T405 BP25..T4 -1.000000   FTR..... 6.850000
    ZP25T405 TYEAR3T4 1.000000
    ZP16S105 BP16..S1 -1.000000   FTR..... 29.000000
    ZP16S205 BP16..S2 -1.000000   FTR..... 26.700000
    ZP16T105 BP16..T1 -1.000000   FTR..... 11.250000
    ZP16T105 TYEAR3T1 1.000000
    ZP16T205 BP16..T2 -1.000000   FTR..... 7.600000
    ZP16T205 TYEAR3T2 1.000000
    ZP16T305 BP16..T3 -1.000000   FTR..... 6.100000
    ZP16T305 TYEAR3T3 1.000000
    ZP16T405 BP16..T4 -1.000000   FTR..... 6.850000
    ZP16T405 TYEAR3T4 1.000000
    ZP26S105 BP26..S1 -1.000000   FTR..... 29.000000
    ZP26S205 BP26..S2 -1.000000   FTR..... 26.700000
    ZP26T105 BP26..T1 -1.000000   FTR..... 11.250000
    ZP26T105 TYEAR3T1 1.000000
    ZP26T205 BP26..T2 -1.000000   FTR..... 7.600000
    ZP26T205 TYEAR3T2 1.000000
    ZP26T305 BP26..T3 -1.000000   FTR..... 6.100000
    ZP26T305 TYEAR3T3 1.000000
    ZP26T405 BP26..T4 -1.000000   FTR..... 6.850000
    ZP26T405 TYEAR3T4 1.000000
    ZP11S106 BP11..S1 -1.000000   FTR..... 28.000000
    ZP11S206 BP11..S2 -1.000000   FTR..... 30.100000
    ZP11T106 BP11..T1 -1.000000   FTR..... 8.000000
    ZP11T106 TYEAR1T1 1.000000
    ZP11T206 BP11..T2 -1.000000   FTR..... 5.750000
    ZP11T206 TYEAR1T2 1.000000
    ZP11T306 BP11..T3 -1.000000   FTR..... 9.500000
    ZP11T306 TYEAR1T3 1.000000
    ZP11T406 BP11..T4 -1.000000   FTR..... 11.750000
    ZP11T406 TYEAR1T4 1.000000
    ZP21S106 BP21..S1 -1.000000   FTR..... 28.000000
    ZP21S206 BP21..S2 -1.000000   FTR..... 30.100000
    ZP21T106 BP21..T1 -1.000000   FTR..... 8.000000
    ZP21T106 TYEAR1T1 1.000000
    ZP21T206 BP21..T2 -1.000000   FTR..... 5.750000
    ZP21T206 TYEAR1T2 1.000000
    ZP21T306 BP21..T3 -1.000000   FTR..... 9.500000
    ZP21T306 TYEAR1T3 1.000000
    ZP21T406 BP21..T4 -1.000000   FTR..... 11.750000
    ZP21T406 TYEAR1T4 1.000000
    ZP12S106 BP12..S1 -1.000000   FTR..... 28.000000
    ZP12S206 BP12..S2 -1.000000   FTR..... 30.100000
    ZP12T106 BP12..T1 -1.000000   FTR..... 8.000000
    ZP12T106 TYEAR1T1 1.000000
    ZP12T206 BP12..T2 -1.000000   FTR..... 5.750000
    ZP12T206 TYEAR1T2 1.000000
    ZP12T306 BP12..T3 -1.000000   FTR..... 9.500000
    ZP12T306 TYEAR1T3 1.000000
    ZP12T406 BP12..T4 -1.000000   FTR..... 11.750000
    ZP12T406 TYEAR1T4 1.000000
    ZP22S106 BP22..S1 -1.000000   FTR..... 28.000000
    ZP22S206 BP22..S2 -1.000000   FTR..... 30.100000
    ZP22T106 BP22..T1 -1.000000   FTR..... 8.000000
    ZP22T106 TYEAR1T1 1.000000
    ZP22T206 BP22..T2 -1.000000   FTR..... 5.750000
    ZP22T206 TYEAR1T2 1.000000
    ZP22T306 BP22..T3 -1.000000   FTR..... 9.500000
    ZP22T306 TYEAR1T3 1.000000
    ZP22T406 BP22..T4 -1.000000   FTR..... 11.750000
    ZP22T406 TYEAR1T4 1.000000
    ZP13S106 BP13..S1 -1.000000   FTR..... 28.000000
    ZP13S206 BP13..S2 -1.000000   FTR..... 30.100000
    ZP13T106 BP13..T1 -1.000000   FTR..... 8.000000
    ZP13T106 TYEAR2T1 1.000000
    ZP13T206 BP13..T2 -1.000000   FTR..... 5.750000
    ZP13T206 TYEAR2T2 1.000000
    ZP13T306 BP13..T3 -1.000000   FTR..... 9.500000
    ZP13T306 TYEAR2T3 1.000000
    ZP13T406 BP13..T4 -1.000000   FTR..... 11.750000
    ZP13T406 TYEAR2T4 1.000000
    ZP23S106 BP23..S1 -1.000000   FTR..... 28.000000
    ZP23S206 BP23..S2 -1.000000   FTR..... 30.100000
    ZP23T106 BP23..T1 -1.000000   FTR..... 8.000000
    ZP23T106 TYEAR2T1 1.000000
    ZP23T206 BP23..T2 -1.000000   FTR..... 5.750000
    ZP23T206 TYEAR2T2 1.000000
    ZP23T306 BP23..T3 -1.000000   FTR..... 9.500000
    ZP23T306 TYEAR2T3 1.000000
    ZP23T406 BP23..T4 -1.000000   FTR..... 11.750000
    ZP23T406 TYEAR2T4 1.000000
    ZP14S106 BP14..S1 -1.000000   FTR..... 28.000000
    ZP14S206 BP14..S2 -1.000000   FTR..... 30.100000
    ZP14T106 BP14..T1 -1.000000   FTR..... 8.000000
    ZP14T106 TYEAR2T1 1.000000
    ZP14T206 BP14..T2 -1.000000   FTR..... 5.750000
    ZP14T206 TYEAR2T2 1.000000
    ZP14T306 BP14..T3 -1.000000   FTR..... 9.500000
    ZP14T306 TYEAR2T3 1.000000
    ZP14T406 BP14..T4 -1.000000   FTR..... 11.750000
    ZP14T406 TYEAR2T4 1.000000
    ZP24S106 BP24..S1 -1.000000   FTR..... 28.000000
    ZP24S206 BP24..S2 -1.000000   FTR..... 30.100000
    ZP24T106 BP24..T1 -1.000000   FTR..... 8.000000
    ZP24T106 TYEAR2T1 1.000000
    ZP24T206 BP24..T2 -1.000000   FTR..... 5.750000
    ZP24T206 TYEAR2T2 1.000000
    ZP24T306 BP24..T3 -1.000000   FTR..... 9.500000
    ZP24T306 TYEAR2T3 1.000000
    ZP24T406 BP24..T4 -1.000000   FTR..... 11.750000
    ZP24T406 TYEAR2T4 1.000000
    ZP15S106 BP15..S1 -1.000000   FTR..... 28.000000
    ZP15S206 BP15..S2 -1.000000   FTR..... 30.100000
    ZP15T106 BP15..T1 -1.000000   FTR..... 8.000000
    ZP15T106 TYEAR3T1 1.000000
    ZP15T206 BP15..T2 -1.000000   FTR..... 5.750000
    ZP15T206 TYEAR3T2 1.000000
    ZP15T306 BP15..T3 -1.000000   FTR..... 9.500000
    ZP15T306 TYEAR3T3 1.000000
    ZP15T406 BP15..T4 -1.000000   FTR..... 11.750000
    ZP15T406 TYEAR3T4 1.000000
    ZP25S106 BP25..S1 -1.000000   FTR..... 28.000000
    ZP25S206 BP25..S2 -1.000000   FTR..... 30.100000
    ZP25T106 BP25..T1 -1.000000   FTR..... 8.000000
    ZP25T106 TYEAR3T1 1.000000
    ZP25T206 BP25..T2 -1.000000   FTR..... 5.750000
    ZP25T206 TYEAR3T2 1.000000
    ZP25T306 BP25..T3 -1.000000   FTR..... 9.500000
    ZP25T306 TYEAR3T3 1.000000
    ZP25T406 BP25..T4 -1.000000   FTR..... 11.750000
    ZP25T406 TYEAR3T4 1.000000
    ZP16S106 BP16..S1 -1.000000   FTR..... 28.000000
    ZP16S206 BP16..S2 -1.000000   FTR..... 30.100000
    ZP16T106 BP16..T1 -1.000000   FTR..... 8.000000
    ZP16T106 TYEAR3T1 1.000000
    ZP16T206 BP16..T2 -1.000000   FTR..... 5.750000
    ZP16T206 TYEAR3T2 1.000000
    ZP16T306 BP16..T3 -1.000000   FTR..... 9.500000
    ZP16T306 TYEAR3T3 1.000000
    ZP16T406 BP16..T4 -1.000000   FTR..... 11.750000
    ZP16T406 TYEAR3T4 1.000000
    ZP26S106 BP26..S1 -1.000000   FTR..... 28.000000
    ZP26S206 BP26..S2 -1.000000   FTR..... 30.100000
    ZP26T106 BP26..T1 -1.000000   FTR..... 8.000000
    ZP26T106 TYEAR3T1 1.000000
    ZP26T206 BP26..T2 -1.000000   FTR..... 5.750000
    ZP26T206 TYEAR3T2 1.000000
    ZP26T306 BP26..T3 -1.000000   FTR..... 9.500000
    ZP26T306 TYEAR3T3 1.000000
    ZP26T406 BP26..T4 -1.000000   FTR..... 11.750000
    ZP26T406 TYEAR3T4 1.000000
    ZP11S107 BP11..S1 -1.000000   FTR..... 26.000000
    ZP11S207 BP11..S2 -1.000000   FTR..... 26.400000
    ZP11T107 BP11..T1 -1.000000   FTR..... 7.600000
    ZP11T107 TYEAR1T1 1.000000
    ZP11T207 BP11..T2 -1.000000   FTR..... 8.700000
    ZP11T207 TYEAR1T2 1.000000
    ZP11T307 BP11..T3 -1.000000   FTR..... 8.350000
    ZP11T307 TYEAR1T3 1.000000
    ZP11T407 BP11..T4 -1.000000   FTR..... 10.450000
    ZP11T407 TYEAR1T4 1.000000
    ZP21S107 BP21..S1 -1.000000   FTR..... 26.000000
    ZP21S207 BP21..S2 -1.000000   FTR..... 26.400000
    ZP21T107 BP21..T1 -1.000000   FTR..... 7.600000
    ZP21T107 TYEAR1T1 1.000000
    ZP21T207 BP21..T2 -1.000000   FTR..... 8.700000
    ZP21T207 TYEAR1T2 1.000000
    ZP21T307 BP21..T3 -1.000000   FTR..... 8.350000
    ZP21T307 TYEAR1T3 1.000000
    ZP21T407 BP21..T4 -1.000000   FTR..... 10.450000
    ZP21T407 TYEAR1T4 1.000000
    ZP12S107 BP12..S1 -1.000000   FTR..... 26.000000
    ZP12S207 BP12..S2 -1.000000   FTR..... 26.400000
    ZP12T107 BP12..T1 -1.000000   FTR..... 7.600000
    ZP12T107 TYEAR1T1 1.000000
    ZP12T207 BP12..T2 -1.000000   FTR..... 8.700000
    ZP12T207 TYEAR1T2 1.000000
    ZP12T307 BP12..T3 -1.000000   FTR..... 8.350000
    ZP12T307 TYEAR1T3 1.000000
    ZP12T407 BP12..T4 -1.000000   FTR..... 10.450000
    ZP12T407 TYEAR1T4 1.000000
    ZP22S107 BP22..S1 -1.000000   FTR..... 26.000000
    ZP22S207 BP22..S2 -1.000000   FTR..... 26.400000
    ZP22T107 BP22..T1 -1.000000   FTR..... 7.600000
    ZP22T107 TYEAR1T1 1.000000
    ZP22T207 BP22..T2 -1.000000   FTR..... 8.700000
    ZP22T207 TYEAR1T2 1.000000
    ZP22T307 BP22..T3 -1.000000   FTR..... 8.350000
    ZP22T307 TYEAR1T3 1.000000
    ZP22T407 BP22..T4 -1.000000   FTR..... 10.450000
    ZP22T407 TYEAR1T4 1.000000
    ZP13S107 BP13..S1 -1.000000   FTR..... 26.000000
    ZP13S207 BP13..S2 -1.000000   FTR..... 26.400000
    ZP13T107 BP13..T1 -1.000000   FTR..... 7.600000
    ZP13T107 TYEAR2T1 1.000000
    ZP13T207 BP13..T2 -1.000000   FTR..... 8.700000
    ZP13T207 TYEAR2T2 1.000000
    ZP13T307 BP13..T3 -1.000000   FTR..... 8.350000
    ZP13T307 TYEAR2T3 1.000000
    ZP13T407 BP13..T4 -1.000000   FTR..... 10.450000
    ZP13T407 TYEAR2T4 1.000000
    ZP23S107 BP23..S1 -1.000000   FTR..... 26.000000
    ZP23S207 BP23..S2 -1.000000   FTR..... 26.400000
    ZP23T107 BP23..T1 -1.000000   FTR..... 7.600000
    ZP23T107 TYEAR2T1 1.000000
    ZP23T207 BP23..T2 -1.000000   FTR..... 8.700000
    ZP23T207 TYEAR2T2 1.000000
    ZP23T307 BP23..T3 -1.000000   FTR..... 8.350000
    ZP23T307 TYEAR2T3 1.000000
    ZP23T407 BP23..T4 -1.000000   FTR..... 10.450000
    ZP23T407 TYEAR2T4 1.000000
    ZP14S107 BP14..S1 -1.000000   FTR..... 26.000000
    ZP14S207 BP14..S2 -1.000000   FTR..... 26.400000
    ZP14T107 BP14..T1 -1.000000   FTR..... 7.600000
    ZP14T107 TYEAR2T1 1.000000
    ZP14T207 BP14..T2 -1.000000   FTR..... 8.700000
    ZP14T207 TYEAR2T2 1.000000
    ZP14T307 BP14..T3 -1.000000   FTR..... 8.350000
    ZP14T307 TYEAR2T3 1.000000
    ZP14T407 BP14..T4 -1.000000   FTR..... 10.450000
    ZP14T407 TYEAR2T4 1.000000
    ZP24S107 BP24..S1 -1.000000   FTR..... 26.000000
    ZP24S207 BP24..S2 -1.000000   FTR..... 26.400000
    ZP24T107 BP24..T1 -1.000000   FTR..... 7.600000
    ZP24T107 TYEAR2T1 1.000000
    ZP24T207 BP24..T2 -1.000000   FTR..... 8.700000
    ZP24T207 TYEAR2T2 1.000000
    ZP24T307 BP24..T3 -1.000000   FTR..... 8.350000
    ZP24T307 TYEAR2T3 1.000000
    ZP24T407 BP24..T4 -1.000000   FTR..... 10.450000
    ZP24T407 TYEAR2T4 1.000000
    ZP15S107 BP15..S1 -1.000000   FTR..... 26.000000
    ZP15S207 BP15..S2 -1.000000   FTR..... 26.400000
    ZP15T107 BP15..T1 -1.000000   FTR..... 7.600000
    ZP15T107 TYEAR3T1 1.000000
    ZP15T207 BP15..T2 -1.000000   FTR..... 8.700000
    ZP15T207 TYEAR3T2 1.000000
    ZP15T307 BP15..T3 -1.000000   FTR..... 8.350000
    ZP15T307 TYEAR3T3 1.000000
    ZP15T407 BP15..T4 -1.000000   FTR..... 10.450000
    ZP15T407 TYEAR3T4 1.000000
    ZP25S107 BP25..S1 -1.000000   FTR..... 26.000000
    ZP25S207 BP25..S2 -1.000000   FTR..... 26.400000
    ZP25T107 BP25..T1 -1.000000   FTR..... 7.600000
    ZP25T107 TYEAR3T1 1.000000
    ZP25T207 BP25..T2 -1.000000   FTR..... 8.700000
    ZP25T207 TYEAR3T2 1.000000
    ZP25T307 BP25..T3 -1.000000   FTR..... 8.350000
    ZP25T307 TYEAR3T3 1.000000
    ZP25T407 BP25..T4 -1.000000   FTR..... 10.450000
    ZP25T407 TYEAR3T4 1.000000
    ZP16S107 BP16..S1 -1.000000   FTR..... 26.000000
    ZP16S207 BP16..S2 -1.000000   FTR..... 26.400000
    ZP16T107 BP16..T1 -1.000000   FTR..... 7.600000
    ZP16T107 TYEAR3T1 1.000000
    ZP16T207 BP16..T2 -1.000000   FTR..... 8.700000
    ZP16T207 TYEAR3T2 1.000000
    ZP16T307 BP16..T3 -1.000000   FTR..... 8.350000
    ZP16T307 TYEAR3T3 1.000000
    ZP16T407 BP16..T4 -1.000000   FTR..... 10.450000
    ZP16T407 TYEAR3T4 1.000000
    ZP26S107 BP26..S1 -1.000000   FTR..... 26.000000
    ZP26S207 BP26..S2 -1.000000   FTR..... 26.400000
    ZP26T107 BP26..T1 -1.000000   FTR..... 7.600000
    ZP26T107 TYEAR3T1 1.000000
    ZP26T207 BP26..T2 -1.000000   FTR..... 8.700000
    ZP26T207 TYEAR3T2 1.000000
    ZP26T307 BP26..T3 -1.000000   FTR..... 8.350000
    ZP26T307 TYEAR3T3 1.000000
    ZP26T407 BP26..T4 -1.000000   FTR..... 10.450000
    ZP26T407 TYEAR3T4 1.000000
    ZP11S108 BP11..S1 -1.000000   FTR..... 28.000000
    ZP11S208 BP11..S2 -1.000000   FTR..... 28.200000
    ZP11T108 BP11..T1 -1.000000   FTR..... 8.700000
    ZP11T108 TYEAR1T1 1.000000
    ZP11T208 BP11..T2 -1.000000   FTR..... 9.700000
    ZP11T208 TYEAR1T2 1.000000
    ZP11T308 BP11..T3 -1.000000   FTR..... 7.300000
    ZP11T308 TYEAR1T3 1.000000
    ZP11T408 BP11..T4 -1.000000   FTR..... 8.700000
    ZP11T408 TYEAR1T4 1.000000
    ZP21S108 BP21..S1 -1.000000   FTR..... 28.000000
    ZP21S208 BP21..S2 -1.000000   FTR..... 28.200000
    ZP21T108 BP21..T1 -1.000000   FTR..... 8.700000
    ZP21T108 TYEAR1T1 1.000000
    ZP21T208 BP21..T2 -1.000000   FTR..... 9.700000
    ZP21T208 TYEAR1T2 1.000000
    ZP21T308 BP21..T3 -1.000000   FTR..... 7.300000
    ZP21T308 TYEAR1T3 1.000000
    ZP21T408 BP21..T4 -1.000000   FTR..... 8.700000
    ZP21T408 TYEAR1T4 1.000000
    ZP12S108 BP12..S1 -1.000000   FTR..... 28.000000
    ZP12S208 BP12..S2 -1.000000   FTR..... 28.200000
    ZP12T108 BP12..T1 -1.000000   FTR..... 8.700000
    ZP12T108 TYEAR1T1 1.000000
    ZP12T208 BP12..T2 -1.000000   FTR..... 9.700000
    ZP12T208 TYEAR1T2 1.000000
    ZP12T308 BP12..T3 -1.000000   FTR..... 7.300000
    ZP12T308 TYEAR1T3 1.000000
    ZP12T408 BP12..T4 -1.000000   FTR..... 8.700000
    ZP12T408 TYEAR1T4 1.000000
    ZP22S108 BP22..S1 -1.000000   FTR..... 28.000000
    ZP22S208 BP22..S2 -1.000000   FTR..... 28.200000
    ZP22T108 BP22..T1 -1.000000   FTR..... 8.700000
    ZP22T108 TYEAR1T1 1.000000
    ZP22T208 BP22..T2 -1.000000   FTR..... 9.700000
    ZP22T208 TYEAR1T2 1.000000
    ZP22T308 BP22..T3 -1.000000   FTR..... 7.300000
    ZP22T308 TYEAR1T3 1.000000
    ZP22T408 BP22..T4 -1.000000   FTR..... 8.700000
    ZP22T408 TYEAR1T4 1.000000
    ZP13S108 BP13..S1 -1.000000   FTR..... 28.000000
    ZP13S208 BP13..S2 -1.000000   FTR..... 28.200000
    ZP13T108 BP13..T1 -1.000000   FTR..... 8.700000
    ZP13T108 TYEAR2T1 1.000000
    ZP13T208 BP13..T2 -1.000000   FTR..... 9.700000
    ZP13T208 TYEAR2T2 1.000000
    ZP13T308 BP13..T3 -1.000000   FTR..... 7.300000
    ZP13T308 TYEAR2T3 1.000000
    ZP13T408 BP13..T4 -1.000000   FTR..... 8.700000
    ZP13T408 TYEAR2T4 1.000000
    ZP23S108 BP23..S1 -1.000000   FTR..... 28.000000
    ZP23S208 BP23..S2 -1.000000   FTR..... 28.200000
    ZP23T108 BP23..T1 -1.000000   FTR..... 8.700000
    ZP23T108 TYEAR2T1 1.000000
    ZP23T208 BP23..T2 -1.000000   FTR..... 9.700000
    ZP23T208 TYEAR2T2 1.000000
    ZP23T308 BP23..T3 -1.000000   FTR..... 7.300000
    ZP23T308 TYEAR2T3 1.000000
    ZP23T408 BP23..T4 -1.000000   FTR..... 8.700000
    ZP23T408 TYEAR2T4 1.000000
    ZP14S108 BP14..S1 -1.000000   FTR..... 28.000000
    ZP14S208 BP14..S2 -1.000000   FTR..... 28.200000
    ZP14T108 BP14..T1 -1.000000   FTR..... 8.700000
    ZP14T108 TYEAR2T1 1.000000
    ZP14T208 BP14..T2 -1.000000   FTR..... 9.700000
    ZP14T208 TYEAR2T2 1.000000
    ZP14T308 BP14..T3 -1.000000   FTR..... 7.300000
    ZP14T308 TYEAR2T3 1.000000
    ZP14T408 BP14..T4 -1.000000   FTR..... 8.700000
    ZP14T408 TYEAR2T4 1.000000
    ZP24S108 BP24..S1 -1.000000   FTR..... 28.000000
    ZP24S208 BP24..S2 -1.000000   FTR..... 28.200000
    ZP24T108 BP24..T1 -1.000000   FTR..... 8.700000
    ZP24T108 TYEAR2T1 1.000000
    ZP24T208 BP24..T2 -1.000000   FTR..... 9.700000
    ZP24T208 TYEAR2T2 1.000000
    ZP24T308 BP24..T3 -1.000000   FTR..... 7.300000
    ZP24T308 TYEAR2T3 1.000000
    ZP24T408 BP24..T4 -1.000000   FTR..... 8.700000
    ZP24T408 TYEAR2T4 1.000000
    ZP15S108 BP15..S1 -1.000000   FTR..... 28.000000
    ZP15S208 BP15..S2 -1.000000   FTR..... 28.200000
    ZP15T108 BP15..T1 -1.000000   FTR..... 8.700000
    ZP15T108 TYEAR3T1 1.000000
    ZP15T208 BP15..T2 -1.000000   FTR..... 9.700000
    ZP15T208 TYEAR3T2 1.000000
    ZP15T308 BP15..T3 -1.000000   FTR..... 7.300000
    ZP15T308 TYEAR3T3 1.000000
    ZP15T408 BP15..T4 -1.000000   FTR..... 8.700000
    ZP15T408 TYEAR3T4 1.000000
    ZP25S108 BP25..S1 -1.000000   FTR..... 28.000000
    ZP25S208 BP25..S2 -1.000000   FTR..... 28.200000
    ZP25T108 BP25..T1 -1.000000   FTR..... 8.700000
    ZP25T108 TYEAR3T1 1.000000
    ZP25T208 BP25..T2 -1.000000   FTR..... 9.700000
    ZP25T208 TYEAR3T2 1.000000
    ZP25T308 BP25..T3 -1.000000   FTR..... 7.300000
    ZP25T308 TYEAR3T3 1.000000
    ZP25T408 BP25..T4 -1.000000   FTR..... 8.700000
    ZP25T408 TYEAR3T4 1.000000
    ZP16S108 BP16..S1 -1.000000   FTR..... 28.000000
    ZP16S208 BP16..S2 -1.000000   FTR..... 28.200000
    ZP16T108 BP16..T1 -1.000000   FTR..... 8.700000
    ZP16T108 TYEAR3T1 1.000000
    ZP16T208 BP16..T2 -1.000000   FTR..... 9.700000
    ZP16T208 TYEAR3T2 1.000000
    ZP16T308 BP16..T3 -1.000000   FTR..... 7.300000
    ZP16T308 TYEAR3T3 1.000000
    ZP16T408 BP16..T4 -1.000000   FTR..... 8.700000
    ZP16T408 TYEAR3T4 1.000000
    ZP26S108 BP26..S1 -1.000000   FTR..... 28.000000
    ZP26S208 BP26..S2 -1.000000   FTR..... 28.200000
    ZP26T108 BP26..T1 -1.000000   FTR..... 8.700000
    ZP26T108 TYEAR3T1 1.000000
    ZP26T208 BP26..T2 -1.000000   FTR..... 9.700000
    ZP26T208 TYEAR3T2 1.000000
    ZP26T308 BP26..T3 -1.000000   FTR..... 7.300000
    ZP26T308 TYEAR3T3 1.000000
    ZP26T408 BP26..T4 -1.000000   FTR..... 8.700000
    ZP26T408 TYEAR3T4 1.000000
    ZP11S109 BP11..S1 -1.000000   FTR..... 26.200000
    ZP11S209 BP11..S2 -1.000000   FTR..... 28.000000
    ZP11T109 BP11..T1 -1.000000   FTR..... 9.700000
    ZP11T109 TYEAR1T1 1.000000
    ZP11T209 BP11..T2 -1.000000   FTR..... 10.750000
    ZP11T209 TYEAR1T2 1.000000
    ZP11T309 BP11..T3 -1.000000   FTR..... 6.100000
    ZP11T309 TYEAR1T3 1.000000
    ZP11T409 BP11..T4 -1.000000   FTR..... 9.250000
    ZP11T409 TYEAR1T4 1.000000
    ZP21S109 BP21..S1 -1.000000   FTR..... 26.200000
    ZP21S209 BP21..S2 -1.000000   FTR..... 28.000000
    ZP21T109 BP21..T1 -1.000000   FTR..... 9.700000
    ZP21T109 TYEAR1T1 1.000000
    ZP21T209 BP21..T2 -1.000000   FTR..... 10.750000
    ZP21T209 TYEAR1T2 1.000000
    ZP21T309 BP21..T3 -1.000000   FTR..... 6.100000
    ZP21T309 TYEAR1T3 1.000000
    ZP21T409 BP21..T4 -1.000000   FTR..... 9.250000
    ZP21T409 TYEAR1T4 1.000000
    ZP12S109 BP12..S1 -1.000000   FTR..... 26.200000
    ZP12S209 BP12..S2 -1.000000   FTR..... 28.000000
    ZP12T109 BP12..T1 -1.000000   FTR..... 9.700000
    ZP12T109 TYEAR1T1 1.000000
    ZP12T209 BP12..T2 -1.000000   FTR..... 10.750000
    ZP12T209 TYEAR1T2 1.000000
    ZP12T309 BP12..T3 -1.000000   FTR..... 6.100000
    ZP12T309 TYEAR1T3 1.000000
    ZP12T409 BP12..T4 -1.000000   FTR..... 9.250000
    ZP12T409 TYEAR1T4 1.000000
    ZP22S109 BP22..S1 -1.000000   FTR..... 26.200000
    ZP22S209 BP22..S2 -1.000000   FTR..... 28.000000
    ZP22T109 BP22..T1 -1.000000   FTR..... 9.700000
    ZP22T109 TYEAR1T1 1.000000
    ZP22T209 BP22..T2 -1.000000   FTR..... 10.750000
    ZP22T209 TYEAR1T2 1.000000
    ZP22T309 BP22..T3 -1.000000   FTR..... 6.100000
    ZP22T309 TYEAR1T3 1.000000
    ZP22T409 BP22..T4 -1.000000   FTR..... 9.250000
    ZP22T409 TYEAR1T4 1.000000
    ZP13S109 BP13..S1 -1.000000   FTR..... 26.200000
    ZP13S209 BP13..S2 -1.000000   FTR..... 28.000000
    ZP13T109 BP13..T1 -1.000000   FTR..... 9.700000
    ZP13T109 TYEAR2T1 1.000000
    ZP13T209 BP13..T2 -1.000000   FTR..... 10.750000
    ZP13T209 TYEAR2T2 1.000000
    ZP13T309 BP13..T3 -1.000000   FTR..... 6.100000
    ZP13T309 TYEAR2T3 1.000000
    ZP13T409 BP13..T4 -1.000000   FTR..... 9.250000
    ZP13T409 TYEAR2T4 1.000000
    ZP23S109 BP23..S1 -1.000000   FTR..... 26.200000
    ZP23S209 BP23..S2 -1.000000   FTR..... 28.000000
    ZP23T109 BP23..T1 -1.000000   FTR..... 9.700000
    ZP23T109 TYEAR2T1 1.000000
    ZP23T209 BP23..T2 -1.000000   FTR..... 10.750000
    ZP23T209 TYEAR2T2 1.000000
    ZP23T309 BP23..T3 -1.000000   FTR..... 6.100000
    ZP23T309 TYEAR2T3 1.000000
    ZP23T409 BP23..T4 -1.000000   FTR..... 9.250000
    ZP23T409 TYEAR2T4 1.000000
    ZP14S109 BP14..S1 -1.000000   FTR..... 26.200000
    ZP14S209 BP14..S2 -1.000000   FTR..... 28.000000
    ZP14T109 BP14..T1 -1.000000   FTR..... 9.700000
    ZP14T109 TYEAR2T1 1.000000
    ZP14T209 BP14..T2 -1.000000   FTR..... 10.750000
    ZP14T209 TYEAR2T2 1.000000
    ZP14T309 BP14..T3 -1.000000   FTR..... 6.100000
    ZP14T309 TYEAR2T3 1.000000
    ZP14T409 BP14..T4 -1.000000   FTR..... 9.250000
    ZP14T409 TYEAR2T4 1.000000
    ZP24S109 BP24..S1 -1.000000   FTR..... 26.200000
    ZP24S209 BP24..S2 -1.000000   FTR..... 28.000000
    ZP24T109 BP24..T1 -1.000000   FTR..... 9.700000
    ZP24T109 TYEAR2T1 1.000000
    ZP24T209 BP24..T2 -1.000000   FTR..... 10.750000
    ZP24T209 TYEAR2T2 1.000000
    ZP24T309 BP24..T3 -1.000000   FTR..... 6.100000
    ZP24T309 TYEAR2T3 1.000000
    ZP24T409 BP24..T4 -1.000000   FTR..... 9.250000
    ZP24T409 TYEAR2T4 1.000000
    ZP15S109 BP15..S1 -1.000000   FTR..... 26.200000
    ZP15S209 BP15..S2 -1.000000   FTR..... 28.000000
    ZP15T109 BP15..T1 -1.000000   FTR..... 9.700000
    ZP15T109 TYEAR3T1 1.000000
    ZP15T209 BP15..T2 -1.000000   FTR..... 10.750000
    ZP15T209 TYEAR3T2 1.000000
    ZP15T309 BP15..T3 -1.000000   FTR..... 6.100000
    ZP15T309 TYEAR3T3 1.000000
    ZP15T409 BP15..T4 -1.000000   FTR..... 9.250000
    ZP15T409 TYEAR3T4 1.000000
    ZP25S109 BP25..S1 -1.000000   FTR..... 26.200000
    ZP25S209 BP25..S2 -1.000000   FTR..... 28.000000
    SLACK6069 FIN...1. 1.000000
    SLACK6070 FIN...2. 1.000000
    SLACK6071 FIN...3. 1.000000
    SLACK6072 I..1..T1 1.000000
    SLACK6073 I..2..T1 1.000000
    SLACK6074 I..3..T1 1.000000
    SLACK6075 I..4..T1 1.000000
    SLACK6076 I..5..T1 1.000000
    SLACK6077 I..6..T1 1.000000
    SLACK6078 I..1..T2 1.000000
    SLACK6079 I..2..T2 1.000000
    SLACK6080 I..3..T2 1.000000
    SLACK6081 I..4..T2 1.000000
    SLACK6082 I..5..T2 1.000000
    SLACK6083 I..6..T2 1.000000
    SLACK6084 I..1..T3 1.000000
    SLACK6085 I..2..T3 1.000000
    SLACK6086 I..3..T3 1.000000
    SLACK6087 I..4..T3 1.000000
    SLACK6088 I..5..T3 1.000000
    SLACK6089 I..6..T3 1.000000
    SLACK6090 I..1..T4 1.000000
    SLACK6091 I..2..T4 1.000000
    SLACK6092 I..3..T4 1.000000
    SLACK6093 I..4..T4 1.000000
    SLACK6094 I..5..T4 1.000000
    SLACK6095 I..6..T4 1.000000
    SLACK6096 KM.1..T1 1.000000
    SLACK6097 KN.1..T1 1.000000
    SLACK6098 KM.3..T1 1.000000
    SLACK6099 KN.3..T1 1.000000
    SLACK6100 KM.5..T1 1.000000
    SLACK6101 KN.5..T1 1.000000
    SLACK6102 KM.1..T2 1.000000
    SLACK6103 KN.1..T2 1.000000
    SLACK6104 KM.3..T2 1.000000
    SLACK6105 KN.3..T2 1.000000
    SLACK6106 KM.5..T2 1.000000
    SLACK6107 KN.5..T2 1.000000
    SLACK6108 KM.1..T3 1.000000
    SLACK6109 KN.1..T3 1.000000
    SLACK6110 KM.3..T3 1.000000
    SLACK6111 KN.3..T3 1.000000
    SLACK6112 KM.5..T3 1.000000
    SLACK6113 KN.5..T3 1.000000
    SLACK6114 KM.1..T4 1.000000
    SLACK6115 KN.1..T4 1.000000
    SLACK6116 KM.3..T4 1.000000
    SLACK6117 KN.3..T4 1.000000
    SLACK6118 KM.5..T4 1.000000
    SLACK6119 KN.5..T4 1.000000
    SLACK6120 LY....T1 1.000000
    SLACK6121 LC.1..T1 1.000000
    SLACK6122 LM.1..T1 1.000000
    SLACK6123 LN.1..T1 1.000000
    SLACK6124 LC.3..T1 1.000000
    SLACK6125 LM.3..T1 1.000000
    SLACK6126 LN.3..T1 1.000000
    SLACK6127 LC.5..T1 1.000000
    SLACK6128 LM.5..T1 1.000000
    SLACK6129 LN.5..T1 1.000000
    SLACK6130 LY....T2 1.000000
    SLACK6131 LC.1..T2 1.000000
    SLACK6132 LM.1..T2 1.000000
    SLACK6133 LN.1..T2 1.000000
    SLACK6134 LC.3..T2 1.000000
    SLACK6135 LM.3..T2 1.000000
    SLACK6136 LN.3..T2 1.000000
    SLACK6137 LC.5..T2 1.000000
    SLACK6138 LM.5..T2 1.000000
    SLACK6139 LN.5..T2 1.000000
    SLACK6140 LY....T3 1.000000
    SLACK6141 LC.1..T3 1.000000
    SLACK6142 LM.1..T3 1.000000
    SLACK6143 LN.1..T3 1.000000
    SLACK6144 LC.3..T3 1.000000
    SLACK6145 LM.3..T3 1.000000
    SLACK6146 LN.3..T3 1.000000
    SLACK6147 LC.5..T3 1.000000
    SLACK6148 LM.5..T3 1.000000
    SLACK6149 LN.5..T3 1.000000
    SLACK6150 LY....T4 1.000000
    SLACK6151 LC.1..T4 1.000000
    SLACK6152 LM.1..T4 1.000000
    SLACK6153 LN.1..T4 1.000000
    SLACK6154 LC.3..T4 1.000000
    SLACK6155 LM.3..T4 1.000000
    SLACK6156 LN.3..T4 1.000000
    SLACK6157 LC.5..T4 1.000000
    SLACK6158 LM.5..T4 1.000000
    SLACK6159 LN.5..T4 1.000000
    SLACK6160 TYEAR1T1 1.000000
    SLACK6161 TYEAR2T1 1.000000
    SLACK6162 TYEAR3T1 1.000000
    SLACK6163 TM.1S1T1 1.000000
    SLACK6164 TM.1S2T1 1.000000
    SLACK6165 TN.1S1T1 1.000000
    SLACK6166 TN.1S2T1 1.000000
    SLACK6167 TM.2S1T1 1.000000
    SLACK6168 TM.2S2T1 1.000000
    SLACK6169 TN.2S1T1 1.000000
    SLACK6170 TN.2S2T1 1.000000
    SLACK6171 TM.3S1T1 1.000000
    SLACK6172 TM.3S2T1 1.000000
    SLACK6173 TN.3S1T1 1.000000
    SLACK6174 TN.3S2T1 1.000000
    SLACK6175 TM.4S1T1 1.000000
    SLACK6176 TM.4S2T1 1.000000
    SLACK6177 TN.4S1T1 1.000000
    SLACK6178 TN.4S2T1 1.000000
    SLACK6179 TM.5S1T1 1.000000
    SLACK6180 TM.5S2T1 1.000000
    SLACK6181 TN.5S1T1 1.000000
    SLACK6182 TN.5S2T1 1.000000
    SLACK6183 TM.6S1T1 1.000000
    SLACK6184 TM.6S2T1 1.000000
    SLACK6185 TN.6S1T1 1.000000
    SLACK6186 TN.6S2T1 1.000000
    SLACK6187 TYEAR1T2 1.000000
    SLACK6188 TYEAR2T2 1.000000
    SLACK6189 TYEAR3T2 1.000000
    SLACK6190 TM.1S1T2 1.000000
    SLACK6191 TM.1S2T2 1.000000
    SLACK6192 TN.1S1T2 1.000000
    SLACK6193 TN.1S2T2 1.000000
    SLACK6194 TM.2S1T2 1.000000
    SLACK6195 TM.2S2T2 1.000000
    SLACK6196 TN.2S1T2 1.000000
    SLACK6197 TN.2S2T2 1.000000
    SLACK6198 TM.3S1T2 1.000000
    SLACK6199 TM.3S2T2 1.000000
    SLACK6200 TN.3S1T2 1.000000
    SLACK6201 TN.3S2T2 1.000000
    SLACK6202 TM.4S1T2 1.000000
    SLACK6203 TM.4S2T2 1.000000
    SLACK6204 TN.4S1T2 1.000000
    SLACK6205 TN.4S2T2 1.000000
    SLACK6206 TM.5S1T2 1.000000
    SLACK6207 TM.5S2T2 1.000000
    SLACK6208 TN.5S1T2 1.000000
    SLACK6209 TN.5S2T2 1.000000
    SLACK6210 TM.6S1T2 1.000000
    SLACK6211 TM.6S2T2 1.000000
    SLACK6212 TN.6S1T2 1.000000
    SLACK6213 TN.6S2T2 1.000000
    SLACK6214 TYEAR1T3 1.000000
    SLACK6215 TYEAR2T3 1.000000
    SLACK6216 TYEAR3T3 1.000000
    SLACK6217 TM.1S1T3 1.000000
    SLACK6218 TM.1S2T3 1.000000
    SLACK6219 TN.1S1T3 1.000000
    SLACK6220 TN.1S2T3 1.000000
    SLACK6221 TM.2S1T3 1.000000
    SLACK6222 TM.2S2T3 1.000000
    SLACK6223 TN.2S1T3 1.000000
    SLACK6224 TN.2S2T3 1.000000
    SLACK6225 TM.3S1T3 1.000000
    SLACK6226 TM.3S2T3 1.000000
    SLACK6227 TN.3S1T3 1.000000
    SLACK6228 TN.3S2T3 1.000000
    SLACK6229 TM.4S1T3 1.000000
    SLACK6230 TM.4S2T3 1.000000
    SLACK6231 TN.4S1T3 1.000000
    SLACK6232 TN.4S2T3 1.000000
    SLACK6233 TM.5S1T3 1.000000
    SLACK6234 TM.5S2T3 1.000000
    SLACK6235 TN.5S1T3 1.000000
    SLACK6236 TN.5S2T3 1.000000
    SLACK6237 TM.6S1T3 1.000000
    SLACK6238 TM.6S2T3 1.000000
    SLACK6239 TN.6S1T3 1.000000
    SLACK6240 TN.6S2T3 1.000000
    SLACK6241 TYEAR1T4 1.000000
    SLACK6242 TYEAR2T4 1.000000
    SLACK6243 TYEAR3T4 1.000000
    SLACK6244 TM.1S1T4 1.000000
    SLACK6245 TM.1S2T4 1.000000
    SLACK6246 TN.1S1T4 1.000000
    SLACK6247 TN.1S2T4 1.000000
    SLACK6248 TM.2S1T4 1.000000
    SLACK6249 TM.2S2T4 1.000000
    SLACK6250 TN.2S1T4 1.000000
    SLACK6251 TN.2S2T4 1.000000
    SLACK6252 TM.3S1T4 1.000000
    SLACK6253 TM.3S2T4 1.000000
    SLACK6254 TN.3S1T4 1.000000
    SLACK6255 TN.3S2T4 1.000000
    SLACK6256 TM.4S1T4 1.000000
    SLACK6257 TM.4S2T4 1.000000
    SLACK6258 TN.4S1T4 1.000000
    SLACK6259 TN.4S2T4 1.000000
    SLACK6260 TM.5S1T4 1.000000
    SLACK6261 TM.5S2T4 1.000000
    SLACK6262 TN.5S1T4 1.000000
    SLACK6263 TN.5S2T4 1.000000
    SLACK6264 TM.6S1T4 1.000000
    SLACK6265 TM.6S2T4 1.000000
    SLACK6266 TN.6S1T4 1.000000
    SLACK6267 TN.6S2T4 1.000000
    SLACK6268 UPBROW4216 1.000000
    SLACK6269 UPBROW4217 1.000000
    SLACK6270 UPBROW4218 1.000000
    SLACK6271 UPBROW4219 1.000000
    SLACK6272 UPBROW4220 1.000000
    SLACK6273 UPBROW4221 1.000000
    SLACK6274 UPBROW4222 1.000000
    SLACK6275 UPBROW4223 1.000000
    SLACK6276 UPBROW4224 1.000000
    SLACK6277 UPBROW4225 1.000000
    SLACK6278 UPBROW4226 1.000000
    SLACK6279 UPBROW4227 1.000000
    SLACK6280 UPBROW4228 1.000000
    SLACK6281 UPBROW4229 1.000000
    SLACK6282 UPBROW4230 1.000000
    SLACK6283 UPBROW4231 1.000000
    SLACK6284 UPBROW4232 1.000000
    SLACK6285 UPBROW4233 1.000000
    SLACK6286 UPBROW4234 1.000000
    SLACK6287 UPBROW4235 1.000000
    SLACK6288 UPBROW4236 1.000000
    SLACK6289 UPBROW4237 1.000000
    SLACK6290 UPBROW4238 1.000000
    SLACK6291 UPBROW4239 1.000000
    SLACK6292 UPBROW4240 1.000000
    SLACK6293 UPBROW4241 1.000000
    SLACK6294 UPBROW4242 1.000000
    SLACK6295 UPBROW4243 1.000000
    SLACK6296 UPBROW4244 1.000000
    SLACK6297 UPBROW4245 1.000000
    SLACK6298 UPBROW4246 1.000000
    SLACK6299 UPBROW4247 1.000000
    SLACK6300 UPBROW4248 1.000000
    SLACK6301 UPBROW4249 1.000000
    SLACK6302 UPBROW4250 1.000000
    SLACK6303 UPBROW4251 1.000000
    SLACK6304 UPBROW4252 1.000000
    SLACK6305 UPBROW4253 1.000000
    SLACK6306 UPBROW4254 1.000000
    SLACK6307 UPBROW4255 1.000000
    SLACK6308 UPBROW4256 1.000000
    SLACK6309 UPBROW4257 1.000000
    SLACK6310 UPBROW4258 1.000000
    SLACK6311 UPBROW4259 1.000000
    SLACK6312 UPBROW4260 1.000000
    SLACK6313 UPBROW4261 1.000000
    SLACK6314 UPBROW4262 1.000000
    SLACK6315 UPBROW4263 1.000000
    SLACK6316 UPBROW4264 1.000000
    SLACK6317 UPBROW4265 1.000000
    SLACK6318 UPBROW4266 1.000000
    SLACK6319 UPBROW4267 1.000000
    SLACK6320 UPBROW4268 1.000000
    SLACK6321 UPBROW4269 1.000000
    SLACK6322 UPBROW4270 1.000000
    SLACK6323 UPBROW4271 1.000000
    SLACK6324 UPBROW4272 1.000000
    SLACK6325 UPBROW4273 1.000000
    SLACK6326 UPBROW4274 1.000000
    SLACK6327 UPBROW4275 1.000000
    SLACK6328 UPBROW4276 1.000000
    SLACK6329 UPBROW4277 1.000000
    SLACK6330 UPBROW4278 1.000000
    SLACK6331 UPBROW4279 1.000000
    SLACK6332 UPBROW4280 1.000000
    SLACK6333 UPBROW4281 1.000000
    SLACK6334 UPBROW4282 1.000000
    SLACK6335 UPBROW4283 1.000000
    SLACK6336 UPBROW4284 1.000000
    SLACK6337 UPBROW4285 1.000000
    SLACK6338 UPBROW4286 1.000000
    SLACK6339 UPBROW4287 1.000000
    SLACK6340 UPBROW4288 1.000000
    SLACK6341 UPBROW4289 1.000000
    SLACK6342 UPBROW4290 1.000000
    SLACK6343 UPBROW4291 1.000000
    SLACK6344 UPBROW4292 1.000000
    SLACK6345 UPBROW4293 1.000000
    SLACK6346 UPBROW4294 1.000000
    SLACK6347 UPBROW4295 1.000000
    SLACK6348 UPBROW4296 1.000000
    SLACK6349 UPBROW4297 1.000000
    SLACK6350 UPBROW4298 1.000000
    SLACK6351 UPBROW4299 1.000000
    SLACK6352 UPBROW4300 1.000000
    SLACK6353 UPBROW4301 1.000000
    SLACK6354 UPBROW4302 1.000000
    SLACK6355 UPBROW4303 1.000000
    SLACK6356 UPBROW4304 1.000000
    SLACK6357 UPBROW4305 1.000000
    SLACK6358 UPBROW4306 1.000000
    SLACK6359 UPBROW4307 1.000000
    SLACK6360 UPBROW4308 1.000000
    SLACK6361 UPBROW4309 1.000000
    SLACK6362 UPBROW4310 1.000000
    SLACK6363 UPBROW4311 1.000000
    SLACK6364 UPBROW4312 1.000000
    SLACK6365 UPBROW4313 1.000000
    SLACK6366 UPBROW4314 1.000000
    SLACK6367 UPBROW4315 1.000000
    SLACK6368 UPBROW4316 1.000000
    SLACK6369 UPBROW4317 1.000000
    SLACK6370 UPBROW4318 1.000000
    SLACK6371 UPBROW4319 1.000000
RHS
    RHS00001 LY....T1 0.000000
    RHS00001 LY....T2 1.000000
    RHS00001 LY....T3 0.000000
    RHS00001 LY....T4 1.000000
    RHS00001 FIN...1. 900.000000
    RHS00001 FIN...2. 1393.000000
    RHS00001 FIN...3. 1286.000000
    BOUNDRHS UPBROW4216 100.000000
    BOUNDRHS UPBROW4217 50.000000
    BOUNDRHS UPBROW4218 50.000000
    BOUNDRHS UPBROW4219 13.000000
    BOUNDRHS UPBROW4220 10.000000
    BOUNDRHS UPBROW4221 177.000000
    BOUNDRHS UPBROW4222 100.000000
    BOUNDRHS UPBROW4223 50.000000
    BOUNDRHS UPBROW4224 50.000000
    BOUNDRHS UPBROW4225 13.000000
    BOUNDRHS UPBROW4226 10.000000
    BOUNDRHS UPBROW4227 177.000000
    BOUNDRHS UPBROW4228 100.000000
    BOUNDRHS UPBROW4229 50.000000
    BOUNDRHS UPBROW4230 50.000000
    BOUNDRHS UPBROW4231 13.000000
    BOUNDRHS UPBROW4232 10.000000
    BOUNDRHS UPBROW4233 177.000000
    BOUNDRHS UPBROW4234 100.000000
    BOUNDRHS UPBROW4235 50.000000
    BOUNDRHS UPBROW4236 50.000000
    BOUNDRHS UPBROW4237 13.000000
    BOUNDRHS UPBROW4238 10.000000
    BOUNDRHS UPBROW4239 177.000000
    BOUNDRHS UPBROW4240 100.000000
    BOUNDRHS UPBROW4241 50.000000
    BOUNDRHS UPBROW4242 50.000000
    BOUNDRHS UPBROW4243 13.000000
    BOUNDRHS UPBROW4244 10.000000
    BOUNDRHS UPBROW4245 177.000000
    BOUNDRHS UPBROW4246 100.000000
    BOUNDRHS UPBROW4247 50.000000
    BOUNDRHS UPBROW4248 50.000000
    BOUNDRHS UPBROW4249 13.000000
    BOUNDRHS UPBROW4250 10.000000
    BOUNDRHS UPBROW4251 177.000000
    BOUNDRHS UPBROW4252 10.000000
    BOUNDRHS UPBROW4253 10.000000
    BOUNDRHS UPBROW4254 10.000000
    BOUNDRHS UPBROW4255 15.000000
    BOUNDRHS UPBROW4256 15.000000
    BOUNDRHS UPBROW4257 15.000000
    BOUNDRHS UPBROW4258 10.000000
    BOUNDRHS UPBROW4259 10.000000
    BOUNDRHS UPBROW4260 10.000000
    BOUNDRHS UPBROW4261 15.000000
    BOUNDRHS UPBROW4262 15.000000
    BOUNDRHS UPBROW4263 15.000000
    FXIMPLICITRHS TN.1S1T1 -10.000000
    FXIMPLICITRHS TM.1S1T1 25.000000
    BOUNDRHS UPBROW4264 1.000000
    FXIMPLICITRHS KM.1..T1 15.000000
    FXIMPLICITRHS KN.1..T1 -3.000000
    FXIMPLICITRHS FCC..... -171.510000
    FXIMPLICITRHS TYEAR1T1 25.000000
    FXIMPLICITRHS TYEAR2T1 25.000000
    FXIMPLICITRHS LC.3..T1 1.000000
    FXIMPLICITRHS TYEAR3T1 25.000000
    FXIMPLICITRHS LC.5..T1 0.000000
    BOUNDRHS UPBROW4265 1.000000
    FXIMPLICITRHS TN.2S1T1 -10.000000
    FXIMPLICITRHS TM.2S1T1 25.000000
    BOUNDRHS UPBROW4266 1.000000
    FXIMPLICITRHS TN.3S1T1 -10.000000
    FXIMPLICITRHS TM.3S1T1 25.000000
    BOUNDRHS UPBROW4267 1.000000
    BOUNDRHS UPBROW4268 1.000000
    BOUNDRHS UPBROW4269 1.000000
    FXIMPLICITRHS TN.4S1T1 -10.000000
    FXIMPLICITRHS TM.4S1T1 25.000000
    BOUNDRHS UPBROW4270 1.000000
    FXIMPLICITRHS TN.5S1T1 -10.000000
    FXIMPLICITRHS TM.5S1T1 25.000000
    BOUNDRHS UPBROW4271 1.000000
    BOUNDRHS UPBROW4272 1.000000
    FXIMPLICITRHS LM.5..T1 10.000000
    FXIMPLICITRHS LN.5..T1 -2.000000
    FXIMPLICITRHS TN.6S1T1 -10.000000
    FXIMPLICITRHS TM.6S1T1 25.000000
    BOUNDRHS UPBROW4273 1.000000
    BOUNDRHS UPBROW4274 1.000000
    BOUNDRHS UPBROW4275 1.000000
    BOUNDRHS UPBROW4276 1.000000
    BOUNDRHS UPBROW4277 1.000000
    BOUNDRHS UPBROW4278 1.000000
    BOUNDRHS UPBROW4279 1.000000
    BOUNDRHS UPBROW4280 1.000000
    BOUNDRHS UPBROW4281 1.000000
    BOUNDRHS UPBROW4282 1.000000
    BOUNDRHS UPBROW4283 1.000000
    BOUNDRHS UPBROW4284 1.000000
    BOUNDRHS UPBROW4285 1.000000
    BOUNDRHS UPBROW4286 1.000000
    BOUNDRHS UPBROW4287 1.000000
    BOUNDRHS UPBROW4288 1.000000
    BOUNDRHS UPBROW4289 1.000000
    BOUNDRHS UPBROW4290 1.000000
    BOUNDRHS UPBROW4291 1.000000
    FXIMPLICITRHS TN.1S1T3 -0.000000
    FXIMPLICITRHS TM.1S1T3 0.000000
    FXIMPLICITRHS TN.1S2T3 -0.000000
    FXIMPLICITRHS TM.1S2T3 0.000000
    FXIMPLICITRHS KM.1..T3 15.000000
    FXIMPLICITRHS KN.1..T3 -3.000000
    FXIMPLICITRHS TYEAR1T3 25.000000
    FXIMPLICITRHS TYEAR2T3 25.000000
    FXIMPLICITRHS LC.3..T3 0.000000
    FXIMPLICITRHS TYEAR3T3 25.000000
    FXIMPLICITRHS LC.5..T3 0.000000
    BOUNDRHS UPBROW4292 1.000000
    FXIMPLICITRHS TN.2S1T3 -0.000000
    FXIMPLICITRHS TM.2S1T3 0.000000
    BOUNDRHS UPBROW4293 1.000000
    BOUNDRHS UPBROW4294 1.000000
    BOUNDRHS UPBROW4295 1.000000
    BOUNDRHS UPBROW4296 1.000000
    FXIMPLICITRHS LM.3..T3 10.000000
    FXIMPLICITRHS LN.3..T3 -2.000000
    BOUNDRHS UPBROW4297 1.000000
    BOUNDRHS UPBROW4298 1.000000
    FXIMPLICITRHS TN.5S1T3 -0.000000
    FXIMPLICITRHS TM.5S1T3 0.000000
    BOUNDRHS UPBROW4299 1.000000
    BOUNDRHS UPBROW4300 1.000000
    FXIMPLICITRHS LM.5..T3 10.000000
    FXIMPLICITRHS LN.5..T3 -2.000000
    FXIMPLICITRHS TN.6S1T3 -0.000000
    FXIMPLICITRHS TM.6S1T3 0.000000
    BOUNDRHS UPBROW4301 1.000000
    BOUNDRHS UPBROW4302 1.000000
    BOUNDRHS UPBROW4303 1.000000
    BOUNDRHS UPBROW4304 1.000000
    BOUNDRHS UPBROW4305 1.000000
    BOUNDRHS UPBROW4306 1.000000
    BOUNDRHS UPBROW4307 1.000000
    BOUNDRHS UPBROW4308 1.000000
    BOUNDRHS UPBROW4309 1.000000
    BOUNDRHS UPBROW4310 1.000000
    BOUNDRHS UPBROW4311 1.000000
    BOUNDRHS UPBROW4312 1.000000
    BOUNDRHS UPBROW4313 1.000000
    BOUNDRHS UPBROW4314 1.000000
    BOUNDRHS UPBROW4315 1.000000
    BOUNDRHS UPBROW4316 1.000000
    BOUNDRHS UPBROW4317 1.000000
    BOUNDRHS UPBROW4318 1.000000
    BOUNDRHS UPBROW4319 1.000000
BOUNDS
ENDATA
