NAME          STOCFOR1
ROWS
 N  HARV    
 E  BOUND301
 E  BOUND401
 E  BOUND501
 E  BOUND601
 E  BOUND701
 E  BOUND801
 E  REGEN101
 E  REGEN201
 E  REGEN301
 E  REGEN401
 E  REGEN501
 E  REGEN601
 E  REGEN701
 E  REGEN801
 E  YIELD101
 E  BOUND302
 E  BOUND402
 E  BOUND502
 E  BOUND602
 E  BOUND702
 E  BOUND802
 E  REGEN102
 E  REGEN202
 E  REGEN302
 E  REGEN402
 E  REGEN502
 E  REGEN602
 E  REGEN702
 E  REGEN802
 E  TFLOW102
 E  TFLOW202
 E  YIELD202
 E  BOUND303
 E  BOUND403
 E  BOUND503
 E  BOUND603
 E  BOUND703
 E  BOUND803
 E  REGEN103
 E  REGEN203
 E  REGEN303
 E  REGEN403
 E  REGEN503
 E  REGEN603
 E  REGEN703
 E  REGEN803
 E  TFLOW103
 E  TFLOW203
 E  YIELD303
 E  BOUND304
 E  BOUND404
 E  BOUND504
 E  BOUND604
 E  BOUND704
 E  BOUND804
 E  REGEN104
 E  REGEN204
 E  REGEN304
 E  REGEN404
 E  REGEN504
 E  REGEN604
 E  REGEN704
 E  REGEN804
 E  TFLOW104
 E  TFLOW204
 E  YIELD404
 E  BOUND305
 E  BOUND405
 E  BOUND505
 E  BOUND605
 E  BOUND705
 E  BOUND805
 E  REGEN105
 E  REGEN205
 E  REGEN305
 E  REGEN405
 E  REGEN505
 E  REGEN605
 E  REGEN705
 E  REGEN805
 E  TFLOW105
 E  TFLOW205
 E  YIELD505
 E  BOUND306
 E  BOUND406
 E  BOUND506
 E  BOUND606
 E  BOUND706
 E  BOUND806
 E  REGEN106
 E  REGEN206
 E  REGEN306
 E  REGEN406
 E  REGEN506
 E  REGEN606
 E  REGEN706
 E  REGEN806
 E  TFLOW106
 E  TFLOW206
 E  YIELD606
 E  BOUND307
 E  BOUND407
 E  BOUND507
 E  BOUND607
 E  BOUND707
 E  BOUND807
 E  REGEN107
 E  REGEN207
 E  REGEN307
 E  REGEN407
 E  REGEN507
 E  REGEN607
 E  REGEN707
 E  REGEN807
 E  TFLOW107
 E  TFLOW207
 E  YIELD707
COLUMNS
    CLASS301 BOUND301 1.000000   YIELD101 16.000000
    CLASS301 REGEN102 -0.937420   REGEN402 0.937420
    CLASS301 TFLOW102 14.400000   TFLOW202 17.600000
    CLASS401 BOUND401 1.000000   YIELD101 107.000000
    CLASS401 REGEN102 -0.937420   REGEN502 0.937420
    CLASS401 TFLOW102 96.300000   TFLOW202 117.700000
    CLASS501 BOUND501 1.000000   YIELD101 217.000000
    CLASS501 REGEN102 -0.937420   REGEN602 0.937420
    CLASS501 TFLOW102 195.300000   TFLOW202 238.700000
    CLASS601 BOUND601 1.000000   YIELD101 275.000000
    CLASS601 REGEN102 -0.937420   REGEN702 0.937420
    CLASS601 TFLOW102 247.500000   TFLOW202 302.500000
    CLASS701 BOUND701 1.000000   YIELD101 298.000000
    CLASS701 REGEN102 -0.937420   REGEN802 0.937420
    CLASS701 TFLOW102 268.200000   TFLOW202 327.800000
    CLASS801 BOUND801 1.000000   YIELD101 306.000000
    CLASS801 REGEN102 -0.937420   REGEN802 0.937420
    CLASS801 TFLOW102 275.400000   TFLOW202 336.600000
    STATE101 REGEN101 1.000000   REGEN102 -0.062580
    STATE101 REGEN202 -0.937420
    STATE201 REGEN201 1.000000   REGEN102 -0.062580
    STATE201 REGEN302 -0.937420
    STATE301 BOUND301 -1.000000   REGEN301 1.000000
    STATE301 REGEN102 -0.062580   REGEN402 -0.937420
    STATE401 BOUND401 -1.000000   REGEN401 1.000000
    STATE401 REGEN102 -0.062580   REGEN502 -0.937420
    STATE501 BOUND501 -1.000000   REGEN501 1.000000
    STATE501 REGEN102 -0.062580   REGEN602 -0.937420
    STATE601 BOUND601 -1.000000   REGEN601 1.000000
    STATE601 REGEN102 -0.062580   REGEN702 -0.937420
    STATE701 BOUND701 -1.000000   REGEN701 1.000000
    STATE701 REGEN102 -0.062580   REGEN802 -0.937420
    STATE801 BOUND801 -1.000000   REGEN801 1.000000
    STATE801 REGEN102 -0.062580   REGEN802 -0.937420
    BALAN101 HARV     -1.000000   YIELD101 -1.000000
    CLASS302 BOUND302 1.000000   YIELD202 16.000000
    CLASS302 REGEN103 -0.937420   REGEN403 0.937420
    CLASS302 TFLOW103 14.400000   TFLOW203 17.600000
    CLASS402 BOUND402 1.000000   YIELD202 107.000000
    CLASS402 REGEN103 -0.937420   REGEN503 0.937420
    CLASS402 TFLOW103 96.300000   TFLOW203 117.700000
    CLASS502 BOUND502 1.000000   YIELD202 217.000000
    CLASS502 REGEN103 -0.937420   REGEN603 0.937420
    CLASS502 TFLOW103 195.300000   TFLOW203 238.700000
    CLASS602 BOUND602 1.000000   YIELD202 275.000000
    CLASS602 REGEN103 -0.937420   REGEN703 0.937420
    CLASS602 TFLOW103 247.500000   TFLOW203 302.500000
    CLASS702 BOUND702 1.000000   YIELD202 298.000000
    CLASS702 REGEN103 -0.937420   REGEN803 0.937420
    CLASS702 TFLOW103 268.200000   TFLOW203 327.800000
    CLASS802 BOUND802 1.000000   YIELD202 306.000000
    CLASS802 REGEN103 -0.937420   REGEN803 0.937420
    CLASS802 TFLOW103 275.400000   TFLOW203 336.600000
    STATE102 REGEN102 1.000000   REGEN103 -0.062580
    STATE102 REGEN203 -0.937420
    STATE202 REGEN202 1.000000   REGEN103 -0.062580
    STATE202 REGEN303 -0.937420
    STATE302 BOUND302 -1.000000   REGEN302 1.000000
    STATE302 REGEN103 -0.062580   REGEN403 -0.937420
    STATE402 BOUND402 -1.000000   REGEN402 1.000000
    STATE402 REGEN103 -0.062580   REGEN503 -0.937420
    STATE502 BOUND502 -1.000000   REGEN502 1.000000
    STATE502 REGEN103 -0.062580   REGEN603 -0.937420
    STATE602 BOUND602 -1.000000   REGEN602 1.000000
    STATE602 REGEN103 -0.062580   REGEN703 -0.937420
    STATE702 BOUND702 -1.000000   REGEN702 1.000000
    STATE702 REGEN103 -0.062580   REGEN803 -0.937420
    STATE802 BOUND802 -1.000000   REGEN802 1.000000
    STATE802 REGEN103 -0.062580   REGEN803 -0.937420
    BALAN202 HARV     -0.905063   TFLOW102 -1.000000
    BALAN202 TFLOW202 -1.000000   YIELD202 -1.000000
    PNLTY202 HARV     50.000000   TFLOW102 -1.000000
    CLASS303 BOUND303 1.000000   YIELD303 16.000000
    CLASS303 REGEN104 -0.937420   REGEN404 0.937420
    CLASS303 TFLOW104 14.400000   TFLOW204 17.600000
    CLASS403 BOUND403 1.000000   YIELD303 107.000000
    CLASS403 REGEN104 -0.937420   REGEN504 0.937420
    CLASS403 TFLOW104 96.300000   TFLOW204 117.700000
    CLASS503 BOUND503 1.000000   YIELD303 217.000000
    CLASS503 REGEN104 -0.937420   REGEN604 0.937420
    CLASS503 TFLOW104 195.300000   TFLOW204 238.700000
    CLASS603 BOUND603 1.000000   YIELD303 275.000000
    CLASS603 REGEN104 -0.937420   REGEN704 0.937420
    CLASS603 TFLOW104 247.500000   TFLOW204 302.500000
    CLASS703 BOUND703 1.000000   YIELD303 298.000000
    CLASS703 REGEN104 -0.937420   REGEN804 0.937420
    CLASS703 TFLOW104 268.200000   TFLOW204 327.800000
    CLASS803 BOUND803 1.000000   YIELD303 306.000000
    CLASS803 REGEN104 -0.937420   REGEN804 0.937420
    CLASS803 TFLOW104 275.400000   TFLOW204 336.600000
    STATE103 REGEN103 1.000000   REGEN104 -0.062580
    STATE103 REGEN204 -0.937420
    STATE203 REGEN203 1.000000   REGEN104 -0.062580
    STATE203 REGEN304 -0.937420
    STATE303 BOUND303 -1.000000   REGEN303 1.000000
    STATE303 REGEN104 -0.062580   REGEN404 -0.937420
    STATE403 BOUND403 -1.000000   REGEN403 1.000000
    STATE403 REGEN104 -0.062580   REGEN504 -0.937420
    STATE503 BOUND503 -1.000000   REGEN503 1.000000
    STATE503 REGEN104 -0.062580   REGEN604 -0.937420
    STATE603 BOUND603 -1.000000   REGEN603 1.000000
    STATE603 REGEN104 -0.062580   REGEN704 -0.937420
    STATE703 BOUND703 -1.000000   REGEN703 1.000000
    STATE703 REGEN104 -0.062580   REGEN804 -0.937420
    STATE803 BOUND803 -1.000000   REGEN803 1.000000
    STATE803 REGEN104 -0.062580   REGEN804 -0.937420
    BALAN303 HARV     -0.819139   TFLOW103 -1.000000
    BALAN303 TFLOW203 -1.000000   YIELD303 -1.000000
    PNLTY303 HARV     45.250000   TFLOW103 -1.000000
    CLASS304 BOUND304 1.000000   YIELD404 16.000000
    CLASS304 REGEN105 -0.937420   REGEN405 0.937420
    CLASS304 TFLOW105 14.400000   TFLOW205 17.600000
    CLASS404 BOUND404 1.000000   YIELD404 107.000000
    CLASS404 REGEN105 -0.937420   REGEN505 0.937420
    CLASS404 TFLOW105 96.300000   TFLOW205 117.700000
    CLASS504 BOUND504 1.000000   YIELD404 217.000000
    CLASS504 REGEN105 -0.937420   REGEN605 0.937420
    CLASS504 TFLOW105 195.300000   TFLOW205 238.700000
    CLASS604 BOUND604 1.000000   YIELD404 275.000000
    CLASS604 REGEN105 -0.937420   REGEN705 0.937420
    CLASS604 TFLOW105 247.500000   TFLOW205 302.500000
    CLASS704 BOUND704 1.000000   YIELD404 298.000000
    CLASS704 REGEN105 -0.937420   REGEN805 0.937420
    CLASS704 TFLOW105 268.200000   TFLOW205 327.800000
    CLASS804 BOUND804 1.000000   YIELD404 306.000000
    CLASS804 REGEN105 -0.937420   REGEN805 0.937420
    CLASS804 TFLOW105 275.400000   TFLOW205 336.600000
    STATE104 REGEN104 1.000000   REGEN105 -0.062580
    STATE104 REGEN205 -0.937420
    STATE204 REGEN204 1.000000   REGEN105 -0.062580
    STATE204 REGEN305 -0.937420
    STATE304 BOUND304 -1.000000   REGEN304 1.000000
    STATE304 REGEN105 -0.062580   REGEN405 -0.937420
    STATE404 BOUND404 -1.000000   REGEN404 1.000000
    STATE404 REGEN105 -0.062580   REGEN505 -0.937420
    STATE504 BOUND504 -1.000000   REGEN504 1.000000
    STATE504 REGEN105 -0.062580   REGEN605 -0.937420
    STATE604 BOUND604 -1.000000   REGEN604 1.000000
    STATE604 REGEN105 -0.062580   REGEN705 -0.937420
    STATE704 BOUND704 -1.000000   REGEN704 1.000000
    STATE704 REGEN105 -0.062580   REGEN805 -0.937420
    STATE804 BOUND804 -1.000000   REGEN804 1.000000
    STATE804 REGEN105 -0.062580   REGEN805 -0.937420
    BALAN404 HARV     -0.741372   TFLOW104 -1.000000
    BALAN404 TFLOW204 -1.000000   YIELD404 -1.000000
    PNLTY404 HARV     40.960000   TFLOW104 -1.000000
    CLASS305 BOUND305 1.000000   YIELD505 16.000000
    CLASS305 REGEN106 -0.937420   REGEN406 0.937420
    CLASS305 TFLOW106 14.400000   TFLOW206 17.600000
    CLASS405 BOUND405 1.000000   YIELD505 107.000000
    CLASS405 REGEN106 -0.937420   REGEN506 0.937420
    CLASS405 TFLOW106 96.300000   TFLOW206 117.700000
    CLASS505 BOUND505 1.000000   YIELD505 217.000000
    CLASS505 REGEN106 -0.937420   REGEN606 0.937420
    CLASS505 TFLOW106 195.300000   TFLOW206 238.700000
    CLASS605 BOUND605 1.000000   YIELD505 275.000000
    CLASS605 REGEN106 -0.937420   REGEN706 0.937420
    CLASS605 TFLOW106 247.500000   TFLOW206 302.500000
    CLASS705 BOUND705 1.000000   YIELD505 298.000000
    CLASS705 REGEN106 -0.937420   REGEN806 0.937420
    CLASS705 TFLOW106 268.200000   TFLOW206 327.800000
    CLASS805 BOUND805 1.000000   YIELD505 306.000000
    CLASS805 REGEN106 -0.937420   REGEN806 0.937420
    CLASS805 TFLOW106 275.400000   TFLOW206 336.600000
    STATE105 REGEN105 1.000000   REGEN106 -0.062580
    STATE105 REGEN206 -0.937420
    STATE205 REGEN205 1.000000   REGEN106 -0.062580
    STATE205 REGEN306 -0.937420
    STATE305 BOUND305 -1.000000   REGEN305 1.000000
    STATE305 REGEN106 -0.062580   REGEN406 -0.937420
    STATE405 BOUND405 -1.000000   REGEN405 1.000000
    STATE405 REGEN106 -0.062580   REGEN506 -0.937420
    STATE505 BOUND505 -1.000000   REGEN505 1.000000
    STATE505 REGEN106 -0.062580   REGEN606 -0.937420
    STATE605 BOUND605 -1.000000   REGEN605 1.000000
    STATE605 REGEN106 -0.062580   REGEN706 -0.937420
    STATE705 BOUND705 -1.000000   REGEN705 1.000000
    STATE705 REGEN106 -0.062580   REGEN806 -0.937420
    STATE805 BOUND805 -1.000000   REGEN805 1.000000
    STATE805 REGEN106 -0.062580   REGEN806 -0.937420
    BALAN505 HARV     -0.670989   TFLOW105 -1.000000
    BALAN505 TFLOW205 -1.000000   YIELD505 -1.000000
    PNLTY505 HARV     37.070000   TFLOW105 -1.000000
    CLASS306 BOUND306 1.000000   YIELD606 16.000000
    CLASS306 REGEN107 -0.937420   REGEN407 0.937420
    CLASS306 TFLOW107 14.400000   TFLOW207 17.600000
    CLASS406 BOUND406 1.000000   YIELD606 107.000000
    CLASS406 REGEN107 -0.937420   REGEN507 0.937420
    CLASS406 TFLOW107 96.300000   TFLOW207 117.700000
    CLASS506 BOUND506 1.000000   YIELD606 217.000000
    CLASS506 REGEN107 -0.937420   REGEN607 0.937420
    CLASS506 TFLOW107 195.300000   TFLOW207 238.700000
    CLASS606 BOUND606 1.000000   YIELD606 275.000000
    CLASS606 REGEN107 -0.937420   REGEN707 0.937420
    CLASS606 TFLOW107 247.500000   TFLOW207 302.500000
    CLASS706 BOUND706 1.000000   YIELD606 298.000000
    CLASS706 REGEN107 -0.937420   REGEN807 0.937420
    CLASS706 TFLOW107 268.200000   TFLOW207 327.800000
    CLASS806 BOUND806 1.000000   YIELD606 306.000000
    CLASS806 REGEN107 -0.937420   REGEN807 0.937420
    CLASS806 TFLOW107 275.400000   TFLOW207 336.600000
    STATE106 REGEN106 1.000000   REGEN107 -0.062580
    STATE106 REGEN207 -0.937420
    STATE206 REGEN206 1.000000   REGEN107 -0.062580
    STATE206 REGEN307 -0.937420
    STATE306 BOUND306 -1.000000   REGEN306 1.000000
    STATE306 REGEN107 -0.062580   REGEN407 -0.937420
    STATE406 BOUND406 -1.000000   REGEN406 1.000000
    STATE406 REGEN107 -0.062580   REGEN507 -0.937420
    STATE506 BOUND506 -1.000000   REGEN506 1.000000
    STATE506 REGEN107 -0.062580   REGEN607 -0.937420
    STATE606 BOUND606 -1.000000   REGEN606 1.000000
    STATE606 REGEN107 -0.062580   REGEN707 -0.937420
    STATE706 BOUND706 -1.000000   REGEN706 1.000000
    STATE706 REGEN107 -0.062580   REGEN807 -0.937420
    STATE806 BOUND806 -1.000000   REGEN806 1.000000
    STATE806 REGEN107 -0.062580   REGEN807 -0.937420
    BALAN606 HARV     -0.607287   TFLOW106 -1.000000
    BALAN606 TFLOW206 -1.000000   YIELD606 -1.000000
    PNLTY606 HARV     33.550000   TFLOW106 -1.000000
    CLASS307 HARV     198.203000   BOUND307 1.000000
    CLASS307 YIELD707 16.000000
    CLASS407 HARV     222.975000   BOUND407 1.000000
    CLASS407 YIELD707 107.000000
    CLASS507 HARV     252.173000   BOUND507 1.000000
    CLASS507 YIELD707 217.000000
    CLASS607 HARV     281.025000   BOUND607 1.000000
    CLASS607 YIELD707 275.000000
    CLASS707 HARV     292.467000   BOUND707 1.000000
    CLASS707 YIELD707 298.000000
    CLASS807 HARV     296.446000   BOUND807 1.000000
    CLASS807 YIELD707 306.000000
    STATE107 HARV     -159.355000   REGEN107 1.000000
    STATE207 HARV     -177.186000   REGEN207 1.000000
    STATE307 HARV     -198.203000   BOUND307 -1.000000
    STATE307 REGEN307 1.000000
    STATE407 HARV     -222.975000   BOUND407 -1.000000
    STATE407 REGEN407 1.000000
    STATE507 HARV     -252.173000   BOUND507 -1.000000
    STATE507 REGEN507 1.000000
    STATE607 HARV     -281.025000   BOUND607 -1.000000
    STATE607 REGEN607 1.000000
    STATE707 HARV     -292.467000   BOUND707 -1.000000
    STATE707 REGEN707 1.000000
    STATE807 HARV     -296.446000   BOUND807 -1.000000
    STATE807 REGEN807 1.000000
    BALAN707 HARV     -0.549633   TFLOW107 -1.000000
    BALAN707 TFLOW207 -1.000000   YIELD707 -1.000000
    PNLTY707 HARV     30.360000   TFLOW107 -1.000000
    SLACK45040 BOUND301 1.000000
    SLACK45041 BOUND401 1.000000
    SLACK45042 BOUND501 1.000000
    SLACK45043 BOUND601 1.000000
    SLACK45044 BOUND701 1.000000
    SLACK45045 BOUND801 1.000000
    SLACK45046 BOUND302 1.000000
    SLACK45047 BOUND402 1.000000
    SLACK45048 BOUND502 1.000000
    SLACK45049 BOUND602 1.000000
    SLACK45050 BOUND702 1.000000
    SLACK45051 BOUND802 1.000000
    SLACK45052 TFLOW102 1.000000
    SLACK45053 TFLOW202 -1.000000
    SLACK45054 BOUND303 1.000000
    SLACK45055 BOUND403 1.000000
    SLACK45056 BOUND503 1.000000
    SLACK45057 BOUND603 1.000000
    SLACK45058 BOUND703 1.000000
    SLACK45059 BOUND803 1.000000
    SLACK45060 TFLOW103 1.000000
    SLACK45061 TFLOW203 -1.000000
    SLACK45062 BOUND304 1.000000
    SLACK45063 BOUND404 1.000000
    SLACK45064 BOUND504 1.000000
    SLACK45065 BOUND604 1.000000
    SLACK45066 BOUND704 1.000000
    SLACK45067 BOUND804 1.000000
    SLACK45068 TFLOW104 1.000000
    SLACK45069 TFLOW204 -1.000000
    SLACK45070 BOUND305 1.000000
    SLACK45071 BOUND405 1.000000
    SLACK45072 BOUND505 1.000000
    SLACK45073 BOUND605 1.000000
    SLACK45074 BOUND705 1.000000
    SLACK45075 BOUND805 1.000000
    SLACK45076 TFLOW105 1.000000
    SLACK45077 TFLOW205 -1.000000
    SLACK45078 BOUND306 1.000000
    SLACK45079 BOUND406 1.000000
    SLACK45080 BOUND506 1.000000
    SLACK45081 BOUND606 1.000000
    SLACK45082 BOUND706 1.000000
    SLACK45083 BOUND806 1.000000
    SLACK45084 TFLOW106 1.000000
    SLACK45085 TFLOW206 -1.000000
    SLACK45086 BOUND307 1.000000
    SLACK45087 BOUND407 1.000000
    SLACK45088 BOUND507 1.000000
    SLACK45089 BOUND607 1.000000
    SLACK45090 BOUND707 1.000000
    SLACK45091 BOUND807 1.000000
    SLACK45092 TFLOW107 1.000000
    SLACK45093 TFLOW207 -1.000000
RHS
    RHS      REGEN101 0.241000
    RHS      REGEN201 0.125000
    RHS      REGEN301 1.404000
    RHS      REGEN401 2.004000
    RHS      REGEN501 9.768000
    RHS      REGEN601 16.385000
    RHS      REGEN701 2.815000
    RHS      REGEN801 61.995000
BOUNDS
ENDATA
