NAME          VTP.BASE
ROWS
 E  FIC.....
 E  FIP.....
 E  FOC.....
 E  FPC.....
 E  FRP.....
 E  FSC.....
 N  FAT...J.
 E  B...G1TA
 E  B...G2TA
 E  B...G3TA
 E  B...G4TA
 E  LY....TA
 E  T.....TA
 E  B...G1TB
 E  B...G2TB
 E  B...G3TB
 E  B...G4TB
 E  LY....TB
 E  T.....TB
 E  B...G1TC
 E  B...G2TC
 E  B...G3TC
 E  B...G4TC
 E  LY....TC
 E  T.....TC
 E  B...G1TD
 E  B...G2TD
 E  B...G3TD
 E  B...G4TD
 E  LY....TD
 E  T.....TD
 E  B...G1TE
 E  B...G2TE
 E  B...G3TE
 E  B...G4TE
 E  LY....TE
 E  T.....TE
 E  B...G1TF
 E  B...G2TF
 E  B...G3TF
 E  B...G4TF
 E  LY....TF
 E  T.....TF
 E  B...G1TG
 E  B...G2TG
 E  B...G3TG
 E  B...G4TG
 E  LY....TG
 E  T.....TG
 E  B...G1TH
 E  B...G2TH
 E  B...G3TH
 E  B...G4TH
 E  LY....TH
 E  T.....TH
 E  LBL1....
 E  LMP1..TA
 E  LNP1..TA
 E  LMP1..TB
 E  LNP1..TB
 E  R.P1..TB
 E  LMP1..TC
 E  LNP1..TC
 E  LBL1MNTC
 E  LBL1MXTC
 E  R.P1..TC
 E  LMP1..TD
 E  LNP1..TD
 E  LBL1MNTD
 E  LBL1MXTD
 E  R.P1..TD
 E  LMP1..TE
 E  LNP1..TE
 E  LBL1MNTE
 E  LBL1MXTE
 E  R.P1..TE
 E  LMP1..TF
 E  LNP1..TF
 E  LBL1MNTF
 E  LBL1MXTF
 E  R.P1..TF
 E  LMP1..TG
 E  LNP1..TG
 E  LBL1MNTG
 E  LBL1MXTG
 E  R.P1..TG
 E  BS.12.TH
 E  BS.123TH
 E  BS.124TH
 E  BS.13.TH
 E  BS.134TH
 E  BS.14.TH
 E  LMP1..TH
 E  LNP1..TH
 E  R.P1..TH
 E  LMP2..TA
 E  LNP2..TA
 E  LMP2..TB
 E  LNP2..TB
 E  R.P2..TB
 E  LMP2..TC
 E  LNP2..TC
 E  R.P2..TC
 E  LMP2..TD
 E  LNP2..TD
 E  R.P2..TD
 E  LMP2..TE
 E  LNP2..TE
 E  R.P2..TE
 E  LMP2..TF
 E  LNP2..TF
 E  R.P2..TF
 E  LMP2..TG
 E  LNP2..TG
 E  R.P2..TG
 E  BS.23.TH
 E  BS.234TH
 E  BS.24.TH
 E  LMP2..TH
 E  LNP2..TH
 E  R.P2..TH
 E  LMP3..TA
 E  LNP3..TA
 E  LSP3..TA
 E  LMP3..TB
 E  LNP3..TB
 E  LSP3..TB
 E  R.P3..TB
 E  LMP3..TC
 E  LNP3..TC
 E  LSP3..TC
 E  R.P3..TC
 E  LMP3..TD
 E  LNP3..TD
 E  LSP3..TD
 E  R.P3..TD
 E  LMP3..TE
 E  LNP3..TE
 E  LSP3..TE
 E  R.P3..TE
 E  LMP3..TF
 E  LNP3..TF
 E  LSP3..TF
 E  R.P3..TF
 E  LMP3..TG
 E  LNP3..TG
 E  LSP3..TG
 E  R.P3..TG
 E  BS.34.TH
 E  LMP3..TH
 E  LNP3..TH
 E  LSP3..TH
 E  R.P3..TH
 E  LMP4..TA
 E  LNP4..TA
 E  LMP4..TB
 E  LNP4..TB
 E  R.P4..TB
 E  LMP4..TC
 E  LNP4..TC
 E  R.P4..TC
 E  LMP4..TD
 E  LNP4..TD
 E  R.P4..TD
 E  LMP4..TE
 E  LNP4..TE
 E  R.P4..TE
 E  LMP4..TF
 E  LNP4..TF
 E  R.P4..TF
 E  LMP4..TG
 E  LNP4..TG
 E  R.P4..TG
 E  LMP4..TH
 E  LNP4..TH
 E  R.P4..TH
 E  LMP5..TA
 E  LNP5..TA
 E  LMP5..TB
 E  LNP5..TB
 E  R.P5..TB
 E  LMP5..TC
 E  LNP5..TC
 E  R.P5..TC
 E  LMP5..TD
 E  LNP5..TD
 E  R.P5..TD
 E  LMP5..TE
 E  LNP5..TE
 E  R.P5..TE
 E  LMP5..TF
 E  LNP5..TF
 E  R.P5..TF
 E  LMP5..TG
 E  LNP5..TG
 E  R.P5..TG
 E  LMP5..TH
 E  LNP5..TH
 E  R.P5..TH
 E  UPBROW4333
 E  LOBROW4334
 E  LOBROW4335
 E  LOBROW4336
 E  LOBROW4337
 E  LOBROW4338
 E  LOBROW4339
 E  LOBROW4340
 E  LOBROW4341
 E  LOBROW4342
 E  LOBROW4343
 E  LOBROW4344
 E  LOBROW4345
 E  LOBROW4346
 E  LOBROW4347
 E  LOBROW4348
 E  LOBROW4349
 E  LOBROW4350
 E  LOBROW4351
 E  LOBROW4352
 E  LOBROW4353
 E  LOBROW4354
 E  LOBROW4355
 E  LOBROW4356
 E  LOBROW4357
 E  LOBROW4358
 E  LOBROW4359
 E  LOBROW4360
 E  LOBROW4361
 E  LOBROW4362
 E  LOBROW4363
 E  LOBROW4364
 E  LOBROW4365
 E  UPBROW4366
 E  UPBROW4367
 E  UPBROW4368
 E  UPBROW4369
 E  UPBROW4370
 E  UPBROW4371
 E  UPBROW4372
 E  UPBROW4373
 E  UPBROW4374
 E  UPBROW4375
 E  UPBROW4376
 E  UPBROW4377
 E  UPBROW4378
 E  UPBROW4379
 E  UPBROW4380
 E  UPBROW4381
 E  UPBROW4382
 E  UPBROW4383
 E  UPBROW4384
 E  UPBROW4385
 E  UPBROW4386
 E  UPBROW4387
 E  UPBROW4388
 E  UPBROW4389
 E  UPBROW4390
 E  UPBROW4391
 E  UPBROW4392
 E  UPBROW4393
 E  UPBROW4394
 E  UPBROW4395
 E  UPBROW4396
 E  UPBROW4397
 E  UPBROW4398
 E  UPBROW4399
 E  UPBROW4400
 E  UPBROW4401
 E  UPBROW4402
 E  UPBROW4403
 E  UPBROW4404
 E  UPBROW4405
 E  UPBROW4406
 E  UPBROW4407
 E  UPBROW4408
 E  UPBROW4409
 E  UPBROW4410
 E  UPBROW4411
 E  UPBROW4412
 E  UPBROW4413
 E  UPBROW4414
 E  UPBROW4415
 E  UPBROW4416
 E  UPBROW4417
 E  UPBROW4418
 E  UPBROW4419
 E  UPBROW4420
 E  UPBROW4421
 E  UPBROW4422
 E  UPBROW4423
 E  UPBROW4424
 E  UPBROW4425
 E  UPBROW4426
 E  UPBROW4427
 E  UPBROW4428
 E  UPBROW4429
 E  UPBROW4430
 E  UPBROW4431
 E  UPBROW4432
 E  UPBROW4433
 E  UPBROW4434
 E  UPBROW4435
 E  UPBROW4436
 E  UPBROW4437
 E  UPBROW4438
 E  UPBROW4439
 E  UPBROW4440
 E  UPBROW4441
 E  UPBROW4442
 E  UPBROW4443
 E  UPBROW4444
 E  UPBROW4445
 E  UPBROW4446
 E  UPBROW4447
 E  UPBROW4448
 E  UPBROW4449
 E  UPBROW4450
 E  UPBROW4451
 E  UPBROW4452
 E  UPBROW4453
 E  UPBROW4454
 E  UPBROW4455
 E  UPBROW4456
 E  UPBROW4457
 E  UPBROW4458
 E  UPBROW4459
 E  UPBROW4460
 E  UPBROW4461
COLUMNS
    FIC..... FIC..... -1.000000   FAT...J. 1.000000
    FIP..... FIP..... -1.000000   FAT...J. 1.000000
    FOC..... FOC..... -1.000000   FAT...J. 1.000000
    FPC..... FPC..... -1.000000   FAT...J. 1.000000
    FRP..... FRP..... -1.000000   FAT...J. 1.000000
    FSC..... FSC..... -1.000000   FAT...J. 1.000000
    KL..TCL1 LBL1.... 1.000000   LBL1MNTC 100.000000
    KL..TCL1 LBL1MXTC 180.000000   FIC..... 1109.589040
    KL..TCL1 B...G3TC -300.000000   UPBROW4333 1.000000
    NEGFOC.....6574 FOC..... 1.000000   FAT...J. -1.000000
    YTP5..TH LMP5..TH 1.000000   LNP5..TH -1.000000
    YTP5..TH T.....TH 1.000000
    P.P5..TH R.P5..TH -1.000000   FSC..... 1.000000
    NEGINVAG3TF6597 B...G3TF 1.000000   FIP..... 37.500000
    NEGINVAG3TF6597 B...G3TG -1.000000   UPBROW4410 1.000000
    YTP5..TG LMP5..TG 1.000000   LNP5..TG -1.000000
    YTP5..TG T.....TG 1.000000
    P.P5..TG R.P5..TG -1.000000   FSC..... 1.000000
    KYP5..TG LMP5..TG -60.000000   LNP5..TG 20.000000
    KYP5..TG LY....TG 1.000000   R.P5..TG 4000.000000
    KYP5..TG UPBROW4461 1.000000
    YTP5..TF LMP5..TF 1.000000   LNP5..TF -1.000000
    YTP5..TF T.....TF 1.000000
    INV.G1TA B...G1TA -1.000000   FIC..... 3.698630
    INV.G1TA B...G1TB 1.000000   LOBROW4334 1.000000
    INV.G2TA B...G2TA -1.000000   FIC..... 3.698630
    INV.G2TA B...G2TB 1.000000   LOBROW4335 1.000000
    INV.G3TA B...G3TA -1.000000   FIC..... 3.698630
    INV.G3TA B...G3TB 1.000000   LOBROW4336 1.000000
    INV.G4TA B...G4TA -1.000000   FIC..... 3.698630
    INV.G4TA B...G4TB 1.000000   LOBROW4337 1.000000
    INV.G1TB B...G1TB -1.000000   FIC..... 3.698630
    INV.G1TB B...G1TC 1.000000   LOBROW4338 1.000000
    INV.G2TB B...G2TB -1.000000   FIC..... 3.698630
    INV.G2TB B...G2TC 1.000000   LOBROW4339 1.000000
    INV.G3TB B...G3TB -1.000000   FIC..... 3.698630
    INV.G3TB B...G3TC 1.000000   LOBROW4340 1.000000
    INV.G4TB B...G4TB -1.000000   FIC..... 3.698630
    INV.G4TB B...G4TC 1.000000   LOBROW4341 1.000000
    INV.G1TC B...G1TC -1.000000   FIC..... 3.698630
    INV.G1TC B...G1TD 1.000000   LOBROW4342 1.000000
    INV.G2TC B...G2TC -1.000000   FIC..... 3.698630
    INV.G2TC B...G2TD 1.000000   LOBROW4343 1.000000
    INV.G3TC B...G3TC -1.000000   FIC..... 3.698630
    INV.G3TC B...G3TD 1.000000   LOBROW4344 1.000000
    INV.G4TC B...G4TC -1.000000   FIC..... 3.698630
    INV.G4TC B...G4TD 1.000000   LOBROW4345 1.000000
    INV.G1TD B...G1TD -1.000000   FIC..... 3.698630
    INV.G1TD B...G1TE 1.000000   LOBROW4346 1.000000
    INV.G2TD B...G2TD -1.000000   FIC..... 3.698630
    INV.G2TD B...G2TE 1.000000   LOBROW4347 1.000000
    INV.G3TD B...G3TD -1.000000   FIC..... 3.698630
    INV.G3TD B...G3TE 1.000000   LOBROW4348 1.000000
    INV.G4TD B...G4TD -1.000000   FIC..... 3.698630
    INV.G4TD B...G4TE 1.000000   LOBROW4349 1.000000
    INV.G1TE B...G1TE -1.000000   FIC..... 3.698630
    INV.G1TE B...G1TF 1.000000   LOBROW4350 1.000000
    INV.G2TE B...G2TE -1.000000   FIC..... 3.698630
    INV.G2TE B...G2TF 1.000000   LOBROW4351 1.000000
    INV.G3TE B...G3TE -1.000000   FIC..... 3.698630
    INV.G3TE B...G3TF 1.000000   LOBROW4352 1.000000
    INV.G4TE B...G4TE -1.000000   FIC..... 3.698630
    INV.G4TE B...G4TF 1.000000   LOBROW4353 1.000000
    INV.G1TF B...G1TF -1.000000   FIC..... 3.698630
    INV.G1TF B...G1TG 1.000000   LOBROW4354 1.000000
    INV.G2TF B...G2TF -1.000000   FIC..... 3.698630
    INV.G2TF B...G2TG 1.000000   LOBROW4355 1.000000
    INV.G3TF B...G3TF -1.000000   FIC..... 3.698630
    INV.G3TF B...G3TG 1.000000   LOBROW4356 1.000000
    INV.G4TF B...G4TF -1.000000   FIC..... 3.698630
    INV.G4TF B...G4TG 1.000000   LOBROW4357 1.000000
    INV.G1TG B...G1TG -1.000000   FIC..... 3.698630
    INV.G1TG B...G1TH 1.000000   LOBROW4358 1.000000
    INV.G2TG B...G2TG -1.000000   FIC..... 3.698630
    INV.G2TG B...G2TH 1.000000   LOBROW4359 1.000000
    INV.G3TG B...G3TG -1.000000   FIC..... 3.698630
    INV.G3TG B...G3TH 1.000000   LOBROW4360 1.000000
    INV.G4TG B...G4TG -1.000000   FIC..... 3.698630
    INV.G4TG B...G4TH 1.000000   LOBROW4361 1.000000
    INV.G1TH B...G1TH -1.000000   FIC..... 3.698630
    INV.G1TH BS.12.TH 2.000000   BS.123TH 0.500000
    INV.G1TH BS.124TH 0.500000   BS.13.TH 0.666670
    INV.G1TH BS.134TH 0.333330   BS.14.TH 0.666670
    INV.G1TH LOBROW4362 1.000000
    INV.G2TH B...G2TH -1.000000   FIC..... 3.698630
    INV.G2TH BS.12.TH 0.512820   BS.123TH 0.256410
    INV.G2TH BS.124TH 0.256410   BS.23.TH 0.512820
    INV.G2TH BS.234TH 0.256410   BS.24.TH 0.512820
    INV.G2TH LOBROW4363 1.000000
    INV.G3TH B...G3TH -1.000000   FIC..... 3.698630
    INV.G3TH BS.123TH 0.200000   BS.13.TH 0.266670
    INV.G3TH BS.134TH 0.133330   BS.23.TH 0.800000
    INV.G3TH BS.234TH 0.200000   BS.34.TH 0.266670
    INV.G3TH LOBROW4364 1.000000
    INV.G4TH B...G4TH -1.000000   FIC..... 3.698630
    INV.G4TH BS.124TH 0.416670   BS.134TH 0.277780
    INV.G4TH BS.14.TH 0.555560   BS.234TH 0.416670
    INV.G4TH BS.24.TH 1.666670   BS.34.TH 0.555560
    INV.G4TH LOBROW4365 1.000000
    INVAG1TA B...G1TA -1.000000   FIP..... -100.000000
    INVAG1TA B...G1TB 1.000000   UPBROW4367 1.000000
    INVAG2TA B...G2TA -1.000000   FIP..... -100.000000
    INVAG2TA B...G2TB 1.000000   UPBROW4369 1.000000
    INVAG3TA B...G3TA -1.000000   FIP..... -100.000000
    INVAG3TA B...G3TB 1.000000   UPBROW4371 1.000000
    INVAG4TA B...G4TA -1.000000   FIP..... -100.000000
    INVAG4TA B...G4TB 1.000000   UPBROW4373 1.000000
    INVAG1TB B...G1TB -1.000000   FIP..... -87.500000
    INVAG1TB B...G1TC 1.000000   UPBROW4375 1.000000
    INVAG2TB B...G2TB -1.000000   FIP..... -87.500000
    INVAG2TB B...G2TC 1.000000   UPBROW4377 1.000000
    INVAG3TB B...G3TB -1.000000   FIP..... -87.500000
    INVAG3TB B...G3TC 1.000000   UPBROW4379 1.000000
    INVAG4TB B...G4TB -1.000000   FIP..... -87.500000
    INVAG4TB B...G4TC 1.000000   UPBROW4381 1.000000
    INVAG1TC B...G1TC -1.000000   FIP..... -75.000000
    INVAG1TC B...G1TD 1.000000   UPBROW4383 1.000000
    INVAG2TC B...G2TC -1.000000   FIP..... -75.000000
    INVAG2TC B...G2TD 1.000000   UPBROW4385 1.000000
    INVAG3TC B...G3TC -1.000000   FIP..... -75.000000
    INVAG3TC B...G3TD 1.000000   UPBROW4387 1.000000
    INVAG4TC B...G4TC -1.000000   FIP..... -75.000000
    INVAG4TC B...G4TD 1.000000   UPBROW4389 1.000000
    INVAG1TD B...G1TD -1.000000   FIP..... -62.500000
    INVAG1TD B...G1TE 1.000000   UPBROW4391 1.000000
    INVAG2TD B...G2TD -1.000000   FIP..... -62.500000
    INVAG2TD B...G2TE 1.000000   UPBROW4393 1.000000
    INVAG3TD B...G3TD -1.000000   FIP..... -62.500000
    INVAG3TD B...G3TE 1.000000   UPBROW4395 1.000000
    INVAG4TD B...G4TD -1.000000   FIP..... -62.500000
    INVAG4TD B...G4TE 1.000000   UPBROW4397 1.000000
    INVAG1TE B...G1TE -1.000000   FIP..... -50.000000
    INVAG1TE B...G1TF 1.000000   UPBROW4399 1.000000
    INVAG2TE B...G2TE -1.000000   FIP..... -50.000000
    INVAG2TE B...G2TF 1.000000   UPBROW4401 1.000000
    INVAG3TE B...G3TE -1.000000   FIP..... -50.000000
    INVAG3TE B...G3TF 1.000000   UPBROW4403 1.000000
    INVAG4TE B...G4TE -1.000000   FIP..... -50.000000
    INVAG4TE B...G4TF 1.000000   UPBROW4405 1.000000
    INVAG1TF B...G1TF -1.000000   FIP..... -37.500000
    INVAG1TF B...G1TG 1.000000   UPBROW4407 1.000000
    INVAG2TF B...G2TF -1.000000   FIP..... -37.500000
    INVAG2TF B...G2TG 1.000000   UPBROW4409 1.000000
    INVAG3TF B...G3TF -1.000000   FIP..... -37.500000
    INVAG3TF B...G3TG 1.000000   UPBROW4411 1.000000
    INVAG4TF B...G4TF -1.000000   FIP..... -37.500000
    INVAG4TF B...G4TG 1.000000   UPBROW4413 1.000000
    INVAG1TG B...G1TG -1.000000   FIP..... -25.000000
    INVAG1TG B...G1TH 1.000000   UPBROW4415 1.000000
    INVAG2TG B...G2TG -1.000000   FIP..... -25.000000
    INVAG2TG B...G2TH 1.000000   UPBROW4417 1.000000
    INVAG3TG B...G3TG -1.000000   FIP..... -25.000000
    INVAG3TG B...G3TH 1.000000   UPBROW4419 1.000000
    INVAG4TG B...G4TG -1.000000   FIP..... -25.000000
    INVAG4TG B...G4TH 1.000000   UPBROW4421 1.000000
    INVAG1TH B...G1TH -1.000000   FIP..... -12.500000
    INVAG1TH UPBROW4423 1.000000
    INVAG2TH B...G2TH -1.000000   FIP..... -12.500000
    INVAG2TH UPBROW4425 1.000000
    INVAG3TH B...G3TH -1.000000   FIP..... -12.500000
    INVAG3TH UPBROW4427 1.000000
    INVAG4TH B...G4TH -1.000000   FIP..... -12.500000
    INVAG4TH UPBROW4429 1.000000
    NEGINVAG4TH6606 B...G4TH 1.000000   FIP..... 12.500000
    NEGINVAG4TH6606 UPBROW4428 1.000000
    TIME..TA B...G1TA -10.000000   B...G2TA -13.000000
    TIME..TA B...G3TA -25.000000   B...G4TA -12.000000
    TIME..TA T.....TA -1.000000   B...G1TB 10.000000
    TIME..TA B...G2TB 13.000000   B...G3TB 25.000000
    TIME..TA B...G4TB 12.000000   T.....TB 1.000000
    TIME..TB B...G1TB -10.000000   B...G2TB -13.000000
    TIME..TB B...G3TB -25.000000   B...G4TB -12.000000
    TIME..TB T.....TB -1.000000   B...G1TC 10.000000
    TIME..TB B...G2TC 13.000000   B...G3TC 25.000000
    TIME..TB B...G4TC 12.000000   T.....TC 1.000000
    TIME..TB LBL1MXTC 1.000000
    TIME..TC B...G1TC -10.000000   B...G2TC -13.000000
    TIME..TC B...G3TC -25.000000   B...G4TC -12.000000
    TIME..TC T.....TC -1.000000   B...G1TD 10.000000
    TIME..TC B...G2TD 13.000000   B...G3TD 25.000000
    TIME..TC B...G4TD 12.000000   T.....TD 1.000000
    TIME..TC LBL1MNTC -1.000000   LBL1MXTD 1.000000
    TIME..TD B...G1TD -10.000000   B...G2TD -13.000000
    TIME..TD B...G3TD -25.000000   B...G4TD -12.000000
    TIME..TD T.....TD -1.000000   B...G1TE 10.000000
    TIME..TD B...G2TE 13.000000   B...G3TE 25.000000
    TIME..TD B...G4TE 12.000000   T.....TE 1.000000
    TIME..TD LBL1MNTD -1.000000   LBL1MXTE 1.000000
    TIME..TE B...G1TE -10.000000   B...G2TE -13.000000
    TIME..TE B...G3TE -25.000000   B...G4TE -12.000000
    TIME..TE T.....TE -1.000000   B...G1TF 10.000000
    TIME..TE B...G2TF 13.000000   B...G3TF 25.000000
    TIME..TE B...G4TF 12.000000   T.....TF 1.000000
    TIME..TE LBL1MNTE -1.000000   LBL1MXTF 1.000000
    TIME..TF B...G1TF -10.000000   B...G2TF -13.000000
    TIME..TF B...G3TF -25.000000   B...G4TF -12.000000
    TIME..TF T.....TF -1.000000   B...G1TG 10.000000
    TIME..TF B...G2TG 13.000000   B...G3TG 25.000000
    TIME..TF B...G4TG 12.000000   T.....TG 1.000000
    TIME..TF LBL1MNTF -1.000000   LBL1MXTG 1.000000
    TIME..TG B...G1TG -10.000000   B...G2TG -13.000000
    TIME..TG B...G3TG -25.000000   B...G4TG -12.000000
    TIME..TG T.....TG -1.000000   B...G1TH 10.000000
    TIME..TG B...G2TH 13.000000   B...G3TH 25.000000
    TIME..TG B...G4TH 12.000000   T.....TH 1.000000
    TIME..TG LBL1MNTG -1.000000
    NEGINVAG3TH6605 B...G3TH 1.000000   FIP..... 12.500000
    NEGINVAG3TH6605 UPBROW4426 1.000000
    KYP1..TA B...G1TA -50.000000   LMP1..TA -60.000000
    KYP1..TA LNP1..TA 15.000000   LY....TA 1.000000
    KYP1..TA R.P2..TB 4000.000000   R.P3..TB 3000.000000
    KYP1..TA R.P4..TB 4000.000000   R.P5..TB 2500.000000
    KYP1..TA UPBROW4430 1.000000
    YTP1..TA B...G1TA 80.000000   LMP1..TA 1.000000
    YTP1..TA LNP1..TA -1.000000   T.....TA 1.000000
    YTP1..TA FOC..... 60.000000
    KYP1..TB B...G1TB -50.000000   LMP1..TB -60.000000
    KYP1..TB LNP1..TB 15.000000   LY....TB 1.000000
    KYP1..TB R.P1..TB 4000.000000   R.P2..TC 4000.000000
    KYP1..TB R.P3..TC 3000.000000   R.P4..TC 4000.000000
    KYP1..TB R.P5..TC 2500.000000   UPBROW4431 1.000000
    P.P1..TB R.P1..TB -1.000000   FSC..... 1.000000
    YTP1..TB B...G1TB 80.000000   LMP1..TB 1.000000
    YTP1..TB LNP1..TB -1.000000   T.....TB 1.000000
    YTP1..TB FOC..... 60.000000
    KYP1..TC B...G1TC -50.000000   LMP1..TC -60.000000
    KYP1..TC LNP1..TC 15.000000   LY....TC 1.000000
    KYP1..TC R.P1..TC 4000.000000   R.P2..TD 4000.000000
    KYP1..TC R.P3..TD 3000.000000   R.P4..TD 4000.000000
    KYP1..TC R.P5..TD 2500.000000   UPBROW4432 1.000000
    P.P1..TC R.P1..TC -1.000000   FSC..... 1.000000
    YTP1..TC B...G1TC 80.000000   LMP1..TC 1.000000
    YTP1..TC LNP1..TC -1.000000   T.....TC 1.000000
    YTP1..TC FOC..... 60.000000
    NEGINVAG2TH6604 B...G2TH 1.000000   FIP..... 12.500000
    NEGINVAG2TH6604 UPBROW4424 1.000000
    P.P1..TD R.P1..TD -1.000000   FSC..... 1.000000
    YTP1..TD B...G1TD 80.000000   LMP1..TD 1.000000
    YTP1..TD LNP1..TD -1.000000   T.....TD 1.000000
    YTP1..TD FOC..... 60.000000
    KYP1..TE B...G1TE -50.000000   LMP1..TE -60.000000
    KYP1..TE LNP1..TE 15.000000   LY....TE 1.000000
    KYP1..TE R.P1..TE 4000.000000   R.P2..TF 4000.000000
    KYP1..TE R.P3..TF 3000.000000   R.P4..TF 4000.000000
    KYP1..TE R.P5..TF 2500.000000   UPBROW4433 1.000000
    P.P1..TE R.P1..TE -1.000000   FSC..... 1.000000
    YTP1..TE B...G1TE 80.000000   LMP1..TE 1.000000
    YTP1..TE LNP1..TE -1.000000   T.....TE 1.000000
    YTP1..TE FOC..... 60.000000
    KYP1..TF B...G1TF -50.000000   LMP1..TF -60.000000
    KYP1..TF LNP1..TF 15.000000   LY....TF 1.000000
    KYP1..TF R.P1..TF 4000.000000   R.P2..TG 4000.000000
    KYP1..TF R.P3..TG 3000.000000   R.P4..TG 4000.000000
    KYP1..TF R.P5..TG 2500.000000   UPBROW4434 1.000000
    P.P1..TF R.P1..TF -1.000000   FSC..... 1.000000
    YTP1..TF B...G1TF 80.000000   LMP1..TF 1.000000
    YTP1..TF LNP1..TF -1.000000   T.....TF 1.000000
    YTP1..TF FOC..... 60.000000
    KYP1..TG B...G1TG -50.000000   LMP1..TG -60.000000
    KYP1..TG LNP1..TG 15.000000   LY....TG 1.000000
    KYP1..TG R.P1..TG 4000.000000   R.P2..TH 4000.000000
    KYP1..TG R.P3..TH 3000.000000   R.P4..TH 4000.000000
    KYP1..TG R.P5..TH 2500.000000   UPBROW4435 1.000000
    P.P1..TG R.P1..TG -1.000000   FSC..... 1.000000
    YTP1..TG B...G1TG 80.000000   LMP1..TG 1.000000
    YTP1..TG LNP1..TG -1.000000   T.....TG 1.000000
    YTP1..TG FOC..... 60.000000
    KYP1..TH B...G1TH -50.000000   LMP1..TH -60.000000
    KYP1..TH LNP1..TH 15.000000   LY....TH 1.000000
    KYP1..TH R.P1..TH 4000.000000   UPBROW4436 1.000000
    P.P1..TH R.P1..TH -1.000000   FSC..... 1.000000
    YTP1..TH B...G1TH 80.000000   LMP1..TH 1.000000
    YTP1..TH LNP1..TH -1.000000   T.....TH 1.000000
    YTP1..TH FOC..... 60.000000
    KYP2..TA B...G2TA -20.000000   LMP2..TA -60.000000
    KYP2..TA LNP2..TA 5.000000   LY....TA 1.000000
    KYP2..TA LSP3..TB -1.000000   R.P1..TB 4000.000000
    KYP2..TA R.P3..TB 4000.000000   R.P4..TB 3000.000000
    KYP2..TA R.P5..TB 2000.000000   UPBROW4437 1.000000
    YTP2..TA B...G2TA 93.000000   LMP2..TA 1.000000
    YTP2..TA LNP2..TA -1.000000   T.....TA 1.000000
    YTP2..TA FOC..... 30.000000
    NEGINVAG1TH6603 B...G1TH 1.000000   FIP..... 12.500000
    NEGINVAG1TH6603 UPBROW4422 1.000000
    P.P2..TB R.P2..TB -1.000000   FSC..... 1.000000
    YTP2..TB B...G2TB 93.000000   LMP2..TB 1.000000
    YTP2..TB LNP2..TB -1.000000   T.....TB 1.000000
    YTP2..TB FOC..... 30.000000
    KYP2..TC B...G2TC -20.000000   LMP2..TC -60.000000
    KYP2..TC LNP2..TC 5.000000   LY....TC 1.000000
    KYP2..TC LSP3..TB -1.000000   R.P2..TC 4000.000000
    KYP2..TC LSP3..TD -1.000000   R.P1..TD 4000.000000
    KYP2..TC R.P3..TD 4000.000000   R.P4..TD 3000.000000
    KYP2..TC R.P5..TD 2000.000000   UPBROW4438 1.000000
    P.P2..TC R.P2..TC -1.000000   FSC..... 1.000000
    YTP2..TC B...G2TC 93.000000   LMP2..TC 1.000000
    YTP2..TC LNP2..TC -1.000000   T.....TC 1.000000
    YTP2..TC FOC..... 30.000000
    KYP2..TD B...G2TD -20.000000   LMP2..TD -60.000000
    KYP2..TD LNP2..TD 5.000000   LY....TD 1.000000
    KYP2..TD LSP3..TC -1.000000   R.P2..TD 4000.000000
    KYP2..TD LSP3..TE -1.000000   R.P1..TE 4000.000000
    KYP2..TD R.P3..TE 4000.000000   R.P4..TE 3000.000000
    KYP2..TD R.P5..TE 2000.000000   UPBROW4439 1.000000
    P.P2..TD R.P2..TD -1.000000   FSC..... 1.000000
    YTP2..TD B...G2TD 93.000000   LMP2..TD 1.000000
    YTP2..TD LNP2..TD -1.000000   T.....TD 1.000000
    YTP2..TD FOC..... 30.000000
    KYP2..TE B...G2TE -20.000000   LMP2..TE -60.000000
    KYP2..TE LNP2..TE 5.000000   LY....TE 1.000000
    KYP2..TE LSP3..TD -1.000000   R.P2..TE 4000.000000
    KYP2..TE LSP3..TF -1.000000   R.P1..TF 4000.000000
    KYP2..TE R.P3..TF 4000.000000   R.P4..TF 3000.000000
    KYP2..TE R.P5..TF 2000.000000   UPBROW4440 1.000000
    P.P2..TE R.P2..TE -1.000000   FSC..... 1.000000
    YTP2..TE B...G2TE 93.000000   LMP2..TE 1.000000
    YTP2..TE LNP2..TE -1.000000   T.....TE 1.000000
    YTP2..TE FOC..... 30.000000
    NEGINVAG4TG6602 B...G4TG 1.000000   FIP..... 25.000000
    NEGINVAG4TG6602 B...G4TH -1.000000   UPBROW4420 1.000000
    P.P2..TF R.P2..TF -1.000000   FSC..... 1.000000
    YTP2..TF B...G2TF 93.000000   LMP2..TF 1.000000
    YTP2..TF LNP2..TF -1.000000   T.....TF 1.000000
    YTP2..TF FOC..... 30.000000
    KYP2..TG B...G2TG -20.000000   LMP2..TG -60.000000
    KYP2..TG LNP2..TG 5.000000   LY....TG 1.000000
    KYP2..TG LSP3..TF -1.000000   R.P2..TG 4000.000000
    KYP2..TG LSP3..TH -1.000000   R.P1..TH 4000.000000
    KYP2..TG R.P3..TH 4000.000000   R.P4..TH 3000.000000
    KYP2..TG R.P5..TH 2000.000000   UPBROW4441 1.000000
    P.P2..TG R.P2..TG -1.000000   FSC..... 1.000000
    YTP2..TG B...G2TG 93.000000   LMP2..TG 1.000000
    YTP2..TG LNP2..TG -1.000000   T.....TG 1.000000
    YTP2..TG FOC..... 30.000000
    KYP2..TH B...G2TH -20.000000   LMP2..TH -60.000000
    KYP2..TH LNP2..TH 5.000000   LY....TH 1.000000
    KYP2..TH LSP3..TG -1.000000   R.P2..TH 4000.000000
    KYP2..TH UPBROW4442 1.000000
    P.P2..TH R.P2..TH -1.000000   FSC..... 1.000000
    YTP2..TH B...G2TH 93.000000   LMP2..TH 1.000000
    YTP2..TH LNP2..TH -1.000000   T.....TH 1.000000
    YTP2..TH FOC..... 30.000000
    NEGINVAG3TG6601 B...G3TG 1.000000   FIP..... 25.000000
    NEGINVAG3TG6601 B...G3TH -1.000000   UPBROW4418 1.000000
    YTP3..TA B...G3TA 65.000000   LMP3..TA 1.000000
    YTP3..TA LNP3..TA -1.000000   T.....TA 1.000000
    YTP3..TA FOC..... 40.000000
    KYP3..TB B...G3TB -50.000000   LMP3..TB -60.000000
    KYP3..TB LNP3..TB 15.000000   LY....TB 1.000000
    KYP3..TB LSP3..TB 1.000000   R.P3..TB 4000.000000
    KYP3..TB R.P1..TC 4000.000000   R.P2..TC 3000.000000
    KYP3..TB R.P4..TC 4000.000000   R.P5..TC 2500.000000
    KYP3..TB UPBROW4443 1.000000
    P.P3..TB R.P3..TB -1.000000   FSC..... 1.000000
    YTP3..TB B...G3TB 65.000000   LMP3..TB 1.000000
    YTP3..TB LNP3..TB -1.000000   T.....TB 1.000000
    YTP3..TB FOC..... 40.000000
    KYP3..TC B...G3TC -50.000000   LMP3..TC -60.000000
    KYP3..TC LNP3..TC 15.000000   LY....TC 1.000000
    KYP3..TC LSP3..TC 1.000000   R.P3..TC 4000.000000
    KYP3..TC R.P1..TD 4000.000000   R.P2..TD 3000.000000
    KYP3..TC R.P4..TD 4000.000000   R.P5..TD 2500.000000
    KYP3..TC UPBROW4444 1.000000
    P.P3..TC R.P3..TC -1.000000   FSC..... 1.000000
    YTP3..TC B...G3TC 65.000000   LMP3..TC 1.000000
    YTP3..TC LNP3..TC -1.000000   T.....TC 1.000000
    YTP3..TC FOC..... 40.000000
    KYP3..TD B...G3TD -50.000000   LMP3..TD -60.000000
    KYP3..TD LNP3..TD 15.000000   LY....TD 1.000000
    KYP3..TD LSP3..TD 1.000000   R.P3..TD 4000.000000
    KYP3..TD R.P1..TE 4000.000000   R.P2..TE 3000.000000
    KYP3..TD R.P4..TE 4000.000000   R.P5..TE 2500.000000
    KYP3..TD UPBROW4445 1.000000
    P.P3..TD R.P3..TD -1.000000   FSC..... 1.000000
    YTP3..TD B...G3TD 65.000000   LMP3..TD 1.000000
    YTP3..TD LNP3..TD -1.000000   T.....TD 1.000000
    YTP3..TD FOC..... 40.000000
    NEGINVAG2TG6600 B...G2TG 1.000000   FIP..... 25.000000
    NEGINVAG2TG6600 B...G2TH -1.000000   UPBROW4416 1.000000
    P.P3..TE R.P3..TE -1.000000   FSC..... 1.000000
    YTP3..TE B...G3TE 65.000000   LMP3..TE 1.000000
    YTP3..TE LNP3..TE -1.000000   T.....TE 1.000000
    YTP3..TE FOC..... 40.000000
    KYP3..TF B...G3TF -50.000000   LMP3..TF -60.000000
    KYP3..TF LNP3..TF 15.000000   LY....TF 1.000000
    KYP3..TF LSP3..TF 1.000000   R.P3..TF 4000.000000
    KYP3..TF R.P1..TG 4000.000000   R.P2..TG 3000.000000
    KYP3..TF R.P4..TG 4000.000000   R.P5..TG 2500.000000
    KYP3..TF UPBROW4446 1.000000
    P.P3..TF R.P3..TF -1.000000   FSC..... 1.000000
    YTP3..TF B...G3TF 65.000000   LMP3..TF 1.000000
    YTP3..TF LNP3..TF -1.000000   T.....TF 1.000000
    YTP3..TF FOC..... 40.000000
    NEGINVAG1TG6599 B...G1TG 1.000000   FIP..... 25.000000
    NEGINVAG1TG6599 B...G1TH -1.000000   UPBROW4414 1.000000
    P.P3..TG R.P3..TG -1.000000   FSC..... 1.000000
    YTP3..TG B...G3TG 65.000000   LMP3..TG 1.000000
    YTP3..TG LNP3..TG -1.000000   T.....TG 1.000000
    YTP3..TG FOC..... 40.000000
    KYP3..TH B...G3TH -50.000000   LMP3..TH -60.000000
    KYP3..TH LNP3..TH 15.000000   LY....TH 1.000000
    KYP3..TH LSP3..TH 1.000000   R.P3..TH 4000.000000
    KYP3..TH UPBROW4447 1.000000
    P.P3..TH R.P3..TH -1.000000   FSC..... 1.000000
    YTP3..TH B...G3TH 65.000000   LMP3..TH 1.000000
    YTP3..TH LNP3..TH -1.000000   T.....TH 1.000000
    YTP3..TH FOC..... 40.000000
    KYP4..TA B...G4TA -50.000000   LMP4..TA -60.000000
    KYP4..TA LNP4..TA 15.000000   LY....TA 1.000000
    KYP4..TA R.P1..TB 3000.000000   R.P2..TB 4000.000000
    KYP4..TA R.P3..TB 4000.000000   R.P5..TB 2500.000000
    KYP4..TA UPBROW4448 1.000000
    YTP4..TA B...G4TA 92.000000   LMP4..TA 1.000000
    YTP4..TA LNP4..TA -1.000000   T.....TA 1.000000
    YTP4..TA FOC..... 50.000000
    KYP4..TB B...G4TB -50.000000   LMP4..TB -60.000000
    KYP4..TB LNP4..TB 15.000000   LY....TB 1.000000
    KYP4..TB R.P4..TB 4000.000000   R.P1..TC 3000.000000
    KYP4..TB R.P2..TC 4000.000000   R.P3..TC 4000.000000
    KYP4..TB R.P5..TC 2500.000000   UPBROW4449 1.000000
    P.P4..TB R.P4..TB -1.000000   FSC..... 1.000000
    YTP4..TB B...G4TB 92.000000   LMP4..TB 1.000000
    YTP4..TB LNP4..TB -1.000000   T.....TB 1.000000
    YTP4..TB FOC..... 50.000000
    NEGINVAG4TF6598 B...G4TF 1.000000   FIP..... 37.500000
    NEGINVAG4TF6598 B...G4TG -1.000000   UPBROW4412 1.000000
    P.P4..TC R.P4..TC -1.000000   FSC..... 1.000000
    YTP4..TC B...G4TC 92.000000   LMP4..TC 1.000000
    YTP4..TC LNP4..TC -1.000000   T.....TC 1.000000
    YTP4..TC FOC..... 50.000000
    KYP4..TD B...G4TD -50.000000   LMP4..TD -60.000000
    KYP4..TD LNP4..TD 15.000000   LY....TD 1.000000
    KYP4..TD R.P4..TD 4000.000000   R.P1..TE 3000.000000
    KYP4..TD R.P2..TE 4000.000000   R.P3..TE 4000.000000
    KYP4..TD R.P5..TE 2500.000000   UPBROW4450 1.000000
    P.P4..TD R.P4..TD -1.000000   FSC..... 1.000000
    YTP4..TD B...G4TD 92.000000   LMP4..TD 1.000000
    YTP4..TD LNP4..TD -1.000000   T.....TD 1.000000
    YTP4..TD FOC..... 50.000000
    KYP4..TE B...G4TE -50.000000   LMP4..TE -60.000000
    KYP4..TE LNP4..TE 15.000000   LY....TE 1.000000
    KYP4..TE R.P4..TE 4000.000000   R.P1..TF 3000.000000
    KYP4..TE R.P2..TF 4000.000000   R.P3..TF 4000.000000
    KYP4..TE R.P5..TF 2500.000000   UPBROW4451 1.000000
    P.P4..TE R.P4..TE -1.000000   FSC..... 1.000000
    YTP4..TE B...G4TE 92.000000   LMP4..TE 1.000000
    YTP4..TE LNP4..TE -1.000000   T.....TE 1.000000
    YTP4..TE FOC..... 50.000000
    KYP4..TF B...G4TF -50.000000   LMP4..TF -60.000000
    KYP4..TF LNP4..TF 15.000000   LY....TF 1.000000
    KYP4..TF R.P4..TF 4000.000000   R.P1..TG 3000.000000
    KYP4..TF R.P2..TG 4000.000000   R.P3..TG 4000.000000
    KYP4..TF R.P5..TG 2500.000000   UPBROW4452 1.000000
    P.P4..TF R.P4..TF -1.000000   FSC..... 1.000000
    YTP4..TF B...G4TF 92.000000   LMP4..TF 1.000000
    YTP4..TF LNP4..TF -1.000000   T.....TF 1.000000
    YTP4..TF FOC..... 50.000000
    KYP4..TG B...G4TG -50.000000   LMP4..TG -60.000000
    KYP4..TG LNP4..TG 15.000000   LY....TG 1.000000
    KYP4..TG R.P4..TG 4000.000000   R.P1..TH 3000.000000
    KYP4..TG R.P2..TH 4000.000000   R.P3..TH 4000.000000
    KYP4..TG R.P5..TH 2500.000000   UPBROW4453 1.000000
    P.P4..TG R.P4..TG -1.000000   FSC..... 1.000000
    YTP4..TG B...G4TG 92.000000   LMP4..TG 1.000000
    YTP4..TG LNP4..TG -1.000000   T.....TG 1.000000
    YTP4..TG FOC..... 50.000000
    KYP4..TH B...G4TH -50.000000   LMP4..TH -60.000000
    KYP4..TH LNP4..TH 15.000000   LY....TH 1.000000
    KYP4..TH R.P4..TH 4000.000000   UPBROW4454 1.000000
    P.P4..TH R.P4..TH -1.000000   FSC..... 1.000000
    YTP4..TH B...G4TH 92.000000   LMP4..TH 1.000000
    YTP4..TH LNP4..TH -1.000000   T.....TH 1.000000
    YTP4..TH FOC..... 50.000000
    KYP5..TA LMP5..TA -60.000000   LNP5..TA 20.000000
    KYP5..TA LY....TA 1.000000   UPBROW4455 1.000000
    YTP5..TA LMP5..TA 1.000000   LNP5..TA -1.000000
    YTP5..TA T.....TA 1.000000
    KYP5..TB LMP5..TB -60.000000   LNP5..TB 20.000000
    KYP5..TB LY....TB 1.000000   R.P5..TB 4000.000000
    KYP5..TB UPBROW4456 1.000000
    P.P5..TB R.P5..TB -1.000000   FSC..... 1.000000
    YTP5..TB LMP5..TB 1.000000   LNP5..TB -1.000000
    YTP5..TB T.....TB 1.000000
    KYP5..TC LMP5..TC -60.000000   LNP5..TC 20.000000
    KYP5..TC LY....TC 1.000000   R.P5..TC 4000.000000
    KYP5..TC UPBROW4457 1.000000
    P.P5..TC R.P5..TC -1.000000   FSC..... 1.000000
    YTP5..TC LMP5..TC 1.000000   LNP5..TC -1.000000
    YTP5..TC T.....TC 1.000000
    KYP5..TD LMP5..TD -60.000000   LNP5..TD 20.000000
    KYP5..TD LY....TD 1.000000   R.P5..TD 4000.000000
    KYP5..TD UPBROW4458 1.000000
    P.P5..TD R.P5..TD -1.000000   FSC..... 1.000000
    YTP5..TD LMP5..TD 1.000000   LNP5..TD -1.000000
    YTP5..TD T.....TD 1.000000
    KYP5..TE LMP5..TE -60.000000   LNP5..TE 20.000000
    KYP5..TE LY....TE 1.000000   R.P5..TE 4000.000000
    KYP5..TE UPBROW4459 1.000000
    P.P5..TE R.P5..TE -1.000000   FSC..... 1.000000
    YTP5..TE LMP5..TE 1.000000   LNP5..TE -1.000000
    YTP5..TE T.....TE 1.000000
    KYP5..TF LMP5..TF -60.000000   LNP5..TF 20.000000
    KYP5..TF LY....TF 1.000000   R.P5..TF 4000.000000
    KYP5..TF UPBROW4460 1.000000
    P.P5..TF R.P5..TF -1.000000   FSC..... 1.000000
    NEGINVAG1TA6575 B...G1TA 1.000000   FIP..... 100.000000
    NEGINVAG1TA6575 B...G1TB -1.000000   UPBROW4366 1.000000
    NEGINVAG2TA6576 B...G2TA 1.000000   FIP..... 100.000000
    NEGINVAG2TA6576 B...G2TB -1.000000   UPBROW4368 1.000000
    NEGINVAG3TA6577 B...G3TA 1.000000   FIP..... 100.000000
    NEGINVAG3TA6577 B...G3TB -1.000000   UPBROW4370 1.000000
    NEGINVAG4TA6578 B...G4TA 1.000000   FIP..... 100.000000
    NEGINVAG4TA6578 B...G4TB -1.000000   UPBROW4372 1.000000
    NEGINVAG1TB6579 B...G1TB 1.000000   FIP..... 87.500000
    NEGINVAG1TB6579 B...G1TC -1.000000   UPBROW4374 1.000000
    NEGINVAG2TB6580 B...G2TB 1.000000   FIP..... 87.500000
    NEGINVAG2TB6580 B...G2TC -1.000000   UPBROW4376 1.000000
    NEGINVAG3TB6581 B...G3TB 1.000000   FIP..... 87.500000
    NEGINVAG3TB6581 B...G3TC -1.000000   UPBROW4378 1.000000
    NEGINVAG4TB6582 B...G4TB 1.000000   FIP..... 87.500000
    NEGINVAG4TB6582 B...G4TC -1.000000   UPBROW4380 1.000000
    NEGINVAG1TC6583 B...G1TC 1.000000   FIP..... 75.000000
    NEGINVAG1TC6583 B...G1TD -1.000000   UPBROW4382 1.000000
    NEGINVAG2TC6584 B...G2TC 1.000000   FIP..... 75.000000
    NEGINVAG2TC6584 B...G2TD -1.000000   UPBROW4384 1.000000
    NEGINVAG3TC6585 B...G3TC 1.000000   FIP..... 75.000000
    NEGINVAG3TC6585 B...G3TD -1.000000   UPBROW4386 1.000000
    NEGINVAG4TC6586 B...G4TC 1.000000   FIP..... 75.000000
    NEGINVAG4TC6586 B...G4TD -1.000000   UPBROW4388 1.000000
    NEGINVAG1TD6587 B...G1TD 1.000000   FIP..... 62.500000
    NEGINVAG1TD6587 B...G1TE -1.000000   UPBROW4390 1.000000
    NEGINVAG2TD6588 B...G2TD 1.000000   FIP..... 62.500000
    NEGINVAG2TD6588 B...G2TE -1.000000   UPBROW4392 1.000000
    NEGINVAG3TD6589 B...G3TD 1.000000   FIP..... 62.500000
    NEGINVAG3TD6589 B...G3TE -1.000000   UPBROW4394 1.000000
    NEGINVAG4TD6590 B...G4TD 1.000000   FIP..... 62.500000
    NEGINVAG4TD6590 B...G4TE -1.000000   UPBROW4396 1.000000
    NEGINVAG1TE6591 B...G1TE 1.000000   FIP..... 50.000000
    NEGINVAG1TE6591 B...G1TF -1.000000   UPBROW4398 1.000000
    NEGINVAG2TE6592 B...G2TE 1.000000   FIP..... 50.000000
    NEGINVAG2TE6592 B...G2TF -1.000000   UPBROW4400 1.000000
    NEGINVAG3TE6593 B...G3TE 1.000000   FIP..... 50.000000
    NEGINVAG3TE6593 B...G3TF -1.000000   UPBROW4402 1.000000
    NEGINVAG4TE6594 B...G4TE 1.000000   FIP..... 50.000000
    NEGINVAG4TE6594 B...G4TF -1.000000   UPBROW4404 1.000000
    NEGINVAG1TF6595 B...G1TF 1.000000   FIP..... 37.500000
    NEGINVAG1TF6595 B...G1TG -1.000000   UPBROW4406 1.000000
    NEGINVAG2TF6596 B...G2TF 1.000000   FIP..... 37.500000
    NEGINVAG2TF6596 B...G2TG -1.000000   UPBROW4408 1.000000
    SLACK6607 LMP1..TA 1.000000
    SLACK6608 LNP1..TA 1.000000
    SLACK6609 LMP1..TB 1.000000
    SLACK6610 LNP1..TB 1.000000
    SLACK6611 R.P1..TB 1.000000
    SLACK6612 LMP1..TC 1.000000
    SLACK6613 LNP1..TC 1.000000
    SLACK6614 LBL1MNTC 1.000000
    SLACK6615 LBL1MXTC 1.000000
    SLACK6616 R.P1..TC 1.000000
    SLACK6617 LMP1..TD 1.000000
    SLACK6618 LNP1..TD 1.000000
    SLACK6619 LBL1MNTD 1.000000
    SLACK6620 LBL1MXTD 1.000000
    SLACK6621 R.P1..TD 1.000000
    SLACK6622 LMP1..TE 1.000000
    SLACK6623 LNP1..TE 1.000000
    SLACK6624 LBL1MNTE 1.000000
    SLACK6625 LBL1MXTE 1.000000
    SLACK6626 R.P1..TE 1.000000
    SLACK6627 LMP1..TF 1.000000
    SLACK6628 LNP1..TF 1.000000
    SLACK6629 LBL1MNTF 1.000000
    SLACK6630 LBL1MXTF 1.000000
    SLACK6631 R.P1..TF 1.000000
    SLACK6632 LMP1..TG 1.000000
    SLACK6633 LNP1..TG 1.000000
    SLACK6634 LBL1MNTG 1.000000
    SLACK6635 LBL1MXTG 1.000000
    SLACK6636 R.P1..TG 1.000000
    SLACK6637 BS.12.TH -1.000000
    SLACK6638 BS.123TH -1.000000
    SLACK6639 BS.124TH -1.000000
    SLACK6640 BS.13.TH -1.000000
    SLACK6641 BS.134TH -1.000000
    SLACK6642 BS.14.TH -1.000000
    SLACK6643 LMP1..TH 1.000000
    SLACK6644 LNP1..TH 1.000000
    SLACK6645 R.P1..TH 1.000000
    SLACK6646 LMP2..TA 1.000000
    SLACK6647 LNP2..TA 1.000000
    SLACK6648 LMP2..TB 1.000000
    SLACK6649 LNP2..TB 1.000000
    SLACK6650 R.P2..TB 1.000000
    SLACK6651 LMP2..TC 1.000000
    SLACK6652 LNP2..TC 1.000000
    SLACK6653 R.P2..TC 1.000000
    SLACK6654 LMP2..TD 1.000000
    SLACK6655 LNP2..TD 1.000000
    SLACK6656 R.P2..TD 1.000000
    SLACK6657 LMP2..TE 1.000000
    SLACK6658 LNP2..TE 1.000000
    SLACK6659 R.P2..TE 1.000000
    SLACK6660 LMP2..TF 1.000000
    SLACK6661 LNP2..TF 1.000000
    SLACK6662 R.P2..TF 1.000000
    SLACK6663 LMP2..TG 1.000000
    SLACK6664 LNP2..TG 1.000000
    SLACK6665 R.P2..TG 1.000000
    SLACK6666 BS.23.TH -1.000000
    SLACK6667 BS.234TH -1.000000
    SLACK6668 BS.24.TH -1.000000
    SLACK6669 LMP2..TH 1.000000
    SLACK6670 LNP2..TH 1.000000
    SLACK6671 R.P2..TH 1.000000
    SLACK6672 LMP3..TA 1.000000
    SLACK6673 LNP3..TA 1.000000
    SLACK6674 LSP3..TA 1.000000
    SLACK6675 LMP3..TB 1.000000
    SLACK6676 LNP3..TB 1.000000
    SLACK6677 LSP3..TB 1.000000
    SLACK6678 R.P3..TB 1.000000
    SLACK6679 LMP3..TC 1.000000
    SLACK6680 LNP3..TC 1.000000
    SLACK6681 LSP3..TC 1.000000
    SLACK6682 R.P3..TC 1.000000
    SLACK6683 LMP3..TD 1.000000
    SLACK6684 LNP3..TD 1.000000
    SLACK6685 LSP3..TD 1.000000
    SLACK6686 R.P3..TD 1.000000
    SLACK6687 LMP3..TE 1.000000
    SLACK6688 LNP3..TE 1.000000
    SLACK6689 LSP3..TE 1.000000
    SLACK6690 R.P3..TE 1.000000
    SLACK6691 LMP3..TF 1.000000
    SLACK6692 LNP3..TF 1.000000
    SLACK6693 LSP3..TF 1.000000
    SLACK6694 R.P3..TF 1.000000
    SLACK6695 LMP3..TG 1.000000
    SLACK6696 LNP3..TG 1.000000
    SLACK6697 LSP3..TG 1.000000
    SLACK6698 R.P3..TG 1.000000
    SLACK6699 BS.34.TH -1.000000
    SLACK6700 LMP3..TH 1.000000
    SLACK6701 LNP3..TH 1.000000
    SLACK6702 LSP3..TH 1.000000
    SLACK6703 R.P3..TH 1.000000
    SLACK6704 LMP4..TA 1.000000
    SLACK6705 LNP4..TA 1.000000
    SLACK6706 LMP4..TB 1.000000
    SLACK6707 LNP4..TB 1.000000
    SLACK6708 R.P4..TB 1.000000
    SLACK6709 LMP4..TC 1.000000
    SLACK6710 LNP4..TC 1.000000
    SLACK6711 R.P4..TC 1.000000
    SLACK6712 LMP4..TD 1.000000
    SLACK6713 LNP4..TD 1.000000
    SLACK6714 R.P4..TD 1.000000
    SLACK6715 LMP4..TE 1.000000
    SLACK6716 LNP4..TE 1.000000
    SLACK6717 R.P4..TE 1.000000
    SLACK6718 LMP4..TF 1.000000
    SLACK6719 LNP4..TF 1.000000
    SLACK6720 R.P4..TF 1.000000
    SLACK6721 LMP4..TG 1.000000
    SLACK6722 LNP4..TG 1.000000
    SLACK6723 R.P4..TG 1.000000
    SLACK6724 LMP4..TH 1.000000
    SLACK6725 LNP4..TH 1.000000
    SLACK6726 R.P4..TH 1.000000
    SLACK6727 LMP5..TA 1.000000
    SLACK6728 LNP5..TA 1.000000
    SLACK6729 LMP5..TB 1.000000
    SLACK6730 LNP5..TB 1.000000
    SLACK6731 R.P5..TB 1.000000
    SLACK6732 LMP5..TC 1.000000
    SLACK6733 LNP5..TC 1.000000
    SLACK6734 R.P5..TC 1.000000
    SLACK6735 LMP5..TD 1.000000
    SLACK6736 LNP5..TD 1.000000
    SLACK6737 R.P5..TD 1.000000
    SLACK6738 LMP5..TE 1.000000
    SLACK6739 LNP5..TE 1.000000
    SLACK6740 R.P5..TE 1.000000
    SLACK6741 LMP5..TF 1.000000
    SLACK6742 LNP5..TF 1.000000
    SLACK6743 R.P5..TF 1.000000
    SLACK6744 LMP5..TG 1.000000
    SLACK6745 LNP5..TG 1.000000
    SLACK6746 R.P5..TG 1.000000
    SLACK6747 LMP5..TH 1.000000
    SLACK6748 LNP5..TH 1.000000
    SLACK6749 R.P5..TH 1.000000
    SLACK6750 UPBROW4333 1.000000
    SLACK6751 LOBROW4334 -1.000000
    SLACK6752 LOBROW4335 -1.000000
    SLACK6753 LOBROW4336 -1.000000
    SLACK6754 LOBROW4337 -1.000000
    SLACK6755 LOBROW4338 -1.000000
    SLACK6756 LOBROW4339 -1.000000
    SLACK6757 LOBROW4340 -1.000000
    SLACK6758 LOBROW4341 -1.000000
    SLACK6759 LOBROW4342 -1.000000
    SLACK6760 LOBROW4343 -1.000000
    SLACK6761 LOBROW4344 -1.000000
    SLACK6762 LOBROW4345 -1.000000
    SLACK6763 LOBROW4346 -1.000000
    SLACK6764 LOBROW4347 -1.000000
    SLACK6765 LOBROW4348 -1.000000
    SLACK6766 LOBROW4349 -1.000000
    SLACK6767 LOBROW4350 -1.000000
    SLACK6768 LOBROW4351 -1.000000
    SLACK6769 LOBROW4352 -1.000000
    SLACK6770 LOBROW4353 -1.000000
    SLACK6771 LOBROW4354 -1.000000
    SLACK6772 LOBROW4355 -1.000000
    SLACK6773 LOBROW4356 -1.000000
    SLACK6774 LOBROW4357 -1.000000
    SLACK6775 LOBROW4358 -1.000000
    SLACK6776 LOBROW4359 -1.000000
    SLACK6777 LOBROW4360 -1.000000
    SLACK6778 LOBROW4361 -1.000000
    SLACK6779 LOBROW4362 -1.000000
    SLACK6780 LOBROW4363 -1.000000
    SLACK6781 LOBROW4364 -1.000000
    SLACK6782 LOBROW4365 -1.000000
    SLACK6783 UPBROW4366 1.000000
    SLACK6784 UPBROW4367 1.000000
    SLACK6785 UPBROW4368 1.000000
    SLACK6786 UPBROW4369 1.000000
    SLACK6787 UPBROW4370 1.000000
    SLACK6788 UPBROW4371 1.000000
    SLACK6789 UPBROW4372 1.000000
    SLACK6790 UPBROW4373 1.000000
    SLACK6791 UPBROW4374 1.000000
    SLACK6792 UPBROW4375 1.000000
    SLACK6793 UPBROW4376 1.000000
    SLACK6794 UPBROW4377 1.000000
    SLACK6795 UPBROW4378 1.000000
    SLACK6796 UPBROW4379 1.000000
    SLACK6797 UPBROW4380 1.000000
    SLACK6798 UPBROW4381 1.000000
    SLACK6799 UPBROW4382 1.000000
    SLACK6800 UPBROW4383 1.000000
    SLACK6801 UPBROW4384 1.000000
    SLACK6802 UPBROW4385 1.000000
    SLACK6803 UPBROW4386 1.000000
    SLACK6804 UPBROW4387 1.000000
    SLACK6805 UPBROW4388 1.000000
    SLACK6806 UPBROW4389 1.000000
    SLACK6807 UPBROW4390 1.000000
    SLACK6808 UPBROW4391 1.000000
    SLACK6809 UPBROW4392 1.000000
    SLACK6810 UPBROW4393 1.000000
    SLACK6811 UPBROW4394 1.000000
    SLACK6812 UPBROW4395 1.000000
    SLACK6813 UPBROW4396 1.000000
    SLACK6814 UPBROW4397 1.000000
    SLACK6815 UPBROW4398 1.000000
    SLACK6816 UPBROW4399 1.000000
    SLACK6817 UPBROW4400 1.000000
    SLACK6818 UPBROW4401 1.000000
    SLACK6819 UPBROW4402 1.000000
    SLACK6820 UPBROW4403 1.000000
    SLACK6821 UPBROW4404 1.000000
    SLACK6822 UPBROW4405 1.000000
    SLACK6823 UPBROW4406 1.000000
    SLACK6824 UPBROW4407 1.000000
    SLACK6825 UPBROW4408 1.000000
    SLACK6826 UPBROW4409 1.000000
    SLACK6827 UPBROW4410 1.000000
    SLACK6828 UPBROW4411 1.000000
    SLACK6829 UPBROW4412 1.000000
    SLACK6830 UPBROW4413 1.000000
    SLACK6831 UPBROW4414 1.000000
    SLACK6832 UPBROW4415 1.000000
    SLACK6833 UPBROW4416 1.000000
    SLACK6834 UPBROW4417 1.000000
    SLACK6835 UPBROW4418 1.000000
    SLACK6836 UPBROW4419 1.000000
    SLACK6837 UPBROW4420 1.000000
    SLACK6838 UPBROW4421 1.000000
    SLACK6839 UPBROW4422 1.000000
    SLACK6840 UPBROW4423 1.000000
    SLACK6841 UPBROW4424 1.000000
    SLACK6842 UPBROW4425 1.000000
    SLACK6843 UPBROW4426 1.000000
    SLACK6844 UPBROW4427 1.000000
    SLACK6845 UPBROW4428 1.000000
    SLACK6846 UPBROW4429 1.000000
    SLACK6847 UPBROW4430 1.000000
    SLACK6848 UPBROW4431 1.000000
    SLACK6849 UPBROW4432 1.000000
    SLACK6850 UPBROW4433 1.000000
    SLACK6851 UPBROW4434 1.000000
    SLACK6852 UPBROW4435 1.000000
    SLACK6853 UPBROW4436 1.000000
    SLACK6854 UPBROW4437 1.000000
    SLACK6855 UPBROW4438 1.000000
    SLACK6856 UPBROW4439 1.000000
    SLACK6857 UPBROW4440 1.000000
    SLACK6858 UPBROW4441 1.000000
    SLACK6859 UPBROW4442 1.000000
    SLACK6860 UPBROW4443 1.000000
    SLACK6861 UPBROW4444 1.000000
    SLACK6862 UPBROW4445 1.000000
    SLACK6863 UPBROW4446 1.000000
    SLACK6864 UPBROW4447 1.000000
    SLACK6865 UPBROW4448 1.000000
    SLACK6866 UPBROW4449 1.000000
    SLACK6867 UPBROW4450 1.000000
    SLACK6868 UPBROW4451 1.000000
    SLACK6869 UPBROW4452 1.000000
    SLACK6870 UPBROW4453 1.000000
    SLACK6871 UPBROW4454 1.000000
    SLACK6872 UPBROW4455 1.000000
    SLACK6873 UPBROW4456 1.000000
    SLACK6874 UPBROW4457 1.000000
    SLACK6875 UPBROW4458 1.000000
    SLACK6876 UPBROW4459 1.000000
    SLACK6877 UPBROW4460 1.000000
    SLACK6878 UPBROW4461 1.000000
RHS
    RHS00001 LY....TA 0.000000
    RHS00001 LY....TB 0.000000
    RHS00001 R.P1..TB 0.000000
    RHS00001 R.P2..TB -3000.000000
    RHS00001 R.P3..TB 4000.000000
    RHS00001 R.P4..TB 0.000000
    RHS00001 R.P5..TB 1500.000000
    RHS00001 LY....TC 0.000000
    RHS00001 R.P1..TC 0.000000
    RHS00001 R.P2..TC 4000.000000
    RHS00001 R.P3..TC 0.000000
    RHS00001 R.P4..TC -3000.000000
    RHS00001 R.P5..TC 2000.000000
    RHS00001 LY....TD 0.000000
    RHS00001 R.P1..TD -3000.000000
    RHS00001 R.P2..TD 0.000000
    RHS00001 R.P3..TD 0.000000
    RHS00001 R.P4..TD 4000.000000
    RHS00001 R.P5..TD 1500.000000
    RHS00001 LY....TE 0.000000
    RHS00001 R.P1..TE 4000.000000
    RHS00001 R.P2..TE 0.000000
    RHS00001 R.P3..TE -3000.000000
    RHS00001 R.P4..TE 0.000000
    RHS00001 R.P5..TE 1500.000000
    RHS00001 LY....TF 0.000000
    RHS00001 R.P1..TF 0.000000
    RHS00001 R.P2..TF -3000.000000
    RHS00001 R.P3..TF 4000.000000
    RHS00001 R.P4..TF 0.000000
    RHS00001 R.P5..TF 1500.000000
    RHS00001 LY....TG 0.000000
    RHS00001 R.P1..TG 0.000000
    RHS00001 R.P2..TG 4000.000000
    RHS00001 R.P3..TG -4000.000000
    RHS00001 R.P4..TG 1000.000000
    RHS00001 R.P5..TG 2000.000000
    RHS00001 LY....TH 0.000000
    RHS00001 R.P1..TH 0.000000
    RHS00001 R.P2..TH 1000.000000
    RHS00001 R.P3..TH 4000.000000
    RHS00001 R.P4..TH 0.000000
    RHS00001 R.P5..TH -2500.000000
    RHS00001 LBL1.... 0.000000
    RHS00001 LBL1MXTC 280.000000
    RHS00001 LBL1MXTD 280.000000
    RHS00001 LBL1MXTE 280.000000
    RHS00001 LBL1MXTF 280.000000
    RHS00001 LBL1MXTG 100.000000
    RHS00001 BS.12.TH 771.282050
    RHS00001 BS.123TH 315.641030
    RHS00001 BS.124TH 337.307690
    RHS00001 BS.13.TH 346.666670
    RHS00001 BS.134TH 261.111110
    RHS00001 BS.14.TH 375.555560
    RHS00001 BS.23.TH 251.282050
    RHS00001 BS.234TH 207.307690
    RHS00001 BS.24.TH 337.948720
    RHS00001 BS.34.TH 202.222220
    BOUNDRHS UPBROW4333 1.000000
    FXIMPLICITRHS LBL1MNTD -0.000000
    FXIMPLICITRHS FIC..... -1109.589040
    FXIMPLICITRHS B...G3TD 0.000000
    FXIMPLICITRHS LBL1MNTE -0.000000
    FXIMPLICITRHS B...G3TE 50.000000
    FXIMPLICITRHS LBL1MNTF -0.000000
    FXIMPLICITRHS B...G3TF 0.000000
    FXIMPLICITRHS LBL1MNTG -100.000000
    FXIMPLICITRHS B...G3TG 350.000000
    FXIMPLICITRHS B...G1TA -1300.000000
    FXIMPLICITRHS B...G2TA -600.000000
    FXIMPLICITRHS B...G3TA -60.000000
    FXIMPLICITRHS B...G4TA -900.000000
    BOUNDRHS LOBROW4334 300.000000
    BOUNDRHS LOBROW4335 100.000000
    BOUNDRHS LOBROW4336 100.000000
    BOUNDRHS LOBROW4337 100.000000
    BOUNDRHS LOBROW4338 300.000000
    BOUNDRHS LOBROW4339 100.000000
    BOUNDRHS LOBROW4340 100.000000
    BOUNDRHS LOBROW4341 100.000000
    BOUNDRHS LOBROW4342 300.000000
    BOUNDRHS LOBROW4343 100.000000
    BOUNDRHS LOBROW4344 100.000000
    BOUNDRHS LOBROW4345 100.000000
    BOUNDRHS LOBROW4346 300.000000
    BOUNDRHS LOBROW4347 100.000000
    BOUNDRHS LOBROW4348 100.000000
    BOUNDRHS LOBROW4349 100.000000
    BOUNDRHS LOBROW4350 300.000000
    BOUNDRHS LOBROW4351 100.000000
    BOUNDRHS LOBROW4352 100.000000
    BOUNDRHS LOBROW4353 100.000000
    BOUNDRHS LOBROW4354 300.000000
    BOUNDRHS LOBROW4355 100.000000
    BOUNDRHS LOBROW4356 100.000000
    BOUNDRHS LOBROW4357 100.000000
    BOUNDRHS LOBROW4358 300.000000
    BOUNDRHS LOBROW4359 100.000000
    BOUNDRHS LOBROW4360 100.000000
    BOUNDRHS LOBROW4361 100.000000
    BOUNDRHS LOBROW4362 300.000000
    BOUNDRHS LOBROW4363 100.000000
    BOUNDRHS LOBROW4364 100.000000
    BOUNDRHS LOBROW4365 100.000000
    BOUNDRHS UPBROW4366 300.000000
    BOUNDRHS UPBROW4367 0.000000
    BOUNDRHS UPBROW4368 100.000000
    BOUNDRHS UPBROW4369 0.000000
    BOUNDRHS UPBROW4370 100.000000
    BOUNDRHS UPBROW4371 0.000000
    BOUNDRHS UPBROW4372 100.000000
    BOUNDRHS UPBROW4373 0.000000
    BOUNDRHS UPBROW4374 300.000000
    BOUNDRHS UPBROW4375 0.000000
    BOUNDRHS UPBROW4376 100.000000
    BOUNDRHS UPBROW4377 0.000000
    BOUNDRHS UPBROW4378 100.000000
    BOUNDRHS UPBROW4379 0.000000
    BOUNDRHS UPBROW4380 100.000000
    BOUNDRHS UPBROW4381 0.000000
    BOUNDRHS UPBROW4382 300.000000
    BOUNDRHS UPBROW4383 0.000000
    BOUNDRHS UPBROW4384 100.000000
    BOUNDRHS UPBROW4385 0.000000
    BOUNDRHS UPBROW4386 100.000000
    BOUNDRHS UPBROW4387 0.000000
    BOUNDRHS UPBROW4388 100.000000
    BOUNDRHS UPBROW4389 0.000000
    BOUNDRHS UPBROW4390 300.000000
    BOUNDRHS UPBROW4391 0.000000
    BOUNDRHS UPBROW4392 100.000000
    BOUNDRHS UPBROW4393 0.000000
    BOUNDRHS UPBROW4394 100.000000
    BOUNDRHS UPBROW4395 0.000000
    BOUNDRHS UPBROW4396 100.000000
    BOUNDRHS UPBROW4397 0.000000
    BOUNDRHS UPBROW4398 300.000000
    BOUNDRHS UPBROW4399 0.000000
    BOUNDRHS UPBROW4400 100.000000
    BOUNDRHS UPBROW4401 0.000000
    BOUNDRHS UPBROW4402 100.000000
    BOUNDRHS UPBROW4403 0.000000
    BOUNDRHS UPBROW4404 100.000000
    BOUNDRHS UPBROW4405 0.000000
    BOUNDRHS UPBROW4406 300.000000
    BOUNDRHS UPBROW4407 0.000000
    BOUNDRHS UPBROW4408 100.000000
    BOUNDRHS UPBROW4409 0.000000
    BOUNDRHS UPBROW4410 100.000000
    BOUNDRHS UPBROW4411 0.000000
    BOUNDRHS UPBROW4412 100.000000
    BOUNDRHS UPBROW4413 0.000000
    BOUNDRHS UPBROW4414 300.000000
    BOUNDRHS UPBROW4415 0.000000
    BOUNDRHS UPBROW4416 100.000000
    BOUNDRHS UPBROW4417 0.000000
    BOUNDRHS UPBROW4418 100.000000
    BOUNDRHS UPBROW4419 0.000000
    BOUNDRHS UPBROW4420 100.000000
    BOUNDRHS UPBROW4421 0.000000
    BOUNDRHS UPBROW4422 300.000000
    BOUNDRHS UPBROW4423 0.000000
    BOUNDRHS UPBROW4424 100.000000
    BOUNDRHS UPBROW4425 0.000000
    BOUNDRHS UPBROW4426 100.000000
    BOUNDRHS UPBROW4427 0.000000
    BOUNDRHS UPBROW4428 100.000000
    BOUNDRHS UPBROW4429 0.000000
    FXIMPLICITRHS T.....TA -0.000000
    FXIMPLICITRHS B...G1TH 1800.000000
    FXIMPLICITRHS B...G2TH 2340.000000
    FXIMPLICITRHS B...G3TH 4500.000000
    FXIMPLICITRHS B...G4TH 2160.000000
    FXIMPLICITRHS T.....TH 180.000000
    BOUNDRHS UPBROW4430 1.000000
    BOUNDRHS UPBROW4431 1.000000
    BOUNDRHS UPBROW4432 1.000000
    FXIMPLICITRHS B...G1TD 50.000000
    FXIMPLICITRHS LMP1..TD 60.000000
    FXIMPLICITRHS LNP1..TD -15.000000
    BOUNDRHS UPBROW4433 1.000000
    BOUNDRHS UPBROW4434 1.000000
    BOUNDRHS UPBROW4435 1.000000
    BOUNDRHS UPBROW4436 1.000000
    BOUNDRHS UPBROW4437 1.000000
    FXIMPLICITRHS B...G2TB 20.000000
    FXIMPLICITRHS LMP2..TB 60.000000
    FXIMPLICITRHS LNP2..TB -5.000000
    FXIMPLICITRHS LSP3..TA 0.000000
    FXIMPLICITRHS LSP3..TC 1.000000
    BOUNDRHS UPBROW4438 1.000000
    BOUNDRHS UPBROW4439 1.000000
    BOUNDRHS UPBROW4440 1.000000
    FXIMPLICITRHS B...G2TF 20.000000
    FXIMPLICITRHS LMP2..TF 60.000000
    FXIMPLICITRHS LNP2..TF -5.000000
    FXIMPLICITRHS LSP3..TE 0.000000
    FXIMPLICITRHS LSP3..TG 0.000000
    BOUNDRHS UPBROW4441 1.000000
    BOUNDRHS UPBROW4442 1.000000
    FXIMPLICITRHS LMP3..TA 60.000000
    FXIMPLICITRHS LNP3..TA -15.000000
    BOUNDRHS UPBROW4443 1.000000
    BOUNDRHS UPBROW4444 1.000000
    BOUNDRHS UPBROW4445 1.000000
    FXIMPLICITRHS LMP3..TE 60.000000
    FXIMPLICITRHS LNP3..TE -15.000000
    BOUNDRHS UPBROW4446 1.000000
    FXIMPLICITRHS LMP3..TG 60.000000
    FXIMPLICITRHS LNP3..TG -15.000000
    BOUNDRHS UPBROW4447 1.000000
    BOUNDRHS UPBROW4448 1.000000
    BOUNDRHS UPBROW4449 1.000000
    FXIMPLICITRHS B...G4TC 50.000000
    FXIMPLICITRHS LMP4..TC 60.000000
    FXIMPLICITRHS LNP4..TC -15.000000
    BOUNDRHS UPBROW4450 1.000000
    BOUNDRHS UPBROW4451 1.000000
    BOUNDRHS UPBROW4452 1.000000
    BOUNDRHS UPBROW4453 1.000000
    BOUNDRHS UPBROW4454 1.000000
    BOUNDRHS UPBROW4455 1.000000
    BOUNDRHS UPBROW4456 1.000000
    BOUNDRHS UPBROW4457 1.000000
    BOUNDRHS UPBROW4458 1.000000
    BOUNDRHS UPBROW4459 1.000000
    BOUNDRHS UPBROW4460 1.000000
    BOUNDRHS UPBROW4461 1.000000
    FXIMPLICITRHS LMP5..TH 60.000000
    FXIMPLICITRHS LNP5..TH -20.000000
BOUNDS
ENDATA
